(written by ASE)

64 atoms
2 atom types

0.0      11.085848808288574  xlo xhi
0.0      11.085848808288574  ylo yhi
0.0      11.085848808288574  zlo zhi

Atoms # atomic

     1   1      5.5429244041442871      5.5429244041442871      5.5429244041442871
     2   2      4.1571933031082153      4.1571933031082153      4.1571933031082153
     3   2      6.9286555051803589      4.1571933031082153      6.9286555051803589
     4   2      6.9286555051803589      6.9286555051803589      4.1571933031082153
     5   2      4.1571933031082153      6.9286555051803589      6.9286555051803589
     6   2     0.72659817399493676      8.0746374805863752      11.015443308569672
     7   1      8.1502623873711855      6.8600320969738959      10.910692405575446
     8   2     0.87662432767594112       5.062919013382583      11.054134583508812
     9   1     0.68627529747363525      5.4849357278054356      7.7859888739453709
    10   1      10.320516822409331      2.7579402440778722      5.6243508546737075
    11   1      7.7755619536389986      8.4713130783634938      2.5926185482791908
    12   2      4.9665089858653744      1.4254971152577411      4.2194855619537464
    13   1      2.9518337168586584      1.6617421877582217      4.3685591358510578
    14   2      10.222620727479637     0.71559836776298624      11.039616187249521
    15   2      8.7841709059287609      6.6397016236862783      1.5952357152888652
    16   2      1.7378819980695681     0.77343481965534977      8.6042860468333515
    17   1      3.5288530771629212      5.9299415548923662      4.0680774944289055
    18   2      7.7478420719043584     0.80528995322822539      6.9690621340558323
    19   1      8.7151246061509369      4.7570914278071541       3.945799057337922
    20   1      10.988396749508809      6.3747316412010946     0.34498102648869988
    21   2       4.152614510696111      2.2245931936937069      10.534863379962189
    22   1       5.220811198078934      9.3630235672716822    0.099478634481897643
    23   2      2.6211480361041595       7.115997132061409      3.9423062372657114
    24   1      9.4342834401183495      3.5051460399796497      9.2550857798264019
    25   1      8.4585754520804812      1.2501291015669125      1.6113720021926525
    26   1      6.6658931488512962      2.0935087003972086      10.652296404720687
    27   2      9.2335070766296212      9.0200908805337576      9.1297539334365752
    28   1      9.8255480080862867      9.3072937266151712       10.17553968022554
    29   1       3.626515590576247       4.261215709293964      6.6132391836083571
    30   1      1.2889135448053679      10.951157842810062      7.0970806634599626
    31   2      4.7274625870886666      5.1594939025358144      3.1621958428875985
    32   2      7.9127294778822943      2.3564615231254038      1.6977613165808236
    33   1      2.4836298092022702      4.6244369495519777      10.707868321806018
    34   1      4.2223899680504928      7.2250225437667837      8.8019171542600816
    35   1      1.7136260278036275      8.3285732968994353      9.2938292554438817
    36   2       5.404267508648104      7.4903077126262474      10.896774647501104
    37   1      8.7480460542133187     0.57130272525796499      5.6296264270264373
    38   2      2.3710336067912152      9.1749042163601757       7.544251497161838
    39   1      9.9009779882874227      7.6850730688889257      7.5908825613532827
    40   1      6.1790841595512802      2.0653887235899759       6.044317205743539
    41   1     0.53674918003736138      2.9998398394251069      2.6371670366737021
    42   2      1.7728927948017059      1.8763814655706312      2.7614599904493531
    43   1       1.091214543458392       7.050211061991547      5.4167755180232291
    44   2      10.377226582128856     0.48158483296353083      5.4684921837443312
    45   1      3.9762637696779279       1.052103267808242      9.4722108671567185
    46   1      3.8920630843635706      8.9720352003612902      6.6101428243842975
    47   2      10.026609823385684      3.6570876777292938       3.907501269790572
    48   2        3.63510722753972       9.857985113145844      1.6206062361141704
    49   1      7.5986089225156661      10.685094949920142       8.598536042999001
    50   1      10.609590963694018      10.799308712591653      3.9687412554683021
    51   1      10.748958845644552      1.5946722453084305      9.6861536954125427
    52   1      7.2043649512738739      4.6355312456194042      6.9952074054552327
    53   1      2.7167819915111124      8.4267905251161324      1.9079541207891992
    54   1      2.1920383067238447     0.18359788013036393      1.2123479520623093
    55   2      6.1120545239543844     0.41279470471081936      9.9351542349342026
    56   1       5.278375991694304      10.036362760250199      3.4013945487068042
    57   1      6.1492491591917542      3.1225583480575381      3.4699733550678502
    58   2        10.1100205604601       3.155272645326761      8.5029856747541999
    59   2      8.8123229299878858      10.763709832268091      3.1380523683873207
    60   2      3.2922558152756665      5.6046302313185947      8.7937738484390593
    61   2     0.23184501785408429      6.6117815292233217      6.9696449315026143
    62   2      8.1603747820713579      4.9871612922136421      9.5362359902927096
    63   2      6.4355229653523338      8.7880515968640793      3.7507911991897913
    64   1      5.0209579275983174      6.2421399359135421        1.49744336094777

Velocities

     1                       0                       0                       0
     2                       0                       0                       0
     3                       0                       0                       0
     4                       0                       0                       0
     5                       0                       0                       0
     6                       0                       0                       0
     7                       0                       0                       0
     8                       0                       0                       0
     9                       0                       0                       0
    10                       0                       0                       0
    11                       0                       0                       0
    12                       0                       0                       0
    13                       0                       0                       0
    14                       0                       0                       0
    15                       0                       0                       0
    16                       0                       0                       0
    17                       0                       0                       0
    18                       0                       0                       0
    19                       0                       0                       0
    20                       0                       0                       0
    21                       0                       0                       0
    22                       0                       0                       0
    23                       0                       0                       0
    24                       0                       0                       0
    25                       0                       0                       0
    26                       0                       0                       0
    27                       0                       0                       0
    28                       0                       0                       0
    29                       0                       0                       0
    30                       0                       0                       0
    31                       0                       0                       0
    32                       0                       0                       0
    33                       0                       0                       0
    34                       0                       0                       0
    35                       0                       0                       0
    36                       0                       0                       0
    37                       0                       0                       0
    38                       0                       0                       0
    39                       0                       0                       0
    40                       0                       0                       0
    41                       0                       0                       0
    42                       0                       0                       0
    43                       0                       0                       0
    44                       0                       0                       0
    45                       0                       0                       0
    46                       0                       0                       0
    47                       0                       0                       0
    48                       0                       0                       0
    49                       0                       0                       0
    50                       0                       0                       0
    51                       0                       0                       0
    52                       0                       0                       0
    53                       0                       0                       0
    54                       0                       0                       0
    55                       0                       0                       0
    56                       0                       0                       0
    57                       0                       0                       0
    58                       0                       0                       0
    59                       0                       0                       0
    60                       0                       0                       0
    61                       0                       0                       0
    62                       0                       0                       0
    63                       0                       0                       0
    64                       0                       0                       0
