(written by ASE)

64 atoms
2 atom types

0.0      11.085848808288574  xlo xhi
0.0      11.085848808288574  ylo yhi
0.0      11.085848808288574  zlo zhi

Atoms # atomic

     1   1      5.5429244041442871      5.5429244041442871      5.5429244041442871
     2   2      4.1571933031082153      4.1571933031082153      4.1571933031082153
     3   2      6.9286555051803589      4.1571933031082153      6.9286555051803589
     4   2      6.9286555051803589      6.9286555051803589      4.1571933031082153
     5   2      4.1571933031082153      6.9286555051803589      6.9286555051803589
     6   1      4.4588084921720395      3.0833847124198144      7.7374488507700789
     7   2      5.9878268210266583      7.2606438902050741      9.6701115679601912
     8   2      11.037225528335171      4.2912690935040132      7.5336038803166616
     9   2      6.4735951006002779       9.651466014271648      1.0421409500582968
    10   2      8.9250493037107503      2.0147124372112302      6.7678906312551135
    11   1      6.9676038189027167      10.817842596474634      8.6435376531045449
    12   2    0.015444225260234923      2.2445883661861643      9.4574823466479074
    13   1      1.7336702623260436      8.9852822788341769      5.1679913800478516
    14   2     0.75853400386961312       1.144513913923717      3.8994177634808125
    15   1      8.0279978264098872      8.1733529279355821      5.4904914658241921
    16   1      1.6713258028021727     0.63566112329443314      7.2542450121159163
    17   1      7.5205768376144988      5.7901203860387795      7.7032739256594596
    18   1      7.0113691319301097      8.6637948201408221      10.490448531911909
    19   1      10.074341727198828      8.1624006970054097      8.1838796242220724
    20   1      1.8872406933935082      8.2183201781009529      11.002068701857297
    21   2      2.7015978714109679      1.4720819256835682      6.4357601810931442
    22   2     0.71554228507217488      10.103267510679927       6.259876272723659
    23   1      7.3568907080064605      1.9971313808999724      10.501099452597487
    24   2      6.1272105614111183      3.8593877724110826     0.87754717289602269
    25   1      1.5510542835629337      5.8286550589428998      2.2852887064733096
    26   2      8.8457379718062157      6.8373908787040705      6.8169249089544337
    27   1      4.9559482600227511      2.7890753056352935      2.4620732417361779
    28   2      6.0650818426654496      1.0601145852052341      9.2264857550088664
    29   2      0.5695960026046798      9.8637219016185895      1.3847286332623199
    30   1      4.2834852455186478       7.849690881490119      2.1605890499442637
    31   1      10.674257692635933      6.1128679294611743       10.61090919601412
    32   2      6.1186965646970748      9.8816102150871643      7.1565815075504702
    33   2        8.52272546038364      6.5027957636027622     0.65418398061007466
    34   1      8.1081721214272306      4.3161668347678983      1.0883557303591829
    35   1       4.169303860483069    0.056162643749075869      5.3497211036233239
    36   2      3.2031248089305109      10.030396024485526      3.8107364098142682
    37   1      10.323263635318938      2.7049887680067997      2.4935796549547007
    38   1      1.2815681990372596      3.3366852002237124      10.620552445377314
    39   1      7.1843020500531907      3.3878587145828476      4.9507450417748089
    40   2      8.1618793509900911      3.9795220170816492      3.3959590704786535
    41   2      3.2814961982408875      6.6266223803057756      1.1647785146008971
    42   1      7.0432611033234593     0.36789584404175457      2.2541901523523222
    43   1      10.675599712606925     0.21470211272704098      4.7855127148589816
    44   1      9.5470633360557144     0.16322293118378184     0.25247419731954324
    45   1      7.6660753258136083      6.3914543597761053      3.5766477539436892
    46   1      4.8739178674679806      8.7581531627688491      8.3451579149456734
    47   1      2.4606608499646399      2.0844332160069712      5.0556228122404434
    48   2     0.73557644288136714      7.2248732101806468      4.2347106496748665
    49   1      4.8674066588051801     0.23295760675821064      9.7401576098434361
    50   2      4.4416975723498808      9.5758893435566961      9.4154627828885396
    51   2     0.67189950322566361      6.8874434000150586      9.5505858906915364
    52   2      5.8905762965113695      1.5364151319369768      3.7595377862680834
    53   1       10.25785750689522       5.628816986128129      6.0343078908638859
    54   1      3.5234869795831969      6.0562757864599348     0.15519459900872334
    55   2      8.8833455870937428      2.0310045001899368     0.24499574808126923
    56   1      2.1210780922015715      10.396330708865094      3.0447651308173818
    57   2      0.3708980438143783      4.3438067635648281     0.71096910918875267
    58   2      8.4104603027807912      9.9070788599723869      9.5930428829200309
    59   1      10.190915753452998      2.9400591600526127      8.1018736800862712
    60   2      9.2742916648469986      10.203981781471896      3.9449496399707584
    61   2      3.4335908038011098      1.5745465711201234      1.0565666735943324
    62   1       10.66941822721617      9.0695229406173894      2.7638035696379859
    63   1      1.8442194052244787      5.3015141075604788       8.320642758400254
    64   2       2.943800428922998      4.2057389428121894      9.4706540975596454

Velocities

     1                       0                       0                       0
     2                       0                       0                       0
     3                       0                       0                       0
     4                       0                       0                       0
     5                       0                       0                       0
     6                       0                       0                       0
     7                       0                       0                       0
     8                       0                       0                       0
     9                       0                       0                       0
    10                       0                       0                       0
    11                       0                       0                       0
    12                       0                       0                       0
    13                       0                       0                       0
    14                       0                       0                       0
    15                       0                       0                       0
    16                       0                       0                       0
    17                       0                       0                       0
    18                       0                       0                       0
    19                       0                       0                       0
    20                       0                       0                       0
    21                       0                       0                       0
    22                       0                       0                       0
    23                       0                       0                       0
    24                       0                       0                       0
    25                       0                       0                       0
    26                       0                       0                       0
    27                       0                       0                       0
    28                       0                       0                       0
    29                       0                       0                       0
    30                       0                       0                       0
    31                       0                       0                       0
    32                       0                       0                       0
    33                       0                       0                       0
    34                       0                       0                       0
    35                       0                       0                       0
    36                       0                       0                       0
    37                       0                       0                       0
    38                       0                       0                       0
    39                       0                       0                       0
    40                       0                       0                       0
    41                       0                       0                       0
    42                       0                       0                       0
    43                       0                       0                       0
    44                       0                       0                       0
    45                       0                       0                       0
    46                       0                       0                       0
    47                       0                       0                       0
    48                       0                       0                       0
    49                       0                       0                       0
    50                       0                       0                       0
    51                       0                       0                       0
    52                       0                       0                       0
    53                       0                       0                       0
    54                       0                       0                       0
    55                       0                       0                       0
    56                       0                       0                       0
    57                       0                       0                       0
    58                       0                       0                       0
    59                       0                       0                       0
    60                       0                       0                       0
    61                       0                       0                       0
    62                       0                       0                       0
    63                       0                       0                       0
    64                       0                       0                       0
