(written by ASE)

64 atoms
2 atom types

0.0      11.085848808288574  xlo xhi
0.0      11.085848808288574  ylo yhi
0.0      11.085848808288574  zlo zhi

Atoms # atomic

     1   1      5.5429244041442871      5.5429244041442871      5.5429244041442871
     2   2      4.1571933031082153      4.1571933031082153      4.1571933031082153
     3   2      6.9286555051803589      4.1571933031082153      6.9286555051803589
     4   2      6.9286555051803589      6.9286555051803589      4.1571933031082153
     5   2      4.1571933031082153      6.9286555051803589      6.9286555051803589
     6   2     0.65493709102954156      6.3979312084987328      9.4918323752997935
     7   2      10.718858877284845      2.3180101069993952      9.5308665888725841
     8   2      9.4798130039200146      10.129461678917266      7.8983848636281095
     9   1      3.6101526602209333       3.791523917112869      9.1139899893460097
    10   1      6.7779316630026187      4.9053436669807127     0.47141296913613573
    11   1      3.6651199745128338      11.061730112591306      5.7186708727530799
    12   1      10.357757711412319      8.5532384087935043      6.9374846882686825
    13   1     0.99734756449404216      2.7694924524249132      6.7014252915987527
    14   1      4.4713009734972786      8.0021267737637913      10.392792956563426
    15   2       4.471819015672196      6.5498616131910126      1.1366176527686989
    16   1     0.76516720683923012      4.2051343400187591      9.6741521647709305
    17   1      9.8003357412162018      6.7799027341860096      10.907144741752575
    18   1      1.8871721387051821      4.1194650976460423       4.322662845764853
    19   1      9.5080218540340411      4.5065169387183346      6.6611633709328544
    20   2      11.082918301852658      3.3092953721451579      5.2883096486287684
    21   1       8.852374726404264      1.7712012285162615      10.240860569566905
    22   1      5.7626634900000795      1.1677350387799734      10.639515167744378
    23   1      8.8332540804660198      7.2579525818142088      4.8478208321384386
    24   2      2.8232079415887767      10.192471862281991      3.6786690239983955
    25   1      9.3393773207517938      1.8585754177280478      4.2853069831159019
    26   1       6.872568849760512      10.976894098767787      4.3599532923738593
    27   2      9.1672181620506876       6.749176357686224      6.7754980541630516
    28   2      4.3626191611936349      1.1348218503185947      1.3989007044515489
    29   2      7.1903176826558024        9.87902661189338      2.9741366218713949
    30   1     0.41041288356954198      10.381756147318981      3.0501325499332665
    31   2      2.6772551753344942      9.4906747096231925      10.711302994287166
    32   2      7.7810985293834278      1.0882974175761007      5.3521444705576471
    33   1      8.9849803078215018      3.6020899681057017      2.4360037934739864
    34   2      7.8239810562556045      5.8002473176367175      10.207069550710912
    35   2      4.8853957394059933      10.502326498922514      5.7232599070704282
    36   1     0.92956993943030142      8.9620946053619832      10.768528153109287
    37   1      6.0107759572218811      7.6102001161794419      2.9997159454100597
    38   2      8.1642237561388242        0.21282926884858      10.576199048758497
    39   2      10.964819222869266      8.2532305380848925      4.3164608765636103
    40   2      2.0082162610222554     0.54997119062120348      7.8769469040324225
    41   1      8.6508497126806105      10.064929746663722      1.2485750576381704
    42   1      4.7640922656174212      8.2559978348049867       6.896852076709763
    43   1      3.5697314944476943      5.8368010078362431      1.2016855505313373
    44   2      10.622686726276527      1.2671188530423549      2.6585754268977979
    45   2      5.4098189516743389      2.1224110266114593      9.1064486432460967
    46   1      6.5761628258573523      5.1575139109833401      4.5161839757324174
    47   1      2.3256700609697134      8.2112902664951548       3.998751689753135
    48   1      2.8176076017246032      10.268168132019468      1.8330707609824515
    49   1      2.0984112691686363      6.4571611376763371      8.0487809648380448
    50   1      6.9839208258764529      2.6274613447269246      6.9631416520567768
    51   1      7.7588365919916669      10.129105524922011      8.6794444513535041
    52   2      9.7129755933261208      5.7389927950612218      2.0735840648973181
    53   1      10.739995526635937     0.76386970611764582      8.8361085985727073
    54   1      1.2867418479136106      1.5697751648126257     0.95315622124690691
    55   2      7.0420089478113823      3.4953045601923804      2.3678387931231981
    56   2      6.0254773862394018      8.2604282847830746      8.6289260885459385
    57   1      5.1085628900621316      2.7350276153190833      2.9939286081791749
    58   2      2.4374703682281051      3.6071755696353591      10.867964498434048
    59   1      7.7350344042048391       6.348974240664802      8.4494892302089397
    60   1    0.032564669434800297      6.6347709722714399      2.9832935459275234
    61   2      10.153022686354802      8.9240601338946135     0.52335119865414725
    62   2      3.7276342514333294      5.2468692480917412      8.0741537983516309
    63   1      2.3687111721811505      10.710020443443398      8.7254035144073328
    64   2      2.3794942464827784      6.0228488508161604      3.1887564070254371

Velocities

     1                       0                       0                       0
     2                       0                       0                       0
     3                       0                       0                       0
     4                       0                       0                       0
     5                       0                       0                       0
     6                       0                       0                       0
     7                       0                       0                       0
     8                       0                       0                       0
     9                       0                       0                       0
    10                       0                       0                       0
    11                       0                       0                       0
    12                       0                       0                       0
    13                       0                       0                       0
    14                       0                       0                       0
    15                       0                       0                       0
    16                       0                       0                       0
    17                       0                       0                       0
    18                       0                       0                       0
    19                       0                       0                       0
    20                       0                       0                       0
    21                       0                       0                       0
    22                       0                       0                       0
    23                       0                       0                       0
    24                       0                       0                       0
    25                       0                       0                       0
    26                       0                       0                       0
    27                       0                       0                       0
    28                       0                       0                       0
    29                       0                       0                       0
    30                       0                       0                       0
    31                       0                       0                       0
    32                       0                       0                       0
    33                       0                       0                       0
    34                       0                       0                       0
    35                       0                       0                       0
    36                       0                       0                       0
    37                       0                       0                       0
    38                       0                       0                       0
    39                       0                       0                       0
    40                       0                       0                       0
    41                       0                       0                       0
    42                       0                       0                       0
    43                       0                       0                       0
    44                       0                       0                       0
    45                       0                       0                       0
    46                       0                       0                       0
    47                       0                       0                       0
    48                       0                       0                       0
    49                       0                       0                       0
    50                       0                       0                       0
    51                       0                       0                       0
    52                       0                       0                       0
    53                       0                       0                       0
    54                       0                       0                       0
    55                       0                       0                       0
    56                       0                       0                       0
    57                       0                       0                       0
    58                       0                       0                       0
    59                       0                       0                       0
    60                       0                       0                       0
    61                       0                       0                       0
    62                       0                       0                       0
    63                       0                       0                       0
    64                       0                       0                       0
