(written by ASE)

8 atoms
1 atom types

0.0       5.443702220916748  xlo xhi
0.0       5.443702220916748  ylo yhi
0.0       5.443702220916748  zlo zhi

Atoms # atomic

     1   1       2.721851110458374       2.721851110458374       2.721851110458374
     2   1       1.360925555229187       1.360925555229187       1.360925555229187
     3   1       4.082776665687561       1.360925555229187       4.082776665687561
     4   1       4.082776665687561       4.082776665687561       1.360925555229187
     5   1       1.360925555229187       4.082776665687561       4.082776665687561
     6   1      2.7256811535963834  0.00020648380369315752      5.4419873972989592
     7   1       5.427640959028281      2.7031691048876212    0.018836943768119618
     8   1  0.00042015410950970583      5.4257492992947505      2.7274131741208407

Velocities

     1                       0                       0                       0
     2                       0                       0                       0
     3                       0                       0                       0
     4                       0                       0                       0
     5                       0                       0                       0
     6                       0                       0                       0
     7                       0                       0                       0
     8                       0                       0                       0
