(written by ASE)

8 atoms
1 atom types

0.0       5.443702220916748  xlo xhi
0.0       5.443702220916748  ylo yhi
0.0       5.443702220916748  zlo zhi

Atoms # atomic

     1   1       2.721851110458374       2.721851110458374       2.721851110458374
     2   1       1.360925555229187       1.360925555229187       1.360925555229187
     3   1       4.082776665687561       1.360925555229187       4.082776665687561
     4   1       4.082776665687561       4.082776665687561       1.360925555229187
     5   1       1.360925555229187       4.082776665687561       4.082776665687561
     6   1    0.011779121858940367      5.4120949553999935      2.7427661181365295
     7   1   0.0059251791098355322      2.7077721976508684   0.0013523894305419448
     8   1      2.7363143579064229      5.4420834404003529    0.012244842685435464

Velocities

     1                       0                       0                       0
     2                       0                       0                       0
     3                       0                       0                       0
     4                       0                       0                       0
     5                       0                       0                       0
     6                       0                       0                       0
     7                       0                       0                       0
     8                       0                       0                       0
