(written by ASE)

8 atoms
1 atom types

0.0       5.443702220916748  xlo xhi
0.0       5.443702220916748  ylo yhi
0.0       5.443702220916748  zlo zhi

Atoms # atomic

     1   1       2.721851110458374       2.721851110458374       2.721851110458374
     2   1       1.360925555229187       1.360925555229187       1.360925555229187
     3   1       4.082776665687561       4.082776665687561       1.360925555229187
     4   1       4.082776665687561       1.360925555229187       4.082776665687561
     5   1       1.360925555229187       4.082776665687561       4.082776665687561
     6   1     0.01492360945073834      2.7107091372868979    0.016456263478193733
     7   1      2.7227583284026196    0.016407125294627289      5.4302801974969839
     8   1      5.4261237376022109       5.438955550206316      2.7145534571021415

Velocities

     1                       0                       0                       0
     2                       0                       0                       0
     3                       0                       0                       0
     4                       0                       0                       0
     5                       0                       0                       0
     6                       0                       0                       0
     7                       0                       0                       0
     8                       0                       0                       0
