(written by ASE)

8 atoms
1 atom types

0.0       5.443702220916748  xlo xhi
0.0       5.443702220916748  ylo yhi
0.0       5.443702220916748  zlo zhi

Atoms # atomic

     1   1       3.187170202612549      3.0149960709276797      1.1029082779771286
     2   1      4.6785729068445221      4.1530526359630642      2.5500789970256221
     3   1     0.56131433423210808      2.8621282249726221      3.8534552663237776
     4   1      3.1464998428115791     0.14351305319735275      3.7260206719215603
     5   1     0.34399880924743798      0.2592880637608701       1.018232007421382
     6   1      1.8080817937120344      1.5295819460905449      2.3938757623517262
     7   1       1.771727046310005      4.3656852485799504      5.1570161590161661
     8   1      4.4569417694609115      1.5843703173264458      5.0907898980261166

Velocities

     1                       0                       0                       0
     2                       0                       0                       0
     3                       0                       0                       0
     4                       0                       0                       0
     5                       0                       0                       0
     6                       0                       0                       0
     7                       0                       0                       0
     8                       0                       0                       0
