(written by ASE)

8 atoms
1 atom types

0.0       5.443702220916748  xlo xhi
0.0       5.443702220916748  ylo yhi
0.0       5.443702220916748  zlo zhi

Atoms # atomic

     1   1      4.0571383491344477         3.2307478130503      0.2734110030829715
     2   1    0.086842492694211515      4.6606251767415188      1.4566868544824416
     3   1      2.7756547154350528      1.8579841343995014      1.5823775852074959
     4   1      1.5281060945814602     0.55999057800605812    0.093877254423561318
     5   1    0.052118627523264127      1.9548867566566486      4.2660152222289298
     6   1      1.3895827400774579       3.256482172704807      2.8018005029698543
     7   1      4.2026942650560386     0.51039376632315125      2.9403121765561195
     8   1      2.7930034740340943       4.578867188800416      4.1989261956760231

Velocities

     1                       0                       0                       0
     2                       0                       0                       0
     3                       0                       0                       0
     4                       0                       0                       0
     5                       0                       0                       0
     6                       0                       0                       0
     7                       0                       0                       0
     8                       0                       0                       0
