(written by ASE)

8 atoms
1 atom types

0.0       5.443702220916748  xlo xhi
0.0       5.443702220916748  ylo yhi
0.0       5.443702220916748  zlo zhi

Atoms # atomic

     1   1      1.3226968317052012      3.0044572873693483       3.202028005504161
     2   1       4.075770710804818      0.2367447037031738      3.1616048917952924
     3   1      4.2037779946460887      2.8308418602236998     0.54076861390116093
     4   1      1.4558541023887699     0.11114872833945011     0.44553741740771002
     5   1     0.13310704882111057        1.47538751707458      1.7967019840766341
     6   1      2.8162838675540058      1.6243424178226888      4.6064474579273167
     7   1   0.0096421647541224398      4.3173440949950361      4.5816761250462434
     8   1      2.7590051895505496      4.1980355256985717      1.9267190347085545

Velocities

     1                       0                       0                       0
     2                       0                       0                       0
     3                       0                       0                       0
     4                       0                       0                       0
     5                       0                       0                       0
     6                       0                       0                       0
     7                       0                       0                       0
     8                       0                       0                       0
