(written by ASE)

8 atoms
1 atom types

0.0       5.443702220916748  xlo xhi
0.0       5.443702220916748  ylo yhi
0.0       5.443702220916748  zlo zhi

Atoms # atomic

     1   1      3.0176583467619196      1.6576567196787408      2.0250309921376726
     2   1      1.6195152785678459     0.31651190634494952      3.3188264753669046
     3   1      4.3556565317628042      3.0218225939351839      3.3218145190180337
     4   1      4.2442942312269167     0.22458486833888713     0.50655719322765691
     5   1      2.8834686127383691      4.3105571573198631      4.7019321465591588
     6   1      1.5928441742048136      2.9779104549922408     0.62746077561762093
     7   1     0.24240605516640557      4.3885892569727787      1.9873243407425463
     8   1     0.21602600033698849      1.6204455338776285      4.7723615911149295

Velocities

     1                       0                       0                       0
     2                       0                       0                       0
     3                       0                       0                       0
     4                       0                       0                       0
     5                       0                       0                       0
     6                       0                       0                       0
     7                       0                       0                       0
     8                       0                       0                       0
