(written by ASE)

8 atoms
1 atom types

0.0       5.443702220916748  xlo xhi
0.0       5.443702220916748  ylo yhi
0.0       5.443702220916748  zlo zhi

Atoms # atomic

     1   1     0.50936669729587436      4.1440777975017511      2.3084147612530046
     2   1    0.014048754847801215      5.2573017048379427      5.4163880171383028
     3   1      1.4132667741991725      2.9652674838915516       3.973471829023083
     4   1      4.1519264008112486      2.8477782175326354      1.5371276567137215
     5   1      1.5505501668383914      1.8228618860537011     0.55896715926557405
     6   1      2.4574986388011268     0.40767968469810256      2.2531912758313979
     7   1      3.1400983754217293      4.3082232450620097      4.8368107302592591
     8   1      4.6295828133853263      1.2263651143024532      3.7433389303465106

Velocities

     1                       0                       0                       0
     2                       0                       0                       0
     3                       0                       0                       0
     4                       0                       0                       0
     5                       0                       0                       0
     6                       0                       0                       0
     7                       0                       0                       0
     8                       0                       0                       0
