(written by ASE)

64 atoms
1 atom types

0.0      10.887404441833496  xlo xhi
0.0      10.887404441833496  ylo yhi
0.0      10.887404441833496  zlo zhi

Atoms # atomic

     1   1       5.443702220916748       5.443702220916748       5.443702220916748
     2   1       4.082776665687561       4.082776665687561      6.8046277761459351
     3   1       4.082776665687561      6.8046277761459351       4.082776665687561
     4   1      6.8046277761459351      6.8046277761459351      6.8046277761459351
     5   1      6.8046277761459351       4.082776665687561       4.082776665687561
     6   1      5.7601181652777882      3.2231522962917722       7.304844907919346
     7   1      6.1487105003361648      10.452401224846255      5.9863976589808772
     8   1      4.9061158864828371      5.6752244998641572      9.9377808725631667
     9   1       7.842122346973099     0.81248797268747808      7.3984006227748864
    10   1      1.0168328930524311      5.6043310632982752      9.7488796666788176
    11   1      0.8162099673364196       2.458725459633456      7.0133839464238008
    12   1      1.5743878374753422      6.1466137756023613      10.495256565203931
    13   1      8.5513811825690595      6.7605089498530333     0.57770651489771652
    14   1      8.2079148284884695      8.6099317827261075      9.6460570904185374
    15   1      8.9124370519420495      8.4680430260340813      6.0671387581389808
    16   1      5.2711471615256755      5.8004484805846346      10.671639071973516
    17   1      2.0442902297265988      9.9513897906667239      10.485214869589299
    18   1      9.6528320227060362      8.7909146242644738      7.6838193051009966
    19   1     0.13720535761933661      10.605359597913775      1.1832386793122964
    20   1      3.6539630372212173      8.2195022988836399      8.7836880298244751
    21   1      8.0762605025537368        8.00061617716824      2.8491361242195694
    22   1      6.4638675013410989      7.2666411685805201      6.5310347251488565
    23   1      10.444797596339299      9.2107034458991848     0.78217891138922369
    24   1      1.3018972542071836        2.97649544159637      6.8549186695831281
    25   1      7.6778944840488066      9.9698956090616093      5.6958932348600229
    26   1      8.6624751464669316      4.6593655844455384      8.2099194037601251
    27   1      4.7076703973974929      9.0585860989087337      2.6905618254800174
    28   1      3.5652195360034113      8.2841386571816997     0.26216392193123284
    29   1      4.5950478556257508      10.608020900338204      9.0307848657546401
    30   1      10.448114976976626      10.370567310939862      7.0660525555603613
    31   1    0.024080860854837738      6.4285035228921288      5.7378900277640241
    32   1      6.8881963063362832      3.2772560359603062     0.34160105752945213
    33   1      1.5692790583150611      2.1378792027506961     0.26174821510364232
    34   1      9.2555549253101503      8.1259504776673452      3.5594822585748886
    35   1      4.4586543217891403      3.9806880404250933      9.5868607950865794
    36   1      8.1531267817225057      7.9936842014311651      5.3009085175700363
    37   1      4.1488945537186055      5.1884079764946591     0.76028497791071459
    38   1      10.764904061765378       6.850755071349738      1.5625862169216589
    39   1      4.8451924376754789      7.3341451921830298      3.5095349788011276
    40   1      9.0059304685696588      1.2336051742448433      7.2499348604570173
    41   1      10.559246579387207      4.5454519767939132      7.0009028858217448
    42   1      7.8016421265552935      7.1286979663241254      7.8332299238758196
    43   1      6.0124766057086276      5.8962631551425488      2.6685621148020005
    44   1      8.3880540481902699      6.8254029372811829      3.0517354774401895
    45   1       2.005806635066989      5.3671026560363089      9.3695795016802776
    46   1      7.3561773498547609      8.5651834847551527      1.6288884038769993
    47   1      7.1776144051075903      2.2711740486876124      3.4585341451414706
    48   1      3.7248678302348992      1.7265214079626503      10.184623324062613
    49   1       8.597790766618175      3.9920367009465281      6.3955659306330972
    50   1      6.3792502843139118     0.10444103230673818       5.961070833567419
    51   1      6.7308167059052835      1.6135085288565278       5.777889383734987
    52   1      8.2507318813935626      5.6249504788636955      1.8199869201756655
    53   1      1.4252624277752659      8.9828249643458662      5.6305488831591219
    54   1      8.9638921435137036      7.6627157803893624     0.47360925848937896
    55   1      4.4301256270359772      6.5402276074079282      2.0244782575997533
    56   1      8.8609585985349213       7.737036268431325      1.2857380835151844
    57   1      1.7139735065535433      5.9671066233381111      9.0752495770005339
    58   1      10.536979505480986      5.5381450365804312      1.1229982397226195
    59   1      8.0127046291463557      4.2320042834178366      2.3367539655628775
    60   1      1.1062828464408767      8.0345972647451163       9.810578274166005
    61   1      5.6667512919256637      5.0171368446448525      3.4134561857143808
    62   1      1.7489890042900242     0.35282674394471059      6.5948339510090932
    63   1      4.4377402875207963      2.2021620510522411     0.53280170074083344
    64   1      1.9380102640511154      9.3785621274200821   0.0066247964986938523

Velocities

     1                       0                       0                       0
     2                       0                       0                       0
     3                       0                       0                       0
     4                       0                       0                       0
     5                       0                       0                       0
     6                       0                       0                       0
     7                       0                       0                       0
     8                       0                       0                       0
     9                       0                       0                       0
    10                       0                       0                       0
    11                       0                       0                       0
    12                       0                       0                       0
    13                       0                       0                       0
    14                       0                       0                       0
    15                       0                       0                       0
    16                       0                       0                       0
    17                       0                       0                       0
    18                       0                       0                       0
    19                       0                       0                       0
    20                       0                       0                       0
    21                       0                       0                       0
    22                       0                       0                       0
    23                       0                       0                       0
    24                       0                       0                       0
    25                       0                       0                       0
    26                       0                       0                       0
    27                       0                       0                       0
    28                       0                       0                       0
    29                       0                       0                       0
    30                       0                       0                       0
    31                       0                       0                       0
    32                       0                       0                       0
    33                       0                       0                       0
    34                       0                       0                       0
    35                       0                       0                       0
    36                       0                       0                       0
    37                       0                       0                       0
    38                       0                       0                       0
    39                       0                       0                       0
    40                       0                       0                       0
    41                       0                       0                       0
    42                       0                       0                       0
    43                       0                       0                       0
    44                       0                       0                       0
    45                       0                       0                       0
    46                       0                       0                       0
    47                       0                       0                       0
    48                       0                       0                       0
    49                       0                       0                       0
    50                       0                       0                       0
    51                       0                       0                       0
    52                       0                       0                       0
    53                       0                       0                       0
    54                       0                       0                       0
    55                       0                       0                       0
    56                       0                       0                       0
    57                       0                       0                       0
    58                       0                       0                       0
    59                       0                       0                       0
    60                       0                       0                       0
    61                       0                       0                       0
    62                       0                       0                       0
    63                       0                       0                       0
    64                       0                       0                       0
