(written by ASE)

64 atoms
1 atom types

0.0      10.887404441833496  xlo xhi
0.0      10.887404441833496  ylo yhi
0.0      10.887404441833496  zlo zhi

Atoms # atomic

     1   1       5.443702220916748       5.443702220916748       5.443702220916748
     2   1       4.082776665687561       4.082776665687561      6.8046277761459351
     3   1       4.082776665687561      6.8046277761459351       4.082776665687561
     4   1      6.8046277761459351      6.8046277761459351      6.8046277761459351
     5   1      6.8046277761459351       4.082776665687561       4.082776665687561
     6   1       7.167753763717883      9.4408051954617918     0.35618942869701087
     7   1      1.7733005632701691      10.546959551807561     0.22714712631500333
     8   1      1.2633624744149898      8.5842376573438059      8.1218576138802518
     9   1     0.22826460077851607      10.429337901714291      3.5068035908702768
    10   1      7.7267265606486148      8.8535691201864779      5.1894015034421841
    11   1      10.074777271542985       2.830867817818671      2.0104741351127586
    12   1     0.38210488313518454       4.397264934152048      2.2508456826558074
    13   1      3.9249635734205413      3.2483405730420714      6.6664905408671302
    14   1      1.2739504962862824      6.5860057729593677      8.1524103521012989
    15   1      6.5450343050567312      8.3574630225166402      3.9085275487546767
    16   1      9.3017977318115754      5.8545499489636086     0.96541227641159821
    17   1      10.239633308265581      1.6862533908837349      2.7390444479575251
    18   1      3.1094693867654541      8.8076176876886052      1.0550462853718869
    19   1      2.2251810840377857     0.92226045164886017      3.8807746616212171
    20   1      1.2058289252759096       1.454169130005198      5.2205681387843015
    21   1      7.7188043026633864      2.4195562599966678       0.856999083134383
    22   1      3.5830582442075354       8.899904076150051       4.254366751485577
    23   1      5.2006716422388308      3.4216227695622763    0.059148273781261196
    24   1      2.9363516965033796      6.7684922081864443      6.4756691218947822
    25   1      9.0620689592140025      7.4967812055957097      10.062625223457189
    26   1      8.9901871872195898      7.4788484011098149      4.9972033585265478
    27   1       5.202751494535903      6.9824275676009506      4.0086521574876315
    28   1     0.27322352029741737      2.7731352063731549      4.8448186483078928
    29   1      2.7784600825115717      5.8768858104965034      8.5918101367367967
    30   1      0.7511552050544168      7.1860428361947584      5.0177144011329631
    31   1      9.4265389012655874     0.59072477603945117      1.1055612253006757
    32   1      1.0898345730348851      9.9790313846117442      7.4106422245633325
    33   1      2.3805372899407757      2.5817823056437703      2.8260617691097423
    34   1      3.2693363737345749      0.6023163834263201      9.7920971154863423
    35   1      7.1858591862103367      5.7084119339747872      7.9480559409906846
    36   1      5.3752796229221929      5.5477305274634432      6.1746940529023959
    37   1      7.0810125664821726     0.88745512931416215     0.33495556846750141
    38   1      4.3343797401047368      0.1573573742403056      6.0447983540269661
    39   1      10.012940439862575      8.6032710638564822    0.088702658564468351
    40   1      2.2485769888553193      9.0332936673086124      2.7965814040309454
    41   1      1.7441975567282668      6.3430770778417127      4.1014521818595711
    42   1      6.9770394198247914      7.2882502174542196      3.0470764136127855
    43   1      1.9479422888269937      9.3031715375254294      4.1174663956071527
    44   1      9.4733209768025404     0.55350263937796029     0.91749585397440114
    45   1      1.9469722859499115      3.2661500789518527      3.3875037822621152
    46   1      6.9815119134383394       1.239948885985882      7.2390975645565163
    47   1      6.7771996834195534      3.2569163134807013      4.2400998083494983
    48   1      0.9122061828241641       2.210381685734859      8.4494353240789337
    49   1      8.2149227301908354      2.1801058826051616      7.3183305274467898
    50   1      4.7503368962517527        10.1848835489522      5.7850809354217745
    51   1      9.7381617757151844       3.387692299295594     0.64097742258280377
    52   1     0.65150618813182604      6.1933095421360349      7.6220571015061296
    53   1      4.3785196569435527       7.848197073136248      4.9691707783072729
    54   1      5.4602054108596008      3.6615416815430137      4.4495743550681937
    55   1      10.741372852984057      6.2105414915577057      10.758787803450275
    56   1      5.0921286609867593      1.9895198665722091       10.29308064525128
    57   1      2.7814770039871064       3.048308750434046      4.4456920722703046
    58   1      3.4836234585609418      4.9042239022793694      4.2173629019742975
    59   1      2.9558082118140874      3.9151311609153652      6.3189670146925323
    60   1      8.2597664223233096       3.015314700405952      5.8906543678091339
    61   1      8.3455121457918722      7.6899751487484309      3.2554536030040708
    62   1      4.5778301828813142      8.9004316642678418     0.47438413325801321
    63   1     0.98419162296349327      1.3076746036729432      2.3887142568266597
    64   1       8.528153677648902      9.1106200448482468      3.2607551173070135

Velocities

     1                       0                       0                       0
     2                       0                       0                       0
     3                       0                       0                       0
     4                       0                       0                       0
     5                       0                       0                       0
     6                       0                       0                       0
     7                       0                       0                       0
     8                       0                       0                       0
     9                       0                       0                       0
    10                       0                       0                       0
    11                       0                       0                       0
    12                       0                       0                       0
    13                       0                       0                       0
    14                       0                       0                       0
    15                       0                       0                       0
    16                       0                       0                       0
    17                       0                       0                       0
    18                       0                       0                       0
    19                       0                       0                       0
    20                       0                       0                       0
    21                       0                       0                       0
    22                       0                       0                       0
    23                       0                       0                       0
    24                       0                       0                       0
    25                       0                       0                       0
    26                       0                       0                       0
    27                       0                       0                       0
    28                       0                       0                       0
    29                       0                       0                       0
    30                       0                       0                       0
    31                       0                       0                       0
    32                       0                       0                       0
    33                       0                       0                       0
    34                       0                       0                       0
    35                       0                       0                       0
    36                       0                       0                       0
    37                       0                       0                       0
    38                       0                       0                       0
    39                       0                       0                       0
    40                       0                       0                       0
    41                       0                       0                       0
    42                       0                       0                       0
    43                       0                       0                       0
    44                       0                       0                       0
    45                       0                       0                       0
    46                       0                       0                       0
    47                       0                       0                       0
    48                       0                       0                       0
    49                       0                       0                       0
    50                       0                       0                       0
    51                       0                       0                       0
    52                       0                       0                       0
    53                       0                       0                       0
    54                       0                       0                       0
    55                       0                       0                       0
    56                       0                       0                       0
    57                       0                       0                       0
    58                       0                       0                       0
    59                       0                       0                       0
    60                       0                       0                       0
    61                       0                       0                       0
    62                       0                       0                       0
    63                       0                       0                       0
    64                       0                       0                       0
