(written by ASE)

64 atoms
1 atom types

0.0      10.887404441833496  xlo xhi
0.0      10.887404441833496  ylo yhi
0.0      10.887404441833496  zlo zhi

Atoms # atomic

     1   1       5.443702220916748       5.443702220916748       5.443702220916748
     2   1       4.082776665687561       4.082776665687561       4.082776665687561
     3   1      6.8046277761459351       4.082776665687561      6.8046277761459351
     4   1      6.8046277761459351      6.8046277761459351       4.082776665687561
     5   1       4.082776665687561      6.8046277761459351      6.8046277761459351
     6   1   0.0061545305581574006      7.6449458598119122       7.931638411111237
     7   1      7.5705228392698132      2.6521317683600358      7.4980862236828898
     8   1      9.3801117958398663     0.22308362705722118      1.9845793250743355
     9   1      8.8550753096346853      4.7220090483896797      8.3731816441514866
    10   1      1.4346100821943537      10.254656915295072      8.1183027212489378
    11   1      4.3583502811809467      4.3052280630722635      7.3501623261600457
    12   1      2.3054539730765953      4.5772451635846494      2.9288606590646111
    13   1      6.2366178425259591     0.33089567893776994      1.0424464687728374
    14   1      10.190816806222756      1.3727138725154475      7.6872223458017288
    15   1      5.2270137340856024      8.6948760654499324     0.24082637327743583
    16   1      3.5213911103042506      8.5277519838667217      2.8989081902272744
    17   1      8.4457545371120091      5.7371989067979143      6.6723206166976752
    18   1      7.9991962967233121      3.1238576816580235      4.8820171797814567
    19   1     0.48318517750924528      6.2106972371275333      2.8827242787025682
    20   1      5.0451733185033731       3.367363933263789       7.784765796184729
    21   1      2.6176910691171997      7.5143564442108755       8.617653518290183
    22   1      7.2206975233611388      1.5648769746778726      6.9403541997917841
    23   1      6.7682352279962288      7.8138279195145515      1.3259260376371103
    24   1      2.1125767125825234      3.6003586567859429      1.3068779488597784
    25   1     0.94651125363327537      2.3252669186132522      5.3485020924197784
    26   1      8.2482250266592132       9.225543402944254      2.4163736966182228
    27   1      2.1208980685904351       6.771700566924892      8.2380243407753824
    28   1      2.7783384062851439      3.9918238486677637      3.3270300487876341
    29   1      5.4178624085326703      5.9879304549639301      9.3855713270021965
    30   1      10.632859074026328      3.3861887056068838      2.6715929884848322
    31   1      8.0752209008751379        4.30247201542619      7.8220564771204408
    32   1       10.73677316715515      2.8282486964860709        8.70051859765681
    33   1      4.4580066797946074      7.7551014566515732      2.4238209306154772
    34   1       5.961875519011528      6.3103880295545309      4.6713729189393689
    35   1      10.757285507641313      8.0818958964219973      3.0600574823879754
    36   1      3.7642688636417745      9.0169747762900556      1.1138846903631787
    37   1      4.2560244683944291      7.6301279667225685      6.0470326540141173
    38   1      2.0032502986672256      4.4155455704105577      4.7603698311780818
    39   1      4.9779399028284388      5.1795084150587627     0.33221049196117747
    40   1      1.3741381333045268      1.3556391287783214      9.3481106238194229
    41   1      2.9129554672159088      2.6121090505535989      5.3161449768782916
    42   1     0.56581716578477881      10.210056575615454       9.615275276421869
    43   1      0.9215571630601076      1.8612036873507805      3.9516960026016932
    44   1      7.5243747779900332      8.4546248962535628      4.1255489417413287
    45   1      8.6189948770103229      7.9710173805623867       6.342510553331465
    46   1      9.1374550065295352     0.44454129470068793      6.3215738061675211
    47   1      1.4603869474106261       2.608351688681509      7.3477041419162674
    48   1      9.4095107189644409      9.6990813186062041      3.4154747131933334
    49   1      7.1952999635013839      4.3921334420961671      7.1972305596273713
    50   1      4.4972402867139181      1.9738909608749822      6.9001504277604226
    51   1      9.0370659547978107      6.0305229746725217     0.19892639409092894
    52   1      3.3871192853866035      4.1112936795229871      4.0732823508568856
    53   1      10.141572003862905      1.1191775250953029       8.249879823338631
    54   1       9.018610104773245      10.853939261456674      1.6881781465508539
    55   1      3.8988489349997053      7.8613127969353513      3.4949812042406165
    56   1      1.3162395554861632      8.2041561687366311      9.4585854990772305
    57   1      2.7935274929825766      1.9492700198097737      8.7711894478458134
    58   1      1.5965413469035639     0.19305571895949925     0.91064564466148568
    59   1      6.2726203778112222       8.650924016704721      9.1002421983787372
    60   1      9.6009609606749677      9.8583908662233171      7.4394519102820595
    61   1      1.9877721092558005      5.5522919258397678      5.4324603110046326
    62   1      9.6189268610944509      6.9132447365436747      10.375672520930834
    63   1      7.2643426235458151      8.3452590592409024      6.3626199021556999
    64   1       1.954820889259409      5.3363143526408976      6.2439281502097401

Velocities

     1                       0                       0                       0
     2                       0                       0                       0
     3                       0                       0                       0
     4                       0                       0                       0
     5                       0                       0                       0
     6                       0                       0                       0
     7                       0                       0                       0
     8                       0                       0                       0
     9                       0                       0                       0
    10                       0                       0                       0
    11                       0                       0                       0
    12                       0                       0                       0
    13                       0                       0                       0
    14                       0                       0                       0
    15                       0                       0                       0
    16                       0                       0                       0
    17                       0                       0                       0
    18                       0                       0                       0
    19                       0                       0                       0
    20                       0                       0                       0
    21                       0                       0                       0
    22                       0                       0                       0
    23                       0                       0                       0
    24                       0                       0                       0
    25                       0                       0                       0
    26                       0                       0                       0
    27                       0                       0                       0
    28                       0                       0                       0
    29                       0                       0                       0
    30                       0                       0                       0
    31                       0                       0                       0
    32                       0                       0                       0
    33                       0                       0                       0
    34                       0                       0                       0
    35                       0                       0                       0
    36                       0                       0                       0
    37                       0                       0                       0
    38                       0                       0                       0
    39                       0                       0                       0
    40                       0                       0                       0
    41                       0                       0                       0
    42                       0                       0                       0
    43                       0                       0                       0
    44                       0                       0                       0
    45                       0                       0                       0
    46                       0                       0                       0
    47                       0                       0                       0
    48                       0                       0                       0
    49                       0                       0                       0
    50                       0                       0                       0
    51                       0                       0                       0
    52                       0                       0                       0
    53                       0                       0                       0
    54                       0                       0                       0
    55                       0                       0                       0
    56                       0                       0                       0
    57                       0                       0                       0
    58                       0                       0                       0
    59                       0                       0                       0
    60                       0                       0                       0
    61                       0                       0                       0
    62                       0                       0                       0
    63                       0                       0                       0
    64                       0                       0                       0
