(written by ASE)

64 atoms
1 atom types

0.0      10.887404441833496  xlo xhi
0.0      10.887404441833496  ylo yhi
0.0      10.887404441833496  zlo zhi

Atoms # atomic

     1   1       5.443702220916748       5.443702220916748       5.443702220916748
     2   1       4.082776665687561       4.082776665687561       4.082776665687561
     3   1      6.8046277761459351       4.082776665687561      6.8046277761459351
     4   1      6.8046277761459351      6.8046277761459351       4.082776665687561
     5   1       4.082776665687561      6.8046277761459351      6.8046277761459351
     6   1       5.105049378353641      4.6643143999268091       7.430987787501806
     7   1      9.9880873405573425      8.3992826548349626      2.8047804348725549
     8   1      3.4955925056021897       9.365393839491162      3.5073126842016507
     9   1       2.648659128857787      6.4571873142752452      8.6994355170066342
    10   1      2.0073008191275221      4.0242426134973073      7.2752941328641896
    11   1      9.5306230166414707      5.0188406362847786      3.1574974268610276
    12   1      8.4484709994257514      2.8999714782112846       3.758011136434078
    13   1       10.15607645899297      3.6869759065056655      10.849571896102759
    14   1      9.9295464744984088      5.0275241007425393      4.3422825298937369
    15   1      7.7966757896974173      9.9961199183211988      10.293461572957483
    16   1      7.6121069064137714     0.76825014704512995       5.812035950979805
    17   1      4.0802977153678057      9.3428749769137198      9.7844208057134665
    18   1      2.6454926267412304      9.2757207319034478      7.9058787428016331
    19   1      3.6776937950138802      6.3887105298011875      2.5489049025580783
    20   1      9.1050158000939518      6.0294652026774429      5.4280283761332271
    21   1      3.6247909185827041      7.2625080705212213      2.2289644035048468
    22   1       3.216579184305175      3.8773388494568337      5.5423826139594894
    23   1      2.2488917246943458      2.5605635941044511      8.4653278616000875
    24   1      3.4525509195005952       8.863532943016196      3.8228908471849934
    25   1      1.3352617677860081      8.8884924684608109      7.8185522017993208
    26   1      7.5862473013635281    0.072547584305425517      1.1298198956810666
    27   1      2.9173309443182518      6.7940234496603011      3.7988278321766984
    28   1      10.632015452189762      4.4371906354472799      3.3009916608020262
    29   1     0.47117828916157833      5.6864505107493528      9.2745578316487354
    30   1      5.2844660035054289      1.1952538822021026      0.1877616674651108
    31   1      8.1881052898861526        10.6239199272581      6.0431085145943371
    32   1      6.7603233530489888       4.519023251473925      10.528649713254708
    33   1      7.2181102000823785      3.3215688952756182      1.1218015945944444
    34   1      6.7972168827816404      2.6293906438756522      4.9921263774201066
    35   1      1.6048438836551213      6.9966419466072125      8.5986947398630491
    36   1      6.5576373663551522      10.730963208460707      5.0931763744137868
    37   1      5.9484268890569183      4.3476907948059988      6.5041491461573742
    38   1      2.5691542601601896      6.7553148350992842      10.333379811444161
    39   1      3.7981938179195254      6.0145577558854484      2.0590983887178282
    40   1       2.074824797631166      9.8391205966565281      6.1942063770422919
    41   1      8.6346953283286894      9.8996141227971748      4.0049366522374328
    42   1       1.777874291504105      5.6859028054954592      2.1541052953672306
    43   1      2.6020842273756983      2.3610713650018909      9.4493614677041933
    44   1      1.9666479807031578      1.9360212633364426       7.957181333502831
    45   1      4.1337447278835668      2.4259921211998545      6.3419394862420972
    46   1      2.2119383302582918      7.2301454389908031      3.1228291119572873
    47   1      8.6938397084707049      5.7895170884023628      5.1229701774518617
    48   1      8.8997814265138118      3.9550127342991459      2.9750603110643965
    49   1       0.132134541441701      1.1777632491230463       4.365993170550297
    50   1      9.0861634478062001      4.6987010749251112     0.32547709182563267
    51   1      1.2528926407183008      2.2492760593348891      7.3827923209186679
    52   1     0.15060734502048234      6.5204576541379424      7.4199726820757519
    53   1       6.325898341489733      5.2833264650861906      7.8706477970268907
    54   1      5.7455001456697232      3.1191613037878483      6.4499866774302177
    55   1      1.0143371514134287      4.9846969892693949      6.1074048283982734
    56   1      3.1512633859587424      8.5192216692192915      5.2661198243196168
    57   1      5.1014370545434531      7.6913327309654278     0.40166421485722381
    58   1      9.7163567469994518      1.6549290631521671      3.1061698519746699
    59   1      2.3321051225384934      5.4278028695269143      9.5043487390115615
    60   1       9.620374645953973      5.0268326553064924      5.3789120638684835
    61   1    0.004073965948176328       4.214055904374959      9.7064818289325103
    62   1      1.3300504561255906      10.868441769767117      6.8609830127082887
    63   1      9.0456241738598351      2.3318101793656325        5.24650204745015
    64   1      1.1146608224528194      6.2861585614684827      6.8179531075244313

Velocities

     1                       0                       0                       0
     2                       0                       0                       0
     3                       0                       0                       0
     4                       0                       0                       0
     5                       0                       0                       0
     6                       0                       0                       0
     7                       0                       0                       0
     8                       0                       0                       0
     9                       0                       0                       0
    10                       0                       0                       0
    11                       0                       0                       0
    12                       0                       0                       0
    13                       0                       0                       0
    14                       0                       0                       0
    15                       0                       0                       0
    16                       0                       0                       0
    17                       0                       0                       0
    18                       0                       0                       0
    19                       0                       0                       0
    20                       0                       0                       0
    21                       0                       0                       0
    22                       0                       0                       0
    23                       0                       0                       0
    24                       0                       0                       0
    25                       0                       0                       0
    26                       0                       0                       0
    27                       0                       0                       0
    28                       0                       0                       0
    29                       0                       0                       0
    30                       0                       0                       0
    31                       0                       0                       0
    32                       0                       0                       0
    33                       0                       0                       0
    34                       0                       0                       0
    35                       0                       0                       0
    36                       0                       0                       0
    37                       0                       0                       0
    38                       0                       0                       0
    39                       0                       0                       0
    40                       0                       0                       0
    41                       0                       0                       0
    42                       0                       0                       0
    43                       0                       0                       0
    44                       0                       0                       0
    45                       0                       0                       0
    46                       0                       0                       0
    47                       0                       0                       0
    48                       0                       0                       0
    49                       0                       0                       0
    50                       0                       0                       0
    51                       0                       0                       0
    52                       0                       0                       0
    53                       0                       0                       0
    54                       0                       0                       0
    55                       0                       0                       0
    56                       0                       0                       0
    57                       0                       0                       0
    58                       0                       0                       0
    59                       0                       0                       0
    60                       0                       0                       0
    61                       0                       0                       0
    62                       0                       0                       0
    63                       0                       0                       0
    64                       0                       0                       0
