(written by ASE)

64 atoms
1 atom types

0.0      10.887404441833496  xlo xhi
0.0      10.887404441833496  ylo yhi
0.0      10.887404441833496  zlo zhi

Atoms # atomic

     1   1       5.443702220916748       5.443702220916748       5.443702220916748
     2   1       4.082776665687561       4.082776665687561       4.082776665687561
     3   1      6.8046277761459351       4.082776665687561      6.8046277761459351
     4   1      6.8046277761459351      6.8046277761459351       4.082776665687561
     5   1       4.082776665687561      6.8046277761459351      6.8046277761459351
     6   1      10.151654582689616      9.1111813778395003      4.7549232788132372
     7   1     0.81417164719130142      7.9692074872530156       1.532785600014904
     8   1      4.8564729595101142       2.167433222505224      10.424372862736163
     9   1      5.9090570047640085      6.0592463513879693      1.6393248171701629
    10   1      4.8296999715868196      8.5855543563487231      2.7145912578498184
    11   1      10.464279420305104      7.2666463600995144      6.4630180390456644
    12   1      10.036720841555621      6.1666452516416825      8.6164010643328197
    13   1      1.0201703097083765      5.8573059966096821      2.4691610617517767
    14   1      1.1058428652061139      9.4666745346101493      7.5558593938705485
    15   1      5.5644024417736091     0.31790351734660405      5.9059174336522346
    16   1      9.4072926424741468      10.190747369656208      10.132773028107522
    17   1     0.66140361630065669      10.780557789412796      2.3027277766647387
    18   1      2.6285971526443745      3.6175909306775509      2.8281630364226658
    19   1       7.454285377928386      1.1285523538716262      7.1071427794599913
    20   1      5.5316984678693188      10.297306541712601      9.9692752225417962
    21   1      4.5536824812194254      3.2972764800217647      9.5174631649309163
    22   1      10.564944271483398      7.8959175157314121      7.6889971963578887
    23   1      9.8929456166490581       4.469299531486854      1.2757401913420665
    24   1      1.2406984926581615      4.2720403044916964      2.5294196716579336
    25   1      10.489898917601863       10.69796721161299      6.7274350802204026
    26   1     0.76891458035890992      7.6828932679003969      7.0201238359580884
    27   1      2.9047544895546764      6.9233857199590716      2.6792999606667678
    28   1      7.9931326025380258      5.2557945419799239      3.1013303828622156
    29   1      5.6052811112742233      2.4845724103561508      7.6346588649248019
    30   1      9.8438104851279604      9.3456135031831877      8.6926437122824041
    31   1      1.1794676897028467      9.3722745489781687      9.7123514900953865
    32   1      3.9769722107049574      6.3535373396752561      8.8681988207122799
    33   1      6.2099185092783955      4.9767744068142292      8.9314678626952286
    34   1      5.6606084270757151      7.4326023499090184       1.064075148077734
    35   1      5.0260188847041434      5.2563542526214917      10.886211041404692
    36   1      6.0563189836150855      9.9482411343967101      1.2427445189642867
    37   1     0.44034723685194876      1.9471184596565934      6.1397142468590005
    38   1      10.775954209944643      6.7827059382528319      2.3983394952769714
    39   1       3.493857240378361      5.7367063614333347      4.8982591714249111
    40   1       3.772260233723614      2.2358186686919765      8.9154981013290353
    41   1      8.2824059877173681      2.3308711633675472      4.5792750475114019
    42   1      2.9470014487802132       4.790242804880819      7.4781326204284824
    43   1      7.2011404223699174     0.69530200460230418      6.2008677448517915
    44   1      6.0758066480397588      2.0192140573395818      2.2283996635792533
    45   1      8.4099058005769507      8.3377488780758426      5.3530002191583606
    46   1     0.60100442979423363      4.4107758623345887      1.5003350371315207
    47   1       3.100349185772302      3.4512400609545466        5.65677903287758
    48   1      7.0644068440391834      2.8303798150332113      4.0075930876128041
    49   1      4.4297797420829852      1.3568403164856164     0.75859886988236269
    50   1      3.0729593804985029       6.074910462073376      5.7492639969405559
    51   1      10.315916190487371      6.2260829526068733       1.121003641901531
    52   1      10.544800528845826        7.51540902468696       6.613693441635462
    53   1     0.75524458078968593      9.9886746311435672      3.7069123128534045
    54   1      6.4465284768401716      2.7658878458571792      10.036295136998092
    55   1     0.38532240814935648      9.4770439448612933      7.4137233910864211
    56   1      5.1685925974334737      7.7168724086576503      9.3405037506130952
    57   1      7.1676304651417695       4.514417076246275      5.9296614947123203
    58   1      9.1039067618488048      9.7504844949879157      6.9874938411994663
    59   1    0.028882116027429516      1.9685581352231054      7.8476792191165714
    60   1      6.9988035653284442      5.1201015387376003      2.5927969243649187
    61   1      10.323637926051447      7.2703037852309649       4.027363365352727
    62   1      10.778890662875767        2.03157911993911      4.7520465283505473
    63   1      3.2611165768169883      2.5787819321350298      7.4235191384887003
    64   1       5.882307054206251      4.9001641344258644      1.6394862409638904

Velocities

     1                       0                       0                       0
     2                       0                       0                       0
     3                       0                       0                       0
     4                       0                       0                       0
     5                       0                       0                       0
     6                       0                       0                       0
     7                       0                       0                       0
     8                       0                       0                       0
     9                       0                       0                       0
    10                       0                       0                       0
    11                       0                       0                       0
    12                       0                       0                       0
    13                       0                       0                       0
    14                       0                       0                       0
    15                       0                       0                       0
    16                       0                       0                       0
    17                       0                       0                       0
    18                       0                       0                       0
    19                       0                       0                       0
    20                       0                       0                       0
    21                       0                       0                       0
    22                       0                       0                       0
    23                       0                       0                       0
    24                       0                       0                       0
    25                       0                       0                       0
    26                       0                       0                       0
    27                       0                       0                       0
    28                       0                       0                       0
    29                       0                       0                       0
    30                       0                       0                       0
    31                       0                       0                       0
    32                       0                       0                       0
    33                       0                       0                       0
    34                       0                       0                       0
    35                       0                       0                       0
    36                       0                       0                       0
    37                       0                       0                       0
    38                       0                       0                       0
    39                       0                       0                       0
    40                       0                       0                       0
    41                       0                       0                       0
    42                       0                       0                       0
    43                       0                       0                       0
    44                       0                       0                       0
    45                       0                       0                       0
    46                       0                       0                       0
    47                       0                       0                       0
    48                       0                       0                       0
    49                       0                       0                       0
    50                       0                       0                       0
    51                       0                       0                       0
    52                       0                       0                       0
    53                       0                       0                       0
    54                       0                       0                       0
    55                       0                       0                       0
    56                       0                       0                       0
    57                       0                       0                       0
    58                       0                       0                       0
    59                       0                       0                       0
    60                       0                       0                       0
    61                       0                       0                       0
    62                       0                       0                       0
    63                       0                       0                       0
    64                       0                       0                       0
