(written by ASE)

64 atoms
1 atom types

0.0      10.887404441833496  xlo xhi
0.0      10.887404441833496  ylo yhi
0.0      10.887404441833496  zlo zhi

Atoms # atomic

     1   1       5.443702220916748       5.443702220916748       5.443702220916748
     2   1       4.082776665687561       4.082776665687561       4.082776665687561
     3   1      6.8046277761459351       4.082776665687561      6.8046277761459351
     4   1      6.8046277761459351      6.8046277761459351       4.082776665687561
     5   1       4.082776665687561      6.8046277761459351      6.8046277761459351
     6   1      4.9248760893084409      2.0072372230198425      10.456760802921679
     7   1      7.1155484976515595      4.8338256068375642      2.8319191004150071
     8   1      4.9548032494906806      4.2636936398286878     0.65806267103414484
     9   1      9.2370783092096076      5.5604101636670293      8.0705660551569167
    10   1      1.4963891582259521       4.821330269558274      5.2775255915499883
    11   1      4.1697852261514754      7.3617543391343361      4.2005287526955613
    12   1      10.189608480176844      7.2456362827297767      10.852937298290783
    13   1      8.9202282240726731     0.47892671237798368      10.363197949727521
    14   1      3.4604913478023036      4.5754284564065983      1.1531087254193437
    15   1      10.120373084989751      1.5199067392699135      10.258158594856695
    16   1      4.5024292099486729      5.5266886520398657     0.37919288712557275
    17   1      2.8368646711969063      4.5050875921436671       3.304340839493193
    18   1      7.6015622823965714      2.4669116739125485      6.9859629920360362
    19   1      5.5083969838034932       9.081294451929466      6.2756126395715341
    20   1      6.9036430221638057      5.8383069839103428      4.6388571375986203
    21   1       3.599556567101331      4.4698624868277932      4.2901171736296817
    22   1      8.4479090174946236      6.8201893543312053       6.725727719411168
    23   1      4.6577445326395832      5.6450942215012674     0.40837181963276592
    24   1      10.746918044209792      1.2877090761483458      1.7152660325481435
    25   1      6.1147157850219287       4.181564458279496      8.6852380104371036
    26   1      6.0212119853563308      5.3470247807959765      7.6134281479978085
    27   1      3.8852757085892335      3.8852033517932512      6.5727193779733284
    28   1       10.20245943650724      10.053966418714651      8.6977826671468392
    29   1      8.3605980510492941      2.9687922008187115       6.879168254805279
    30   1      10.155591700906882      8.2072710801331823      3.2672876705514682
    31   1      9.8873316377966489      4.7988805190774428      8.3824718673917005
    32   1      2.7937533240588266      5.0854757293956254      3.4049657808692189
    33   1      6.4542320420877672     0.54472921563012733      8.5634553578699411
    34   1      10.483819648859594      7.5352821593969566      9.4482757912945203
    35   1      5.5325051001330507      3.1918146652927817       3.468828278367198
    36   1      7.0832183131148554      6.1558722007887354      9.0244246060468072
    37   1        7.07636356122282      3.5543780219937275      6.5721035340326353
    38   1      4.0152272162938516      5.6194455219101656      9.5857030863508612
    39   1      1.4938146515097088      10.594121906110843      5.5768633852395624
    40   1      2.9761297639772124      7.1149034514165237    0.054649822572741868
    41   1      5.1462885339544187      6.3994115483280893      1.8528570226877719
    42   1      7.4712324427452472      2.1697836827298715      4.9861022685671514
    43   1       2.134538460277895      10.702521471650698       4.209924753135283
    44   1      3.1577128748992891      9.8497768383321045      7.2842916842211025
    45   1       4.314155528922754      1.7255181469170111      5.5338120650398537
    46   1     0.79650279899927057      5.1356699307915505      6.9210118978989499
    47   1      9.6828831304042637      8.7321855656419984      5.8472026517069935
    48   1     0.99576968373048658      2.2420249674146362      2.3811468067176946
    49   1      1.1723584722626086      6.5070596414935267       2.803971531319263
    50   1      5.6572936421978852      9.2124062641292994      7.0193697678241733
    51   1      3.1584400120284215      2.6752307831850857      4.1727589931253704
    52   1      9.0814508464391679      1.0092442712800676       4.853639363549064
    53   1      2.3541578840512329      3.9547135730171021      2.0724647655433728
    54   1      7.5833588699831012      7.7926919478092032      8.6385318608654416
    55   1      6.8303692741390591      4.0593823832197131      10.033743505412417
    56   1      2.4329591396901407      9.5410099482692203      7.7059591867918584
    57   1      2.9114255914622902      2.4712512970868374     0.40671917256668166
    58   1      1.5052004638389462      9.8115393541198159      2.2902491495872113
    59   1      9.3486395098169623       10.57337789408956       5.967396699461915
    60   1      2.1085537720668839      8.5486861352711685      1.5338887978011826
    61   1      4.8451431182450335      1.9241274933206114       4.896276335639044
    62   1     0.95219515575713842      2.1510992436345902      6.0058321103358594
    63   1       7.159316247472475      5.0470815262036979      2.9093843510877377
    64   1      3.6385422789886661       3.730395500084029      10.680732017491948

Velocities

     1                       0                       0                       0
     2                       0                       0                       0
     3                       0                       0                       0
     4                       0                       0                       0
     5                       0                       0                       0
     6                       0                       0                       0
     7                       0                       0                       0
     8                       0                       0                       0
     9                       0                       0                       0
    10                       0                       0                       0
    11                       0                       0                       0
    12                       0                       0                       0
    13                       0                       0                       0
    14                       0                       0                       0
    15                       0                       0                       0
    16                       0                       0                       0
    17                       0                       0                       0
    18                       0                       0                       0
    19                       0                       0                       0
    20                       0                       0                       0
    21                       0                       0                       0
    22                       0                       0                       0
    23                       0                       0                       0
    24                       0                       0                       0
    25                       0                       0                       0
    26                       0                       0                       0
    27                       0                       0                       0
    28                       0                       0                       0
    29                       0                       0                       0
    30                       0                       0                       0
    31                       0                       0                       0
    32                       0                       0                       0
    33                       0                       0                       0
    34                       0                       0                       0
    35                       0                       0                       0
    36                       0                       0                       0
    37                       0                       0                       0
    38                       0                       0                       0
    39                       0                       0                       0
    40                       0                       0                       0
    41                       0                       0                       0
    42                       0                       0                       0
    43                       0                       0                       0
    44                       0                       0                       0
    45                       0                       0                       0
    46                       0                       0                       0
    47                       0                       0                       0
    48                       0                       0                       0
    49                       0                       0                       0
    50                       0                       0                       0
    51                       0                       0                       0
    52                       0                       0                       0
    53                       0                       0                       0
    54                       0                       0                       0
    55                       0                       0                       0
    56                       0                       0                       0
    57                       0                       0                       0
    58                       0                       0                       0
    59                       0                       0                       0
    60                       0                       0                       0
    61                       0                       0                       0
    62                       0                       0                       0
    63                       0                       0                       0
    64                       0                       0                       0
