(written by ASE)

216 atoms
1 atom types

0.0      16.331106185913086  xlo xhi
0.0      16.331106185913086  ylo yhi
0.0      16.331106185913086  zlo zhi

Atoms # atomic

     1   1      15.445302309972817      11.521801886057574      7.1867569469217756
     2   1     0.42466604867634672      12.882487618273785      14.003260934912987
     3   1      9.9821080415671304      3.3749883915384657      15.314657089357183
     4   1      1.8167829698522553      8.7721411865115897      1.7307559334600171
     5   1      10.000699195012658      11.516464680217382      12.626616149304482
     6   1      9.9641651790370815      14.271401260787229      15.336842071721549
     7   1      9.9974217242732948      11.532241705980255      1.6982668001614769
     8   1      1.8040411574690012      11.534909822195459      15.334286871041172
     9   1      14.052386979841458      1.9852232588173422      5.8208785602181479
    10   1      5.9273885719691748      15.615163290516193      5.7978233495077802
    11   1      12.688599964056607      8.8294905972868492      1.7481710862114568
    12   1      8.6281777732449427       12.90235296512526      5.8217989191679749
    13   1     0.44233574808604104      10.164648657943872      5.8258210483913331
    14   1      8.6631864560905569      4.7250478958585518      3.1088447724816035
    15   1      12.680264656084773       3.363056577770891      12.573446560137427
    16   1      3.1872322455444078      10.139812107330613      13.964732402292043
    17   1      11.329509650474733      4.7196143224498428      5.8391932652853029
    18   1       3.168037821385866      12.876165321733197      11.260000404690231
    19   1      8.6133371676933166      7.4384067376622056      11.264299955701745
    20   1      14.032360046966005        10.1670520066981      13.944365749402323
    21   1     0.45420870098080002      2.0330888597530503      3.0725930453430976
    22   1      5.9052610207820067       10.18015507578707     0.38594389876575264
    23   1      14.047484888174267      7.4290804985312775      5.8188426736570023
    24   1      8.6087679821719121      10.172383372079594      8.5628259606436359
    25   1      3.2053583524661065      15.617696102771561       8.528332211573229
    26   1      4.5624057222659076      6.0775375177018987      7.1985931231781706
    27   1       0.450529212001058      12.892343392326666      3.0653078031746759
    28   1      7.2524917962726931      3.3230080657737915      12.627351073690647
    29   1       15.39019855556694      6.0878580949261618      1.7418064463453078
    30   1      1.7903314107327759      11.512363704801601      9.8630055141583171
    31   1      5.8815190694697321      15.599978097901385      11.265061162152051
    32   1      15.418822643645854      14.282466009790596      4.4258231886788622
    33   1      11.347716307055975      4.7211980601667847      11.243298639633508
    34   1      15.401700365562874      14.234729020622467      15.347530111138894
    35   1      12.713067592362108       6.087239493009065      9.9302058319375419
    36   1     0.44251312159993716      10.159546043861383        0.38445196575897
    37   1      14.034756581851752      4.7159567351902183      13.953706589679996
    38   1      8.6202921805928554      7.4822603085010542      5.7799384048598199
    39   1      0.4275282080479812      4.7539669271017146      11.243578008241229
    40   1      14.085429374925411      15.615640261309863      8.5371629851246098
    41   1      14.051211100823593      12.886127197452424      11.233737808744877
    42   1      12.706171957459333      11.511482768947985      15.355831349768323
    43   1      1.8210351888130702     0.65643653021872694       4.425536032792877
    44   1      11.339817086666926      12.871684716502045      3.0836361359787929
    45   1      1.8182028096969844      3.3803757279824822      12.584321494233109
    46   1      15.430465598060323       6.046276949225728      7.1543477549016643
    47   1      12.667129464472964      3.3775282610147599      7.1616974854682098
    48   1      4.5425515696269372      3.3596099770817318      4.4551442381624042
    49   1       1.791467866654429     0.63054389082902418      15.351545426493772
    50   1      1.8173945145484254      11.509449315911297      4.4528017275196135
    51   1      8.6372723408475167      10.159107036049249      3.0803615854687791
    52   1      4.5435050245093862      8.8351889381565343      15.344016101822262
    53   1      8.6605397548905785      2.0034345390950534      5.7815318766745918
    54   1      3.1684510338387497      4.7251705454912099      8.5250021767055841
    55   1      7.2627641897126978     0.60850784016145809      4.4408141860419619
    56   1      15.412496453466133      8.7851186857385528       4.460093053499179
    57   1      10.012028711477001      8.8046959032942596      4.4539240689994131
    58   1      1.8039829962344669      3.3517759751481435      7.1682052165724599
    59   1      15.401978760760812      14.270361659138985      9.8989700854108378
    60   1      7.2648886565640964      14.267969991302152      7.2049110393747355
    61   1      1.8626800928542906      3.3718204293996905      1.7179520662030967
    62   1      14.037939631842164      15.605252032105682      3.0794319791260136
    63   1      7.2444645724971792      11.553141787431059      15.321829172638331
    64   1       7.265075064537541      8.8040369048711682      7.2018336043457793
    65   1      15.389544424192763      3.3338289756265169      4.4288154503518058
    66   1       9.985081808454197      3.3281668942712486      9.8988192068944727
    67   1      4.5245707441153513      6.1032136342529952      1.7465519407136583
    68   1      9.9675098150514714      8.7624664666783474       15.34257156170429
    69   1      7.2560408483415131      6.0948413367094076      9.9231846271727591
    70   1      3.1825559849468732      4.7406020107811173      3.1146786606635715
    71   1     0.45677935454148155      7.4378791495598193      3.0890590018798889
    72   1      14.061805692901771      10.180642754088353      3.1061457505057888
    73   1      15.435512727785181      11.517052619726314       12.59494626201456
    74   1      3.1636708617468798      7.4653229782768449      11.268832151651395
    75   1      4.5737697947775473      8.8117531242210134      4.4490808686240939
    76   1      14.027282741537874      7.4650319287517277      11.268617028089352
    77   1      8.6055148466771243      10.139641760618588      13.993010929897991
    78   1      8.6171441733546317      7.4147081030852746     0.34239226747396856
    79   1      14.059544461975861       7.442748145294388     0.39071783495120016
    80   1       5.902298934812336      7.4413702837465507      13.990872348604739
    81   1      9.9527188533987783      14.240989992346726      4.4244472739505909
    82   1      4.5360745009308516      14.266943043981087      4.4783517875038115
    83   1      11.297366686030273      2.0004246343697929      3.0842119078654378
    84   1      11.328703667174409      2.0009502756526132      8.5209167758463309
    85   1      4.4908513425273213      11.519606846996908       1.731725084575217
    86   1      1.7937086559748963      14.295597307763273      7.1720925285408725
    87   1      0.4716040813460225      7.4470111934390388      13.992471660878209
    88   1      15.423196173800875       11.52110297783338      1.7323635197166425
    89   1      11.360128255199015      15.611738834899597     0.35345732066789282
    90   1       12.70242725002413     0.63221462704532172      9.9131030220502225
    91   1     0.44259610478393796      15.613540616407931       11.25347271868543
    92   1      12.685868576205507      8.7823688031015763      12.597815874054845
    93   1      9.9917555059264487      11.514856607255865      7.1925141790833322
    94   1      7.2423147969914226     0.63218621564728039      9.9095656508987986
    95   1      1.8468713095972475      14.281345615130363      1.7357715490431502
    96   1      11.329359745368151      7.4075924775715407      13.954699467658656
    97   1      12.698838288154207      6.0903909071815292      15.351381893650228
    98   1      5.9155777043671378      2.0109524262016123      3.0829462317950913
    99   1      11.336619435529769      15.606504810496403      11.282421925631866
   100   1      14.039736546301583      4.7273602307980696      8.5402263057117125
   101   1      12.692100345636277      14.243044860398641      12.618081292327133
   102   1      5.8682373796855813      1.9826174408282498      13.996898728571296
   103   1      5.9075962308514249       10.14927754406051      11.297552607298826
   104   1      5.9222032180551309      15.621348336277379     0.35147299440619051
   105   1      3.1499657387071238      10.130118892711494      8.5135928406390349
   106   1      8.6365306025928703       15.60365856029091      13.972801969393117
   107   1      4.5443806066091952     0.66990395875709652      7.1874699695878235
   108   1      15.403654972407139     0.61871696196556769      12.622718616533348
   109   1      8.6193139037609399      4.7385140467965812      13.962234632788864
   110   1     0.45912098303165649      15.616277844717729       5.787310037146483
   111   1       8.646970422515551      15.624707573438513      8.5100593631267429
   112   1      9.9677025501885055     0.64141608720969145      12.615683784031603
   113   1      15.388761802727231      3.3445114179376105      15.351116152779468
   114   1       7.250503120086023      8.7889383457270469       12.63126418101831
   115   1      1.8097794081397893     0.62796374652295839      9.8863615084916319
   116   1      5.9060134665442661      10.167749941512511      5.8164281306902694
   117   1      5.8931406088689755      12.862218306362365      13.978884807127088
   118   1       3.165256302930942       15.59672593581638      3.0817190054111734
   119   1       4.543160437446204      6.0869484434839478      12.599297403744572
   120   1      10.009391744374852     0.62689141397076042      7.1614113029920077
   121   1       4.513921154384434     0.64256647505886377       12.61124795565047
   122   1       5.923181981591938      4.7408419562926269      5.8271789550386188
   123   1      11.341923545437339        12.8757185266428       13.98493260210887
   124   1      5.9124890751256771      7.4253289772275934      8.5577885650166081
   125   1      3.1728846720478714      1.9803198287116999      5.8233150049049982
   126   1      9.9933324297749095      3.3542528163409884      4.4373405732313245
   127   1      5.8826579589158428       4.700872777192842      11.249749426265453
   128   1      1.8411599493717148      8.8172100594645144       12.62233314625928
   129   1      3.1589785398879258      12.889186624400395      0.3826047686004479
   130   1      4.5193016769599694      14.285948869994172      15.346557674765677
   131   1      3.2063685084684153      1.9772902124383336        11.2503422328233
   132   1      4.5485867102815405      11.511300741318564      7.2020759833817465
   133   1      12.707012010102062     0.61243055991072737      4.4349839481466802
   134   1      7.2547510803790374      8.7971402965586094      1.7381107744279234
   135   1      5.8851051111103061        12.9078420228916      3.0944867348298999
   136   1      12.721117691267523     0.62387177514766989        15.3270875322861
   137   1      1.8013143933143709      8.7549167004013952        7.20296275969406
   138   1       3.217682937081122      4.7357953132726607      13.967675020066054
   139   1      15.440012801211992     0.67740243850610682      1.7218234385863127
   140   1       8.646861400619855      15.613555217554676      3.0714592662983478
   141   1      14.057278364001036      10.198228375228041      8.5394553651635761
   142   1      14.013484657863842      2.0300341781777718     0.39846909705323341
   143   1      11.327875295449076      12.901676445326075      8.5371075007669788
   144   1      3.1647034061741977       10.15003680369125      3.0775153352632856
   145   1      8.6023035678030055      1.9986710366457174       11.25139643561829
   146   1       9.974155283640016      14.257858210476343      9.9293657792948125
   147   1      7.2788191239686171      3.3500912461662153      1.7425052328932793
   148   1      5.9167973868252375      1.9770137640599614      8.5559147511843321
   149   1      8.6044285213592957      12.875883032896127     0.35651604797758196
   150   1      11.328390229224283      2.0012794098354902       13.95035027274821
   151   1      12.707113244719494      8.8193145714153616      7.1658515117171646
   152   1      1.8131738097293351      6.1071510768252324      4.4412293453144116
   153   1     0.44998337246524045      7.4222447283301562      8.5425118718821977
   154   1      12.690360862354055      14.218050617400536       1.732702874702241
   155   1      5.8877537591298506      7.4376241161966732      3.1006080222502987
   156   1      4.5645447902640512      8.7764796739144231       9.884866351064943
   157   1      9.9831096802338379      6.1081507686723739      7.1871307362784478
   158   1      11.357775523753503      10.171774017555435      5.8367076634044111
   159   1     0.40811008215368361      15.588792646084926     0.36971432871095189
   160   1      7.2830554033442354      11.512264417003735      4.4494093944258566
   161   1      0.4636763887208204      4.6806239068868649      5.7968952032796892
   162   1       14.08334627798979      12.899119297826132      5.8117611174856734
   163   1      14.048385292223543      15.592480895752715      13.987997869515539
   164   1       15.41999268220502      3.3474637698094512      9.9159852884176871
   165   1      11.354460090032603      4.7267221606853127     0.36620789373919393
   166   1      7.2500996417309693      6.0945191380712345      15.328886393565085
   167   1      15.413966302238464       8.785376639331048      9.9195577023212991
   168   1      15.397638326538413      6.0731995170039568      12.601166350527933
   169   1       1.816025535364858      6.0580002099472949      15.340103967904383
   170   1      3.1473915565359789       15.60176722508254      13.969463173837426
   171   1      12.663672886333529      14.239146354217723      7.1863023645531143
   172   1      11.339195077815589      15.578462821467724      5.7978637460137747
   173   1       4.533054010374201       3.342159903254327      9.8739427464801111
   174   1     0.46008712266034024      12.918306178058856       8.559396637978125
   175   1      3.1859558619664483      12.936460270511816      5.8050606512443892
   176   1      12.694063713168589      6.0805638487172473       4.442794101540585
   177   1      3.2010743760111211      1.9800284141579141     0.36913359851822491
   178   1      7.2518478857012383      3.3532645620587971      7.1509169721214789
   179   1      3.2080637016055107      7.4401355134368146     0.37723352383690667
   180   1      11.355373148409058      7.4160319403901553      8.5289688215713113
   181   1      5.8656636842193279      4.7144323754700395     0.36310813112334017
   182   1      12.719641028626711      11.513906559307657       4.475699245845135
   183   1      10.004345588059778      8.7466543981632867      9.9042050832238147
   184   1      4.5670902568465976     0.64821486783905868      1.7447587982171484
   185   1      14.050271760382998      12.857615051498556     0.36252648835894163
   186   1      15.414782019636618      8.8188317601629933      15.348123891106525
   187   1      5.8907727895718267      12.865114200466792      8.5480291585322448
   188   1      1.7839418272409375      14.274160877522036      12.663152112099624
   189   1      14.073071937730219      1.9953950260210291      11.284066014755354
   190   1      10.002189485390431     0.62378867028744622      1.7165964714040456
   191   1      12.714897602754149      11.531696596501774      9.8758788585384991
   192   1      8.5852319070287422      4.7390912787979005      8.5467608055849951
   193   1      14.029031958917926      4.7265075238281611       3.109809421576557
   194   1      1.8153153112519362       6.082700969895825       9.895723763784531
   195   1       7.255888023005582      6.0769072348674058       4.452065829723665
   196   1     0.45390673101467982      2.0154183086097959      13.981709642317355
   197   1         15.402013803513     0.63572827133328502      7.1677574480722797
   198   1      4.5333187778351771      14.259262840793212      9.9039169539280465
   199   1     0.43798594479448028       2.004661157097857        8.56125390384409
   200   1      9.9848559773845409      6.0697473192085454      12.633455326439844
   201   1      9.9903859183617669       6.103675517195029      1.7318457873883091
   202   1      3.2012459394853749      7.4559670501475352      5.8095052403135696
   203   1      7.2515115726212116      11.553317001191999      9.9057712995646625
   204   1      4.5410349971850223       11.55422227229019      12.575810972500335
   205   1      12.667998719409184      3.3494188633586077      1.7623446627092818
   206   1      4.5140632722127521       3.316593295303818      15.356682109918665
   207   1      8.6552200704264806      2.0169800229303974     0.33587048276597642
   208   1      11.328811715660322      10.171042013398619      11.245062458160305
   209   1      11.323696447250654      10.146812870489953     0.39384010766828581
   210   1      11.353264742819078      7.4484250711488471      3.1036438440110317
   211   1     0.45509203993981728      10.142530840854533      11.244734419063434
   212   1      8.6490778546957472      12.875291199748062      11.280063353727655
   213   1      7.2500436706684468      14.255141423771988      12.649551630611541
   214   1      7.2859615182513835      14.233287400733843      1.7465002283189364
   215   1      7.2764230757877613     0.64740955375796005      15.348016816030395
   216   1     0.45962283661290471      4.6910612932850881     0.37433820769453874


Velocities

     1                       0                       0                       0
     2                       0                       0                       0
     3                       0                       0                       0
     4                       0                       0                       0
     5                       0                       0                       0
     6                       0                       0                       0
     7                       0                       0                       0
     8                       0                       0                       0
     9                       0                       0                       0
    10                       0                       0                       0
    11                       0                       0                       0
    12                       0                       0                       0
    13                       0                       0                       0
    14                       0                       0                       0
    15                       0                       0                       0
    16                       0                       0                       0
    17                       0                       0                       0
    18                       0                       0                       0
    19                       0                       0                       0
    20                       0                       0                       0
    21                       0                       0                       0
    22                       0                       0                       0
    23                       0                       0                       0
    24                       0                       0                       0
    25                       0                       0                       0
    26                       0                       0                       0
    27                       0                       0                       0
    28                       0                       0                       0
    29                       0                       0                       0
    30                       0                       0                       0
    31                       0                       0                       0
    32                       0                       0                       0
    33                       0                       0                       0
    34                       0                       0                       0
    35                       0                       0                       0
    36                       0                       0                       0
    37                       0                       0                       0
    38                       0                       0                       0
    39                       0                       0                       0
    40                       0                       0                       0
    41                       0                       0                       0
    42                       0                       0                       0
    43                       0                       0                       0
    44                       0                       0                       0
    45                       0                       0                       0
    46                       0                       0                       0
    47                       0                       0                       0
    48                       0                       0                       0
    49                       0                       0                       0
    50                       0                       0                       0
    51                       0                       0                       0
    52                       0                       0                       0
    53                       0                       0                       0
    54                       0                       0                       0
    55                       0                       0                       0
    56                       0                       0                       0
    57                       0                       0                       0
    58                       0                       0                       0
    59                       0                       0                       0
    60                       0                       0                       0
    61                       0                       0                       0
    62                       0                       0                       0
    63                       0                       0                       0
    64                       0                       0                       0
    65                       0                       0                       0
    66                       0                       0                       0
    67                       0                       0                       0
    68                       0                       0                       0
    69                       0                       0                       0
    70                       0                       0                       0
    71                       0                       0                       0
    72                       0                       0                       0
    73                       0                       0                       0
    74                       0                       0                       0
    75                       0                       0                       0
    76                       0                       0                       0
    77                       0                       0                       0
    78                       0                       0                       0
    79                       0                       0                       0
    80                       0                       0                       0
    81                       0                       0                       0
    82                       0                       0                       0
    83                       0                       0                       0
    84                       0                       0                       0
    85                       0                       0                       0
    86                       0                       0                       0
    87                       0                       0                       0
    88                       0                       0                       0
    89                       0                       0                       0
    90                       0                       0                       0
    91                       0                       0                       0
    92                       0                       0                       0
    93                       0                       0                       0
    94                       0                       0                       0
    95                       0                       0                       0
    96                       0                       0                       0
    97                       0                       0                       0
    98                       0                       0                       0
    99                       0                       0                       0
   100                       0                       0                       0
   101                       0                       0                       0
   102                       0                       0                       0
   103                       0                       0                       0
   104                       0                       0                       0
   105                       0                       0                       0
   106                       0                       0                       0
   107                       0                       0                       0
   108                       0                       0                       0
   109                       0                       0                       0
   110                       0                       0                       0
   111                       0                       0                       0
   112                       0                       0                       0
   113                       0                       0                       0
   114                       0                       0                       0
   115                       0                       0                       0
   116                       0                       0                       0
   117                       0                       0                       0
   118                       0                       0                       0
   119                       0                       0                       0
   120                       0                       0                       0
   121                       0                       0                       0
   122                       0                       0                       0
   123                       0                       0                       0
   124                       0                       0                       0
   125                       0                       0                       0
   126                       0                       0                       0
   127                       0                       0                       0
   128                       0                       0                       0
   129                       0                       0                       0
   130                       0                       0                       0
   131                       0                       0                       0
   132                       0                       0                       0
   133                       0                       0                       0
   134                       0                       0                       0
   135                       0                       0                       0
   136                       0                       0                       0
   137                       0                       0                       0
   138                       0                       0                       0
   139                       0                       0                       0
   140                       0                       0                       0
   141                       0                       0                       0
   142                       0                       0                       0
   143                       0                       0                       0
   144                       0                       0                       0
   145                       0                       0                       0
   146                       0                       0                       0
   147                       0                       0                       0
   148                       0                       0                       0
   149                       0                       0                       0
   150                       0                       0                       0
   151                       0                       0                       0
   152                       0                       0                       0
   153                       0                       0                       0
   154                       0                       0                       0
   155                       0                       0                       0
   156                       0                       0                       0
   157                       0                       0                       0
   158                       0                       0                       0
   159                       0                       0                       0
   160                       0                       0                       0
   161                       0                       0                       0
   162                       0                       0                       0
   163                       0                       0                       0
   164                       0                       0                       0
   165                       0                       0                       0
   166                       0                       0                       0
   167                       0                       0                       0
   168                       0                       0                       0
   169                       0                       0                       0
   170                       0                       0                       0
   171                       0                       0                       0
   172                       0                       0                       0
   173                       0                       0                       0
   174                       0                       0                       0
   175                       0                       0                       0
   176                       0                       0                       0
   177                       0                       0                       0
   178                       0                       0                       0
   179                       0                       0                       0
   180                       0                       0                       0
   181                       0                       0                       0
   182                       0                       0                       0
   183                       0                       0                       0
   184                       0                       0                       0
   185                       0                       0                       0
   186                       0                       0                       0
   187                       0                       0                       0
   188                       0                       0                       0
   189                       0                       0                       0
   190                       0                       0                       0
   191                       0                       0                       0
   192                       0                       0                       0
   193                       0                       0                       0
   194                       0                       0                       0
   195                       0                       0                       0
   196                       0                       0                       0
   197                       0                       0                       0
   198                       0                       0                       0
   199                       0                       0                       0
   200                       0                       0                       0
   201                       0                       0                       0
   202                       0                       0                       0
   203                       0                       0                       0
   204                       0                       0                       0
   205                       0                       0                       0
   206                       0                       0                       0
   207                       0                       0                       0
   208                       0                       0                       0
   209                       0                       0                       0
   210                       0                       0                       0
   211                       0                       0                       0
   212                       0                       0                       0
   213                       0                       0                       0
   214                       0                       0                       0
   215                       0                       0                       0
   216                       0                       0                       0
