(written by ASE)

8 atoms
1 atom types

0.0       5.443702220916748  xlo xhi
0.0       5.443702220916748  ylo yhi
0.0       5.443702220916748  zlo zhi

Atoms # atomic

     1   1       2.477057362142034      4.6414996207666945     0.62241514641885587
     2   1      5.1866214450207622      1.8575443153997071     0.62609232365772982
     3   1      3.8465891579839422      3.2437162274979414      1.9237429964450996
     4   1       1.146302238430458     0.58590810094008106      2.0321054101771523
     5   1      1.1099408393947172      3.2216525962423077      4.7476343861453074
     6   1       5.215877925842932      4.5850804636267242      3.3148773517619645
     7   1      3.8751074696991168     0.50446184749108625      4.6617546565927057
     8   1      2.5064506070427086      1.9505688729681481      3.3401775706405772

Velocities

     1                       0                       0                       0
     2                       0                       0                       0
     3                       0                       0                       0
     4                       0                       0                       0
     5                       0                       0                       0
     6                       0                       0                       0
     7                       0                       0                       0
     8                       0                       0                       0
