(written by ASE)

8 atoms
2 atom types

0.0      5.5429244041442871  xlo xhi
0.0      5.5429244041442871  ylo yhi
0.0      5.5429244041442871  zlo zhi

Atoms # atomic

     1   1      2.7714622020721436      2.7714622020721436      2.7714622020721436
     2   2      1.3857311010360718      4.1571933031082153      4.1571933031082153
     3   2      4.1571933031082153      4.1571933031082153      1.3857311010360718
     4   2      4.1571933031082153      1.3857311010360718      4.1571933031082153
     5   2      1.3857311010360718      1.3857311010360718      1.3857311010360718
     6   2      5.5306773981608615     0.42613924647554313      2.5995075510918753
     7   1      5.5088218331384553      3.1461520635150464     0.33965878739030231
     8   1      3.0086181433712511     0.32312657651242915      5.2983103735233783

Velocities

     1                       0                       0                       0
     2                       0                       0                       0
     3                       0                       0                       0
     4                       0                       0                       0
     5                       0                       0                       0
     6                       0                       0                       0
     7                       0                       0                       0
     8                       0                       0                       0
