(written by ASE)

8 atoms
1 atom types

0.0       5.443702220916748  xlo xhi
0.0       5.443702220916748  ylo yhi
0.0       5.443702220916748  zlo zhi

Atoms # atomic

     1   1      1.8395829575593439      1.2188252441381451      1.2413057381455204
     2   1      5.0630097554179372      1.8393683206959253      2.5981117419352842
     3   1      4.4910847675364209      4.0147437560875119      1.3100502914352035
     4   1      3.7201516596985584     0.46132255537967026      5.3660620809478985
     5   1      3.2232752703979486       2.557328953301095      3.9478591455950038
     6   1      1.0075678973498299      3.1760979904775581      5.3171839296170162
     7   1     0.40965736952371756       5.371515447181423      4.0209940204866541
     8   1      2.3138814307539519      4.5763298338919753      2.7304339892356211

Velocities

     1                       0                       0                       0
     2                       0                       0                       0
     3                       0                       0                       0
     4                       0                       0                       0
     5                       0                       0                       0
     6                       0                       0                       0
     7                       0                       0                       0
     8                       0                       0                       0
