(written by ASE)

64 atoms
1 atom types

0.0      10.887404441833496  xlo xhi
0.0      10.887404441833496  ylo yhi
0.0      10.887404441833496  zlo zhi

Atoms # atomic

     1   1       5.443702220916748       5.443702220916748       5.443702220916748
     2   1      6.8046277761459351      6.8046277761459351       4.082776665687561
     3   1       4.082776665687561      6.8046277761459351      6.8046277761459351
     4   1      6.8046277761459351       4.082776665687561      6.8046277761459351
     5   1       4.082776665687561       4.082776665687561       4.082776665687561
     6   1      5.6439624703605205      4.6517330781141766      4.6320030346464591
     7   1      6.1250748122350842      4.0226131254729864      8.8340048808566394
     8   1      9.5388931063993141      3.0799753939492973      6.8618629751778144
     9   1      2.1300930599040981     0.49618875638632431     0.62438301602887236
    10   1      9.1808755735177101      3.0595146441831389      8.5069664396934854
    11   1      9.5872203077769313      5.3628517753898279      8.0261785677560624
    12   1      3.8046319504122721      4.3394194071684069      1.0326167331446428
    13   1      4.4580547013453042      5.0920073092302687      4.8916270059097542
    14   1      7.7234526589828647      10.201022034685707      5.8460806346643608
    15   1     0.95300584389508458      7.4068115324854489     0.44569190565653116
    16   1      6.1269470037723863      5.5732241304245917      4.4541931846233922
    17   1      1.6921859992144164      3.0686721592190622      3.6133935875706982
    18   1      3.9511126056547141      6.3585562406629492      2.4346871043403837
    19   1     0.30360652018259771       5.048603290208888      8.2634653796067141
    20   1      10.192533252190231      6.6084980290019644      2.8766868665821903
    21   1       1.681558797598214      10.191363862536775      8.0700540415961086
    22   1      7.2984502543981762    0.078907195073384173      1.3446605262201956
    23   1       1.001411323645037     0.97306457540912561      5.2761673603931172
    24   1     0.37546545760518413      7.5391173940539602      7.3245759247968749
    25   1      6.9882440156941357      6.1613667747042768     0.19902775038754328
    26   1     0.15639321182209187       7.504184311681513      6.1963790277413864
    27   1        3.97415418930089      1.4128040800688098      3.2174974342272833
    28   1      10.693321451053009      3.5876958930190881     0.99459202009363423
    29   1      1.5713546925029505     0.61454780497048844       8.273394159683221
    30   1      8.1981184321463161       6.640195497161244      7.6392274016397437
    31   1      3.8084048868413447       10.04412784128067      5.5958189189673249
    32   1     0.92783735981095106      8.6130557792808986      4.2210839232134276
    33   1      2.0023549238756857      7.7090156935997243      2.6562780074517889
    34   1      2.6295068041131486      5.6348215032913913      7.9618718709141376
    35   1      1.9410591458154585      5.1288184235988865      6.6978635390892691
    36   1      6.7062452465054889      7.1807747422953412      2.4653566517388015
    37   1      10.111907664329749     0.23665798911247293     0.21447203269053716
    38   1       3.197530203235516      3.7152690360844645      7.3459675788126901
    39   1     0.24159822641978046      4.8232725466019986      10.690577084324673
    40   1      4.8614211260515106      3.4980172694424425      3.2309752664762357
    41   1      9.4178541389280781      6.0838385768637409       4.249454276637266
    42   1      1.2890168522299916      2.0163171897407892     0.87243882285825691
    43   1       4.548602904353487      6.6596299485162262      10.579203427340985
    44   1      3.8569660310436404      9.6708109019230051     0.77662504059266979
    45   1      2.6858980568385249      8.6483230656886008      1.9450637537796496
    46   1      2.3531611124043366      2.1307295076857997     0.19457294038556938
    47   1      2.6288791170197499     0.42213344140049003      4.6589006190256157
    48   1      8.8684090772315471      6.0430559504645203      1.3662564340614409
    49   1      6.2408586646043887      5.2977556431908397      8.3438878492865456
    50   1      6.9937256108121915      2.1101621695452906      2.9380197964502202
    51   1      5.3524830140785582      5.8811052175590817      8.2365999177513345
    52   1      2.8139032316252042      7.0333914116877736      4.6659961276110096
    53   1      5.2779100884255001      9.4539338980583807      6.5557677705773472
    54   1      10.383278745197288      10.323780692823789      3.4770750062895672
    55   1      4.2038675483487395      9.1085862672822486      7.7000797915308681
    56   1      5.5425909236591338       7.459225757191291      3.1013417393100156
    57   1      3.6892024192143253      7.8544450662458303      6.9169508321656963
    58   1      6.0515103391466596      4.1585498056381027      3.4782580236803824
    59   1      2.0078160773877016      7.0999388979155924      6.6317748533525673
    60   1      8.2616236882435032      5.4355278497903612      2.7395681424360703
    61   1      3.6165065521476265      8.3599348344977784      10.608782106810736
    62   1      3.2049336337912564      4.3198551678385684      9.1528193069930239
    63   1      2.2829076927894647      5.4394591275487585      3.0243038155444992
    64   1      6.9959923577930567      6.1776603570677366     0.67700733501901311

Velocities

     1                       0                       0                       0
     2                       0                       0                       0
     3                       0                       0                       0
     4                       0                       0                       0
     5                       0                       0                       0
     6                       0                       0                       0
     7                       0                       0                       0
     8                       0                       0                       0
     9                       0                       0                       0
    10                       0                       0                       0
    11                       0                       0                       0
    12                       0                       0                       0
    13                       0                       0                       0
    14                       0                       0                       0
    15                       0                       0                       0
    16                       0                       0                       0
    17                       0                       0                       0
    18                       0                       0                       0
    19                       0                       0                       0
    20                       0                       0                       0
    21                       0                       0                       0
    22                       0                       0                       0
    23                       0                       0                       0
    24                       0                       0                       0
    25                       0                       0                       0
    26                       0                       0                       0
    27                       0                       0                       0
    28                       0                       0                       0
    29                       0                       0                       0
    30                       0                       0                       0
    31                       0                       0                       0
    32                       0                       0                       0
    33                       0                       0                       0
    34                       0                       0                       0
    35                       0                       0                       0
    36                       0                       0                       0
    37                       0                       0                       0
    38                       0                       0                       0
    39                       0                       0                       0
    40                       0                       0                       0
    41                       0                       0                       0
    42                       0                       0                       0
    43                       0                       0                       0
    44                       0                       0                       0
    45                       0                       0                       0
    46                       0                       0                       0
    47                       0                       0                       0
    48                       0                       0                       0
    49                       0                       0                       0
    50                       0                       0                       0
    51                       0                       0                       0
    52                       0                       0                       0
    53                       0                       0                       0
    54                       0                       0                       0
    55                       0                       0                       0
    56                       0                       0                       0
    57                       0                       0                       0
    58                       0                       0                       0
    59                       0                       0                       0
    60                       0                       0                       0
    61                       0                       0                       0
    62                       0                       0                       0
    63                       0                       0                       0
    64                       0                       0                       0
