(written by ASE)

64 atoms
1 atom types

0.0      10.887404441833496  xlo xhi
0.0      10.887404441833496  ylo yhi
0.0      10.887404441833496  zlo zhi

Atoms # atomic

     1   1       5.443702220916748       5.443702220916748       5.443702220916748
     2   1      6.8046277761459351      6.8046277761459351       4.082776665687561
     3   1       4.082776665687561      6.8046277761459351      6.8046277761459351
     4   1      6.8046277761459351       4.082776665687561      6.8046277761459351
     5   1       4.082776665687561       4.082776665687561       4.082776665687561
     6   1      6.1130324349880425       8.110017705873986      1.3195556382437417
     7   1      1.1625718911360536      4.9778363969184909      1.0546791476380122
     8   1       3.767119332039556      4.1108280651631901       3.860286980850276
     9   1      4.0440064018384874      5.6176012347874575      6.8678617753756726
    10   1      5.3314447078242893     0.41661238262632949      2.5432847587768634
    11   1      4.6168528843414833      5.4954019628210062      4.9090172966607497
    12   1      3.8826079167660623      6.7946782299934512      2.7509391913831678
    13   1      3.7052124148527241      2.5515626358131982       10.12624469297225
    14   1      3.5479671449757006      10.343408528261307     0.61762073806892204
    15   1      4.9081889249112294      6.2129769629058842      5.2791258772799665
    16   1      3.9111648404037567       10.23570592414643     0.92029148695280583
    17   1      1.9878188329267488      8.4407466681021788      6.8127687268687964
    18   1      4.4776053129377829      2.6050979041518616      6.5107774180332854
    19   1      3.0787349453796082      7.0174910868881284      7.9041817650303869
    20   1       8.736209641802418     0.39959081140015229      2.5909028311068596
    21   1      4.7683595789102355      6.0167271618851714      7.2644471028655744
    22   1      7.0691655201372896      5.9713597752741521      7.1347908628037544
    23   1       4.168311159227045      1.0967661431845386      1.4434395581238277
    24   1      5.6712179450803433      6.4930444870286692      1.6655080809827041
    25   1      5.6008261390372809      3.2268061522539142      5.0551871097034109
    26   1      2.3245707683631167      10.601764471010256      8.9646462116476187
    27   1      9.3023168837110006      6.6066128586671766      3.0296046809075676
    28   1      6.9722560840114625      5.2748642891255599       7.415456709490627
    29   1      9.9286924696238543      6.2787638916010451      6.1805929163596147
    30   1      2.7746478852201051      8.7670037856566978      3.4577057733919503
    31   1      4.5801423556533791      7.4398328379882628      8.8044236056273917
    32   1      2.9241120415345563      4.7079351648661998      1.5953395102563945
    33   1      6.1629080069056954      7.0614677953485625      6.5509390089728186
    34   1      5.0481902399789078      3.6768167527737887      10.375239678034688
    35   1      5.0128940757468001      8.4181324113632172     0.81487258337300972
    36   1      9.4907411187877528      3.0215127251452145      9.6910143470290109
    37   1      3.5044015399256239      7.4162983845075701      5.2082564514894329
    38   1      10.696474649902143      0.2198011269381368      3.4944409617952772
    39   1     0.42162012995993337      5.1705845183775807      2.3245302096209741
    40   1      5.1624419453050336      6.0811805191386838      10.113968697370467
    41   1      4.5724144551604979      2.3732925251842971      2.6877272561091559
    42   1      1.4862103740628783      7.7624727646835368      2.3001531077135269
    43   1       3.725208523668897      3.5622529073681335      7.8047349739961192
    44   1      8.0682675101222117      7.4695263798157612      0.2537261420540009
    45   1     0.70126868227638539      4.4642644070023039      7.4071489812200753
    46   1      9.0828032371371705      8.9773271457309534      2.6568826571796507
    47   1      2.9797709656118059      4.6683806571790569      6.8680746276544369
    48   1      7.8842249170766081      10.810902217934199      2.8038329826561039
    49   1      4.7729397965429143      10.609766548600021      5.1972698994178472
    50   1      4.6664698537192351      5.2894904204820534     0.88923719932642342
    51   1     0.77074329292463517      10.845401808470626      5.5653849367432713
    52   1      3.0836496915174791      8.5343951813597414      9.3577415404936346
    53   1      6.7998074507597721      7.5804574598051886      4.3038675606258323
    54   1     0.42643526382710206      6.0547952727902725      4.3953281730972549
    55   1      1.3733658948541319      5.5127312532238193      1.4643433715891518
    56   1      5.9030809174617502      8.8154432536325658      3.3446753729092222
    57   1      9.2910117021611427      10.202985077805408     0.83350713521545572
    58   1      4.8160307020749542      4.9687392332908757      7.2677949836769926
    59   1      9.6323956081851634      9.6201624426150829      1.4589654446160125
    60   1      7.5947289455203872       3.496957875097678      1.1917105893710414
    61   1       7.866600359030997      8.1909054654436773      1.3869999593778175
    62   1      2.9521540313820083      7.3748291797213597      5.2960155109179539
    63   1      6.5232130528441417       8.494073951211135     0.39847130899953243
    64   1     0.85730538275504387      1.9855561418200978     0.89833655312611427

Velocities

     1                       0                       0                       0
     2                       0                       0                       0
     3                       0                       0                       0
     4                       0                       0                       0
     5                       0                       0                       0
     6                       0                       0                       0
     7                       0                       0                       0
     8                       0                       0                       0
     9                       0                       0                       0
    10                       0                       0                       0
    11                       0                       0                       0
    12                       0                       0                       0
    13                       0                       0                       0
    14                       0                       0                       0
    15                       0                       0                       0
    16                       0                       0                       0
    17                       0                       0                       0
    18                       0                       0                       0
    19                       0                       0                       0
    20                       0                       0                       0
    21                       0                       0                       0
    22                       0                       0                       0
    23                       0                       0                       0
    24                       0                       0                       0
    25                       0                       0                       0
    26                       0                       0                       0
    27                       0                       0                       0
    28                       0                       0                       0
    29                       0                       0                       0
    30                       0                       0                       0
    31                       0                       0                       0
    32                       0                       0                       0
    33                       0                       0                       0
    34                       0                       0                       0
    35                       0                       0                       0
    36                       0                       0                       0
    37                       0                       0                       0
    38                       0                       0                       0
    39                       0                       0                       0
    40                       0                       0                       0
    41                       0                       0                       0
    42                       0                       0                       0
    43                       0                       0                       0
    44                       0                       0                       0
    45                       0                       0                       0
    46                       0                       0                       0
    47                       0                       0                       0
    48                       0                       0                       0
    49                       0                       0                       0
    50                       0                       0                       0
    51                       0                       0                       0
    52                       0                       0                       0
    53                       0                       0                       0
    54                       0                       0                       0
    55                       0                       0                       0
    56                       0                       0                       0
    57                       0                       0                       0
    58                       0                       0                       0
    59                       0                       0                       0
    60                       0                       0                       0
    61                       0                       0                       0
    62                       0                       0                       0
    63                       0                       0                       0
    64                       0                       0                       0
