(written by ASE)

64 atoms
1 atom types

0.0      10.887404441833496  xlo xhi
0.0      10.887404441833496  ylo yhi
0.0      10.887404441833496  zlo zhi

Atoms # atomic

     1   1       5.443702220916748       5.443702220916748       5.443702220916748
     2   1      6.8046277761459351      6.8046277761459351       4.082776665687561
     3   1       4.082776665687561      6.8046277761459351      6.8046277761459351
     4   1      6.8046277761459351       4.082776665687561      6.8046277761459351
     5   1       4.082776665687561       4.082776665687561       4.082776665687561
     6   1      5.2248196683706567      9.0123965054769997      9.9463559640619224
     7   1      3.3621003819434918      7.4417465616775189      7.3605479599080468
     8   1      9.3137778108306861      1.5760322511167715      2.1544863853084024
     9   1      4.5687576789689217      3.9515490177201684      2.1396066806960334
    10   1      2.2461488180807265      1.4091872136795018      1.5352033877515083
    11   1      10.454714695498069      4.9171199599310285      5.7453164956853016
    12   1      2.1691658919695556      8.9070450105266445      2.0236034866492218
    13   1      4.5507525176870445      7.5574590306606524      2.5874374921781964
    14   1      1.1983490820499725      4.1487699572627434      3.9428133136025281
    15   1      3.6960672296744121      5.2272804483739321      7.1713566778998938
    16   1      2.8255870695917054      1.3524551052851592      3.8820673498507858
    17   1      5.5133957676550835       8.325229530021204      6.8981374162704014
    18   1      2.9000792022304154      3.9711278581971783      4.6515899868718975
    19   1      4.0730308866556015      1.7525503863200811     0.60633697153491539
    20   1      10.137994398335991      8.9369819048069985      6.2716326913225657
    21   1      7.1805664325956968      2.7523123481571474      5.3547442450704921
    22   1     0.78236321031351963      2.0819530776802111      10.023217700651571
    23   1      6.2156110098555928      5.2031450765696547      4.4321490215639869
    24   1      1.6661200312841515      4.8178749891976622      5.8544058843115181
    25   1      1.7601429828491746      5.4349519156519364      10.865605253576632
    26   1      1.7182983663456923       9.612859273269919      7.9202443247986025
    27   1     0.30020088372236842      4.1341821133588326      10.605719759544002
    28   1      8.7983177303502771     0.11144633824960692      1.5718083014750732
    29   1      8.7190179266529526      1.7402902897452179      2.5992211046503684
    30   1      7.2259805428776644      8.5312672911657046     0.42600047411133346
    31   1      1.3654953898238773      3.6869084167587403      1.5104056105705581
    32   1      0.7114508733737992      8.2132718271506633      2.7563461584156812
    33   1      10.886371978493514      7.9698869273013884      10.818477942026561
    34   1     0.37216138023527989       9.485413971359776      5.1572458837316617
    35   1      9.8771296540330695      8.0777971921760354     0.96927695671539738
    36   1      9.4497099484166824      4.5052641037894716      10.450150052422373
    37   1      6.9440090291637375      5.5934970120971457      4.7441586641786557
    38   1     0.92527153266552631      9.4415962531685409      7.4947441833303401
    39   1      1.8460781967610274      4.9661055108111043      8.9824693452947599
    40   1      6.6188661413733598      8.8796837586073138      9.1544741036724417
    41   1      5.5585314827309844      4.5275671938587152      3.5629706348690888
    42   1      5.0178370507692023      2.1454482752093469      9.5823720779761743
    43   1      7.6471918407168005      9.9566319269711698      2.9249092641701111
    44   1      4.3646385085627344      9.6692021799746612      2.9738782670833928
    45   1      7.8331325828946774      5.7451159732641486      4.9975826638830654
    46   1      5.7408277785748965      10.372505045404466      9.1300726665197089
    47   1      7.5448644055805971      2.8583179745007783      6.5738907144464065
    48   1      1.7656902831295014     0.54326703241714469      9.2115671848718534
    49   1      1.2815523402085844      9.9608007167235542      9.9141614079589431
    50   1      1.0407807212330411      2.3118041742163769      3.1445643796365346
    51   1     0.81117484285186947      2.6694631678174403      7.6841333920001489
    52   1      4.9537127060319506      4.2143917307598997      1.6448562184235698
    53   1      5.1180800910292135      3.3679255907249797      10.219575225691415
    54   1       1.217459063467814      5.0132195190937523      8.8772684043952381
    55   1      2.5046003172261635      6.4292407185893126      7.7463096192348075
    56   1       10.20959972194396      8.3077470898080605      4.4944102599221765
    57   1      1.8465563032134042      3.8201214962714971      5.0531708535140183
    58   1      10.222285198606414      8.6278191614208026      10.018200097543627
    59   1      4.6402543051479483       3.226612119231504    0.057738913260076519
    60   1      1.3114503792139658     0.11793703487217044      9.8755073043473658
    61   1      3.9299883148671029      10.445253152131045      8.0994601030593003
    62   1      4.8146484601427346      4.1921425027002215      6.0345327741557071
    63   1      3.4246478027862395      6.6589790618223219      3.1110748640144266
    64   1      6.5020770811387933      2.6483924145694573      5.5594451900739728

Velocities

     1                       0                       0                       0
     2                       0                       0                       0
     3                       0                       0                       0
     4                       0                       0                       0
     5                       0                       0                       0
     6                       0                       0                       0
     7                       0                       0                       0
     8                       0                       0                       0
     9                       0                       0                       0
    10                       0                       0                       0
    11                       0                       0                       0
    12                       0                       0                       0
    13                       0                       0                       0
    14                       0                       0                       0
    15                       0                       0                       0
    16                       0                       0                       0
    17                       0                       0                       0
    18                       0                       0                       0
    19                       0                       0                       0
    20                       0                       0                       0
    21                       0                       0                       0
    22                       0                       0                       0
    23                       0                       0                       0
    24                       0                       0                       0
    25                       0                       0                       0
    26                       0                       0                       0
    27                       0                       0                       0
    28                       0                       0                       0
    29                       0                       0                       0
    30                       0                       0                       0
    31                       0                       0                       0
    32                       0                       0                       0
    33                       0                       0                       0
    34                       0                       0                       0
    35                       0                       0                       0
    36                       0                       0                       0
    37                       0                       0                       0
    38                       0                       0                       0
    39                       0                       0                       0
    40                       0                       0                       0
    41                       0                       0                       0
    42                       0                       0                       0
    43                       0                       0                       0
    44                       0                       0                       0
    45                       0                       0                       0
    46                       0                       0                       0
    47                       0                       0                       0
    48                       0                       0                       0
    49                       0                       0                       0
    50                       0                       0                       0
    51                       0                       0                       0
    52                       0                       0                       0
    53                       0                       0                       0
    54                       0                       0                       0
    55                       0                       0                       0
    56                       0                       0                       0
    57                       0                       0                       0
    58                       0                       0                       0
    59                       0                       0                       0
    60                       0                       0                       0
    61                       0                       0                       0
    62                       0                       0                       0
    63                       0                       0                       0
    64                       0                       0                       0
