(written by ASE)

8 atoms
1 atom types

0.0       5.443702220916748  xlo xhi
0.0       5.443702220916748  ylo yhi
0.0       5.443702220916748  zlo zhi

Atoms # atomic

     1   1      1.4490963670079395      2.8065887058322403      1.4494592866326315
     2   1      2.8675439526934383      1.4075770316164409     0.18386074792520724
     3   1      2.9158046377339417      4.1055813862796242      2.8292068562104475
     4   1      4.2437773506170515    0.046704339637793968      1.4771889741655855
     5   1     0.12778266952728501      1.3088567287714312      2.7896568911024247
     6   1       4.140377542338598      2.6950792581798595      4.1663244298019322
     7   1      1.6005629895394549    0.018631137303341871      4.2198340650155615
     8   1     0.13425245811827402      4.1454305126696909      5.3945469722595476

Velocities

     1                       0                       0                       0
     2                       0                       0                       0
     3                       0                       0                       0
     4                       0                       0                       0
     5                       0                       0                       0
     6                       0                       0                       0
     7                       0                       0                       0
     8                       0                       0                       0
