(written by ASE)

8 atoms
1 atom types

0.0       5.443702220916748  xlo xhi
0.0       5.443702220916748  ylo yhi
0.0       5.443702220916748  zlo zhi

Atoms # atomic

     1   1      3.2317711912320419      1.4718259728095546      1.7195957593893496
     2   1      2.6035157887383633      4.6277313879240012      1.0465063177438267
     3   1      4.0532096671355475     0.50105179012796341      3.9009781067272229
     4   1      1.5069031198340923      2.4170795809664725       3.040336848548435
     5   1      5.2366634700161683      2.4403366126509098     0.50437302384579397
     6   1      1.1085936402157088     0.44272223511559261      5.1349940599124864
     7   1      3.3076754170371885      3.4045309911534503       4.540031706493977
     8   1      5.2807115618627734      4.4610959580661245      2.5004243891351621

Velocities

     1                       0                       0                       0
     2                       0                       0                       0
     3                       0                       0                       0
     4                       0                       0                       0
     5                       0                       0                       0
     6                       0                       0                       0
     7                       0                       0                       0
     8                       0                       0                       0
