ITEM: TIMESTEP
10000
ITEM: NUMBER OF ATOMS
64
ITEM: BOX BOUNDS pp pp pp
0.0000000000000000e+00 1.0887404739999999e+01
0.0000000000000000e+00 1.0887404739999999e+01
0.0000000000000000e+00 1.0887404739999999e+01
ITEM: ATOMS id type xu yu zu vx vy vz fx fy fz element
2 1 0.0112884 2.7294 2.71859 -0.154842 -2.84828 -0.606807 -0.334301 0.137568 0.300296 Si
6 1 2.70573 2.67104 0.0130296 -2.92338 -1.60406 0.389485 0.509675 -0.00462386 -0.232357 Si
7 1 1.37062 1.37582 1.40263 -2.20003 2.05819 -3.08096 -0.511913 -0.275597 -0.262753 Si
8 1 2.67237 0.0222365 2.75725 -2.92912 -0.313757 -2.27276 1.02097 0.338198 0.465535 Si
34 1 5.43776 2.78216 2.6965 0.82847 -1.19345 -2.83851 0.0666606 -0.45404 0.409882 Si
36 1 5.49599 0.00324252 0.0567384 -2.08613 -0.749688 2.0084 0.301866 -0.105599 -0.477923 Si
39 1 6.84034 1.41757 1.33962 2.77538 -2.53553 -0.228082 -0.707539 0.131941 0.331649 Si
40 1 8.1229 0.0670353 2.70305 -2.60896 0.582185 -1.00603 0.520833 -0.642885 -0.617268 Si
20 1 0.0341776 5.41713 0.054093 -1.70434 5.22164 0.143741 -0.409103 -0.410052 -0.853575 Si
23 1 1.37256 6.81926 1.31075 -1.41022 -0.0593737 1.0658 0.301414 -0.110554 0.851301 Si
24 1 2.71509 5.48155 2.74088 -1.50848 -1.9163 -2.8674 -0.00333327 -0.466348 -0.262064 Si
1 1 4.04763 4.0612 1.32947 2.71654 2.11523 -0.434693 -0.154613 0.436467 0.627876 Si
52 1 5.4899 5.35652 0.0323042 -2.71827 -5.68281 1.8006 -0.328369 0.957336 -0.59291 Si
55 1 6.86478 6.85854 1.25592 -1.98182 1.14511 -1.85964 -0.768272 -0.705858 0.493228 Si
33 1 9.49217 4.08309 1.39755 -3.45211 1.98407 0.143474 0.611002 0.0863865 -0.339905 Si
56 1 8.13696 5.48245 2.6693 -4.97699 -0.656404 5.30976 -0.349631 -0.581377 0.295128 Si
18 1 0.0574163 8.15768 2.72051 -0.01668 -0.453162 -2.38121 -0.564992 -0.0239683 -0.451719 Si
17 1 4.06725 9.59888 1.37715 0.0807566 -4.0522 1.51869 0.266397 -0.951783 0.278701 Si
50 1 5.50809 8.1605 2.69045 -0.00426354 -6.4898 -1.67306 -0.328197 0.609506 -0.379054 Si
4 1 -0.0192952 -0.00226971 0.0768152 0.746698 1.00303 2.02952 -0.303852 -0.219044 -0.149301 Si
49 1 9.42955 9.47001 1.40407 -4.40628 2.28771 -2.37036 0.993329 0.561546 -0.385752 Si
14 1 2.66877 2.7211 5.48006 1.93529 2.28941 -1.19441 -0.0993886 -0.133101 0.708906 Si
15 1 1.3019 1.26007 6.79554 2.34457 6.67251 0.278691 0.516659 0.542267 0.197926 Si
3 1 4.07637 1.45357 4.13826 0.478611 0.93925 1.79833 0.0635672 -0.943386 -0.839808 Si
47 1 6.8314 1.3328 6.81664 -1.19058 4.41339 -0.393051 -0.706063 0.175692 -0.286188 Si
35 1 9.47613 1.36017 4.01054 7.08977 1.24722 -6.2224 0.459567 0.523177 0.867981 Si
46 1 8.10239 2.72899 5.41129 1.94433 0.072291 0.92769 0.886895 -0.261285 0.411471 Si
5 1 1.35235 4.06894 4.1251 4.19831 -6.0637 -4.83603 0.251528 0.143861 -0.931604 Si
31 1 1.37332 6.77081 6.78855 -0.346061 5.34289 -0.0555081 -0.492898 0.439009 -0.0622328 Si
9 1 3.9798 4.09656 6.89327 1.31844 -5.63763 -6.24073 1.12811 0.202629 -1.71571 Si
19 1 4.0971 6.86454 4.06606 3.68864 4.47934 -0.901536 -0.401457 0.301972 0.175212 Si
37 1 6.77614 4.11339 4.1199 -1.47248 4.41763 1.29172 -0.199373 0.673045 -0.868822 Si
60 1 5.3961 5.51242 5.43703 -2.89192 -1.29032 -1.49164 -0.472841 -1.15467 0.634597 Si
63 1 6.76056 6.82825 6.77534 1.84053 3.24812 2.48437 0.48666 0.640193 0.522257 Si
28 1 -0.0195052 5.41989 5.37726 -0.835059 -2.95691 1.64238 0.0950077 0.129125 1.02159 Si
41 1 9.50682 4.08664 6.79745 0.739134 3.86018 6.8113 -0.0156252 -0.114003 -0.531976 Si
51 1 9.56904 6.73268 3.97285 0.109035 3.70457 1.63829 0.181918 0.478275 0.337345 Si
21 1 1.39488 9.48989 4.10317 -4.48123 5.38867 -2.17224 -0.713247 0.63122 -0.251104 Si
30 1 2.71624 8.23169 5.49133 -1.0294 0.303622 -0.884538 0.703203 -0.724006 0.289932 Si
44 1 5.4425 -0.0243084 5.41771 0.5659 -3.77649 1.04021 0.336524 -0.144455 0.328522 Si
25 1 4.03552 9.60137 6.93889 -2.526 -0.140807 -3.2285 0.679903 -0.536314 -1.15519 Si
53 1 6.9346 9.5038 4.01514 3.9773 -4.2531 0.784084 -1.47292 0.017803 0.956675 Si
12 1 -0.0628185 -0.0444458 5.37518 -2.4195 -5.25776 -0.644899 0.414036 0.22952 -0.132258 Si
57 1 9.53785 9.46311 6.71335 -1.37569 -2.13833 -2.89291 0.00245317 0.011655 0.829254 Si
62 1 8.26463 8.08032 5.35118 4.42958 -3.33657 1.3562 -0.985027 0.0472347 0.348549 Si
10 1 0.00899602 2.72335 8.1282 -2.38698 -0.443206 1.888 -0.436032 -0.591785 0.207283 Si
16 1 2.73432 0.0305797 8.29254 1.85363 -3.53726 0.814148 -0.753395 0.251374 -0.567536 Si
11 1 4.15573 1.33583 9.58348 3.22358 -0.34894 -3.79388 -0.326409 0.677068 -0.0704728 Si
42 1 5.40425 2.74825 8.13676 3.23576 -0.934402 -1.14305 0.512988 -0.812534 0.388933 Si
38 1 8.18697 2.74481 -0.00103543 2.2528 -4.51089 3.93669 -0.0551719 -0.0686871 -0.555907 Si
43 1 9.51552 1.34321 9.52114 1.28334 -1.15 -0.108615 0.493744 0.112171 0.0159031 Si
13 1 1.38593 4.00912 9.51562 -0.634977 6.74538 0.381801 -0.166679 1.0463 0.150707 Si
32 1 2.74049 5.48402 8.18644 -4.91055 -0.463885 2.21762 -1.10065 -0.488641 0.560406 Si
27 1 4.08898 6.75493 9.55797 -2.17515 -5.88879 -0.223658 0.495981 0.159283 0.581242 Si
45 1 6.80467 4.06108 9.4873 3.20274 0.384934 4.48976 0.308033 0.0923217 0.0755025 Si
59 1 9.5434 6.80308 9.56852 5.81088 -2.36375 4.99093 0.429611 -0.807526 -0.836095 Si
64 1 8.16774 5.46519 8.1466 3.97711 0.595034 -1.57552 -0.219925 0.133885 0.177123 Si
22 1 2.74749 8.15238 -0.00218579 -1.55639 -3.78669 -0.51581 0.275723 0.401385 0.247521 Si
29 1 1.37715 9.53762 9.594 -0.996531 4.31952 -4.19297 -0.663456 -0.306778 -0.293501 Si
58 1 5.39295 8.19955 8.26355 0.0097533 -1.97626 0.453103 0.619098 -0.409654 -0.968102 Si
61 1 6.85225 9.52318 9.52709 1.05275 4.97014 2.50441 -0.760736 0.667298 -0.235407 Si
54 1 8.17662 8.16618 -0.116837 -1.15662 4.48597 -2.66272 0.308524 0.212698 1.29824 Si
48 1 8.20962 -0.0504092 8.12729 -3.37859 3.80585 4.71255 -0.0449173 0.0621617 -0.0168757 Si
26 1 -0.0111206 8.15012 8.1731 3.13599 0.727412 6.1424 0.608452 0.186989 -0.0632977 Si
ITEM: TIMESTEP
10100
ITEM: NUMBER OF ATOMS
64
ITEM: BOX BOUNDS pp pp pp
0.0000000000000000e+00 1.0887404739999999e+01
0.0000000000000000e+00 1.0887404739999999e+01
0.0000000000000000e+00 1.0887404739999999e+01
ITEM: ATOMS id type xu yu zu vx vy vz fx fy fz element
2 1 0.0685803 2.66474 2.77672 0.077851 1.50486 -0.381718 -0.85018 0.321671 -0.0190383 Si
6 1 2.78858 2.77368 -0.0425241 -0.34019 1.30071 -1.97728 -1.09932 -0.472606 0.212157 Si
7 1 1.3431 1.3758 1.37977 -2.94133 -1.87729 0.0784604 0.774299 -0.0749922 -1.48966 Si
8 1 2.64676 -0.0538865 2.65831 -0.0792118 -1.44793 2.04419 0.733376 -0.484346 0.104048 Si
34 1 5.51469 2.67756 2.71448 -2.07603 0.842612 -3.14943 -1.34265 -0.210504 0.105406 Si
36 1 5.46532 0.041691 -0.0959001 -0.317917 -0.983369 2.75515 -1.47555 -0.512943 0.758919 Si
39 1 6.75101 1.24488 1.38923 -1.32358 1.26359 -4.56659 0.825104 0.399417 0.109965 Si
40 1 8.20983 -0.0160344 2.75571 0.910484 -1.16779 -0.729614 -0.639871 -0.514451 0.336533 Si
20 1 -0.018114 5.4841 -0.0336188 1.83702 -3.98587 2.06924 -0.719427 0.173575 0.499517 Si
23 1 1.30902 6.79782 1.37788 -0.2925 -0.80889 -2.16975 0.245486 0.550908 0.162545 Si
24 1 2.71483 5.38898 2.67963 0.0691226 0.348705 3.2923 -0.267796 -0.161128 0.190153 Si
1 1 4.15074 4.07705 1.34149 -0.233012 1.29383 -0.471487 0.0870766 0.189417 0.0353638 Si
52 1 5.42577 5.56169 -0.0106547 3.97512 -0.233551 4.83673 0.481052 -2.08639 0.344661 Si
55 1 6.72503 6.75792 1.46047 0.0939975 0.400442 1.11937 0.819074 0.890305 -0.142926 Si
33 1 9.61766 4.02246 1.39324 3.57819 -0.827109 1.51981 -1.1913 0.635903 -0.05009 Si
56 1 8.21076 5.48632 2.78245 2.18105 4.06563 -4.49128 -0.0830696 -0.898271 -0.531193 Si
18 1 -0.0580491 8.18116 2.83311 -2.24734 2.77907 -1.51721 0.306777 -0.494294 -0.713396 Si
17 1 4.11035 9.47367 1.26985 0.61582 4.39026 -1.58487 -0.560132 0.969656 0.21148 Si
50 1 5.39044 8.18268 2.75185 3.42674 1.90975 1.86688 -0.239978 -1.01236 0.349506 Si
4 1 0.0359716 0.00799867 -0.0843802 -5.2292 -3.31807 2.40158 -0.187694 -0.167569 0.665607 Si
49 1 9.56759 9.52531 1.39223 6.70494 1.45289 2.04353 -0.267485 0.247416 -0.615612 Si
14 1 2.79653 2.74791 5.4275 -2.7813 -0.719493 -0.440752 -0.44563 -0.624866 -0.444586 Si
15 1 1.48049 1.37301 6.76689 -2.95842 -4.12106 -1.97253 -1.12196 1.07709 0.163163 Si
3 1 4.01183 1.30333 4.02991 1.30372 6.67952 1.6061 1.20208 0.250551 0.0829939 Si
47 1 6.7932 1.33616 6.87529 0.0206946 -4.15786 1.69513 0.674945 0.521757 -1.13587 Si
35 1 9.5378 1.36281 4.12634 -2.47623 1.71985 -1.72052 -0.284843 0.688569 -0.579186 Si
46 1 8.24808 2.76894 5.50799 -2.07786 -4.46276 -0.624872 -1.33523 -1.1063 -0.428974 Si
5 1 1.37313 4.03388 4.10706 -2.94654 3.41658 1.2802 -0.00589224 1.07369 -0.00403411 Si
31 1 1.3606 6.81683 6.81093 -2.25168 0.159326 1.18756 0.326221 0.032036 -0.690303 Si
9 1 4.12046 4.04531 6.76179 -1.27716 1.86571 5.48032 -0.060896 0.436173 0.425502 Si
19 1 4.05493 6.67553 4.10542 -0.783669 -3.79559 -3.21492 0.556275 0.895842 -0.165906 Si
37 1 6.84088 4.0354 4.05382 1.57062 -6.97233 1.40537 0.660063 0.193815 0.641544 Si
60 1 5.51141 5.35303 5.47097 2.78173 3.63569 -0.0439319 0.0221418 0.743021 -0.51418 Si
63 1 6.87884 6.76105 6.82791 -1.06007 -2.27359 -3.68235 -0.956385 -0.0862882 0.64728 Si
28 1 -0.0207244 5.51656 5.42283 1.63469 -0.224286 -2.59343 0.54731 -0.569262 -0.0494538 Si
41 1 9.59116 4.1075 6.77271 -2.0235 -0.070556 0.647377 -0.060419 0.700664 0.825597 Si
51 1 9.41909 6.8954 4.20475 0.331893 -0.447446 -2.74382 0.78597 -0.329104 -0.530007 Si
21 1 1.31989 9.52734 4.1291 5.3365 -7.39352 1.12555 0.261581 0.366426 -0.535994 Si
30 1 2.72222 8.1621 5.39334 -0.0451426 -1.19066 2.13767 -0.345416 -0.805819 0.156887 Si
44 1 5.47141 -0.00168974 5.45122 -2.77591 1.28451 -4.03834 -0.388494 0.073891 -0.646895 Si
25 1 4.07085 9.49719 6.69513 3.53165 2.66621 3.12901 0.273087 0.431156 0.411473 Si
53 1 6.79727 9.44375 4.1307 -0.275662 2.76246 -0.848869 0.232498 1.29086 -0.405314 Si
12 1 0.0462125 0.129063 5.41104 2.4484 3.40024 0.976423 -0.165399 -1.55669 1.26691 Si
57 1 9.5328 9.61436 6.85268 1.56198 -1.38383 2.17042 0.229227 0.518984 -0.500652 Si
62 1 8.13603 8.23103 5.57628 -2.01505 0.159155 -2.96834 0.238544 -0.0532379 -0.257697 Si
10 1 0.0436615 2.78666 8.13301 5.15821 0.860783 0.240796 0.0403431 -0.989125 0.414966 Si
16 1 2.78981 0.0176736 8.04997 -0.432632 1.86272 -0.19847 -0.150568 -0.790901 0.68551 Si
11 1 4.0804 1.37268 9.43824 4.30139 -3.16034 4.00883 -0.06402 0.0268558 0.511248 Si
42 1 5.41317 2.70016 8.11199 -5.65637 4.76612 0.697055 0.32991 0.351344 0.525019 Si
38 1 8.04247 2.68391 0.0859118 0.806621 2.12676 -0.772064 0.911471 0.734111 -0.086368 Si
43 1 9.47865 1.44099 9.58111 2.19924 -0.976602 2.68104 0.3615 -0.309613 -0.790976 Si
13 1 1.33249 4.17545 9.5299 -1.1466 -4.30242 0.0823169 1.14147 -0.631316 -0.538607 Si
32 1 2.77014 5.4429 8.09565 4.93377 0.0899666 -4.80632 -0.310222 -0.062973 0.689848 Si
27 1 4.09734 6.78379 9.53578 3.7413 2.08925 1.62223 -0.720391 0.843617 -1.3418 Si
45 1 6.72944 4.05644 9.52602 -3.59106 1.9665 -1.84137 0.39318 0.469104 0.35901 Si
59 1 9.45708 6.88346 9.52021 0.440737 1.03328 -3.59433 0.524736 0.128522 0.790765 Si
64 1 8.23247 5.4088 8.23904 -5.40684 1.00184 1.14009 -0.754561 -0.31704 -0.69738 Si
22 1 2.69931 8.14084 -0.0645102 -1.98418 0.972573 -1.49868 -0.0888548 -0.253095 0.557116 Si
29 1 1.42361 9.51009 9.41791 -6.16015 0.80459 3.62491 -0.435468 0.520653 0.0615526 Si
58 1 5.38223 8.17999 8.0907 -1.28518 0.581536 0.887462 0.399983 -1.01897 0.23854 Si
61 1 6.66958 9.50689 9.50887 -1.15038 -0.826891 -3.03734 1.38863 -0.371183 0.00228961 Si
54 1 8.04807 8.1935 0.0989143 2.47742 -2.99915 2.28439 0.377199 -0.0943471 -0.580114 Si
48 1 8.10316 -0.00051112 8.2468 4.104 -0.682778 -0.620744 0.58759 0.096784 0.149487 Si
26 1 -0.0100096 8.1722 8.10086 -4.51299 -2.64649 -1.83624 -0.119107 0.216198 0.793651 Si
ITEM: TIMESTEP
10200
ITEM: NUMBER OF ATOMS
64
ITEM: BOX BOUNDS pp pp pp
0.0000000000000000e+00 1.0887404739999999e+01
0.0000000000000000e+00 1.0887404739999999e+01
0.0000000000000000e+00 1.0887404739999999e+01
ITEM: ATOMS id type xu yu zu vx vy vz fx fy fz element
2 1 -0.0757693 2.79966 2.79586 3.08682 3.81261 2.6019 0.591369 -0.970562 -0.911349 Si
6 1 2.74241 2.66717 0.0559438 6.65194 1.84045 1.24367 0.0451602 0.599623 -0.0735786 Si
7 1 1.30663 1.37656 1.4035 1.96823 -0.125565 0.340937 0.681953 0.28952 1.01644 Si
8 1 2.80791 0.0492489 2.79285 3.38988 2.985 -1.52701 -1.1523 -0.237119 -0.361577 Si
34 1 5.39374 2.7373 2.71139 0.422994 0.528263 6.00774 0.629093 0.406953 0.519295 Si
36 1 5.47844 0.0544123 0.0104628 1.05577 4.05361 -5.50851 0.392589 -0.388783 -0.0893245 Si
39 1 6.77283 1.40177 1.35172 0.891014 -2.87678 8.30077 0.758215 0.869916 -0.399546 Si
40 1 8.15354 0.0589422 2.68052 3.47225 -1.81371 -0.794708 0.239844 -0.187978 0.11581 Si
20 1 0.0134853 5.42542 -0.0343849 -1.12191 0.560382 0.692238 0.934235 -0.601701 0.426991 Si
23 1 1.38901 6.81571 1.39079 -1.32997 0.0628192 6.36288 0.319131 -0.357485 -1.13844 Si
24 1 2.69307 5.44901 2.75231 0.033642 -1.90445 0.333739 0.609756 0.594515 0.508574 Si
1 1 4.09652 4.15628 1.38532 -1.90136 -2.09214 -1.58849 -0.643937 -0.799111 -0.415358 Si
52 1 5.42957 5.43106 -0.0546163 -1.20264 1.69556 -7.48361 -0.582437 0.751747 0.324891 Si
55 1 6.8013 6.74378 1.28008 1.07295 -1.30563 -1.61459 0.544781 0.646207 0.245879 Si
33 1 9.5195 4.07826 1.3379 -3.60961 -2.48184 0.879575 0.277481 -0.13633 -0.757374 Si
56 1 8.20261 5.41981 2.62671 2.3439 -4.19337 -0.740813 -0.496851 0.515464 0.988277 Si
18 1 0.0665302 8.11214 2.72568 -1.50386 -0.968561 1.3731 -0.758795 0.725919 -0.13419 Si
17 1 4.17975 9.63564 1.36774 4.70206 -1.45113 1.21846 -0.49628 -0.626426 0.543216 Si
50 1 5.51611 8.18617 2.66158 -5.12463 4.87314 -0.126967 -0.169415 0.318763 0.326386 Si
4 1 0.0311542 0.00284671 0.0446688 1.70246 -0.330871 -6.67252 -0.6433 -0.441011 -0.30938 Si
49 1 9.54643 9.51881 1.3945 -4.18794 -3.56265 -0.238181 0.117702 -0.307303 -0.10709 Si
14 1 2.63054 2.75651 5.5176 2.00462 0.800911 -0.70598 0.892126 -0.331224 -0.775566 Si
15 1 1.31373 1.3532 6.80239 3.61428 -0.450239 2.02584 0.232679 -1.35141 -0.201699 Si
3 1 4.1247 1.39528 4.17357 -2.85599 -6.36716 2.62952 -0.800466 0.463049 0.217414 Si
47 1 6.79419 1.46206 6.7491 -3.5997 -1.76322 -0.158791 -0.182043 -1.27646 1.33223 Si
35 1 9.5211 1.35496 4.08504 -3.74004 -4.92254 3.41546 0.300891 -0.861695 0.0789356 Si
46 1 8.11883 2.66902 5.33402 0.256106 5.42934 0.512723 0.0649696 1.31391 0.281428 Si
5 1 1.31047 4.09959 4.10476 4.97599 -3.23052 4.72651 0.612787 0.0288411 0.165326 Si
31 1 1.37767 6.74892 6.80742 3.66401 -4.14724 0.832928 0.257142 0.472309 0.789969 Si
9 1 4.04741 4.05836 6.86535 -4.2259 -0.815774 -2.78749 -0.243842 0.2776 0.381796 Si
19 1 4.09232 6.93539 4.09319 -4.12737 -0.971021 4.1341 -0.239349 -1.11036 -0.154513 Si
37 1 6.78231 4.15301 4.06168 -1.0182 6.81751 -4.50856 -0.403728 -0.236397 -0.0491943 Si
60 1 5.35139 5.47805 5.52071 -0.751999 1.25159 4.16787 0.692165 0.190384 -0.848418 Si
63 1 6.77868 6.88597 6.79033 -1.15214 1.68988 6.52736 0.38534 -0.474192 -1.13867 Si
28 1 0.0137828 5.41916 5.47787 3.3076 4.9891 -2.96324 -0.519632 -0.122881 -0.0490589 Si
41 1 9.45502 4.02663 6.73495 4.72378 -2.42216 -6.34597 0.243353 -0.024137 0.260125 Si
51 1 9.62079 6.73868 4.03613 -0.833945 -1.46246 -1.98274 -0.988622 0.0854346 -0.125936 Si
21 1 1.33587 9.50011 4.07988 -6.19737 1.14969 1.93919 1.16675 0.299246 0.202573 Si
30 1 2.72343 8.20354 5.51921 0.673298 -0.238793 0.454366 -0.248339 -0.0405994 -0.328738 Si
44 1 5.41622 0.00295991 5.54162 4.82634 1.33909 0.093508 0.00251857 -0.0245898 -0.203437 Si
25 1 4.04602 9.52342 6.94856 -0.146174 -3.52742 -4.58345 0.318578 0.352873 -0.689909 Si
53 1 6.78604 9.64054 4.05931 -0.632724 -1.29521 0.478997 -0.0281948 -0.719881 -0.108529 Si
12 1 -0.0275379 -0.121896 5.47747 -5.14735 4.22866 -1.84647 0.0391255 1.4265 -0.702533 Si
57 1 9.50503 9.38991 6.71986 1.47103 1.02996 -1.55672 0.00727433 0.213775 0.544038 Si
62 1 8.1539 8.14936 5.2762 -0.744828 1.32845 7.75133 -0.115764 -0.406096 0.615043 Si
10 1 -0.0361704 2.61781 8.09496 -2.78645 -3.29593 -1.01703 -0.136081 1.51809 0.561405 Si
16 1 2.64297 0.000635971 8.2435 -0.821276 3.06278 2.81704 0.174227 0.0141264 -0.132097 Si
11 1 4.09017 1.29646 9.5737 -5.47604 5.4475 -0.911239 -0.533218 0.695386 -0.212458 Si
42 1 5.41037 2.72063 8.25203 4.5203 -4.35269 -1.32811 0.0113005 -0.272201 -1.00865 Si
38 1 8.16722 2.78271 -0.103006 -3.86138 2.13611 -2.41325 0.0101351 -1.17462 0.226007 Si
43 1 9.56261 1.24099 9.43614 0.237129 0.0777938 2.13702 -0.730115 0.774201 0.873047 Si
13 1 1.40351 3.99433 9.49038 1.7034 -0.155531 -2.40147 -1.1076 -0.366986 0.790991 Si
32 1 2.72001 5.42274 8.27781 -3.63127 2.76501 1.10668 0.212535 0.347047 -1.42328 Si
27 1 4.10989 6.85832 9.48631 1.74923 -6.4693 -2.67155 0.0351828 -0.0796052 0.913858 Si
45 1 6.73282 4.14764 9.49111 0.215528 -1.66761 -2.05492 1.04627 -0.491276 -0.307552 Si
59 1 9.58867 6.68635 9.44568 -6.05733 2.06424 0.564816 -0.730306 1.13665 -0.0939287 Si
64 1 8.09219 5.45975 8.06447 -0.6753 0.184052 1.45461 0.583831 -0.457066 0.444244 Si
22 1 2.81673 8.22961 0.0698977 3.28926 3.50322 1.03966 -0.519769 -0.528665 -0.366564 Si
29 1 1.33036 9.47803 9.59228 3.75734 0.754304 -1.48873 0.647795 0.487203 0.254602 Si
58 1 5.52792 8.18903 8.17925 1.42126 -1.74915 -5.27662 -0.5688 0.712287 0.816137 Si
61 1 6.86263 9.56505 9.6062 -2.93415 -4.93794 1.8741 0.319336 -0.422311 -1.00406 Si
54 1 8.25542 8.10106 -0.0236994 -0.789012 5.23172 0.866809 -0.173236 0.0641852 -0.0338999 Si
48 1 8.19622 -0.0678689 8.04128 -1.03031 -1.3329 -2.24338 -0.787759 0.40252 0.372121 Si
26 1 0.0371164 8.18136 8.17228 6.01378 2.98876 -5.36434 -0.397443 -1.16779 -0.481149 Si
ITEM: TIMESTEP
10300
ITEM: NUMBER OF ATOMS
64
ITEM: BOX BOUNDS pp pp pp
0.0000000000000000e+00 1.0887404739999999e+01
0.0000000000000000e+00 1.0887404739999999e+01
0.0000000000000000e+00 1.0887404739999999e+01
ITEM: ATOMS id type xu yu zu vx vy vz fx fy fz element
2 1 -0.0422197 2.7129 2.64419 -3.59501 -0.722627 2.17377 0.707947 0.286935 0.0594099 Si
6 1 2.74451 2.71391 -0.089163 -2.81556 -1.55749 -4.57091 0.021401 0.346696 0.300707 Si
7 1 1.40687 1.38504 1.26353 0.617311 2.60124 -3.44847 -0.875889 -0.808714 0.490524 Si
8 1 2.7033 -0.0689701 2.6502 -1.39516 1.57821 2.66925 0.00773596 1.47331 0.48645 Si
34 1 5.47163 2.68746 2.67412 -1.47172 -0.119284 -2.69916 0.239983 0.193939 -0.0593687 Si
36 1 5.25584 -0.111252 0.0764461 0.19991 -2.06702 -3.80419 1.85256 1.07893 -1.17803 Si
39 1 6.82615 1.2812 1.30803 2.39042 0.629269 -5.56427 -0.854472 -0.510216 0.995914 Si
40 1 8.1666 -0.0204732 2.79588 2.58889 0.027298 -2.10765 0.190262 0.317204 -1.03782 Si
20 1 -0.0281204 5.44991 0.124574 0.155619 0.347833 -4.42485 -0.303854 0.708559 -1.34485 Si
23 1 1.33722 6.81653 1.38356 2.42023 1.43714 -0.881918 -0.209678 -0.0842389 0.247611 Si
24 1 2.68694 5.40561 2.7039 0.250393 -1.49979 -2.54393 0.707735 0.377267 -0.97507 Si
1 1 4.07353 4.04782 1.29465 -0.997861 -0.290152 2.61746 -0.180501 -0.291765 1.02042 Si
52 1 5.44901 5.34837 0.00574952 -1.17077 0.559062 2.22405 0.242837 1.31655 0.0653709 Si
55 1 6.84131 6.78985 1.33579 1.23739 -3.03494 2.49563 -0.825503 -0.317548 0.419728 Si
33 1 9.44723 4.19908 1.45874 -2.83812 -1.6228 1.21285 0.593347 -0.998696 0.0978291 Si
56 1 8.14112 5.498 2.85245 -0.648202 4.55822 2.74336 -0.32837 -0.0752331 -0.96262 Si
18 1 -0.0978357 8.20831 2.63223 -3.48837 4.46658 0.537986 0.987233 -0.186469 1.04306 Si
17 1 3.95582 9.41859 1.35064 -7.2681 -1.4076 -1.84357 0.422057 -0.697762 0.23098 Si
50 1 5.44276 8.14297 2.6889 5.86312 -5.9128 -0.728177 0.097064 0.0487188 -0.0402347 Si
4 1 -0.0256963 -0.0862371 -0.00780091 -3.19626 1.40836 9.24265 0.494441 1.78493 -0.359336 Si
49 1 9.4705 9.55897 1.33724 -1.68135 0.749661 0.553654 -0.569818 -0.0818388 0.129232 Si
14 1 2.71246 2.68927 5.29839 -2.19159 0.541853 -0.208191 0.147175 0.72968 1.44907 Si
15 1 1.3738 1.41923 6.78589 0.669107 1.99134 -6.9535 0.311211 0.125089 0.648536 Si
3 1 4.09669 1.36111 4.03769 0.82125 -0.728415 -2.46296 -0.0342839 -0.997476 -0.949063 Si
47 1 6.83733 1.35203 6.75586 1.39302 3.02973 0.450885 -0.58585 0.339345 0.122278 Si
35 1 9.58131 1.3491 4.05669 4.94237 -1.23408 -0.993885 -0.319473 0.168015 0.22509 Si
46 1 8.26675 2.67849 5.46782 1.46725 -5.79089 -3.56731 0.164611 0.591505 0.410251 Si
5 1 1.36299 4.07939 3.98778 -3.80873 3.02778 -1.70882 -0.574614 -0.87845 0.344938 Si
31 1 1.30861 6.88285 6.77302 -3.18401 -0.948736 -3.44714 -0.449311 -1.07334 -0.118821 Si
9 1 4.06222 4.04537 6.82087 4.09646 -2.3816 0.443584 0.687628 0.324047 -1.13632 Si
19 1 4.04902 6.78598 4.0064 2.17243 -2.07458 -1.57708 0.377056 -0.178688 0.957331 Si
37 1 6.89445 3.99205 4.1066 1.34873 -1.5176 1.01901 -0.775426 0.225627 -0.132673 Si
60 1 5.5405 5.45113 5.39124 1.11765 -4.40595 -1.14314 -1.11449 -0.454578 0.706575 Si
63 1 6.85693 6.77858 6.88105 -0.201084 -0.407385 -2.03681 -0.812281 -0.0221503 -0.19822 Si
28 1 0.0372081 5.36946 5.40874 0.705806 0.812379 6.82808 -0.472105 1.22686 0.352966 Si
41 1 9.54406 4.15712 6.91367 -3.63852 3.93946 3.60041 0.110973 -0.890741 -1.13045 Si
51 1 9.54326 6.82457 4.07772 -0.102108 -0.465558 6.39674 0.619584 -0.150521 0.723741 Si
21 1 1.31578 9.57944 4.02525 -0.14604 2.08287 -0.406346 -0.663986 -0.646314 0.454832 Si
30 1 2.62439 8.13087 5.39644 -1.86138 -1.60865 0.705881 1.3929 1.20962 -0.43936 Si
44 1 5.47661 -0.0197976 5.35061 -3.10052 2.08578 2.92769 0.276532 0.0777627 0.538125 Si
25 1 4.13306 9.53091 6.75029 -2.81436 0.538994 6.69368 -0.719343 -0.924985 0.222015 Si
53 1 6.88508 9.45718 4.08185 1.25775 2.66319 1.50464 -0.657426 -0.499219 0.498618 Si
12 1 -0.00169886 0.0696047 5.4857 7.79391 -4.00705 2.97243 0.500718 -0.506627 -0.642557 Si
57 1 9.55482 9.62488 6.85219 -3.15326 1.21305 0.385157 -0.569461 -0.575029 0.421635 Si
62 1 8.24337 8.10147 5.54045 1.28384 -0.595992 -10.5266 -0.173307 1.09819 -0.291807 Si
10 1 0.0434568 2.82415 8.23647 5.63206 2.17915 -1.47627 -0.0653067 -0.754631 -0.363076 Si
16 1 2.78409 0.0163157 8.16002 2.84623 0.840526 -5.37399 -0.0675843 0.551008 -1.05476 Si
11 1 4.123 1.37677 9.50806 0.906802 -3.14738 -1.99054 0.0927024 -0.361289 0.0540723 Si
42 1 5.54229 2.7461 8.21252 -3.71671 3.37182 5.58432 -0.197725 -0.0339515 -0.411748 Si
38 1 8.24248 2.69242 0.147872 1.10516 0.798495 1.3411 -0.555793 0.766749 -0.716504 Si
43 1 9.5414 1.45383 9.58702 -5.85163 0.653978 -2.12474 0.392285 -0.928751 -0.281967 Si
13 1 1.37704 4.15761 9.5818 7.30346 -0.478353 2.46562 0.0953157 0.562652 -0.455949 Si
32 1 2.68641 5.51885 8.06024 1.2912 0.309464 1.58403 0.0129941 -0.855383 1.01915 Si
27 1 4.05388 6.72816 9.54084 -4.4724 7.19376 -3.57176 -0.155054 -0.306598 0.198046 Si
45 1 6.9131 4.07797 9.64902 -1.62691 -3.91695 4.84534 -0.454494 -0.917177 -0.448609 Si
59 1 9.49226 6.91626 9.60136 1.51279 0.537249 0.278581 0.564686 -1.30266 -0.216363 Si
64 1 8.1571 5.4325 8.25083 0.318416 0.979504 -2.93657 0.677462 0.882278 0.477137 Si
22 1 2.6464 8.08347 -0.0503309 2.32527 -4.30356 -4.39159 0.176825 0.543891 -0.143157 Si
29 1 1.40737 9.60208 9.47963 -0.291931 -6.16635 -1.84121 -0.311881 -1.17947 0.473673 Si
58 1 5.38493 8.078 8.24766 1.03745 2.54844 4.32179 0.447126 0.74882 -1.5454 Si
61 1 6.70717 9.54331 9.48438 3.8888 -0.45695 0.496708 -0.044149 0.235145 0.918663 Si
54 1 8.08929 8.23196 -0.00387643 -1.53484 3.41605 4.47745 -0.0105405 0.209578 -0.0483284 Si
48 1 8.1123 0.100315 8.21753 -1.14963 0.404723 4.90606 0.73028 -0.657322 0.00731605 Si
26 1 0.0178928 8.19938 8.20026 0.45167 -0.651898 0.655684 -0.410701 0.598914 -0.128857 Si
ITEM: TIMESTEP
10400
ITEM: NUMBER OF ATOMS
64
ITEM: BOX BOUNDS pp pp pp
0.0000000000000000e+00 1.0887404739999999e+01
0.0000000000000000e+00 1.0887404739999999e+01
0.0000000000000000e+00 1.0887404739999999e+01
ITEM: ATOMS id type xu yu zu vx vy vz fx fy fz element
2 1 0.0345432 2.70823 2.77733 -0.145898 -4.62697 -4.81505 -0.510883 0.376289 0.275175 Si
6 1 2.69937 2.75775 0.0652099 0.677873 -1.46898 6.21417 -0.580257 -0.636983 -0.247366 Si
7 1 1.39461 1.32705 1.49735 0.231151 2.58412 5.30043 -0.47774 0.234051 -1.38871 Si
8 1 2.75486 -0.00173889 2.80105 -6.15098 -3.05449 0.715482 0.263715 -0.855211 -0.828483 Si
34 1 5.40282 2.76945 2.75745 1.80129 1.35769 -3.18252 0.23492 -0.20609 -0.698243 Si
36 1 5.58928 0.0596111 -0.0877365 0.726131 1.11471 3.02166 -1.18133 0.024566 1.18898 Si
39 1 6.861 1.46048 1.36322 -0.332172 1.35058 0.612879 -0.33817 -0.480529 -0.0748919 Si
40 1 8.20193 -0.0291467 2.70161 -3.61282 3.71127 1.44426 -0.960747 1.02821 0.550613 Si
20 1 0.0652306 5.36135 -0.0781055 1.97212 -1.24746 4.68075 -0.458733 1.03541 0.751843 Si
23 1 1.48724 6.83593 1.27533 -1.76957 1.83364 -1.9946 -1.72879 -0.792224 0.953706 Si
24 1 2.74189 5.43983 2.71448 -1.07649 0.653192 3.16964 -0.751934 0.353133 0.607438 Si
1 1 4.02181 4.11736 1.38041 4.27561 -0.636489 -6.58653 1.49526 0.15565 -0.426663 Si
52 1 5.45423 5.5532 0.0303473 -0.747137 -1.93458 -0.834744 -0.0786811 -1.15813 -0.210172 Si
55 1 6.82019 6.85504 1.43892 3.24949 4.76913 -7.20864 -0.114375 -0.259258 -0.52468 Si
33 1 9.56558 3.97722 1.28325 0.435814 4.9217 0.844985 0.108805 0.719234 0.0650955 Si
56 1 8.17272 5.35987 2.62627 -0.238348 0.177506 0.814203 0.516453 0.381843 0.543674 Si
18 1 0.0510958 8.11343 2.79626 1.28261 -3.52852 -1.71561 0.405557 -0.0192549 -1.0966 Si
17 1 4.13058 9.57367 1.298 4.08659 3.53313 -1.0476 0.149743 0.944339 0.435435 Si
50 1 5.40837 8.22281 2.72492 2.42806 -0.915845 -2.61571 0.0963054 -0.334609 0.0170866 Si
4 1 -0.0589579 0.0212248 0.0467271 2.36032 -2.87707 -0.12232 1.0506 -0.233302 0.284277 Si
49 1 9.56177 9.50567 1.44586 -2.06494 -1.54939 0.105577 0.340081 -0.562333 -0.555291 Si
14 1 2.68501 2.6532 5.54881 -0.568268 -0.143776 2.17775 0.192604 1.16869 -0.573488 Si
15 1 1.33207 1.24955 6.82422 -4.80274 -3.53725 3.95652 -0.52937 0.645636 -0.453501 Si
3 1 4.03035 1.40926 4.07792 0.393537 8.14127 2.42718 0.417024 0.0698179 0.748503 Si
47 1 6.77119 1.30522 6.88011 -1.12101 0.860738 3.2397 0.514939 -0.167682 -0.767749 Si
35 1 9.44503 1.41296 4.11406 1.67943 -0.747653 -3.82805 0.240436 -0.0546521 -0.437811 Si
46 1 8.09282 2.75787 5.53113 -0.121869 3.52504 -0.878554 -0.336927 -0.967802 -1.11907 Si
5 1 1.3579 4.12579 4.17561 -4.72359 -0.649744 0.387976 0.111576 -0.289941 -0.4287 Si
31 1 1.35049 6.74665 6.88828 0.818831 -1.49314 2.2302 0.805472 0.32682 -1.0884 Si
9 1 4.11822 4.13557 6.78626 -4.00822 0.911194 5.64656 -0.534145 -0.768622 0.778703 Si
19 1 4.09698 6.78403 4.06622 0.810441 5.77188 1.81591 -0.234113 0.697936 0.191604 Si
37 1 6.83056 4.08401 4.0539 -2.23077 2.12308 -0.412694 -0.254342 -0.0474807 0.25916 Si
60 1 5.47359 5.45114 5.38168 -2.10504 1.66267 -2.22235 -0.0402783 0.0311712 0.228868 Si
63 1 6.77422 6.84776 6.74387 -3.56417 3.05816 -0.496205 0.187606 -0.640376 0.752946 Si
28 1 -0.0612451 5.54218 5.43749 -3.35449 -3.99911 -7.17105 1.00155 -0.768213 -0.0512337 Si
41 1 9.53251 4.0876 6.65549 5.09491 0.315835 -5.19416 -0.0588032 0.107223 2.12934 Si
51 1 9.48618 6.77374 4.04623 6.03426 -2.4365 -5.19745 -0.773025 0.543505 -0.0684505 Si
21 1 1.42332 9.48169 4.1264 -1.61693 1.44698 -2.8339 -0.0735938 0.0685724 -0.140787 Si
30 1 2.78135 8.16473 5.52998 -2.66158 4.08322 1.73024 -0.455338 -0.868866 -0.273208 Si
44 1 5.38612 0.0586691 5.44162 -1.49058 -5.1502 -0.327438 0.482276 -0.0178 -0.143267 Si
25 1 4.14309 9.54738 6.80918 3.05318 0.6125 0.833355 -0.740575 0.364042 0.453337 Si
53 1 6.7336 9.5858 4.07522 5.04712 0.316318 -6.16005 0.459163 0.104333 -0.0256593 Si
12 1 0.000277597 0.024765 5.30756 -4.37402 -0.752614 -1.27733 -0.114442 -0.649462 1.33907 Si
57 1 9.57306 9.48377 6.72736 3.55785 -0.950916 -4.6057 -0.118807 0.358191 -0.00449116 Si
62 1 8.09707 8.21159 5.42288 7.73377 -4.66029 3.04345 0.641874 -0.366375 -0.772832 Si
10 1 -0.0412727 2.67022 8.09763 -3.08179 -0.146021 0.611323 -0.0249864 0.387343 0.19738 Si
16 1 2.70275 0.00148172 8.16833 0.33756 -0.911219 5.30336 0.296911 -1.06225 0.848174 Si
11 1 4.02356 1.3722 9.58402 2.08123 2.32153 0.164094 0.263256 -0.38548 -0.216419 Si
42 1 5.3931 2.60267 8.15992 -0.615579 -1.30086 -2.13853 -0.379902 1.60436 0.0267647 Si
38 1 8.10003 2.80075 -0.139132 1.14783 -4.52545 4.05894 0.536566 -0.658192 1.11122 Si
43 1 9.47575 1.36416 9.55089 2.11616 -1.0703 0.163283 0.166055 -0.324927 -0.969458 Si
13 1 1.36236 4.04903 9.46682 -2.70181 -0.977259 -1.53862 -0.018132 -1.04582 0.231751 Si
32 1 2.72742 5.45586 8.27773 0.911422 -0.148491 -2.24633 0.970464 0.253875 -0.824134 Si
27 1 4.07277 6.93663 9.61987 1.57669 -3.98557 2.19478 0.508395 -1.05562 -1.30023 Si
45 1 6.75265 4.08413 9.40633 -0.397836 1.82983 -0.14578 -1.09783 0.510368 0.892388 Si
59 1 9.51883 6.70026 9.43743 0.820628 4.08112 3.95017 -0.156855 0.341275 1.27738 Si
64 1 8.12922 5.38701 8.1112 0.163072 -2.0384 0.76801 0.224972 0.499567 -1.29543 Si
22 1 2.74206 8.24768 -0.00426252 -1.19102 -3.62419 5.46544 0.359282 0.0852546 0.620262 Si
29 1 1.35074 9.46547 9.58867 2.33366 6.62258 1.31048 -1.17661 1.02061 -1.41902 Si
58 1 5.46046 8.19818 8.16092 -0.749464 0.0402491 6.58382 0.193317 -0.138038 0.458844 Si
61 1 6.88236 9.50768 9.53371 -0.991319 0.654472 0.298698 -0.0276436 -0.727018 -0.0264038 Si
54 1 8.21871 8.12575 0.0595702 -1.16902 -3.45187 -5.73235 0.301032 -0.0179334 -0.734908 Si
48 1 8.19332 -0.0962131 8.14673 -2.81637 -3.79335 -3.37765 0.493797 0.77425 -0.0523298 Si
26 1 -0.0314094 8.06119 8.11131 -2.64279 -2.05137 0.622239 0.297348 1.34491 1.01905 Si
ITEM: TIMESTEP
10500
ITEM: NUMBER OF ATOMS
64
ITEM: BOX BOUNDS pp pp pp
0.0000000000000000e+00 1.0887404739999999e+01
0.0000000000000000e+00 1.0887404739999999e+01
0.0000000000000000e+00 1.0887404739999999e+01
ITEM: ATOMS id type xu yu zu vx vy vz fx fy fz element
2 1 0.0124471 2.72985 2.71336 1.70021 0.905143 3.68808 0.150737 -0.789983 0.0375702 Si
6 1 2.7251 2.73046 -0.0360052 1.07503 -1.0446 -4.89937 0.684572 0.402992 0.208611 Si
7 1 1.37655 1.37763 1.25938 1.39297 -0.0883971 0.646419 0.133441 0.559487 1.24049 Si
8 1 2.7214 0.0357979 2.64704 2.33202 -2.80322 -3.68665 -0.885026 -0.367261 1.10102 Si
34 1 5.48065 2.70626 2.80833 5.50334 -4.63514 -1.28922 -0.62173 -0.26622 -0.0416098 Si
36 1 5.38519 -0.0178106 0.0460194 2.22981 0.343207 -0.999108 0.181045 -0.191309 -0.244773 Si
39 1 6.74196 1.31917 1.46417 -4.60955 -2.69044 1.79541 0.270941 0.311864 -1.17537 Si
40 1 8.12373 0.0225366 2.74234 0.789158 -1.33819 0.571751 0.830784 -1.5464 0.151788 Si
20 1 -0.052745 5.54186 0.0626487 -1.6072 -0.494954 0.16217 0.234162 -1.68862 -0.210572 Si
23 1 1.27445 6.81869 1.41475 -0.999123 0.686212 1.50944 1.58836 0.537128 -0.8411 Si
24 1 2.7091 5.50872 2.67713 -3.22861 -3.04371 -2.4351 0.515643 -1.17267 0.921642 Si
1 1 4.16678 4.03283 1.40162 -0.176436 0.962649 1.62568 -1.30691 0.408547 -0.364047 Si
52 1 5.43983 5.37511 -0.0505563 1.20548 6.53056 0.750579 -0.0911966 0.496362 0.486194 Si
55 1 6.74789 6.80037 1.31554 -1.09492 -4.01014 1.77758 0.457226 0.391699 0.0168368 Si
33 1 9.52363 4.05637 1.38607 4.51283 0.256031 3.58874 -0.558702 0.602801 -0.090594 Si
56 1 8.14185 5.47504 2.74793 0.680477 -1.26893 -1.53756 0.00139197 -0.0950565 -0.534865 Si
18 1 0.0419284 8.19024 2.75092 -2.26299 -2.16258 6.99625 -1.59862 0.196795 0.397788 Si
17 1 4.049 9.48809 1.46518 1.89459 1.89216 -1.72133 0.258301 0.0579183 -1.48418 Si
50 1 5.40248 8.15813 2.76416 -3.82028 3.46143 0.0361512 0.846758 -0.287575 -0.090612 Si
4 1 0.114865 0.0438721 -0.0772302 -0.505719 0.605711 -1.71681 -1.53533 -1.33122 -0.372605 Si
49 1 9.52269 9.47602 1.27893 2.26276 -0.514582 2.61813 0.217307 1.35909 0.470248 Si
14 1 2.78913 2.73052 5.41611 -1.19068 3.57764 4.77078 -0.135946 -0.949006 -0.153047 Si
15 1 1.35645 1.405 6.80539 4.08097 -0.150025 -0.572289 0.622263 -0.209746 0.232497 Si
3 1 4.15535 1.20217 4.0785 -1.28239 -2.53488 -8.77801 -0.625242 1.85296 0.222542 Si
47 1 6.82758 1.38634 6.70225 2.25767 -0.132349 -0.0850796 0.21775 0.67283 1.18467 Si
35 1 9.53432 1.33811 4.10858 -1.26971 4.61939 3.38773 0.0648924 0.337946 -0.284711 Si
46 1 8.16753 2.76811 5.38904 4.41727 -3.04986 3.72748 0.349896 0.212681 0.308702 Si
5 1 1.36038 4.0635 4.09676 0.53284 -0.671894 0.872515 0.485603 0.552949 -0.474871 Si
31 1 1.37577 6.77148 6.67694 1.27434 1.61101 -2.05317 -0.0171951 1.00921 1.73022 Si
9 1 4.0906 4.07238 6.82598 5.26798 2.4856 -2.79844 -0.585538 0.4104 -0.197819 Si
19 1 4.10186 6.82243 4.1246 -3.30569 -3.90799 0.46267 -0.378385 -0.693299 -0.568569 Si
37 1 6.74045 4.15986 4.09817 4.57805 -5.52991 -3.00626 0.805882 -0.374438 0.28783 Si
60 1 5.41663 5.44673 5.51677 -0.170627 -7.37978 5.05415 0.129874 0.355187 -0.270213 Si
63 1 6.80943 6.75905 6.87952 0.988768 1.98319 0.0572353 0.270402 0.630933 -0.963701 Si
28 1 -0.00242741 5.38835 5.49321 -1.00241 4.74829 -0.387906 -0.222233 -0.0610258 -0.941637 Si
41 1 9.59026 4.03046 6.86355 1.42654 0.579061 -2.34768 -1.13205 0.51687 -1.561 Si
51 1 9.51857 6.78911 4.14119 -1.79949 4.48217 0.827948 0.642514 0.127575 -0.505848 Si
21 1 1.29318 9.62057 4.12069 0.107716 -4.55929 3.06913 0.947968 -0.220616 -0.727611 Si
30 1 2.70975 8.17917 5.34829 -0.132906 -1.43515 -0.895864 -0.353901 0.502614 0.709836 Si
44 1 5.51392 -0.0136687 5.4958 2.15859 1.17742 -0.485396 -1.01805 -1.01633 -0.259731 Si
25 1 4.01615 9.53206 6.78831 -1.02612 -3.09021 -2.82641 0.766597 -0.160641 -0.803744 Si
53 1 6.78166 9.47736 4.14243 -1.56771 -1.87711 4.33932 0.614258 0.296484 -0.565769 Si
12 1 -0.037082 -0.00131315 5.555 -1.22818 4.3981 -3.59934 0.0464776 0.706233 -0.722639 Si
57 1 9.49101 9.58714 6.88252 0.273011 6.0103 2.48884 -0.00648961 -0.812437 -0.340382 Si
62 1 8.18855 8.15039 5.47798 -3.39952 5.15957 2.54332 -0.417704 0.0744027 0.763375 Si
10 1 -0.0210611 2.75024 8.15544 1.48904 0.27742 -2.97977 1.11109 -0.663588 0.714563 Si
16 1 2.76561 -0.0118869 8.15439 1.86075 0.581866 -4.20991 -0.645124 0.865108 0.023812 Si
11 1 4.11698 1.40185 9.48555 -1.39005 -0.628694 1.17412 0.0954845 -0.227328 0.0734131 Si
42 1 5.4884 2.78324 8.09596 -5.16107 -0.304905 -0.366908 -0.0246312 -1.24028 0.383776 Si
38 1 8.1386 2.64517 0.0553362 -7.01859 0.803196 1.21425 0.0792769 0.22571 -0.383707 Si
43 1 9.53391 1.37134 9.44658 2.00531 1.56882 -0.570321 -0.0638419 -0.0197182 1.31521 Si
13 1 1.30778 4.08806 9.56652 -0.124129 5.53778 -0.247696 -0.0213637 0.765881 -0.0681993 Si
32 1 2.69057 5.43576 8.16084 4.74138 -2.78457 -1.23009 -0.410519 -0.455742 -0.520698 Si
27 1 4.11597 6.72309 9.42918 5.7311 -0.684309 0.269535 -0.259702 0.660509 1.03324 Si
45 1 6.78702 4.04347 9.53993 -4.48907 2.95013 -0.507279 1.69359 0.400363 -0.629924 Si
59 1 9.54864 6.84919 9.58513 -2.01903 -1.14463 -1.22444 0.129951 0.494003 -1.68115 Si
64 1 8.28948 5.45433 8.12149 0.949924 -1.19641 3.36993 -1.13478 -0.469618 1.7888 Si
22 1 2.79942 8.0992 0.0114373 -2.77632 1.86932 -6.77842 -0.678467 -0.285876 0.0224803 Si
29 1 1.45724 9.46618 9.48642 0.858912 0.0776217 -3.14323 0.400752 0.941398 0.990507 Si
58 1 5.37875 8.16969 8.09283 -4.52481 -1.29638 -1.65272 0.291467 -0.391593 0.335212 Si
61 1 6.72122 9.50148 9.46143 -1.67124 1.04729 0.528637 -0.168671 1.31792 -0.0624351 Si
54 1 8.10061 8.21642 -0.13131 -3.95601 -0.924176 3.73567 -0.013697 -0.865336 1.54482 Si
48 1 8.12572 0.0644433 8.15431 0.917079 -3.94062 2.18111 -0.577617 -0.446776 0.0767643 Si
26 1 0.0646737 8.2615 8.1666 -2.68536 0.129746 -0.808939 -0.648011 -1.95514 -0.636723 Si
ITEM: TIMESTEP
10600
ITEM: NUMBER OF ATOMS
64
ITEM: BOX BOUNDS pp pp pp
0.0000000000000000e+00 1.0887404739999999e+01
0.0000000000000000e+00 1.0887404739999999e+01
0.0000000000000000e+00 1.0887404739999999e+01
ITEM: ATOMS id type xu yu zu vx vy vz fx fy fz element
2 1 -0.0351557 2.70756 2.69129 -1.09532 2.46346 4.05877 0.0546892 0.682514 0.238806 Si
6 1 2.68349 2.67175 0.00842236 2.16731 1.73956 -0.399039 0.384161 -0.51453 -0.24816 Si
7 1 1.32666 1.33689 1.41288 -3.40139 0.211948 -0.273259 0.053544 0.224011 -0.650015 Si
8 1 2.68513 -0.0147102 2.72172 0.0891069 2.33867 3.94034 1.28051 0.629705 -0.392433 Si
34 1 5.43853 2.69868 2.62906 -4.43451 6.23872 1.72654 0.311458 0.216328 0.50038 Si
36 1 5.4509 -0.054386 0.00897348 -1.97857 1.45643 -2.70913 -0.135481 -0.10905 -0.659096 Si
39 1 6.76932 1.37957 1.25125 1.59636 -2.38357 -0.926212 0.975276 0.184402 0.667433 Si
40 1 8.11416 0.0769341 2.73218 0.775691 3.52616 0.191239 0.5919 0.0062593 -0.447898 Si
20 1 0.0358632 5.42488 -0.0907155 -0.56554 1.53839 -2.39377 -0.0305951 -0.0318461 0.595258 Si
23 1 1.34258 6.75231 1.28866 2.02763 0.091273 0.764141 0.0721408 0.267494 0.733033 Si
24 1 2.72253 5.47055 2.7133 0.19956 0.965053 -1.28324 -0.0821672 -0.227523 -0.63532 Si
1 1 4.04192 4.04132 1.338 0.369105 1.32937 0.627187 0.106912 0.756307 -0.0206033 Si
52 1 5.4128 5.49512 0.0289398 -0.796339 -5.22484 -0.927162 -0.229807 -0.61619 -0.176195 Si
55 1 6.79502 6.75312 1.41801 -2.15791 -0.857825 1.86157 0.518876 -0.0707208 -0.169694 Si
33 1 9.57405 4.1844 1.34605 -1.78778 -6.2018 -0.408439 0.0637758 -0.785883 0.247925 Si
56 1 8.20806 5.44266 2.76735 -1.79332 3.30985 -0.260063 -0.630124 -0.592076 0.474539 Si
18 1 0.0381669 8.14628 2.68133 4.20273 3.75868 -1.31912 -0.0129525 -0.291837 0.175914 Si
17 1 4.02251 9.51988 1.31958 0.725566 0.754864 -1.73034 0.778654 -0.201439 0.950289 Si
50 1 5.5011 8.15417 2.68585 2.90846 -1.42427 -1.98461 -1.51344 0.406564 0.179074 Si
4 1 -0.0517803 0.0521885 0.0256054 1.15421 1.27515 2.35247 0.0106673 -0.112592 0.411228 Si
49 1 9.53912 9.56082 1.40664 -1.2635 -1.29913 0.85614 -0.611244 -0.202511 0.0135884 Si
14 1 2.74936 2.78511 5.399 -0.288116 -1.38467 -3.34804 -1.10075 -0.278169 0.022297 Si
15 1 1.30661 1.3917 6.82224 1.40137 -0.725052 -3.5626 1.08533 0.102767 -1.09189 Si
3 1 4.10541 1.41161 4.02718 -1.55236 -0.954454 9.18809 -0.577967 -0.813404 0.335806 Si
47 1 6.8597 1.35719 6.88415 1.83343 3.51747 -2.4973 -1.07661 -0.118062 -1.17008 Si
35 1 9.5718 1.36481 4.12268 -3.49723 -1.03808 -1.43916 -0.14433 -0.533635 -0.0305457 Si
46 1 8.20091 2.70226 5.48571 -3.30583 -0.0599476 -4.29716 -0.346718 -0.988189 0.0900656 Si
5 1 1.28797 4.16251 3.99546 2.42574 -2.26348 1.41214 0.626479 -1.0018 1.01716 Si
31 1 1.36405 6.87579 6.87033 1.71688 -3.08354 0.486223 -0.0231439 -0.858887 -0.853828 Si
9 1 4.10284 4.08749 6.80758 -6.81391 -4.62552 2.01215 0.324866 0.0472844 -0.625059 Si
19 1 4.09435 6.79028 4.06843 0.646075 2.71694 -0.0271542 0.330035 0.478365 -0.334188 Si
37 1 6.81955 3.93291 4.13141 1.36138 5.07815 2.96783 -0.0561229 1.46438 -1.31855 Si
60 1 5.44229 5.41408 5.36597 -0.322565 3.80258 -1.2824 0.260926 -0.302141 0.792362 Si
63 1 6.78017 6.80817 6.74979 3.77391 -0.702644 2.67376 0.470041 0.137726 0.155003 Si
28 1 -0.0440485 5.40375 5.48972 1.7593 -2.11766 2.11009 0.44333 0.54871 0.674485 Si
41 1 9.40577 4.05519 6.8616 -6.23073 -3.67603 1.24678 1.48141 0.742687 0.400558 Si
51 1 9.58912 6.79555 4.10937 -4.41861 -4.12236 1.90568 -0.500949 0.500316 -0.311218 Si
21 1 1.49386 9.43948 3.99366 -0.79988 2.51902 1.65802 -1.41231 0.266542 1.26636 Si
30 1 2.80522 8.18582 5.4529 0.918346 2.08564 1.48696 -0.574652 -0.871876 0.0479428 Si
44 1 5.395 -0.0181904 5.43717 -0.941072 0.653287 3.71173 0.841619 1.0211 0.28471 Si
25 1 4.10543 9.50768 6.82045 -5.45057 2.95437 6.55516 -0.196522 0.51779 0.689872 Si
53 1 6.76411 9.58357 4.02231 4.47844 0.805891 -1.30984 0.150755 -0.21465 0.411169 Si
12 1 0.0881143 -0.0889927 5.44092 0.490051 -4.27761 0.727617 -0.622378 0.00991577 -0.373653 Si
57 1 9.45324 9.47886 6.77382 -2.20823 -6.96307 -2.42939 0.970149 0.849967 0.136556 Si
62 1 8.15249 8.22376 5.35271 2.63772 -3.91976 -5.87209 -0.486777 -0.973216 0.22053 Si
10 1 0.0516086 2.76253 8.17925 0.106635 -0.435102 -2.33179 -1.39283 -0.211604 -0.306798 Si
16 1 2.62052 -0.00498005 8.15136 0.445887 0.31701 2.86259 0.646117 -0.575623 0.0790108 Si
11 1 4.07262 1.24477 9.51362 5.24152 -4.72549 0.996205 -0.144071 1.25277 0.0170049 Si
42 1 5.44077 2.74001 8.17559 2.83631 0.248702 0.962953 0.25942 -0.41018 0.771372 Si
38 1 8.27366 2.77986 0.0178594 1.47572 2.36273 -2.28231 -0.932641 -0.359147 -0.444134 Si
43 1 9.56332 1.37158 9.49989 -3.98977 -1.22699 -1.80647 0.142601 0.804775 0.366 Si
13 1 1.38222 4.04994 9.52137 2.85548 -2.17631 -1.51068 0.830086 0.519924 -0.315044 Si
32 1 2.78501 5.43313 8.14105 -5.51848 4.36872 5.83575 -0.888158 0.548434 0.769888 Si
27 1 4.03538 6.87856 9.56237 -4.036 -0.605112 -1.79526 0.704625 -0.327169 -0.455669 Si
45 1 6.8322 4.129 9.58011 -1.53059 -1.80262 -2.08397 -0.809295 -0.591289 0.17804 Si
59 1 9.53761 6.76333 9.54702 3.05663 -2.72826 -1.59403 -0.569451 0.347844 0.141375 Si
64 1 8.11499 5.47498 8.24231 0.373776 3.01741 -6.12695 0.0589568 0.151951 -1.17414 Si
22 1 2.64687 8.17983 0.0354893 8.14075 0.572627 2.36719 -0.215518 0.381761 -0.911329 Si
29 1 1.23822 9.58731 9.58285 1.61691 -6.71577 0.0958509 0.587832 -0.968463 -0.64917 Si
58 1 5.52599 8.1987 8.20808 1.28308 3.40356 -2.31055 -0.750433 -0.285003 -0.245701 Si
61 1 6.90188 9.54363 9.54973 -3.00314 0.834006 1.34839 0.01077 -0.494237 0.56996 Si
54 1 8.19601 8.07407 0.0973844 2.75477 2.18905 -2.91124 0.0625526 1.0084 -0.611797 Si
48 1 8.22543 0.0342463 8.17986 -1.6072 2.69093 -2.31952 -0.154388 -0.71296 -0.0299829 Si
26 1 -0.105252 8.15648 8.1932 4.94263 2.58531 -1.23726 0.731351 0.568909 0.0272021 Si
ITEM: TIMESTEP
10700
ITEM: NUMBER OF ATOMS
64
ITEM: BOX BOUNDS pp pp pp
0.0000000000000000e+00 1.0887404739999999e+01
0.0000000000000000e+00 1.0887404739999999e+01
0.0000000000000000e+00 1.0887404739999999e+01
ITEM: ATOMS id type xu yu zu vx vy vz fx fy fz element
2 1 0.0187145 2.6852 2.62898 -3.24328 -1.28026 0.332944 -0.429143 0.305465 0.758874 Si
6 1 2.68617 2.80216 0.0988052 1.81295 0.522076 -0.542909 -0.121374 0.33027 -0.625983 Si
7 1 1.39816 1.31666 1.38133 1.58756 1.12625 -0.614752 -0.0660921 -0.272388 -0.514143 Si
8 1 2.76173 -0.0210164 2.7529 1.44438 -3.38121 -3.89905 -0.578303 0.0265096 0.107403 Si
34 1 5.43974 2.7776 2.79765 1.08348 -2.28046 -1.31665 -0.377917 -0.328964 -0.820685 Si
36 1 5.44883 0.0674465 0.028472 -3.67316 -1.24278 2.88626 -0.192521 0.426766 0.108311 Si
39 1 6.8599 1.36105 1.40975 -1.10833 -1.57948 -4.50838 -0.827833 -0.0113271 0.353534 Si
40 1 8.21179 -0.0912291 2.70641 3.77084 -0.660639 0.0114916 -0.71397 0.60977 0.379057 Si
20 1 0.0223445 5.44352 0.0560502 2.44974 0.933931 1.3254 -0.774651 0.792142 -0.422385 Si
23 1 1.41764 6.7667 1.38934 -0.0916443 -2.60815 -1.42938 -0.447957 0.149606 0.414575 Si
24 1 2.78412 5.43938 2.78013 -0.185219 -0.34717 1.1974 -0.834338 0.231675 0.117855 Si
1 1 4.0989 4.21508 1.3862 -2.29497 -0.969536 -2.48546 0.550173 -1.62441 0.145774 Si
52 1 5.49302 5.43875 -0.00272781 -0.832673 3.71999 -2.41641 0.44061 0.270379 -0.465492 Si
55 1 6.83804 6.89331 1.2998 -0.698364 -2.49898 -0.366261 -0.529872 -0.351508 0.235993 Si
33 1 9.51581 4.07756 1.30012 -3.38455 5.9887 1.43147 -0.416426 -0.6615 0.272215 Si
56 1 8.09285 5.4145 2.6604 4.29446 -1.88891 1.57513 1.19866 1.28809 -0.753634 Si
18 1 0.0029747 8.15847 2.68092 -4.46169 0.106945 -3.56922 0.0367793 0.544616 -0.343283 Si
17 1 4.18377 9.56136 1.43046 -2.59042 -3.55709 0.41586 -1.40201 -0.0210407 -1.03724 Si
50 1 5.39786 8.17783 2.75121 -0.625828 3.12202 -1.08675 1.59675 -0.299649 -0.467498 Si
4 1 0.0511534 -0.0442753 -0.0382886 -0.259248 -3.9094 -3.64557 0.365707 0.354826 0.440039 Si
49 1 9.54008 9.54741 1.29828 -0.867556 2.88121 -0.0111133 0.410194 -0.988473 -0.234765 Si
14 1 2.65859 2.63397 5.51514 -1.04048 1.29944 -5.24137 0.826506 0.823367 0.325348 Si
15 1 1.37077 1.35186 6.89545 -1.74439 1.07978 1.20986 -1.30129 -0.683003 0.608252 Si
3 1 3.9876 1.38817 4.13619 0.134844 0.595969 -0.415652 1.59993 -0.429436 -0.313278 Si
47 1 6.77072 1.35232 6.72356 -1.96703 -1.45257 2.27974 0.673699 0.0304458 0.8602 Si
35 1 9.44526 1.42883 4.02107 5.45782 -3.49335 1.72551 0.35215 -0.237514 0.189284 Si
46 1 8.09215 2.78307 5.43553 3.06074 1.26024 -0.149231 0.522146 0.190427 -0.58477 Si
5 1 1.46222 3.91909 4.06117 -3.27091 1.04379 -4.42143 -1.37043 1.64668 -0.240118 Si
31 1 1.37639 6.80383 6.8331 -4.19082 3.23349 2.52448 -0.59153 -0.338727 -0.403176 Si
9 1 4.03765 4.09623 6.78881 0.17435 -3.3396 2.69226 0.61718 -0.310331 0.355407 Si
19 1 4.03611 6.91169 4.0652 -1.61293 -1.89942 -2.75787 0.0616992 -0.896334 1.05057 Si
37 1 6.79196 4.20915 4.04209 2.13035 -5.4666 0.278449 -0.445754 -1.18512 1.04729 Si
60 1 5.45818 5.52313 5.42735 5.71286 2.08864 -2.77346 -0.991504 -0.0859057 0.00769135 Si
63 1 6.86753 6.78484 6.78791 -0.976997 -0.860692 0.463728 -1.13435 -0.492845 1.53648 Si
28 1 0.0356987 5.44837 5.35564 0.873577 -0.79877 -0.721653 0.041607 0.148794 -0.432247 Si
41 1 9.58946 4.0778 6.74831 -0.734967 1.29237 0.905617 -0.487604 -0.249025 -0.377525 Si
51 1 9.437 6.89669 3.96854 3.35041 0.569984 -0.418006 0.669765 -1.70901 1.01919 Si
21 1 1.28422 9.56477 4.08625 -0.259439 -1.00298 -2.8018 0.114959 0.0873926 -0.424664 Si
30 1 2.61871 8.21148 5.42861 -1.85461 -1.44414 0.740836 0.686833 -0.0870361 0.219646 Si
44 1 5.47713 0.00470621 5.41592 0.925288 -0.429609 -1.77288 -0.623906 -0.597449 -0.857993 Si
25 1 4.10231 9.50735 6.73516 5.52234 -0.89375 -4.90469 0.102481 -0.147083 0.432724 Si
53 1 6.85533 9.41373 4.10242 -3.74443 -0.506799 -0.349566 -0.319307 0.9924 0.208236 Si
12 1 -0.0803547 0.0702787 5.40388 0.504103 6.48146 0.930323 0.602073 0.0889743 0.70957 Si
57 1 9.58625 9.51082 6.83052 1.38256 0.447387 -0.0454643 -0.43549 -0.187583 -0.0235915 Si
62 1 8.16818 8.0968 5.54354 -1.54872 2.43573 3.86087 1.01554 1.25592 -1.20515 Si
10 1 -0.167374 2.72103 8.2699 3.01002 4.70245 1.90055 1.90383 -0.340459 -0.888128 Si
16 1 2.84996 -0.0575195 8.20804 -0.942857 3.00523 2.05914 -0.815428 0.988846 -0.315293 Si
11 1 4.03826 1.48547 9.57775 -3.31357 -0.233093 -1.91218 0.562428 -1.07465 0.15231 Si
42 1 5.47886 2.66144 8.15784 3.23612 -1.58947 0.771855 -0.587564 1.34479 -0.328375 Si
38 1 8.15928 2.61127 -0.0560528 2.21167 0.929308 3.50577 0.078115 1.41476 1.00921 Si
43 1 9.49684 1.28256 9.59026 0.854334 1.07568 2.55184 -0.169481 -0.707411 -1.12763 Si
13 1 1.24322 4.11676 9.56333 -0.993174 -2.34664 3.93313 0.665313 -1.24827 0.240112 Si
32 1 2.63258 5.38963 8.22177 1.40222 3.54743 -4.92489 0.856072 0.429347 -0.404657 Si
27 1 4.03775 6.75282 9.58457 -0.540385 -0.079243 3.21742 -0.00865808 0.328171 -0.359693 Si
45 1 6.89203 4.05802 9.47573 5.51179 0.0721095 5.00381 -0.750563 -0.172789 0.198465 Si
59 1 9.53444 6.75036 9.46974 -2.20599 2.90195 -2.04315 0.433503 -0.0579544 0.840533 Si
64 1 8.25917 5.38 8.1002 -1.81901 -3.03755 4.29398 -0.73734 0.484442 0.0116044 Si
22 1 2.70379 8.17869 0.0634553 -3.71515 -1.05632 2.05163 1.4608 -0.0974692 0.352906 Si
29 1 1.46857 9.50238 9.54082 -1.3744 2.01544 1.17487 -0.863943 -0.0267542 -0.210254 Si
58 1 5.39975 8.1332 8.18454 2.41239 -3.36881 1.67863 0.568803 0.0198959 -0.164735 Si
61 1 6.76026 9.60758 9.53742 -0.537394 -2.45537 -0.716875 -0.123583 -0.881329 -0.759669 Si
54 1 8.20082 8.19721 -0.1384 -1.28138 1.62458 3.6871 -0.191532 0.121351 0.836652 Si
48 1 8.13095 -0.0252565 8.11158 -1.43975 4.15064 0.299921 0.31592 0.468018 0.245545 Si
26 1 0.035536 8.12523 8.23727 1.11452 -2.2954 -0.655205 0.331435 0.608605 -0.684798 Si
ITEM: TIMESTEP
10800
ITEM: NUMBER OF ATOMS
64
ITEM: BOX BOUNDS pp pp pp
0.0000000000000000e+00 1.0887404739999999e+01
0.0000000000000000e+00 1.0887404739999999e+01
0.0000000000000000e+00 1.0887404739999999e+01
ITEM: ATOMS id type xu yu zu vx vy vz fx fy fz element
2 1 0.045794 2.79604 2.81518 1.50675 2.39122 -4.84395 0.388509 -0.643989 -0.722352 Si
6 1 2.72088 2.67608 -0.160602 -0.452552 -1.77957 2.22806 0.294832 -0.0289975 1.41857 Si
7 1 1.34039 1.37612 1.26785 0.661209 -1.38247 2.05307 0.189927 0.316003 1.2798 Si
8 1 2.74504 -0.0171298 2.6732 5.47874 0.787156 0.536293 -0.454661 0.228049 -0.326182 Si
34 1 5.44469 2.63388 2.7112 -0.345322 -1.26547 0.574739 0.500869 0.864311 0.0349517 Si
36 1 5.3922 -0.11364 -0.0168963 1.33342 0.0307474 -0.257522 1.15708 0.527882 0.213465 Si
39 1 6.8144 1.36655 1.31783 1.52608 4.03938 5.69757 -0.0992034 -0.776839 -0.279326 Si
40 1 8.11291 -0.0225098 2.78255 -3.06976 -2.73761 2.96197 0.749492 0.583157 -0.531304 Si
20 1 -0.0548271 5.42034 -0.0251139 -0.0908591 -4.3113 4.18208 1.29118 -0.0246817 0.541269 Si
23 1 1.33674 6.88544 1.35567 2.89454 3.13866 -0.365918 -0.161384 -0.666342 -1.1015 Si
24 1 2.63864 5.45002 2.67212 0.262884 0.0484231 0.564543 1.07793 0.259689 -0.286908 Si
1 1 3.99149 3.977 1.38973 -0.552259 1.21013 0.632601 0.250475 0.239108 -0.505025 Si
52 1 5.41363 5.38261 0.0802094 1.31613 -1.84665 0.603421 -0.529544 0.955012 0.00173567 Si
55 1 6.7405 6.78561 1.51574 2.5993 2.20768 -0.173624 0.537767 -0.43815 -1.15143 Si
33 1 9.53305 4.02962 1.39121 4.50508 -1.36879 -1.98933 0.0520864 1.17855 0.301808 Si
56 1 8.15626 5.40144 2.77694 -2.58887 -1.74407 -3.29653 0.324448 -0.181871 0.403619 Si
18 1 0.0111924 8.18815 2.75536 2.30107 -6.08869 -0.161328 -0.126745 -0.411159 1.01819 Si
17 1 3.98951 9.44615 1.29918 2.53594 0.795289 -0.817188 0.864719 0.230239 0.699479 Si
50 1 5.37136 8.13941 2.76924 -2.43606 1.37054 -0.00520706 -0.21582 0.700664 0.0372098 Si
4 1 -0.108267 0.0313971 0.0412544 -0.762783 0.748192 2.06006 0.697258 0.219409 -0.976608 Si
49 1 9.57306 9.51568 1.39779 1.2103 0.204203 0.925889 -1.21847 0.384518 0.901714 Si
14 1 2.82938 2.75172 5.36407 -3.57873 -5.91366 5.66097 -0.298439 -0.192737 -0.48165 Si
15 1 1.4149 1.41586 6.69205 -3.34405 -0.454354 1.9095 0.277016 -0.392345 -0.497299 Si
3 1 4.17044 1.26652 4.03188 3.79233 -3.25187 -5.2296 -1.51477 1.05527 -0.156737 Si
47 1 6.82615 1.34031 6.83676 -0.974891 -0.668987 -5.535 -0.453179 -0.205011 0.534248 Si
35 1 9.55192 1.39032 4.1242 -6.21823 5.08154 1.53791 0.354505 -1.08312 -0.263337 Si
46 1 8.22936 2.62093 5.55119 0.755302 -4.38398 4.3968 -0.201264 1.20065 -0.18266 Si
5 1 1.40382 4.24466 4.13486 -2.71915 4.23958 2.39659 -0.584642 -1.55565 0.40535 Si
31 1 1.37236 6.89847 6.79016 -1.58469 -2.94121 -2.25031 0.330276 -0.869498 0.650089 Si
9 1 4.18485 4.06172 6.72093 7.36088 6.56578 -2.07883 -1.26767 -0.00453433 1.45692 Si
19 1 4.13439 6.63843 4.05281 0.0275871 1.47607 -1.41118 -0.345324 0.417732 -0.297568 Si
37 1 6.87338 3.95551 4.1485 -1.91777 1.52745 -2.79212 -0.487793 0.118876 -0.41474 Si
60 1 5.48545 5.37577 5.44042 -3.24237 0.238204 3.27136 1.17277 0.280551 -0.346308 Si
63 1 6.78577 6.81152 6.82129 -3.14591 0.316446 -0.459944 -0.255498 0.0584493 -1.72118 Si
28 1 0.00653265 5.48654 5.56159 2.23567 1.18495 0.0651831 -0.694312 -0.258171 -0.123167 Si
41 1 9.45176 4.10974 6.93485 6.15183 2.66808 -5.65121 0.997225 -0.124385 -0.504852 Si
51 1 9.47537 6.79391 4.20256 2.81133 -0.923377 -2.0174 0.285572 0.638067 -0.914384 Si
21 1 1.47923 9.49945 4.10245 -1.93206 -0.186269 -0.984177 -0.35117 -0.480773 -0.00378422 Si
30 1 2.86142 8.01182 5.41218 -0.986496 -0.678649 -0.0658563 -0.785176 1.47626 -0.240453 Si
44 1 5.41833 0.0463934 5.43558 1.53388 1.63759 -2.40223 0.290176 -0.0990744 1.34105 Si
25 1 4.07545 9.54104 6.73575 3.34057 -1.7583 1.28756 -0.223459 -0.170319 0.426238 Si
53 1 6.67315 9.60846 4.1408 -3.17876 3.76955 -1.19406 0.634368 -1.16786 -1.16503 Si
12 1 0.0619305 -0.0416398 5.45252 -2.24704 -1.11267 -0.521798 -0.42774 0.32797 -0.315505 Si
57 1 9.48761 9.57827 6.84704 4.63613 4.03473 2.16939 -0.054075 -0.144854 -0.781667 Si
62 1 8.0449 8.25267 5.44131 -1.1591 -1.2042 0.213132 0.899324 -0.373221 0.699747 Si
10 1 0.159159 2.68826 8.08568 -4.96791 -4.80925 -0.391293 -1.34534 1.56148 0.829374 Si
16 1 2.6174 0.0288467 8.07648 -0.188376 -2.89324 -3.73411 1.22963 -0.488938 0.653183 Si
11 1 4.13956 1.28658 9.5089 -2.76942 5.40048 3.36555 -1.10337 -0.133972 -0.902115 Si
42 1 5.43342 2.71758 8.18589 0.473422 -0.326303 4.22582 0.408086 -0.274897 -0.522472 Si
38 1 8.14863 2.84294 -0.0135604 -0.467901 1.1425 -4.58351 -0.105433 -1.18268 -0.461079 Si
43 1 9.59203 1.4855 9.50424 1.87744 -0.184788 0.0604341 -0.422942 -0.116207 0.593244 Si
13 1 1.45079 4.12805 9.47392 -2.91095 2.14463 -3.1375 -1.12461 -0.0545913 -0.104818 Si
32 1 2.76398 5.47255 8.12283 -0.398838 -4.06274 3.79412 0.680054 0.258318 -0.66032 Si
27 1 4.16713 6.85025 9.47128 0.0562014 6.59899 0.582869 -0.516233 -0.748637 0.504958 Si
45 1 6.71904 4.13985 9.50984 -3.66321 0.964529 -4.86569 0.528688 -0.176571 0.384066 Si
59 1 9.53831 6.81099 9.55068 -0.882786 -2.34771 -0.479189 -0.965999 0.471736 -0.092129 Si
64 1 8.03977 5.55524 8.19596 -1.23052 0.033829 0.142195 1.3612 -0.986411 0.767987 Si
22 1 2.6983 8.20989 -0.132341 -2.4275 3.53529 -0.921654 -1.02323 -0.455149 -0.119861 Si
29 1 1.18309 9.58573 9.44485 1.37817 -0.201666 2.42187 1.3823 0.236648 0.790477 Si
58 1 5.47522 8.15736 8.04839 -1.85872 -0.853767 1.96169 -0.330285 1.167 1.17207 Si
61 1 6.8579 9.49364 9.48997 0.926616 1.56491 1.38158 -0.194618 -0.454078 0.798684 Si
54 1 8.18063 8.13122 0.153645 3.13172 -4.85472 -0.527698 -0.490312 -0.0789597 -1.22837 Si
48 1 8.22362 0.067822 8.2554 2.83468 -5.84818 -3.62053 -0.40866 -0.159648 -0.542519 Si
26 1 -0.0471448 8.18842 8.12988 -3.16137 1.28778 2.90065 -0.4264 -0.351255 0.0651413 Si
ITEM: TIMESTEP
10900
ITEM: NUMBER OF ATOMS
64
ITEM: BOX BOUNDS pp pp pp
0.0000000000000000e+00 1.0887404739999999e+01
0.0000000000000000e+00 1.0887404739999999e+01
0.0000000000000000e+00 1.0887404739999999e+01
ITEM: ATOMS id type xu yu zu vx vy vz fx fy fz element
2 1 -0.0368231 2.69296 2.69638 1.66696 -4.90888 3.58107 -0.102759 -0.222026 -0.12234 Si
6 1 2.74084 2.7343 0.125187 -4.74907 0.81714 -0.471889 0.206116 -0.178138 -1.1473 Si
7 1 1.3591 1.34143 1.34682 2.81011 0.306823 -2.65756 -0.186804 0.0855519 0.419248 Si
8 1 2.72896 0.0914669 2.77464 -5.28723 0.102404 0.28242 -0.0134738 -0.418929 0.649542 Si
34 1 5.33949 2.80681 2.80583 -0.516971 0.230027 3.05536 1.31144 -0.799492 -0.239022 Si
36 1 5.43953 0.0741303 0.0585555 -0.895549 -4.97556 2.04804 0.0220604 -0.74214 -1.02694 Si
39 1 6.78413 1.39516 1.40847 1.93284 1.76364 -0.0887128 -0.0378207 0.954559 0.137623 Si
40 1 8.20135 -0.00310284 2.63089 -2.73156 0.507736 -0.841108 -0.565034 -0.210906 0.496213 Si
20 1 0.0142194 5.46826 0.00723308 -0.695178 5.16229 -2.29847 -0.472717 -0.648598 -0.683675 Si
23 1 1.37576 6.72758 1.37736 -0.198067 1.90924 -1.94195 0.348633 0.776358 0.69372 Si
24 1 2.81383 5.48805 2.78131 -2.0768 1.86402 -2.98395 -0.679563 -0.483557 -0.0252599 Si
1 1 4.13981 4.12509 1.37605 1.77148 -0.192862 2.72403 -0.412367 0.588886 -0.232034 Si
52 1 5.51702 5.40204 -0.0984161 -2.65472 -2.54853 2.83106 -0.264744 0.0718085 0.469689 Si
55 1 6.83103 6.86372 1.22424 -2.81461 5.60691 0.0976121 0.0140361 -0.229561 0.814811 Si
33 1 9.50216 4.10088 1.32765 -2.27888 -1.75224 -2.43987 0.745282 -0.728918 -0.3506 Si
56 1 8.21783 5.46677 2.61556 -2.30091 0.458257 5.52481 -1.57404 0.371949 0.791237 Si
18 1 0.0102463 8.19053 2.66087 3.83082 2.03959 1.46224 0.212485 -0.22444 0.102133 Si
17 1 4.14538 9.6041 1.50871 -5.9035 -1.91633 3.45146 -0.470802 -0.0747814 -0.913828 Si
50 1 5.51303 8.21724 2.74896 -1.53488 -3.71578 2.86382 0.137033 -0.735925 -0.608988 Si
4 1 0.0762647 -0.0255949 -0.0769648 3.50892 1.97367 0.533964 -0.876022 -0.0490526 1.1783 Si
49 1 9.50508 9.53814 1.28529 -1.51934 -1.77155 -2.40471 0.795783 -0.172282 -0.487376 Si
14 1 2.66252 2.69693 5.43828 6.76504 2.06031 -2.51803 -0.229892 0.0518755 1.67382 Si
15 1 1.28503 1.29561 6.88509 2.3769 0.26522 1.19842 0.818259 0.651462 -0.0538635 Si
3 1 4.10654 1.3985 4.22082 -0.0459561 0.999931 2.54881 -0.25952 -0.483082 -1.07063 Si
47 1 6.73702 1.35984 6.76147 -0.16081 1.49637 3.5885 0.798314 0.523856 -0.539957 Si
35 1 9.5158 1.2538 4.05464 4.22709 -1.67137 -3.06462 -0.581987 1.73577 0.470685 Si
46 1 8.00442 2.80692 5.3174 -2.31902 3.80584 0.186335 1.32037 -1.1315 0.649467 Si
5 1 1.35735 4.01339 4.04252 3.21744 0.303008 0.50565 0.503821 0.507659 -0.405485 Si
31 1 1.33167 6.71297 6.76006 1.14039 1.0592 -2.76843 0.145443 1.11529 -0.361923 Si
9 1 3.97266 4.11636 6.89146 -0.694966 -1.55977 -2.5263 0.763913 0.102873 -2.02153 Si
19 1 4.10691 6.9433 4.12708 5.20285 0.88653 2.39528 -0.468306 0.0666284 -0.403631 Si
37 1 6.64338 4.27206 4.09166 -0.67763 2.34139 2.85215 1.07554 -0.0957863 -0.861502 Si
60 1 5.35793 5.6145 5.49637 -1.93239 -4.17778 -4.56064 -0.841419 -1.87057 0.367823 Si
63 1 6.76098 6.75652 6.82856 2.88388 0.787168 1.28188 1.51559 0.863459 0.184383 Si
28 1 0.0148606 5.33819 5.38604 -7.70486 -3.0866 2.84401 0.104621 -0.00134728 0.430196 Si
41 1 9.54244 4.00419 6.77334 -2.77805 -1.43586 6.47552 -0.961113 0.344022 -0.552044 Si
51 1 9.65431 6.70061 3.99599 -4.27416 -0.383245 3.78926 -1.15171 1.0519 0.372157 Si
21 1 1.322 9.56146 4.09626 2.60322 7.18974 3.38871 0.0807963 0.28562 0.038395 Si
30 1 2.70311 8.23837 5.48318 4.82908 -2.10097 -0.166695 -0.0929501 -0.101741 0.37337 Si
44 1 5.47843 -0.0566881 5.44835 -2.53267 -1.89611 2.77573 -0.101756 0.241755 -0.264181 Si
25 1 4.1018 9.61437 6.8812 -3.13122 5.80916 -1.60198 -0.807741 -0.542785 -0.123904 Si
53 1 6.88131 9.5239 4.0342 2.25415 -0.704865 4.57702 0.459951 0.00981291 0.888335 Si
12 1 -0.0694661 -0.015588 5.53842 -0.616075 -4.16793 -1.25093 0.530641 -0.432992 -1.1012 Si
57 1 9.54529 9.42118 6.78495 -5.51568 1.14531 -0.806395 -0.494595 0.635142 0.539618 Si
62 1 8.22257 8.07318 5.42794 1.17616 -0.24529 -2.39887 -0.327639 -0.425473 -0.707829 Si
10 1 -0.0815196 2.67929 8.19929 -1.61309 1.15648 -1.2484 0.259556 -0.671788 -0.190657 Si
16 1 2.70425 0.0301528 8.33819 0.456353 -3.58187 2.55 -0.0324892 -0.44996 -1.34671 Si
11 1 4.08692 1.44667 9.50269 4.68487 -0.727289 -3.80614 0.50758 0.224569 1.17939 Si
42 1 5.46115 2.77949 8.07688 1.40213 -1.87401 -6.68146 -0.352761 -0.375544 1.03133 Si
38 1 8.19869 2.68489 -0.0261725 -1.95897 -3.65549 0.996995 -0.197018 -0.363152 0.556239 Si
43 1 9.50937 1.26684 9.52223 -1.64704 3.08015 -6.43929 -0.120462 0.355308 -0.308587 Si
13 1 1.28981 3.92096 9.58692 0.950995 2.1745 1.0883 0.759732 1.96287 -0.235799 Si
32 1 2.6376 5.45046 8.15772 -2.08562 2.32396 3.20382 -0.532283 -0.914436 1.65001 Si
27 1 4.05914 6.75448 9.5169 2.36903 -3.69769 -1.12526 0.229093 0.771074 0.0814599 Si
45 1 6.90273 4.0118 9.48409 1.83648 -0.860773 -0.709844 -0.688794 0.3771 -0.223517 Si
59 1 9.54692 6.85934 9.48579 4.36082 -3.45268 3.57246 0.521441 -0.860367 -0.231336 Si
64 1 8.21551 5.40163 8.15808 4.97358 -2.35859 -6.49795 0.0541404 0.34574 -0.379941 Si
22 1 2.79903 8.12984 0.173693 4.0307 -4.7852 0.730826 0.319963 0.0878124 -0.83069 Si
29 1 1.43056 9.44383 9.64497 2.51294 -0.974318 -4.66919 0.257932 -0.264537 -0.736491 Si
58 1 5.44795 8.16822 8.13182 -3.30226 0.953728 -4.15238 -0.776173 -0.572604 0.538992 Si
61 1 6.76939 9.4786 9.48694 1.80567 0.800842 -4.59294 -0.0361509 2.069 -0.166022 Si
54 1 8.17615 8.21369 -0.140363 -3.0175 4.03544 -4.89648 0.179898 -0.265287 1.02165 Si
48 1 8.15422 0.0169571 8.05799 -3.21862 5.47464 3.73583 -0.223249 -1.12123 0.753845 Si
26 1 0.0823551 8.16633 8.13977 3.80293 -1.71125 -0.13094 -0.0653032 -0.366783 0.401104 Si
ITEM: TIMESTEP
11000
ITEM: NUMBER OF ATOMS
64
ITEM: BOX BOUNDS pp pp pp
0.0000000000000000e+00 1.0887404739999999e+01
0.0000000000000000e+00 1.0887404739999999e+01
0.0000000000000000e+00 1.0887404739999999e+01
ITEM: ATOMS id type xu yu zu vx vy vz fx fy fz element
2 1 0.0374383 2.70292 2.63064 0.65514 0.236765 -1.02044 -0.860175 0.714721 1.74147 Si
6 1 2.70247 2.73665 0.00503848 -1.37656 -0.565463 -0.284453 -0.678737 -0.42281 -0.00389211 Si
7 1 1.34322 1.35154 1.41831 -1.09182 -1.75289 2.45147 0.427205 -0.000354535 -1.86673 Si
8 1 2.67747 -0.0216195 2.65083 -2.38446 0.390891 0.42976 0.407502 -1.22607 -0.240601 Si
34 1 5.52729 2.63887 2.60644 -1.30412 0.60279 -0.279193 -1.607 0.361284 0.524774 Si
36 1 5.49325 -0.0185156 -0.105885 3.52404 1.8433 -0.591756 -1.18621 0.186463 1.43949 Si
39 1 6.8756 1.33768 1.32729 -4.29968 -0.978318 -2.09463 -0.182471 -1.03326 -0.476927 Si
40 1 8.18441 -0.0117442 2.74457 -0.404112 1.49509 -0.743577 -0.331755 0.0957238 0.160572 Si
20 1 0.016485 5.44928 -0.0792086 3.00573 -0.819226 -4.7946 -0.72952 0.669704 0.927126 Si
23 1 1.33181 6.76943 1.3574 -0.210486 -3.40536 -3.7468 -0.275242 0.519007 -0.199811 Si
24 1 2.71214 5.3946 2.70048 2.72835 2.28805 -1.13096 -0.706194 -0.293608 -0.349776 Si
1 1 4.05327 4.05265 1.34341 0.610886 -3.40024 0.32005 0.88756 0.159007 0.0960726 Si
52 1 5.37869 5.55682 0.0534238 1.19237 3.9009 -1.52696 0.327667 -1.13506 0.0995796 Si
55 1 6.81856 6.73702 1.49448 -0.786558 -5.6055 2.69504 -0.460418 0.736601 -1.01694 Si
33 1 9.58065 4.09546 1.32362 4.66263 3.39102 0.312997 -0.699498 0.627355 0.662155 Si
56 1 8.15488 5.47831 2.82825 1.20323 1.01479 -2.39746 1.28099 -1.15996 -0.609885 Si
18 1 -0.0904314 8.14715 2.70999 -0.937629 0.917993 1.92126 0.665657 -0.0971793 0.125258 Si
17 1 4.01931 9.4216 1.26851 -0.274132 1.87694 -1.33119 0.648313 1.20401 0.00262909 Si
50 1 5.41056 8.1032 2.70009 1.71188 1.48855 0.616444 -0.762301 -0.0176714 0.464455 Si
4 1 -0.0586996 0.0377346 0.052593 -4.07251 4.27796 -2.82081 0.886263 -0.239775 -0.484666 Si
49 1 9.5033 9.54314 1.37167 4.07061 2.72405 1.16965 0.294987 0.0648469 0.545029 Si
14 1 2.74862 2.77927 5.42985 -0.432798 -1.56517 -2.24413 0.109242 -0.486226 -1.18123 Si
15 1 1.43479 1.43537 6.77991 0.772559 1.88296 -1.70559 -0.778975 0.12993 0.156122 Si
3 1 4.00193 1.31941 3.93928 -0.774064 -0.712777 -2.30483 1.03722 1.11557 1.15709 Si
47 1 6.82352 1.30252 6.92141 7.22579 -2.92199 0.831762 0.137055 0.89114 -0.614452 Si
35 1 9.58606 1.34539 4.08557 -5.24059 3.83002 5.40784 0.176797 0.375313 -0.443279 Si
46 1 8.33058 2.69943 5.54623 -1.81114 1.708 -0.811127 -1.71595 -0.108002 -0.575403 Si
5 1 1.30418 4.11462 4.07501 -0.306888 0.261863 -1.79234 0.171875 -0.0457623 0.168191 Si
31 1 1.34705 6.85509 6.87527 3.97531 1.08723 2.29617 0.493614 -0.146345 -0.21337 Si
9 1 4.23481 4.00632 6.725 -1.14514 0.70972 4.61456 -0.950791 0.337469 1.27807 Si
19 1 4.0548 6.63613 4.05189 -3.77285 -1.71819 0.343425 0.578695 1.54246 0.627234 Si
37 1 6.8501 3.94891 3.99181 -0.853577 -5.53173 5.16702 0.785965 -0.131918 1.44499 Si
60 1 5.5201 5.31215 5.36402 2.81296 2.92806 -0.535114 0.354205 0.852769 -0.140418 Si
63 1 6.85266 6.78066 6.73084 -0.318159 -3.38834 -2.74564 -0.884722 0.135643 1.12239 Si
28 1 -0.0062044 5.57839 5.46105 -0.120153 -0.354912 1.15444 0.174945 -0.4148 -0.261228 Si
41 1 9.59036 4.20845 6.82223 -2.71612 -3.53224 1.0901 -0.102297 -0.577129 0.481072 Si
51 1 9.43389 6.92154 4.18834 2.00022 1.29968 0.408069 0.699545 -0.683234 -0.870065 Si
21 1 1.36848 9.48054 4.00616 7.68279 -7.8718 -4.93765 -0.221784 0.234183 0.248162 Si
30 1 2.70945 8.15146 5.40352 1.05022 5.65471 -3.73579 -0.0356421 -1.25284 -0.367738 Si
44 1 5.39968 0.0668899 5.42676 0.902673 -2.03192 -0.439046 0.008986 -0.839678 -0.0191964 Si
25 1 4.09255 9.40478 6.741 0.485843 -1.63482 -0.609352 0.953264 1.09793 0.0184336 Si
53 1 6.72821 9.51989 4.04531 -1.78458 -2.33438 -2.04603 -0.0251408 0.720279 0.0910697 Si
12 1 0.124937 0.0518997 5.38843 4.76532 0.697085 1.11107 -0.732528 -0.690715 0.736298 Si
57 1 9.51579 9.61264 6.81967 -3.9301 -3.41606 1.00922 0.56963 -0.0748693 -0.337851 Si
62 1 8.11015 8.28398 5.44206 -1.26035 2.00299 0.152925 -0.0157362 0.0636721 0.72486 Si
10 1 0.0323127 2.82687 8.20193 2.74711 5.28223 0.779096 0.0570732 -0.823905 -0.0917489 Si
16 1 2.75269 -0.0540772 7.98076 -1.76801 2.5602 -1.97373 -0.458963 0.30684 1.47968 Si
11 1 3.96857 1.33295 9.49972 -1.82787 -3.71089 -1.43963 0.903136 -0.369963 -0.150335 Si
42 1 5.44367 2.71109 8.28214 -2.21933 2.28754 -3.42028 0.129921 -0.448053 -0.740764 Si
38 1 8.20329 2.70657 0.0339194 3.09616 0.389915 -1.1018 -0.407984 0.866191 0.257578 Si
43 1 9.51762 1.41015 9.6074 -0.890083 -1.64875 2.53093 0.792433 0.0494882 -1.17166 Si
13 1 1.40301 4.18187 9.54389 -3.73363 -3.81718 1.64889 0.509216 -1.08818 -0.623515 Si
32 1 2.8169 5.40183 8.12393 3.17989 -3.46746 -3.3875 -0.0113413 0.72392 -0.173134 Si
27 1 4.0111 6.89253 9.577 -5.87487 2.378 1.60852 0.537946 -0.66626 -1.0053 Si
45 1 6.769 4.07115 9.64692 3.03702 0.369776 1.15413 0.156577 0.721117 -0.297362 Si
59 1 9.41586 6.80726 9.56851 -2.1697 3.06944 -1.60125 0.885671 0.224215 0.407749 Si
64 1 8.15704 5.43104 8.22562 1.43528 1.93867 6.6463 -0.817663 -0.109892 -0.470356 Si
22 1 2.56154 8.20789 -0.105936 -4.40058 -0.71934 1.39423 0.365965 -0.523312 1.17474 Si
29 1 1.31187 9.60043 9.45512 -2.4729 -0.032541 6.95506 -0.619825 0.435195 -0.141029 Si
58 1 5.48179 8.2003 8.25268 2.18727 3.65019 0.36629 0.284202 -0.85044 -1.0372 Si
61 1 6.90961 9.51678 9.60189 1.44278 -0.842643 -0.130536 -0.507021 -0.938814 0.0307319 Si
54 1 8.17093 8.13541 0.171135 -1.42372 -5.30262 2.29219 -0.590214 -0.230041 -1.01171 Si
48 1 8.19003 -0.0162938 8.29603 2.95735 1.49081 0.440782 0.467157 0.552165 -0.742656 Si
26 1 -0.0976378 8.16568 8.22212 -6.73213 1.15453 0.404507 0.189607 0.411922 -0.462837 Si
ITEM: TIMESTEP
11100
ITEM: NUMBER OF ATOMS
64
ITEM: BOX BOUNDS pp pp pp
0.0000000000000000e+00 1.0887404739999999e+01
0.0000000000000000e+00 1.0887404739999999e+01
0.0000000000000000e+00 1.0887404739999999e+01
ITEM: ATOMS id type xu yu zu vx vy vz fx fy fz element
2 1 0.0358806 2.73988 2.74425 -0.234409 1.72657 -7.81818 -0.0434454 -0.18825 -0.966118 Si
6 1 2.68095 2.72273 -0.0158602 2.39893 2.59884 3.21658 0.973364 0.523956 -0.0143405 Si
7 1 1.39059 1.34372 1.31249 -1.19755 -2.94936 0.62793 -0.0806167 0.538067 1.56371 Si
8 1 2.7249 0.0400566 2.80038 4.60924 1.40587 -2.40517 0.164599 0.313695 -0.379232 Si
34 1 5.43528 2.79049 2.76511 4.85476 -0.137039 1.00998 0.310675 -0.165203 -0.0714285 Si
36 1 5.48241 0.0531176 0.064891 -3.55476 1.36775 -0.567153 -0.253562 -0.142966 -0.44846 Si
39 1 6.79608 1.39424 1.41106 -1.27879 -0.0662351 4.33869 -0.23087 0.326432 -0.00649109 Si
40 1 8.11277 0.00114504 2.72347 0.617559 -0.56416 -0.320764 0.813543 -0.0906301 -0.107142 Si
20 1 -0.0178357 5.43716 0.082126 -0.934461 1.82117 2.9887 0.638818 -0.778409 -0.132538 Si
23 1 1.38752 6.86025 1.3736 -6.06134 -2.44072 7.7909 0.28743 -0.68029 0.0229112 Si
24 1 2.73498 5.45844 2.75626 0.0134007 2.47725 3.79504 0.265004 0.585786 0.372178 Si
1 1 4.09066 4.1049 1.38309 -0.609786 3.33644 -2.24732 -0.65603 -0.478275 -0.11154 Si
52 1 5.49638 5.35755 0.034305 -0.263876 1.394 -2.20876 -0.451578 0.819453 -1.0461 Si
55 1 6.83056 6.87054 1.18153 1.94135 1.75459 -1.95101 0.0324016 -0.826896 1.58381 Si
33 1 9.42844 4.05482 1.40581 -0.281518 0.228336 -2.88006 0.901223 -0.308714 -0.664777 Si
56 1 8.11703 5.46267 2.68114 -0.632777 -2.61386 -0.685445 -0.484954 0.45495 -0.137333 Si
18 1 0.0690154 8.1746 2.77073 3.95966 -2.21653 -6.94706 -1.02898 0.0635208 -0.807532 Si
17 1 4.11919 9.60513 1.41551 6.02372 -0.141035 3.69703 0.105176 -0.939608 0.17221 Si
50 1 5.53285 8.13032 2.72041 -3.04526 3.07977 -1.35887 -0.0525214 1.22907 -0.312296 Si
4 1 0.0553643 -0.00733948 0.0581606 3.46307 -0.988565 -2.81045 -1.33938 -0.508225 -0.883886 Si
49 1 9.48901 9.48861 1.37083 0.913779 -4.13277 -3.70891 0.454606 0.116144 -0.128443 Si
14 1 2.73082 2.682 5.52136 -1.0126 3.92947 2.15273 -0.371625 -0.0254537 -0.131788 Si
15 1 1.33737 1.31471 6.83835 -4.05235 3.11632 6.30372 -0.0367934 -0.777407 -0.748439 Si
3 1 4.12522 1.43562 4.14047 -1.34173 -3.65054 2.28444 -0.164977 -1.08928 -0.0316978 Si
47 1 6.79324 1.43029 6.72558 -4.54225 -0.767634 -4.4427 -0.273422 -1.3476 0.74934 Si
35 1 9.4819 1.43323 4.00198 -0.564863 -2.11586 0.557879 0.132234 -1.08122 1.15918 Si
46 1 8.0958 2.77328 5.38373 1.17911 1.4249 -0.546532 0.778392 -0.101255 -0.076346 Si
5 1 1.42855 4.00912 4.13133 1.4703 -4.96303 -0.795801 -0.0717299 0.503187 -0.61131 Si
31 1 1.40045 6.77617 6.73524 0.850228 0.0200181 1.97499 -0.76313 0.0350825 0.871129 Si
9 1 3.97431 4.12924 6.81616 -1.3118 -1.0624 -5.63565 0.696655 -0.564982 0.491912 Si
19 1 4.09831 6.95903 4.13274 -0.41321 2.06071 0.746762 -0.223043 -1.84764 -0.955063 Si
37 1 6.75681 4.17413 4.13425 -0.343488 3.18517 -7.07904 -0.480863 0.369215 -0.436197 Si
60 1 5.31832 5.4967 5.50964 -1.25199 1.68037 0.937141 1.02063 0.464384 -0.296489 Si
63 1 6.7684 6.88902 6.81842 0.156362 -0.196021 1.66766 0.247535 -0.978936 -0.522361 Si
28 1 0.0293008 5.37681 5.3766 3.05213 0.782718 -3.19171 -0.143994 0.156166 0.639145 Si
41 1 9.51125 4.03718 6.75915 0.235903 -4.23262 -1.27927 0.358641 0.0722087 0.227282 Si
51 1 9.56901 6.7301 4.00263 -1.01499 2.95841 -6.30137 0.141915 0.204453 0.37727 Si
21 1 1.33467 9.55485 4.11568 -6.92974 -0.42697 0.405208 0.402747 0.0140482 0.0238947 Si
30 1 2.70352 8.19392 5.43211 -3.02391 0.463434 -0.602097 -0.241686 0.658009 0.540422 Si
44 1 5.4309 -0.0869847 5.45933 2.53513 6.69275 -1.7289 0.392516 0.884085 -0.168292 Si
25 1 4.02037 9.53008 6.84432 -0.654714 -7.21316 -3.11477 0.289561 -0.121511 -0.137459 Si
53 1 6.91916 9.47621 4.14303 -2.08471 -0.13767 -0.0475929 -1.09073 -0.026878 -0.469037 Si
12 1 -0.0949865 -0.0783041 5.44795 -2.49809 0.154663 1.39249 0.253779 1.60739 -0.176191 Si
57 1 9.49207 9.46231 6.81715 2.36583 1.2126 1.90002 0.523525 -0.515396 -0.0335007 Si
62 1 8.25204 8.06512 5.42018 -1.20287 0.994647 3.70073 -0.309918 0.200115 0.218216 Si
10 1 -0.0453339 2.57694 8.15441 -6.09062 -3.9336 4.99987 0.167756 1.8977 -0.183966 Si
16 1 2.74083 0.0315662 8.21713 0.761264 -2.42086 1.40587 0.0628687 0.172058 -0.113981 Si
11 1 4.13639 1.39386 9.55996 -3.44047 4.4312 6.82437 -0.434321 -0.0532273 -0.0619988 Si
42 1 5.4076 2.7449 8.11869 4.20759 -0.724868 3.60221 0.00479704 0.255093 -0.13852 Si
38 1 8.10516 2.68177 -0.0479818 3.00271 -2.3481 -0.900343 0.61918 0.171622 -0.305015 Si
43 1 9.50862 1.25467 9.45518 5.66075 -3.94614 -0.291879 -0.203407 0.0960095 1.56708 Si
13 1 1.34465 4.0669 9.47083 -3.02042 1.24086 0.705048 -1.28158 -0.551044 1.05216 Si
32 1 2.68114 5.42582 8.21762 -3.9609 -1.03304 2.52189 -0.0568181 0.473953 -1.06246 Si
27 1 4.14496 6.69488 9.47055 3.79747 -3.86644 -1.29478 -0.183956 0.76942 1.31972 Si
45 1 6.78595 4.11019 9.44053 -1.78424 0.885858 1.49727 0.605008 -0.432609 0.187742 Si
59 1 9.60443 6.75875 9.57836 -1.03325 -5.36638 0.962917 -0.59146 0.34243 -1.36763 Si
64 1 8.19255 5.49379 8.09346 0.524984 1.30307 -4.41494 0.0202671 -0.262666 0.626621 Si
22 1 2.81721 8.1529 0.00510273 0.425332 6.01039 4.64508 -0.0872791 0.326412 -0.369388 Si
29 1 1.39556 9.56797 9.53683 -0.894263 0.988601 -1.23331 0.235708 -0.825951 0.531625 Si
58 1 5.41137 8.17908 8.16871 3.68887 -3.85422 -0.515432 0.0789443 0.444458 0.373574 Si
61 1 6.78367 9.58035 9.5258 -1.84204 1.57075 4.76366 -0.383301 -0.208629 -0.541988 Si
54 1 8.17069 8.17903 -0.159332 6.49966 1.9054 -2.95857 0.638273 0.38068 1.10807 Si
48 1 8.15506 -0.0592598 8.10085 0.146092 0.198425 -3.92958 -0.831699 0.869078 -0.211967 Si
26 1 0.0379898 8.1664 8.19396 3.04885 0.108535 2.79664 0.229892 -0.419175 -0.410468 Si
ITEM: TIMESTEP
11200
ITEM: NUMBER OF ATOMS
64
ITEM: BOX BOUNDS pp pp pp
0.0000000000000000e+00 1.0887404739999999e+01
0.0000000000000000e+00 1.0887404739999999e+01
0.0000000000000000e+00 1.0887404739999999e+01
ITEM: ATOMS id type xu yu zu vx vy vz fx fy fz element
2 1 -0.0100298 2.70663 2.79411 -0.78346 2.49092 6.1532 0.1952 0.319184 -0.607709 Si
6 1 2.78044 2.6702 -0.0280444 -4.49686 -1.65044 -6.31345 -0.106911 0.46925 0.0860375 Si
7 1 1.34838 1.41048 1.33793 1.08748 -0.0714077 -5.76228 -0.208972 -1.10832 0.245367 Si
8 1 2.6742 -0.0444936 2.74 1.17267 -1.40192 3.02625 0.427601 1.11859 -0.142129 Si
34 1 5.44753 2.67658 2.70502 -5.51556 1.72353 1.00029 0.165813 0.486357 -0.123995 Si
36 1 5.4179 -0.0780462 -0.00971964 -0.291706 -4.14078 1.72741 0.590431 0.201702 -0.853129 Si
39 1 6.72242 1.3039 1.29048 3.0827 -1.04328 -7.38949 1.14854 0.335023 0.729971 Si
40 1 8.17472 0.000923407 2.6754 1.54074 -4.8007 -0.0627802 0.108102 0.0544397 0.135866 Si
20 1 -0.00480344 5.41496 -0.0454952 -1.19696 -1.90103 -1.32155 -0.00703451 0.974459 -0.280104 Si
23 1 1.27439 6.78842 1.4028 4.62748 2.10605 -3.70404 0.477246 0.368874 -0.538227 Si
24 1 2.6536 5.42139 2.72881 0.664057 -2.6152 -2.28187 1.04478 0.0718386 -0.639904 Si
1 1 4.12314 4.05872 1.33267 -4.79037 -1.45339 5.40056 -0.848827 0.23467 0.543009 Si
52 1 5.43726 5.46563 0.0115567 1.18551 -3.97846 7.87021 0.268798 -0.026217 0.573532 Si
55 1 6.77753 6.77637 1.44258 -3.36224 0.435584 2.26442 -0.00127169 0.473273 -0.497734 Si
33 1 9.59818 4.13476 1.38988 -3.44518 0.855843 2.33965 -0.82852 -0.831932 0.25813 Si
56 1 8.17377 5.43717 2.74713 -0.60402 -0.478149 1.07312 0.276335 0.0480552 0.0926746 Si
18 1 -0.0531351 8.20604 2.78082 -2.99436 5.94039 1.02752 1.15595 -0.200519 -0.307059 Si
17 1 4.08822 9.57585 1.35261 -5.11583 -1.44149 -2.66294 -0.967355 -1.52687 0.268958 Si
50 1 5.41485 8.19015 2.75854 1.16401 -4.88191 1.58275 -0.210541 -0.240329 -0.0432604 Si
4 1 -0.0351193 -0.0190314 -0.0576668 -5.04204 -1.42384 8.82993 0.867389 0.852917 0.355265 Si
49 1 9.60163 9.51817 1.33038 0.383542 4.38278 3.16781 -1.43593 0.202759 0.309497 Si
14 1 2.70419 2.79003 5.43277 3.23554 -4.97884 -2.10892 0.409196 0.207737 -0.194297 Si
15 1 1.42464 1.37782 6.73085 0.666685 -1.13682 -5.78257 -0.118107 0.124067 1.22472 Si
3 1 4.05232 1.43547 4.08119 2.2569 2.92852 -1.21229 -0.224289 -1.05621 -0.0665933 Si
47 1 6.8384 1.33393 6.86452 -0.839616 1.06217 1.28426 -1.01834 0.226606 -0.450105 Si
35 1 9.55719 1.31312 4.14147 3.49299 2.43676 -3.45925 -0.581591 0.075143 -0.822565 Si
46 1 8.14926 2.62943 5.46296 0.143429 -2.81372 3.50288 0.664289 0.732605 0.280241 Si
5 1 1.33076 4.13374 4.08573 2.81894 3.56044 -1.07232 -0.487954 -0.471799 0.632061 Si
31 1 1.38799 6.83244 6.79331 -3.65709 4.52886 -0.13334 -0.62326 -0.921843 -0.107938 Si
9 1 4.08333 4.10521 6.82171 5.85564 0.296216 -1.49405 0.364155 -0.350176 -1.30535 Si
19 1 4.07922 6.72918 4.10353 3.04973 -2.28911 -1.89192 0.340528 0.176845 -0.0912617 Si
37 1 6.8522 4.01585 4.07665 -0.895274 -1.70021 7.47481 -0.0193223 -0.316136 -0.287356 Si
60 1 5.53212 5.36266 5.42304 0.77959 -1.62595 -1.08918 -0.945336 0.455316 0.180331 Si
63 1 6.79116 6.79223 6.78925 -2.63447 -1.13634 -1.23964 0.267897 -0.182104 -0.016936 Si
28 1 -0.0612812 5.44462 5.49143 1.66722 0.75707 5.03568 0.276648 0.528295 -0.463517 Si
41 1 9.51413 4.03839 6.85722 -2.95057 5.66557 6.5286 -0.687712 0.469291 -0.500177 Si
51 1 9.49346 6.87529 4.08063 -2.27378 -1.80051 3.25755 -0.233916 -0.952122 0.773963 Si
21 1 1.42856 9.45754 4.1539 1.42159 2.07603 -0.958162 -0.831177 0.361986 -0.0806811 Si
30 1 2.77966 8.10067 5.5104 3.21806 -6.97636 -0.862201 0.370928 0.778185 -0.605382 Si
44 1 5.43231 0.0422684 5.44084 -3.17365 -3.6976 0.477646 0.0501133 0.585389 0.0621663 Si
25 1 4.09886 9.59754 6.80166 3.66129 5.25822 -0.325128 -0.437146 -0.680313 0.335814 Si
53 1 6.76663 9.5926 4.07972 -2.44771 -0.0279873 3.28137 0.568188 -0.577169 0.0468591 Si
12 1 0.0458459 0.0240191 5.46832 3.57324 -1.58346 -0.786656 0.328398 -0.843621 -0.408599 Si
57 1 9.5373 9.5654 6.76474 0.544437 0.685514 1.88236 -0.494077 0.205283 0.554657 Si
62 1 8.13744 8.19338 5.4713 -2.50852 -0.981614 -2.97727 -0.224793 0.380985 -0.539444 Si
10 1 0.112641 2.79461 8.11069 6.47173 -1.11968 -1.82246 -0.52378 -1.16478 0.438659 Si
16 1 2.71234 0.0249372 8.2214 0.631068 3.8952 -3.81102 -0.0213645 -0.200713 -1.0128 Si
11 1 4.14178 1.29924 9.53147 4.37745 -3.63547 -2.96789 -0.5832 0.469467 -0.0463599 Si
42 1 5.37314 2.71434 8.12703 -1.39842 -0.866446 -0.531089 1.32887 0.0886095 0.996267 Si
38 1 8.17067 2.74593 0.0693868 0.805312 3.40901 -0.909204 -0.170747 0.29832 -0.636579 Si
43 1 9.57881 1.45298 9.52717 -2.62182 3.97365 -1.76793 -0.302709 -0.0597863 -0.261992 Si
13 1 1.4231 4.07638 9.51773 3.24793 0.551504 -1.60568 0.690703 0.715202 -0.325531 Si
32 1 2.79307 5.4842 8.07116 0.915936 0.969423 -1.33489 -0.762813 -0.0809365 1.72198 Si
27 1 4.18342 6.77972 9.49175 -2.03013 4.05749 -1.13155 -1.40647 0.362229 0.0110758 Si
45 1 6.75366 4.13983 9.5651 2.90229 -0.780144 -3.78092 0.151449 -1.52698 -0.224631 Si
59 1 9.48777 6.89118 9.4903 4.89748 -0.165596 -0.586796 -0.00768507 -1.13665 0.524367 Si
64 1 8.10262 5.43472 8.20511 -3.86253 2.83125 0.0252373 0.758193 0.381157 -0.415161 Si
22 1 2.71825 8.11042 -0.0344883 -0.370549 -2.62281 -4.97229 -0.194985 0.515497 0.215635 Si
29 1 1.28954 9.51557 9.4592 -6.78059 1.33434 -2.21502 0.672827 -0.589438 0.419234 Si
58 1 5.43092 8.14652 8.10779 -0.6111 0.759538 -1.86087 0.0558854 0.311555 -0.237747 Si
61 1 6.76177 9.48234 9.446 1.46288 2.23863 -2.46142 0.552809 0.266091 1.10005 Si
54 1 8.11196 8.17713 0.0553137 -1.23633 -0.103805 4.97854 0.158103 0.00814308 -0.482906 Si
48 1 8.17631 0.0344488 8.21768 2.11305 1.53261 4.00061 0.637009 -0.483486 -0.170551 Si
26 1 -0.0351737 8.14523 8.06061 -1.18786 -1.41864 -0.542357 0.143764 0.593048 0.671318 Si
ITEM: TIMESTEP
11300
ITEM: NUMBER OF ATOMS
64
ITEM: BOX BOUNDS pp pp pp
0.0000000000000000e+00 1.0887404739999999e+01
0.0000000000000000e+00 1.0887404739999999e+01
0.0000000000000000e+00 1.0887404739999999e+01
ITEM: ATOMS id type xu yu zu vx vy vz fx fy fz element
2 1 -0.0255367 2.7278 2.70281 2.72973 -5.10385 -2.2317 0.264059 -0.160575 1.03295 Si
6 1 2.7749 2.76569 0.00788066 4.06982 1.3089 5.90931 -1.5779 -0.748906 0.144097 Si
7 1 1.31857 1.36485 1.41718 0.873627 3.85611 3.17401 0.66348 0.351147 -1.38231 Si
8 1 2.72719 0.00150048 2.66624 -2.41643 -0.192657 2.02782 0.116262 -0.985212 0.106575 Si
34 1 5.43313 2.75095 2.73213 -1.83791 -0.960507 2.5972 -0.121503 -0.432566 0.111442 Si
36 1 5.46926 0.120561 -0.125964 -0.0559071 2.17503 -0.922091 -0.15803 -0.342686 2.15947 Si
39 1 6.83785 1.35669 1.40347 2.06095 3.27229 6.31052 -0.34771 0.20631 -0.312675 Si
40 1 8.25415 -0.000663309 2.73624 -0.951681 -0.522443 -0.320077 -1.49124 0.469799 0.529361 Si
20 1 -0.0210353 5.43334 -0.0217756 0.47727 -0.867725 0.89428 -0.115766 0.288396 0.548022 Si
23 1 1.37929 6.77616 1.36576 1.39914 0.46011 1.67409 -0.174252 0.10211 0.00317531 Si
24 1 2.8066 5.37607 2.67663 0.604891 1.49537 4.54649 -1.46609 0.494302 0.483755 Si
1 1 4.09036 4.10963 1.30713 1.5482 -0.129502 -4.85297 1.06308 -0.455728 0.178305 Si
52 1 5.40078 5.47926 -0.0662758 1.58837 -4.09354 -6.01254 0.492074 -0.347755 0.025646 Si
55 1 6.81742 6.72169 1.38116 5.09859 6.83101 0.934826 -0.383473 0.633838 -0.816739 Si
33 1 9.52936 4.03879 1.37951 0.0278669 -2.22349 -4.05717 -0.00241318 0.688424 -0.829093 Si
56 1 8.19635 5.42247 2.67885 -1.59205 -1.06631 -0.761196 0.317618 0.138755 0.650194 Si
18 1 -0.0646792 8.15523 2.68355 0.367979 -3.47568 0.14554 0.579494 -0.472804 0.228125 Si
17 1 4.19105 9.54124 1.2593 1.41384 0.765466 4.04928 -0.806544 0.80496 0.429862 Si
50 1 5.44104 8.12966 2.64231 -0.777891 1.09336 4.17726 0.215106 -0.136276 0.735318 Si
4 1 -0.0639612 -0.00482854 0.0466181 0.414201 -1.89065 -8.26095 1.0491 -0.283906 -0.0212642 Si
49 1 9.49275 9.5567 1.42948 -2.98702 -1.18411 -6.41883 0.558984 -0.600377 -0.976886 Si
14 1 2.70304 2.65882 5.4167 -2.80894 -0.663672 1.47581 0.520903 0.0896648 0.191207 Si
15 1 1.34445 1.36588 6.79429 2.98365 -1.00286 -0.548484 -0.301683 0.0743594 -0.0356497 Si
3 1 4.07677 1.25406 4.10035 -2.47962 2.27441 5.13674 0.258776 1.24297 -0.478388 Si
47 1 6.81052 1.35232 6.79326 -1.76802 -1.06023 2.28382 0.679481 0.221728 0.0893269 Si
35 1 9.51019 1.38947 4.10361 -3.12513 -5.49528 -0.565809 0.244816 0.407591 -0.092016 Si
46 1 8.16759 2.81992 5.41572 -5.88604 0.249236 -1.45017 -0.538982 -0.691351 0.065616 Si
5 1 1.40154 4.03702 4.07172 2.83761 0.328679 2.13593 -0.106732 0.498487 -0.475282 Si
31 1 1.35553 6.81785 6.8901 2.38217 -3.9985 -0.876929 0.394818 0.308175 -1.19359 Si
9 1 4.06523 4.03449 6.78973 -5.70664 1.27591 2.721 -0.0161188 0.399955 0.851167 Si
19 1 4.05691 6.76621 4.04705 0.969231 0.51626 0.215336 -0.160392 1.37049 0.524577 Si
37 1 6.80182 4.18359 4.04337 -2.70528 10.159 -2.47475 -0.482074 -0.517185 0.661771 Si
60 1 5.42415 5.51739 5.49205 -0.181571 4.15942 -1.58906 0.103754 -0.843015 -0.324739 Si
63 1 6.84063 6.78582 6.86795 1.22482 -0.558244 -0.684495 -0.293269 0.422976 0.182334 Si
28 1 0.10893 5.50789 5.41382 -2.59559 -3.88483 -2.90839 -0.354718 -0.74364 0.125862 Si
41 1 9.56014 4.15212 6.71883 5.99771 -0.474293 -3.34927 0.441995 -0.29159 0.994352 Si
51 1 9.55606 6.76389 4.08417 0.843966 -0.138244 -2.41098 -0.463858 0.453493 -0.11251 Si
21 1 1.24038 9.56081 4.01015 3.95484 3.36361 3.07579 1.05484 0.101186 -0.123328 Si
30 1 2.61484 8.25475 5.41286 1.44933 2.06292 2.83876 0.681255 -1.4796 -0.0979838 Si
44 1 5.47937 -0.0170757 5.45096 0.334606 -0.912657 -1.68459 -0.0562743 -1.25367 -0.141438 Si
25 1 4.07539 9.44569 6.82625 -2.81054 5.62108 -0.655775 0.361299 1.10209 -0.61768 Si
53 1 6.85799 9.46549 4.01324 3.7983 2.95672 -3.77268 -0.414975 0.393227 0.722335 Si
12 1 0.000817153 0.0377613 5.41353 -4.06873 2.0458 3.19354 -0.362247 -0.106253 0.383712 Si
57 1 9.59846 9.51143 6.80193 0.601267 -1.32794 -4.66404 -0.633791 0.148951 -0.194383 Si
62 1 8.18019 8.13388 5.48096 2.72123 -3.62438 6.29169 0.362444 0.00088987 -0.435928 Si
10 1 -0.0461601 2.69115 8.18193 -3.33471 -0.442318 0.781563 0.0508749 0.515533 -0.192099 Si
16 1 2.72825 0.0252085 8.08603 -0.846764 -2.85012 7.49395 -0.114849 -0.660393 1.21063 Si
11 1 4.04476 1.39104 9.51394 -1.08754 6.87577 -3.5866 -0.15477 -0.000711614 -0.691678 Si
42 1 5.48527 2.66938 8.22005 -1.332 -0.716674 -3.28393 -0.751467 0.433312 -1.18807 Si
38 1 8.14893 2.73684 0.0208967 -0.77032 -1.87494 -0.257346 0.265975 -0.640871 0.388609 Si
43 1 9.48788 1.32471 9.5926 -0.642224 0.327315 4.51051 -0.308132 0.140197 -0.957473 Si
13 1 1.33574 4.09191 9.55112 -1.91131 -3.47152 0.0448141 -0.420018 -1.06047 0.148648 Si
32 1 2.62091 5.41946 8.23319 -2.47065 -1.58364 -3.24191 1.49103 -0.0259482 -1.07323 Si
27 1 3.96528 6.85545 9.52633 0.0878482 -1.45302 1.3385 0.887411 -0.407315 -0.121678 Si
45 1 6.81823 4.01297 9.53362 1.40941 -0.847067 -1.68575 -0.0618828 1.4512 -0.0282313 Si
59 1 9.53155 6.8451 9.5021 -4.8436 6.69966 -0.821626 -0.0950357 0.183043 1.02239 Si
64 1 8.22757 5.4367 8.2015 0.043417 -3.01653 2.21925 -0.561074 -0.48443 -0.339157 Si
22 1 2.71442 8.21319 0.031541 -0.0931804 0.0656523 3.91422 0.105018 -0.572404 0.344642 Si
29 1 1.40077 9.51067 9.57578 7.59316 -2.12071 1.6514 -0.78638 1.2365 -0.779809 Si
58 1 5.46005 8.17615 8.23285 1.15949 -1.15497 -2.18782 -0.166489 -0.421021 -0.0120156 Si
61 1 6.76937 9.54909 9.6484 1.48786 -5.16427 -3.74101 0.912902 -0.698862 -1.46463 Si
54 1 8.15645 8.18518 0.10285 0.602806 2.03645 -5.08637 0.0351275 -0.456466 -0.725745 Si
48 1 8.14956 -0.082863 8.16557 -3.29652 -0.770349 -1.23015 0.169235 0.605891 0.327422 Si
26 1 0.0327168 8.17373 8.1722 0.226596 -1.95784 -1.1678 -0.0910806 0.342041 0.634814 Si
ITEM: TIMESTEP
11400
ITEM: NUMBER OF ATOMS
64
ITEM: BOX BOUNDS pp pp pp
0.0000000000000000e+00 1.0887404739999999e+01
0.0000000000000000e+00 1.0887404739999999e+01
0.0000000000000000e+00 1.0887404739999999e+01
ITEM: ATOMS id type xu yu zu vx vy vz fx fy fz element
2 1 -0.0749365 2.76866 2.7237 -1.09936 3.88815 1.27682 0.797161 -1.09388 -1.20359 Si
6 1 2.71574 2.71779 0.00656273 -1.26838 -2.80592 -2.89736 0.669355 0.488559 0.538529 Si
7 1 1.43052 1.37172 1.32314 -1.01574 -3.53875 -0.32406 -1.17096 -0.0181849 1.37368 Si
8 1 2.76649 0.0314471 2.76898 0.457486 3.34238 -7.3151 -1.19075 -0.0324863 0.368024 Si
34 1 5.48071 2.75167 2.65453 4.16714 -4.02523 -3.21256 -0.297099 -0.863691 0.171603 Si
36 1 5.39571 -0.0527315 0.0867865 3.62283 1.67112 -2.36921 0.277384 -0.180269 -0.822394 Si
39 1 6.87366 1.32105 1.29893 -0.00561626 3.15161 0.0675722 -1.33015 0.798742 0.309393 Si
40 1 8.16161 0.05287 2.68487 0.217348 0.518325 -1.62125 0.256599 -1.28613 0.26094 Si
20 1 0.0178203 5.45359 0.0796245 -1.00767 3.32725 -3.31789 0.0947968 -0.846787 -0.607067 Si
23 1 1.42537 6.83614 1.37353 -3.06483 -2.58024 -1.00135 -0.718165 0.206233 -0.372328 Si
24 1 2.6366 5.50998 2.79299 -1.46159 -2.06963 -1.35881 0.936237 -0.668724 0.144905 Si
1 1 4.01852 4.11352 1.42574 0.392986 -1.6752 3.89602 0.218925 0.30753 -0.443393 Si
52 1 5.46159 5.44555 0.0462197 0.86694 8.18839 1.31116 -0.32092 -0.0921012 0.131685 Si
55 1 6.8798 6.86298 1.25808 -0.295514 -5.7639 -2.76549 -0.290409 0.288835 0.974573 Si
33 1 9.40721 4.07804 1.35747 2.66572 0.205564 2.57136 1.43727 0.397081 0.0438281 Si
56 1 8.19087 5.4998 2.72006 4.7234 1.82215 -3.27572 -1.01915 -0.343524 -0.654247 Si
18 1 0.0415261 8.19181 2.69176 -4.13536 -1.96771 0.0904478 -0.746637 -0.342041 0.644797 Si
17 1 3.98866 9.47283 1.44284 0.0719862 -0.347083 -0.320071 1.23225 0.614314 -0.405628 Si
50 1 5.48327 8.22319 2.72223 -0.861535 1.06888 -2.32528 0.139772 -0.562251 -0.0804325 Si
4 1 0.108246 -0.0874191 0.0324453 0.970453 2.08283 3.04417 -1.49063 0.551262 -0.680205 Si
49 1 9.45536 9.47259 1.35081 0.111173 -0.89245 2.17348 1.34051 0.882565 0.0300682 Si
14 1 2.64171 2.7921 5.47117 1.04041 5.76828 0.316613 0.0798363 -0.842453 0.180217 Si
15 1 1.33229 1.31446 6.84963 0.128163 1.44983 3.67742 0.470246 0.506336 -0.263662 Si
3 1 4.05669 1.45309 4.1085 2.28136 -3.76697 -7.01755 0.416385 0.081737 -0.128667 Si
47 1 6.72276 1.4407 6.79934 1.31289 -2.06781 1.85617 0.834283 -0.0373384 0.102071 Si
35 1 9.6276 1.24249 4.01537 2.58019 2.20578 0.639062 -0.879309 1.06055 0.108702 Si
46 1 8.24143 2.62413 5.32401 5.82145 0.0348681 -0.770021 -0.658769 0.333005 0.836665 Si
5 1 1.24842 4.07533 4.07731 -4.64523 2.24995 0.878176 0.848739 0.466015 0.0755253 Si
31 1 1.30773 6.72015 6.73948 -0.203378 1.99265 -1.73159 0.650218 0.699968 1.16569 Si
9 1 4.08078 4.0445 6.85933 7.76547 -2.47617 -3.34656 -0.0305402 1.12082 -0.512044 Si
19 1 4.08529 6.87943 4.10183 -2.39104 -5.29316 1.28525 0.586829 -1.19077 -0.51957 Si
37 1 6.85842 4.03526 4.00285 -0.447013 -8.25445 -5.51855 0.0334998 0.579828 0.561235 Si
60 1 5.46213 5.39992 5.40101 -5.29086 -5.06222 6.68544 -0.237814 0.074098 0.212801 Si
63 1 6.79578 6.84692 6.74989 1.06229 0.719854 -1.93243 0.00511219 0.0207223 -0.704881 Si
28 1 -0.035414 5.42353 5.42174 2.21879 5.62086 -1.9159 -0.90797 -0.497922 0.251814 Si
41 1 9.49323 4.0301 6.79594 -0.478392 3.13513 -1.70176 0.106189 0.168844 -0.647741 Si
51 1 9.51259 6.77546 4.07307 1.67555 1.18381 5.56392 1.05344 0.909251 -0.491081 Si
21 1 1.31746 9.55203 4.15588 -1.84546 -5.15888 -2.03504 1.01109 -0.375738 -0.696192 Si
30 1 2.69711 8.07747 5.45407 -1.12004 -0.19178 -2.62825 -0.177837 1.63917 0.592198 Si
44 1 5.39179 0.0575005 5.47929 1.27248 1.3594 -0.400755 -0.28213 -0.295651 -0.0130166 Si
25 1 4.07736 9.4998 6.87015 0.0452389 -7.59457 1.5385 -0.217659 0.104564 -0.575947 Si
53 1 6.79287 9.62235 4.10547 -1.83757 -1.92601 0.611872 -0.0959139 0.119159 -0.58125 Si
12 1 -0.0374277 -0.01467 5.4772 3.16116 0.330242 0.60271 0.467515 -0.314298 0.565484 Si
57 1 9.51544 9.49833 6.82476 -1.82899 4.37415 3.90726 -0.191612 -0.0298039 -0.224116 Si
62 1 8.18214 8.2036 5.32033 -5.59505 6.24938 -7.16776 -0.262308 -0.121436 1.49006 Si
10 1 0.0142956 2.73833 8.16446 3.13799 -3.08749 0.0421284 -0.133497 -0.254223 0.506405 Si
16 1 2.75341 0.0183927 8.24668 -3.95903 1.8358 -7.52949 -0.427394 -0.409703 -1.03856 Si
11 1 4.03156 1.3613 9.59519 -6.27322 -1.22884 1.40379 1.35038 0.00931459 0.146269 Si
42 1 5.42411 2.78777 8.27867 -1.2672 5.29572 4.11953 -0.268964 -1.08175 -0.45236 Si
38 1 8.16532 2.71609 -0.0266456 -4.49579 -0.105142 -0.0552043 -0.00592924 -0.339812 -0.443605 Si
43 1 9.49404 1.32261 9.48211 2.71343 -0.276003 -1.90388 1.22622 -0.0483368 0.824102 Si
13 1 1.45238 4.06175 9.5488 2.73519 0.789409 2.71625 -1.31087 1.03345 -0.262931 Si
32 1 2.76826 5.51474 8.18521 4.11765 -4.07623 1.1547 -0.49242 -1.05112 -0.423596 Si
27 1 4.15398 6.78416 9.5304 0.46628 4.40974 -0.21468 0.0155018 0.49043 0.313536 Si
45 1 6.79751 4.10059 9.5771 -2.76933 -2.49814 4.09012 0.261553 0.371739 -0.388026 Si
59 1 9.50858 6.70513 9.52951 -2.72966 -0.46514 3.05867 0.748615 0.488191 -1.14019 Si
64 1 8.08155 5.4324 8.06255 0.409513 0.568465 4.06571 0.667668 -0.275939 1.11293 Si
22 1 2.78317 8.15333 -0.0148327 -5.71288 2.43658 -4.41741 -0.371177 -0.407337 -0.177616 Si
29 1 1.41828 9.46895 9.48523 -3.17316 2.30948 1.43253 0.179766 0.298079 0.870518 Si
58 1 5.49181 8.16451 8.19089 -0.942905 1.8453 1.22328 -0.118792 -0.0641495 -0.204102 Si
61 1 6.85598 9.50311 9.53488 7.73013 -2.4073 5.8662 -1.16629 1.20787 -0.31621 Si
54 1 8.24967 8.20655 -0.141306 -1.80336 -3.974 6.48708 -0.448746 -1.04333 1.12618 Si
48 1 8.11626 0.0237861 8.12074 4.868 -3.24387 2.96861 -0.111477 -0.224611 -0.104475 Si
26 1 0.054624 8.15476 8.17878 -1.78593 3.38899 1.76896 -1.04106 -1.08246 -0.455298 Si
ITEM: TIMESTEP
11500
ITEM: NUMBER OF ATOMS
64
ITEM: BOX BOUNDS pp pp pp
0.0000000000000000e+00 1.0887404739999999e+01
0.0000000000000000e+00 1.0887404739999999e+01
0.0000000000000000e+00 1.0887404739999999e+01
ITEM: ATOMS id type xu yu zu vx vy vz fx fy fz element
2 1 0.0616255 2.70707 2.80215 3.45276 0.442699 -3.60869 -0.885512 1.03407 0.0553738 Si
6 1 2.7265 2.6606 -0.0928882 -1.34318 3.13677 3.8698 -0.0129668 -0.138803 -0.41171 Si
7 1 1.35155 1.42292 1.40614 -3.90887 0.0661073 -1.02366 0.432963 -1.20313 -0.753338 Si
8 1 2.71842 -0.0673009 2.70589 -1.78455 2.4802 5.20852 0.625706 0.939216 -0.938867 Si
34 1 5.44116 2.646 2.70211 -2.1244 7.12395 -2.69025 0.348071 1.69266 0.516539 Si
36 1 5.45742 -0.020723 -0.00220286 -0.74425 2.52931 1.86409 -0.0989634 0.0199233 -0.636622 Si
39 1 6.75434 1.36302 1.40663 -1.04657 -7.80354 -0.320851 1.18856 -0.563441 -0.700783 Si
40 1 8.09327 0.0212896 2.85333 -2.25291 2.89874 -1.62271 0.697212 0.284681 -1.39768 Si
20 1 0.00501015 5.4275 0.00426497 -1.61853 0.900337 3.36614 0.00747613 0.685177 -0.348559 Si
23 1 1.36299 6.85287 1.32748 -2.02119 0.930783 3.33116 -0.269006 -0.926316 0.46749 Si
24 1 2.7188 5.38939 2.66857 0.256717 0.628206 -1.02649 0.396999 0.428028 -0.5934 Si
1 1 4.09716 3.95417 1.27262 4.36388 0.305773 -0.33739 -0.193871 0.841948 0.561442 Si
52 1 5.45101 5.35286 -0.0746717 -1.41252 -3.72802 2.39075 -0.551338 0.917684 1.03635 Si
55 1 6.73508 6.7558 1.42144 -2.18056 0.241719 -2.34293 0.174235 -0.969016 -0.565814 Si
33 1 9.58438 4.11136 1.4366 -2.18892 -1.25047 -0.0998495 -0.593739 -0.0216373 0.336599 Si
56 1 8.12252 5.44751 2.82142 -4.75633 7.24657 3.88173 0.341745 -0.679168 0.186146 Si
18 1 -0.030493 8.10437 2.78542 2.62084 3.35519 -1.60601 0.576102 1.07816 -0.770023 Si
17 1 4.0182 9.47241 1.22823 1.77306 -0.128369 -1.00657 0.860699 0.0759197 1.47008 Si
50 1 5.45792 8.13133 2.71938 7.57523 -5.33806 -2.76959 -1.3552 0.503159 -0.196929 Si
4 1 -0.0653729 0.0893015 -0.0111544 1.63937 1.45936 3.07542 0.538401 -0.42421 0.710426 Si
49 1 9.48081 9.5606 1.41119 -1.74128 -0.867817 -0.205292 -0.157079 -0.13144 0.251079 Si
14 1 2.77282 2.69972 5.45809 0.269566 -0.699347 -0.439797 0.282594 0.451743 -1.03627 Si
15 1 1.38015 1.31241 6.70665 0.345252 0.637501 0.378261 0.2535 0.66156 0.716987 Si
3 1 4.17087 1.32317 4.00018 -0.948412 4.0443 4.63725 -1.37644 -0.762721 1.27216 Si
47 1 6.86362 1.30334 6.83387 -2.95308 3.9229 0.00460078 -0.869884 -0.287895 -0.507612 Si
35 1 9.44309 1.46055 4.12761 3.05607 -2.20339 -3.91829 0.872003 -0.669138 -0.0315283 Si
46 1 8.2063 2.72081 5.61605 0.12318 2.28935 -1.40736 -0.174743 0.69937 -0.673117 Si
5 1 1.37318 4.16905 4.10998 -1.02135 -7.65807 -0.731451 0.708192 -1.65659 0.0305165 Si
31 1 1.34658 6.85048 6.77088 -1.73271 -4.98327 0.381948 0.369989 0.164788 0.387373 Si
9 1 4.11198 4.1157 6.82825 -7.44219 -2.26522 3.24313 0.0985572 -0.861618 -1.20227 Si
19 1 4.05904 6.75662 4.06652 2.96022 6.80013 2.0618 0.121733 0.536478 -0.0300511 Si
37 1 6.77239 4.00277 4.24513 -4.19849 3.74398 3.12055 0.242345 0.206836 -1.33527 Si
60 1 5.42463 5.46906 5.46251 1.08719 1.11946 -4.52996 0.0304758 -0.165671 0.213579 Si
63 1 6.71705 6.83212 6.87316 -1.14901 0.419458 1.57622 1.1891 -0.383417 -0.0433967 Si
28 1 0.0348967 5.44401 5.44557 1.23004 -2.11043 -1.97822 0.34843 0.54392 0.410337 Si
41 1 9.59189 4.19308 6.81912 1.71886 -3.55129 1.43671 -0.794233 -0.586937 0.981601 Si
51 1 9.59074 6.75684 4.16541 -0.0130254 -2.76936 -1.15498 -1.28501 0.271091 -0.396306 Si
21 1 1.44389 9.50209 4.06016 -5.21624 2.50035 -1.1053 -1.39997 -0.1124 0.653725 Si
30 1 2.7967 8.21462 5.48436 -1.036 3.20723 -0.817098 -0.727283 -0.914573 -0.90001 Si
44 1 5.49768 -0.0933367 5.38328 -3.88549 -3.32208 3.20816 0.0624708 1.30941 0.583938 Si
25 1 4.08849 9.57789 6.77735 -1.59646 1.35958 3.37216 0.515054 -0.551016 0.497906 Si
53 1 6.83574 9.45435 4.08456 4.89015 -3.43471 -0.178924 0.15302 -0.83388 0.5862 Si
12 1 0.00203605 0.062936 5.37685 -1.2501 -3.24527 -0.523734 -0.0567849 -0.912459 -0.732276 Si
57 1 9.53085 9.56748 6.70739 -0.857715 -6.61591 -0.0071697 0.561803 0.375317 1.11208 Si
62 1 8.23248 8.12732 5.53128 9.91176 -3.90653 -0.989317 -1.24184 -0.383363 -0.95662 Si
10 1 0.0827176 2.73799 8.06152 -3.56659 1.78526 -0.136605 -0.931682 -0.303472 0.50906 Si
16 1 2.71879 -0.00425236 8.10339 6.09693 -0.512794 0.111899 0.145535 0.386933 0.109462 Si
11 1 4.18798 1.31574 9.39398 6.06803 -6.00928 -1.68209 -1.22874 0.0406789 1.11324 Si
42 1 5.4555 2.70775 8.08038 1.2851 1.24972 -2.76667 0.710487 0.0545869 0.277696 Si
38 1 8.12914 2.82897 0.0749905 5.29843 -2.43066 1.49541 0.225324 -0.96055 -0.276197 Si
43 1 9.51152 1.45963 9.5271 -1.9365 -5.20902 0.410122 -0.158681 0.252945 -0.41693 Si
13 1 1.35222 4.09359 9.44749 -1.86862 1.87458 -2.67852 0.937318 0.274741 0.204512 Si
32 1 2.78907 5.46121 8.05383 -0.852428 3.78456 -0.80782 -1.37447 0.630518 1.62522 Si
27 1 4.05108 6.81043 9.5622 1.28415 -9.59167 -2.03973 0.179527 -0.943092 -0.780101 Si
45 1 6.78214 4.06367 9.47188 -2.00929 1.04975 0.357058 0.266543 -0.44748 0.328126 Si
59 1 9.50553 6.91552 9.59265 4.63153 -2.85393 4.68663 -0.0887117 -0.770317 0.375708 Si
64 1 8.15343 5.48498 8.28962 0.973761 3.55752 -5.14346 0.321382 0.433682 -1.43842 Si
22 1 2.66419 8.15139 -0.0878836 5.2294 -1.39563 0.969778 -0.294825 0.429844 0.232979 Si
29 1 1.35442 9.61554 9.51012 0.116749 1.65074 -1.99887 -0.795821 -0.460236 -0.204608 Si
58 1 5.35584 8.15848 8.19629 -0.96751 3.29017 1.24024 -0.240168 0.319886 -0.616256 Si
61 1 6.74133 9.49302 9.43692 -5.76249 3.0396 1.31365 0.902766 0.326004 1.39697 Si
54 1 8.02997 8.15029 0.10109 2.39686 4.83208 -5.58084 0.775937 0.87079 -0.781896 Si
48 1 8.21032 -0.0208784 8.16303 -2.84746 2.4871 -1.80082 -0.016132 0.000269155 0.375212 Si
26 1 -0.0572662 8.21886 8.14263 1.58012 1.49309 0.0841155 0.710837 0.281979 0.0867625 Si
ITEM: TIMESTEP
11600
ITEM: NUMBER OF ATOMS
64
ITEM: BOX BOUNDS pp pp pp
0.0000000000000000e+00 1.0887404739999999e+01
0.0000000000000000e+00 1.0887404739999999e+01
0.0000000000000000e+00 1.0887404739999999e+01
ITEM: ATOMS id type xu yu zu vx vy vz fx fy fz element
2 1 -0.0235194 2.63274 2.72212 -0.933511 -1.42727 5.51061 0.284135 0.600388 -0.0687006 Si
6 1 2.73431 2.77881 0.14479 2.88584 -2.04316 -5.0458 -0.321311 0.742971 -0.669992 Si
7 1 1.34776 1.31705 1.41138 0.978274 2.0623 3.15739 0.110323 0.426357 -0.984017 Si
8 1 2.67564 0.00627197 2.70842 0.0692117 -6.0345 3.06987 0.623035 -0.410174 1.26446 Si
34 1 5.44023 2.76704 2.77432 1.69139 -3.51491 0.00993565 -0.690697 -0.328789 -0.623019 Si
36 1 5.48722 0.0530001 -0.015536 2.55293 -2.23021 -1.80753 -0.544114 0.597017 0.366705 Si
39 1 6.79518 1.39615 1.38633 -3.78648 2.10529 -4.21931 -0.292873 -0.704497 0.376727 Si
40 1 8.24095 -0.0254876 2.61645 4.19582 -2.64267 -0.936243 -0.67859 0.205504 0.752047 Si
20 1 0.0329044 5.485 0.00458365 4.28701 -2.78545 -2.33891 -1.04678 -0.357677 -0.276476 Si
23 1 1.35376 6.78669 1.33847 -0.539879 -0.996745 1.48085 0.638534 0.324458 1.13294 Si
24 1 2.73124 5.43484 2.7276 0.123727 -3.12006 3.16567 -0.65867 0.536447 0.776153 Si
1 1 4.19627 4.27801 1.39167 -2.45252 1.9454 -2.56522 -0.959198 -2.19013 0.243732 Si
52 1 5.45381 5.56407 0.0139609 -0.611152 2.80161 -1.26965 0.764242 -0.606876 -0.894118 Si
55 1 6.79448 6.88106 1.31717 1.29794 -1.22291 3.02311 0.615887 0.272361 0.879206 Si
33 1 9.61308 3.99985 1.2879 -0.445429 2.78212 3.30642 -1.1413 -0.221316 -0.395502 Si
56 1 8.24029 5.41496 2.59656 0.669587 -3.71957 -0.048386 -0.0369764 1.26533 -0.194177 Si
18 1 0.0462905 8.15741 2.77168 -4.04568 1.00452 4.27598 -0.117695 0.224906 -0.854598 Si
17 1 4.22212 9.63124 1.43379 0.551132 4.48808 -1.2674 -2.00369 -0.401716 -1.04388 Si
50 1 5.40623 8.25659 2.76906 -0.37834 3.50121 0.486737 1.6208 -0.862458 -0.118342 Si
4 1 0.107186 -0.052642 -0.0586482 -4.65864 -0.144398 -0.627904 -0.452689 0.269306 0.0681517 Si
49 1 9.63257 9.51047 1.32568 2.65424 -0.601457 0.813501 -0.40061 -0.690859 -0.596192 Si
14 1 2.6586 2.73911 5.47997 -2.50191 1.94276 3.77821 -0.141696 -0.0606934 0.675267 Si
15 1 1.37005 1.35384 6.91328 2.85714 -2.78064 -5.44299 -0.726249 -0.328523 -0.313121 Si
3 1 3.9776 1.39123 4.15735 -3.47322 5.09318 -0.474141 1.0563 -0.22815 -0.680695 Si
47 1 6.75354 1.38767 6.80175 2.61206 -4.2719 2.17105 0.986227 0.132496 0.258966 Si
35 1 9.5193 1.33136 4.04862 -3.81246 2.01955 1.21783 -0.68146 -0.131512 0.633625 Si
46 1 8.07808 2.74614 5.36366 -1.64088 -2.17348 1.81449 0.340462 -0.538848 -0.424472 Si
5 1 1.29414 4.01025 4.09496 2.1335 1.73668 1.1328 0.149113 0.990683 -0.457778 Si
31 1 1.38501 6.71117 6.79233 2.5515 2.3225 1.45727 -0.45453 0.014321 -0.0911793 Si
9 1 4.05406 4.09179 6.81814 -2.31146 2.40835 -0.0907114 -0.388865 0.0955676 0.690925 Si
19 1 4.10229 6.85796 4.08543 -4.34829 -4.16089 -0.511149 -0.611972 -0.539399 0.810874 Si
37 1 6.83429 4.17552 3.92386 6.73751 -2.82086 0.442628 -0.278656 -0.45774 1.79426 Si
60 1 5.46525 5.40723 5.47625 4.05464 -2.59121 -0.763481 0.162229 0.821356 -1.03732 Si
63 1 6.91611 6.79901 6.74319 -1.66559 3.15094 -2.61741 -1.28761 -0.715037 1.24645 Si
28 1 -0.118577 5.42298 5.41172 -1.5814 1.3437 1.70337 1.31776 0.508061 -0.452429 Si
41 1 9.52459 4.0006 6.69025 -2.33962 1.1289 -0.667023 -0.319121 -0.591363 0.177558 Si
51 1 9.48686 6.89164 4.04172 -2.0687 3.09701 -3.50232 0.00149966 -1.43659 -0.11453 Si
21 1 1.2933 9.55417 4.14637 5.85432 -4.54562 2.89519 1.02476 -0.18353 -0.368039 Si
30 1 2.68694 8.19597 5.50431 1.10097 -0.0636552 6.91226 0.373315 -0.254805 -0.530215 Si
44 1 5.42601 0.0547447 5.53545 0.127042 2.83295 -0.966162 -0.309725 -0.635724 -1.5995 Si
25 1 4.07769 9.55681 6.84261 -0.315515 2.20596 -1.9117 -0.157769 -0.231234 -0.439025 Si
53 1 6.83862 9.57342 4.07844 -2.36088 2.00874 1.75108 -0.462713 0.625041 0.220549 Si
12 1 -0.0537627 -0.0201692 5.48255 2.6998 4.20889 -2.07064 0.62567 1.18369 0.201877 Si
57 1 9.53987 9.52574 6.81103 -0.196512 0.838147 -4.23947 -0.567866 -0.872067 0.422469 Si
62 1 8.14194 8.17443 5.41633 -2.25957 -0.334172 3.03669 0.800949 0.902036 -0.0451332 Si
10 1 -0.150682 2.70639 8.20411 5.33339 2.16306 -1.96247 1.88234 0.370787 -0.422238 Si
16 1 2.77124 -0.0596119 8.24813 2.26439 1.26365 1.46687 -0.348652 1.07546 -0.149326 Si
11 1 4.03558 1.43592 9.58496 0.36529 0.29345 2.65251 0.374793 -0.625672 0.0851305 Si
42 1 5.41486 2.69141 8.15487 -6.70922 -4.94833 -0.134587 -0.479109 0.800013 0.339304 Si
38 1 8.06854 2.59549 -0.057085 -2.47819 2.82812 1.22538 1.16989 1.98952 0.210992 Si
43 1 9.50713 1.31537 9.52272 0.23355 0.017164 0.679465 -0.330312 -1.00637 0.302493 Si
13 1 1.27815 4.12531 9.55972 3.70864 -1.37296 -2.34658 0.413697 -1.7612 0.519086 Si
32 1 2.66651 5.43883 8.31749 5.13524 1.32857 -3.19377 0.940711 -0.128596 -1.7589 Si
27 1 4.10882 6.81376 9.53468 2.69435 0.103454 1.33567 -0.384008 0.324587 -0.0175148 Si
45 1 6.74187 4.09718 9.51382 -1.07722 2.47137 1.66116 0.57841 -0.221772 -0.0886536 Si
59 1 9.54602 6.71616 9.41662 -3.57602 1.957 -6.5626 -0.0330848 0.315889 0.560777 Si
64 1 8.26052 5.27676 8.06104 -0.762161 -0.847118 0.0531987 -1.46784 1.35878 0.725751 Si
22 1 2.8111 8.11473 0.0900383 0.240116 -1.62894 -4.18694 0.425856 1.00719 0.0209823 Si
29 1 1.47528 9.41325 9.53216 -3.06442 0.590302 -3.38949 -0.571344 -0.100761 0.247266 Si
58 1 5.39653 8.16512 8.11271 0.635337 -1.62398 1.98117 1.4799 -0.292211 0.390756 Si
61 1 6.76602 9.57498 9.53357 -2.15728 -0.363545 -4.21491 0.0636574 -1.13201 -0.690113 Si
54 1 8.19221 8.15142 -0.102618 -3.39232 0.972452 3.85935 0.372168 0.315931 0.408184 Si
48 1 8.11468 -0.0226286 8.15837 -0.216087 -0.771973 1.22389 0.425664 0.433202 -0.351076 Si
26 1 0.0631596 8.09174 8.13473 -1.13534 -5.23481 -3.37671 -0.274561 0.51865 -0.0534046 Si
ITEM: TIMESTEP
11700
ITEM: NUMBER OF ATOMS
64
ITEM: BOX BOUNDS pp pp pp
0.0000000000000000e+00 1.0887404739999999e+01
0.0000000000000000e+00 1.0887404739999999e+01
0.0000000000000000e+00 1.0887404739999999e+01
ITEM: ATOMS id type xu yu zu vx vy vz fx fy fz element
2 1 -0.00731677 2.80856 2.71263 -1.7304 2.36262 1.72184 0.307665 -0.573455 0.0109317 Si
6 1 2.69663 2.68628 -0.0733948 3.04214 -1.53427 -1.37757 0.724384 -0.956473 0.251996 Si
7 1 1.32832 1.38634 1.31358 3.79503 2.19117 -4.25465 0.0841311 0.152875 0.903566 Si
8 1 2.73736 -0.00639267 2.66781 -0.0944404 0.408381 -4.81562 -0.377444 0.178228 -0.787785 Si
34 1 5.48253 2.68801 2.66821 0.607467 0.0852557 3.45364 0.210169 -0.23895 0.371582 Si
36 1 5.38342 -0.043234 0.000505518 -2.34592 0.408863 -3.75609 0.921325 -0.578434 0.168751 Si
39 1 6.80794 1.31494 1.28915 2.57412 -0.345213 3.71204 0.22073 0.725654 0.241978 Si
40 1 8.10126 0.0727509 2.80303 0.25982 -0.499201 2.28467 0.997419 -0.360622 -0.415926 Si
20 1 -0.0461924 5.40172 -0.0161028 -4.52347 -2.1538 4.37946 1.24772 0.471955 0.587122 Si
23 1 1.33711 6.83541 1.36373 -0.0450055 4.42507 0.60883 -0.41973 -0.489788 -1.41476 Si
24 1 2.64827 5.45362 2.63577 -0.234489 -3.27136 -1.72737 1.2731 -0.220518 0.359903 Si
1 1 4.01454 3.96923 1.35085 -0.83289 -1.06484 -2.57984 0.218583 0.98572 -0.148577 Si
52 1 5.34747 5.40775 -0.0116755 1.02753 -1.60603 -0.254828 0.161019 -0.35145 0.430402 Si
55 1 6.75796 6.63834 1.40744 3.97717 -0.822 -1.83216 0.281029 1.19635 -0.802658 Si
33 1 9.49231 4.12776 1.37598 -0.486196 -2.15327 2.58219 0.287424 0.47043 0.901616 Si
56 1 8.14327 5.47052 2.82049 1.68067 -3.06241 -3.61645 0.240546 -1.43323 -0.194413 Si
18 1 -0.0119144 8.14662 2.67117 0.766779 -1.39794 2.31602 -0.340718 -0.200945 0.989299 Si
17 1 3.96555 9.48401 1.26225 3.84009 2.35635 -5.16296 1.68451 0.164542 1.28205 Si
50 1 5.44217 8.09487 2.62203 -4.27974 -0.460318 0.650196 -0.93551 0.781976 0.70924 Si
4 1 -0.105998 0.0297384 0.0937301 1.27049 -4.04256 -0.236564 0.631601 0.140589 -0.883582 Si
49 1 9.51473 9.5437 1.43558 -2.40979 -0.46287 0.674903 -0.999756 0.245823 0.483396 Si
14 1 2.7908 2.70734 5.34394 0.559416 -3.80839 -2.73716 0.163671 -0.0502182 -0.126604 Si
15 1 1.36311 1.44503 6.73271 -0.95311 3.43761 1.8923 0.0911457 -0.718296 -0.631146 Si
3 1 4.18399 1.23187 3.99197 0.76099 -5.63561 -0.214622 -0.639109 1.20578 0.585162 Si
47 1 6.93809 1.39703 6.75972 1.33994 4.08662 -5.87919 -1.62326 -0.756542 0.711826 Si
35 1 9.57998 1.43045 4.13992 -2.68486 3.15368 2.65165 0.293141 -0.94069 -1.02353 Si
46 1 8.28234 2.72506 5.47036 1.34505 -0.40186 -2.27922 -0.535545 0.192861 0.252049 Si
5 1 1.39461 4.151 4.04113 0.370752 1.77279 1.76643 -0.402372 -0.554971 0.786072 Si
31 1 1.38421 6.91436 6.86046 2.68727 0.232334 -1.91506 -0.227671 -0.423507 -0.28808 Si
9 1 4.08608 4.04152 6.8327 0.574366 0.995664 -0.632813 0.397415 0.0980897 -0.162895 Si
19 1 4.04272 6.76814 4.0444 -2.12573 0.532598 0.0447087 0.547866 -0.257013 -0.488878 Si
37 1 6.87337 3.96834 4.15193 2.8567 3.91368 -3.70968 -0.855489 1.02482 -0.741446 Si
60 1 5.45333 5.41859 5.43649 -2.32193 1.17282 6.76291 0.190496 0.0331472 0.481763 Si
63 1 6.82276 6.83917 6.86939 1.47865 0.0754437 4.93094 -0.682546 0.276907 -1.41025 Si
28 1 0.0626668 5.46491 5.5303 4.57127 1.50059 -3.54886 -0.644427 -0.253855 -0.0123027 Si
41 1 9.44357 4.10008 6.88659 0.902826 -0.304414 -5.95691 1.50361 0.945318 0.0222976 Si
51 1 9.54037 6.76946 4.13103 2.14979 -1.4553 -1.30524 0.508754 0.776592 -0.134464 Si
21 1 1.40582 9.49258 3.93595 -6.99767 1.67567 -0.915773 -0.76684 0.365872 0.79155 Si
30 1 2.68847 8.16228 5.32056 -4.58291 -2.25617 -4.03811 0.415622 -0.0886425 1.02864 Si
44 1 5.46116 -0.0635593 5.44139 3.3698 -1.38204 1.23353 0.360753 0.531567 0.756766 Si
25 1 4.06198 9.45125 6.78139 1.05748 -4.75432 0.995288 -0.160618 0.570838 0.0674932 Si
53 1 6.76045 9.51767 4.06019 4.56376 1.88504 -2.88187 -0.199006 -0.418615 -0.745791 Si
12 1 0.053121 -0.0591483 5.38677 -3.69286 -1.29998 1.04252 -0.527373 0.125704 0.730315 Si
57 1 9.43526 9.51773 6.86851 3.79061 4.98682 2.60623 1.03702 0.427063 -1.51284 Si
62 1 8.13599 8.20441 5.36509 -0.591214 -1.78615 2.92339 0.164 -0.659394 1.36421 Si
10 1 0.082662 2.76925 8.13889 0.583279 -6.22411 0.72955 -0.863361 0.115571 0.442245 Si
16 1 2.64717 0.0377935 8.07604 -2.16167 2.98681 0.26515 0.472221 -0.932377 0.624479 Si
11 1 4.11191 1.22523 9.51493 -2.13433 3.96252 2.56209 -0.818708 1.68825 -0.774502 Si
42 1 5.5138 2.70876 8.23815 3.27115 -0.417938 2.20438 0.0320171 -0.256163 -0.590385 Si
38 1 8.26783 2.76917 0.0376077 -3.202 -1.1228 1.73474 -1.33439 -0.815516 -0.692914 Si
43 1 9.57216 1.3946 9.50645 -0.424468 4.3019 -0.708881 0.224237 0.475844 0.306233 Si
13 1 1.42415 4.09623 9.54974 2.64813 2.65124 -1.00675 -0.867274 0.352724 -0.600811 Si
32 1 2.73075 5.46157 8.16898 -7.60644 -0.921443 6.51888 0.00627145 0.0327058 -0.331311 Si
27 1 4.06269 6.81839 9.50561 -1.08886 2.57861 -6.17908 -0.055339 0.0931207 0.487008 Si
45 1 6.85001 4.14554 9.59961 -0.63301 -1.13463 -3.81603 -0.326851 -0.612828 -0.188896 Si
59 1 9.57464 6.8221 9.59037 -2.33485 5.77158 2.68429 -0.927559 0.378334 -0.234222 Si
64 1 8.12081 5.55315 8.23557 -1.07799 -0.355549 4.16524 0.897176 -0.81744 0.199458 Si
22 1 2.67975 8.19145 -0.0342896 1.0146 0.269367 1.98678 -0.988431 -0.682589 -0.782417 Si
29 1 1.25992 9.61343 9.57412 3.70975 -0.477221 1.62403 0.580726 -0.0261873 -0.435102 Si
58 1 5.46518 8.17827 8.23449 -2.31494 -2.44935 -0.758908 0.0656334 0.408007 -0.371171 Si
61 1 6.87851 9.56253 9.58231 -2.02012 0.416388 4.12114 -0.451414 -0.727517 0.291402 Si
54 1 8.18835 8.11783 0.133481 -1.62582 -1.80964 -0.0687925 -0.558678 -0.0196717 -0.615424 Si
48 1 8.20292 0.0420534 8.20848 -1.06835 -5.62735 2.03134 -0.38472 0.115782 -0.122719 Si
26 1 -0.0595249 8.23392 8.21115 2.17859 1.90288 -1.69426 0.471018 -0.333136 0.0450107 Si
ITEM: TIMESTEP
11800
ITEM: NUMBER OF ATOMS
64
ITEM: BOX BOUNDS pp pp pp
0.0000000000000000e+00 1.0887404739999999e+01
0.0000000000000000e+00 1.0887404739999999e+01
0.0000000000000000e+00 1.0887404739999999e+01
ITEM: ATOMS id type xu yu zu vx vy vz fx fy fz element
2 1 -0.0418747 2.68035 2.64925 -3.49493 -2.10715 -0.637207 0.0763907 -0.43413 0.411412 Si
6 1 2.71244 2.77193 0.013501 -3.25812 1.845 3.11464 -0.0104362 -0.103247 0.341642 Si
7 1 1.4608 1.30362 1.34954 -3.14676 4.40495 1.2476 -0.866962 0.341016 0.0731513 Si
8 1 2.77674 -0.0152205 2.80911 0.0178422 0.255378 2.52913 -0.601955 0.385039 0.217243 Si
34 1 5.3869 2.78055 2.76014 0.0664245 1.48219 -4.52002 0.449359 -0.425917 -0.28566 Si
36 1 5.38346 0.00212949 0.0669873 -0.85906 -0.507075 2.31712 0.146838 -0.110101 -0.789487 Si
39 1 6.75994 1.32951 1.39162 0.88456 -1.6941 -4.33033 0.518063 0.860101 0.161964 Si
40 1 8.19033 -0.0399113 2.71796 1.13079 5.11138 -2.29086 -0.830665 -0.372185 -0.261506 Si
20 1 0.0683259 5.48754 0.036499 1.09865 -0.538995 -1.61034 -1.16732 -0.822357 -0.443795 Si
23 1 1.40013 6.77289 1.40938 1.97775 -0.563116 -0.858602 0.384999 0.781947 0.13423 Si
24 1 2.7971 5.50367 2.80311 -4.70881 2.80832 -0.0952898 -0.694349 -0.80748 -0.429329 Si
1 1 4.07626 4.13443 1.34905 -0.82352 -0.437618 1.5051 0.337457 0.274035 0.229215 Si
52 1 5.51076 5.42672 -0.0435531 -3.044 1.34274 -0.450573 -0.0914621 0.37568 0.630453 Si
55 1 6.87811 6.90443 1.30635 -0.0597189 1.43694 -0.00570346 -0.815411 -0.53066 0.389021 Si
33 1 9.47289 4.15629 1.39568 0.0944556 -0.346567 -5.21416 1.21152 -1.06267 -1.25231 Si
56 1 8.14623 5.40696 2.71339 1.71163 4.42511 3.55186 -0.582275 1.3514 0.262111 Si
18 1 0.0505963 8.2112 2.69979 -0.0167486 -0.686797 -4.60078 -0.156605 -0.383642 0.0119346 Si
17 1 4.11905 9.5351 1.50144 -4.06523 -3.35679 1.44986 -0.772061 0.0824249 -1.51594 Si
50 1 5.46884 8.26311 2.77105 2.45749 -1.02398 -4.42349 0.747711 -1.50704 -0.100686 Si
4 1 0.0965158 0.0142983 -0.121328 1.30746 -2.16407 4.17567 -0.562146 -0.934746 1.38763 Si
49 1 9.52985 9.49707 1.3159 -1.60736 -1.04102 1.01239 0.620212 0.825565 -0.852396 Si
14 1 2.63171 2.71477 5.46857 -3.44001 4.11109 0.782024 0.172205 -0.0078778 0.947325 Si
15 1 1.29976 1.31681 6.88264 -2.89378 -4.50568 -2.5893 0.64679 0.653713 0.587939 Si
3 1 4.034 1.44877 4.15501 2.32499 2.06746 -0.627986 0.399502 -0.553156 -0.641217 Si
47 1 6.73984 1.35411 6.7455 -3.60204 3.08666 5.90998 0.179392 0.717912 0.354744 Si
35 1 9.4412 1.31223 4.08504 9.88913 -8.3701 -1.35151 0.957808 0.85844 0.109539 Si
46 1 8.05203 2.70915 5.41821 1.34905 -4.00017 -4.37947 1.4404 -0.343417 0.459961 Si
5 1 1.36938 3.99306 4.0275 -5.16657 1.78312 -2.94835 -0.338656 0.981281 -0.136736 Si
31 1 1.34883 6.74063 6.77716 -5.61661 -2.34429 -0.181095 -0.503638 0.632874 -0.390636 Si
9 1 4.02126 4.12887 6.79894 2.20955 -2.51755 3.51123 1.0452 0.00288719 -0.997087 Si
19 1 4.0764 6.92557 4.12239 5.2714 0.993753 -0.399243 0.417624 -0.130005 -0.315844 Si
37 1 6.79894 4.09026 4.1255 -2.46948 0.814884 -1.05655 -0.524309 0.464843 -1.11198 Si
60 1 5.47998 5.54912 5.3603 1.37869 -2.44039 -5.53834 -1.30755 -1.25392 1.04487 Si
63 1 6.75452 6.77258 6.8059 -0.127363 0.740922 -1.64667 1.29288 0.156529 -0.0675244 Si
28 1 -0.00647179 5.37361 5.39139 -3.68062 -0.5268 4.34805 -0.0474407 0.0183653 -0.127726 Si
41 1 9.53224 3.99234 6.79772 -0.0611273 0.649071 3.20435 -0.721102 0.733682 -0.861692 Si
51 1 9.55862 6.80302 3.98519 0.313075 -3.15462 1.46655 -0.27109 -0.0771067 1.16279 Si
21 1 1.36293 9.52551 4.15246 0.279402 4.4222 2.45411 -0.0782172 0.460709 -0.228534 Si
30 1 2.70386 8.18356 5.50933 -0.703866 -1.80565 2.66789 0.0393596 0.0456509 -0.040662 Si
44 1 5.46142 0.0683843 5.3936 -3.01039 1.03839 3.5691 -0.740061 -0.805667 0.114481 Si
25 1 4.1484 9.5406 6.77347 -0.161398 4.05888 4.33989 -0.290847 0.245272 0.607928 Si
53 1 6.8225 9.51901 4.14607 -0.917241 2.99912 -1.69437 0.879145 0.242898 0.0735712 Si
12 1 -0.017075 0.026418 5.49466 -0.0248548 -0.215954 -3.20312 -0.0689442 -0.354296 -0.866398 Si
57 1 9.59537 9.4884 6.7889 -0.148715 -2.30064 -1.20226 -0.650933 0.508329 0.920043 Si
62 1 8.21999 8.11907 5.53718 0.8254 0.392705 -8.10958 -0.393734 -0.172194 -1.46247 Si
10 1 -0.0898102 2.74299 8.24011 -0.676979 6.34091 -1.97647 0.638135 -1.30539 -0.669072 Si
16 1 2.79835 -0.0133663 8.25785 -0.397945 -1.97033 2.98389 -0.317991 0.136854 -1.02358 Si
11 1 4.07428 1.46387 9.58353 4.28297 -2.76534 -1.62475 0.593759 -0.848043 -0.300148 Si
42 1 5.44921 2.73369 8.12096 -1.0846 -0.769284 3.77579 -0.347123 0.406825 0.465534 Si
38 1 8.17928 2.72895 -0.00932098 2.50353 0.99926 0.828078 -0.0534034 -0.744714 0.884548 Si
43 1 9.49353 1.30476 9.51715 -0.542302 0.576113 -0.25256 -0.315994 0.463417 -0.124798 Si
13 1 1.31818 4.01679 9.52042 2.01139 -3.28142 5.55499 0.597971 1.6746 0.0747802 Si
32 1 2.69094 5.48416 8.11197 1.70659 1.99627 -1.29241 -0.290054 -1.21294 1.35256 Si
27 1 4.05137 6.74531 9.5458 2.70771 2.73761 2.28697 0.689562 0.633817 -0.461511 Si
45 1 6.87438 4.04473 9.52075 -0.83125 -1.50105 3.78303 -0.650813 0.336166 -0.8435 Si
59 1 9.49595 6.75688 9.49851 4.71032 -3.18512 -0.195511 0.777412 0.295355 -0.154953 Si
64 1 8.17494 5.41282 8.09342 -1.6171 -2.03261 -6.41624 -0.10449 -0.284788 0.41295 Si
22 1 2.76639 8.14139 0.0556941 1.97823 1.26838 2.37182 0.272857 0.0209737 0.469021 Si
29 1 1.43933 9.43269 9.51649 1.62876 -4.36437 -0.789054 -0.0962789 0.448239 0.0813653 Si
58 1 5.46652 8.11391 8.13757 2.7398 2.17768 3.81293 -1.59029 -0.204366 0.149608 Si
61 1 6.6844 9.49841 9.46024 2.59821 -2.73444 0.787889 0.931003 1.84375 -0.00191197 Si
54 1 8.15088 8.24153 -0.173247 2.17933 2.99804 -0.348242 0.409156 -0.569374 1.19803 Si
48 1 8.11526 0.053099 8.04686 -3.40409 1.87912 -2.38962 0.253414 -1.57224 1.04671 Si
26 1 0.040939 8.12224 8.16509 2.02801 -1.99054 -0.0918557 -0.271521 -0.326933 -0.00920608 Si
ITEM: TIMESTEP
11900
ITEM: NUMBER OF ATOMS
64
ITEM: BOX BOUNDS pp pp pp
0.0000000000000000e+00 1.0887404739999999e+01
0.0000000000000000e+00 1.0887404739999999e+01
0.0000000000000000e+00 1.0887404739999999e+01
ITEM: ATOMS id type xu yu zu vx vy vz fx fy fz element
2 1 0.0311093 2.72531 2.79755 0.99899 0.92685 1.19985 0.0348886 0.606377 0.0381023 Si
6 1 2.7109 2.73347 -0.0195439 1.86719 -1.21852 -4.58939 -0.566825 -0.349455 0.394416 Si
7 1 1.36353 1.36299 1.45725 1.95747 -4.56346 4.5467 -0.0386138 0.195028 -1.2126 Si
8 1 2.73514 -0.0275008 2.68859 -0.86353 -0.585868 -2.33581 0.0637058 -0.469154 0.25217 Si
34 1 5.47287 2.69995 2.75257 -0.156558 -1.21115 -3.28508 -0.771548 0.24333 -0.323807 Si
36 1 5.51435 -0.0354348 -0.0721659 0.923964 1.96388 1.2119 -0.456236 0.972352 1.18288 Si
39 1 6.85071 1.46543 1.3574 -1.60302 -2.73149 3.63702 -0.224186 -1.76013 -0.36978 Si
40 1 8.16506 -0.019557 2.73866 -0.699282 1.16766 4.50185 -0.287417 0.710596 -0.0202231 Si
20 1 0.0318956 5.38902 -0.100799 3.40648 4.78302 -0.000460071 -0.578496 0.834818 0.882382 Si
23 1 1.37639 6.77996 1.2773 2.55311 -2.45852 -3.89369 -0.40716 0.168593 0.723486 Si
24 1 2.73723 5.42134 2.6781 4.53064 -0.317021 -1.31693 -0.995024 0.147009 0.310432 Si
1 1 4.03189 4.04465 1.39971 2.50225 -1.48729 -0.320335 1.12212 -0.132965 -0.580783 Si
52 1 5.42579 5.47783 0.065922 1.74946 -1.73673 -2.18571 -0.225794 -0.469894 -0.7938 Si
55 1 6.72981 6.80741 1.50753 -2.28358 -2.18645 -0.0731626 0.691318 -0.062672 -1.33388 Si
33 1 9.61437 3.99965 1.28262 1.10702 0.897356 8.38484 -0.815373 0.891737 0.71782 Si
56 1 8.14158 5.39364 2.68887 -0.915508 -0.55748 -0.544502 0.991213 -0.142658 0.43256 Si
18 1 0.0142262 8.13863 2.7724 -2.2231 0.366967 2.72227 -0.0510987 -0.201183 -0.410463 Si
17 1 4.05776 9.4998 1.27887 0.365373 -4.07558 -1.42923 0.534337 0.605553 0.510444 Si
50 1 5.33767 8.14872 2.75213 0.843035 2.90908 -0.526061 0.113061 0.432138 -0.135738 Si
4 1 -0.0676939 0.0234829 0.0807011 1.30155 5.72658 -3.97517 0.721563 0.578 -0.851333 Si
49 1 9.53844 9.51947 1.38008 -2.31908 2.43806 4.20691 -0.17923 -0.463794 0.87322 Si
14 1 2.81317 2.68863 5.47385 1.1257 -2.09002 0.716385 -0.721537 0.49818 -0.709728 Si
15 1 1.34606 1.32927 6.7551 1.23898 -4.16908 0.966487 0.728841 0.293383 -0.323722 Si
3 1 4.09864 1.28796 4.04119 1.24169 -0.404791 -1.92686 -0.209032 0.973861 0.198866 Si
47 1 6.78588 1.27823 6.86897 1.19349 -3.69235 0.0297683 1.1135 0.354688 -0.345782 Si
35 1 9.51911 1.40205 4.12119 -6.44791 3.91749 -1.31746 -0.531048 -0.112332 -0.331677 Si
46 1 8.20231 2.7352 5.57982 3.51215 3.22495 4.95644 -1.15837 -0.26542 -1.30916 Si
5 1 1.35864 4.19046 4.1664 -3.08276 -1.59059 -0.485732 0.418881 -1.00391 -0.092487 Si
31 1 1.35042 6.87794 6.85308 -1.15972 -2.0589 0.489569 1.16503 -0.856973 -0.188005 Si
9 1 4.24246 4.05481 6.76964 3.79653 0.0378511 1.09553 -2.38084 -0.188077 1.45503 Si
19 1 4.11602 6.65979 4.04504 -3.10724 -1.32509 0.143662 -0.632667 1.17598 0.829091 Si
37 1 6.78313 4.07788 4.08172 -1.41434 -5.01332 7.51438 1.00267 -0.649066 0.774791 Si
60 1 5.45543 5.38999 5.46034 -2.08612 4.30002 2.40518 0.713526 0.635973 -0.956021 Si
63 1 6.77792 6.78175 6.76049 -2.67181 -2.07493 0.21494 -0.0655219 0.460875 0.710618 Si
28 1 -0.0252701 5.55877 5.52028 -0.166405 -0.100649 -3.16125 0.113662 -0.378797 -0.475718 Si
41 1 9.52987 4.15406 6.80626 4.29025 4.43789 -3.44638 0.598457 -0.399566 0.77695 Si
51 1 9.43991 6.82148 4.1547 4.10368 -1.2482 5.70927 0.149539 0.0130208 -0.948631 Si
21 1 1.39674 9.52617 4.11458 -0.512813 -2.31839 -2.73344 0.234325 -0.413114 -0.561607 Si
30 1 2.79554 8.13166 5.44365 2.06362 6.12079 0.677582 -0.279057 -0.235201 -0.297618 Si
44 1 5.41543 0.0496521 5.45543 2.29177 -3.10092 -1.85935 0.298758 -0.741227 -0.0962404 Si
25 1 4.12419 9.53026 6.77629 1.47817 -2.26493 -2.06698 -0.579988 0.188934 -0.0252142 Si
53 1 6.68505 9.55445 4.06662 -0.179667 -5.76373 0.986105 0.522976 0.0472013 -0.060378 Si
12 1 0.00999744 0.0336712 5.35593 0.345409 4.41879 1.1286 0.0799169 -0.32396 0.753915 Si
57 1 9.57607 9.5815 6.76391 1.75851 -0.890264 -3.95234 -0.865573 -0.617456 -0.0676042 Si
62 1 8.05115 8.22578 5.43729 4.51788 0.909447 5.20231 0.823931 0.184309 0.239018 Si
10 1 0.0766321 2.71704 8.09294 0.423353 3.41894 -1.9052 -1.18529 0.477845 0.431648 Si
16 1 2.70671 -0.00870627 8.09328 3.60567 0.755138 -4.82639 -0.162335 -0.318407 0.996663 Si
11 1 4.06671 1.35094 9.5307 -0.169456 -0.0354405 -4.40753 0.0345745 -0.422197 -0.426428 Si
42 1 5.4582 2.64121 8.13933 -0.175457 2.66966 -3.8323 -0.435598 0.0903889 0.294135 Si
38 1 8.15307 2.75561 -0.073907 -3.70698 3.45053 0.92293 -0.0667519 0.417383 0.0330197 Si
43 1 9.52746 1.42951 9.51513 -3.10187 -3.4435 1.79677 0.631992 -0.635265 -0.105029 Si
13 1 1.34516 4.1054 9.4862 -2.58683 2.62312 -2.56084 0.763332 -1.22635 -0.0544853 Si
32 1 2.72765 5.42914 8.22827 2.71223 0.740266 -4.38436 1.18453 0.75478 -1.30115 Si
27 1 4.09156 6.93599 9.55743 -9.44104 -1.07716 6.45693 -0.145786 -1.34982 -0.15673 Si
45 1 6.73673 4.05952 9.41243 1.89181 -2.85031 -1.28952 0.332578 0.797417 1.65016 Si
59 1 9.53347 6.77638 9.48057 -2.52544 -1.75679 1.42121 -0.395473 0.177583 0.798202 Si
64 1 8.14106 5.45346 8.15805 2.76716 1.22861 4.69297 -0.184039 0.0488295 -0.345184 Si
22 1 2.66284 8.23825 -0.0385378 -2.88082 -2.5743 -4.48991 -0.199411 -0.458238 -0.119811 Si
29 1 1.25273 9.53913 9.51289 3.76688 1.70707 0.898641 0.515181 0.714855 -0.163598 Si
58 1 5.44329 8.20864 8.13086 -2.21049 2.12551 -1.32016 0.852125 -0.211621 0.352494 Si
61 1 6.88662 9.53676 9.51287 -5.3109 0.644444 -1.82889 -0.27825 -1.60385 0.580303 Si
54 1 8.19205 8.10028 0.106663 -5.6729 -0.372762 -0.564956 -0.52551 0.135221 -0.981762 Si
48 1 8.21462 -0.0382333 8.23145 0.745662 1.7206 -3.06114 0.415194 0.788537 -1.03147 Si
26 1 -0.0301114 8.14734 8.13523 -3.30252 3.71542 1.05953 -0.366647 0.847988 0.314833 Si
ITEM: TIMESTEP
12000
ITEM: NUMBER OF ATOMS
64
ITEM: BOX BOUNDS pp pp pp
0.0000000000000000e+00 1.0887404739999999e+01
0.0000000000000000e+00 1.0887404739999999e+01
0.0000000000000000e+00 1.0887404739999999e+01
ITEM: ATOMS id type xu yu zu vx vy vz fx fy fz element
2 1 0.0297009 2.68553 2.64333 2.05424 -0.173996 0.673281 -0.190795 0.622311 0.0629585 Si
6 1 2.70075 2.75388 0.0324513 0.705892 0.717642 4.04786 0.915213 0.172937 -1.31097 Si
7 1 1.3214 1.39079 1.20282 0.417016 1.04581 1.16177 0.634801 -0.673213 1.69691 Si
8 1 2.69699 0.0388942 2.65579 2.68495 -0.550207 -2.40785 -0.385423 0.392758 -0.119063 Si
34 1 5.40694 2.71352 2.76312 5.6992 -0.74448 2.42156 0.756215 -0.0853775 -0.248076 Si
36 1 5.39008 0.0172709 0.082788 -0.503295 0.705068 -0.0827 0.171132 -0.407813 -1.12893 Si
39 1 6.79574 1.31635 1.41985 0.347315 3.60198 2.89034 -0.574917 0.733009 -0.0454343 Si
40 1 8.15188 0.0121514 2.72942 -4.49827 0.900762 0.972632 0.823359 -0.336877 -0.0897364 Si
20 1 -0.110546 5.49163 0.113027 -0.767259 -0.0278533 3.03325 1.37213 -0.0325768 -0.815664 Si
23 1 1.33655 6.85032 1.34419 -3.45675 2.65199 3.14426 -0.0790738 -0.814314 0.518022 Si
24 1 2.71221 5.48596 2.67414 -4.84118 1.88081 2.2719 0.534274 0.0113356 0.37497 Si
1 1 4.11285 4.06784 1.3837 -1.04838 3.57877 -1.8206 -0.698118 0.0294919 0.0873397 Si
52 1 5.47811 5.33994 0.00688092 -0.0530578 3.64719 -1.74373 -0.29027 1.26685 -0.523515 Si
55 1 6.79842 6.86027 1.25815 -2.3342 2.18992 -0.465673 0.075077 -1.17306 1.19638 Si
33 1 9.49134 4.08591 1.34413 2.55992 -4.53178 -6.38124 -0.341778 -0.684037 1.03213 Si
56 1 8.19742 5.49159 2.7306 1.97207 -1.28139 -0.651415 -1.06039 -0.0570032 -0.772225 Si
18 1 0.011728 8.17657 2.68074 8.48794 -5.12588 0.353939 -0.648334 0.944496 0.454314 Si
17 1 4.04932 9.49317 1.43572 -1.07294 2.85254 0.0142485 0.440596 0.00893674 -0.374136 Si
50 1 5.45078 8.11876 2.74501 -2.57754 4.48774 4.22419 0.8652 1.04638 -0.628668 Si
4 1 0.0618707 -0.0346645 -0.0599188 4.96208 -3.99075 -1.98683 -1.142 0.178452 -0.0744815 Si
49 1 9.48046 9.56858 1.29644 1.66574 -4.86665 -2.21467 0.519539 -0.555337 0.291908 Si
14 1 2.75457 2.69588 5.37111 -0.440531 5.15731 0.684845 0.0814644 -0.0010772 0.41772 Si
15 1 1.36662 1.41792 6.82163 0.95982 1.76257 4.71539 -0.446476 -0.593827 0.0641956 Si
3 1 4.13028 1.25593 4.04835 -2.8199 -1.51415 1.97494 -0.27734 0.364538 0.673672 Si
47 1 6.81748 1.43842 6.74446 -0.0775328 0.226492 -3.73752 -0.0953793 -0.988622 0.331734 Si
35 1 9.60346 1.33126 4.03093 -2.5825 -0.49331 1.29661 -0.581668 -0.0366934 0.671183 Si
46 1 8.16492 2.72857 5.33947 -0.000290805 -1.15718 1.79265 0.569402 0.710851 0.528554 Si
5 1 1.39234 4.06783 4.01509 1.35514 0.0660878 4.97218 -0.060269 -0.399908 -0.108125 Si
31 1 1.34661 6.77002 6.70762 4.86383 -1.83162 -2.23907 -0.209787 0.54364 0.975436 Si
9 1 4.0156 4.11469 6.83216 -5.03851 0.24017 -0.587652 0.812595 -0.782246 -0.698594 Si
19 1 4.12051 6.85353 4.06845 -1.22963 1.90598 -0.858667 -0.669823 -1.28675 -0.295049 Si
37 1 6.73902 4.17059 4.07066 3.8436 -0.94724 -6.50506 0.565905 -0.554512 -0.0413181 Si
60 1 5.39911 5.48913 5.4699 0.70974 -4.45539 1.6803 0.304666 -0.0370063 0.436182 Si
63 1 6.88098 6.76573 6.84796 6.23896 1.34591 -0.962286 -0.512695 -0.0516702 -0.179753 Si
28 1 0.0107846 5.3188 5.43144 -1.65978 -0.525873 -2.33453 -0.140079 0.908374 -0.280911 Si
41 1 9.53731 4.07958 6.87296 -6.5747 -5.61286 -1.59175 -0.457595 -0.79278 -0.996791 Si
51 1 9.56646 6.77838 4.07934 -5.06922 3.82208 -1.69552 0.499626 0.212287 0.394318 Si
21 1 1.32572 9.65674 4.04605 2.44667 -3.44775 5.37151 -0.104797 -1.42932 0.0805084 Si
30 1 2.7077 8.15213 5.30201 1.16619 -2.59978 0.00149983 -0.543283 1.13016 1.26203 Si
44 1 5.48904 -0.112422 5.47035 1.46317 4.97664 -0.395478 0.166329 1.24278 -0.510697 Si
25 1 3.99644 9.58473 6.78353 -4.2602 0.479835 0.712384 0.364761 -1.62305 -0.184387 Si
53 1 6.89716 9.4886 4.06682 2.3868 3.67082 2.29141 -0.717214 -0.622923 0.533995 Si
12 1 -0.0543207 -0.0568706 5.55796 -4.81642 -0.0851446 -1.22517 0.447192 1.21769 -0.580063 Si
57 1 9.44384 9.56614 6.94661 -4.49668 1.57447 2.06951 0.813962 -1.07344 -0.944017 Si
62 1 8.22418 8.12226 5.49165 -4.79415 2.94505 -1.93273 0.015896 0.398549 -0.128215 Si
10 1 -0.0590202 2.70449 8.23592 -3.88471 -4.15452 -1.00246 1.22264 0.738505 -0.518097 Si
16 1 2.68518 -0.0102583 8.19378 -0.397644 -3.04452 4.92078 0.485486 1.06853 -0.475593 Si
11 1 4.11197 1.41697 9.43977 -3.93745 -1.12894 5.00329 -0.391452 -0.29575 1.3983 Si
42 1 5.5102 2.79455 8.15877 1.53605 -0.285187 0.939273 -0.54877 -0.0454074 -0.572605 Si
38 1 8.15851 2.63634 0.0516106 -1.82497 -2.62091 -2.44454 0.0522061 0.608632 -0.306651 Si
43 1 9.5441 1.37389 9.53045 1.22651 1.70858 -3.19243 -0.478292 -0.984715 0.652907 Si
13 1 1.26764 4.11483 9.63295 0.110591 0.691512 -2.61013 -0.0797456 -0.174385 -0.341389 Si
32 1 2.63354 5.36753 8.16705 1.92324 1.73759 5.5904 -0.277916 0.998264 0.17767 Si
27 1 4.08195 6.72764 9.4613 8.56142 -2.41424 -2.3187 -0.00594061 0.184674 0.878423 Si
45 1 6.87513 4.06508 9.55503 -5.9446 5.16098 -2.48667 0.232353 -0.243296 0.085998 Si
59 1 9.578 6.8832 9.62885 -2.45803 -4.48397 -1.99884 -0.125565 -0.915639 -1.39022 Si
64 1 8.26604 5.44458 8.24881 -0.196624 -2.92984 -4.2551 -0.387895 0.502855 0.145187 Si
22 1 2.7403 8.11601 0.0752607 2.61582 4.80393 1.49624 0.762254 0.0964155 -1.34515 Si
29 1 1.46067 9.51572 9.57385 1.26436 -0.0450728 -2.24883 -0.578723 -0.609511 -0.103779 Si
58 1 5.43304 8.15686 8.10026 -3.74456 -3.52544 -1.33027 -0.110422 0.287856 0.49472 Si
61 1 6.80655 9.52028 9.54533 2.21674 2.30284 0.0339384 -1.0431 0.56909 -0.440089 Si
54 1 8.15861 8.15124 -0.0765613 6.40953 -2.07648 -4.2665 -0.0957432 1.13048 1.06322 Si
48 1 8.14544 0.0496495 8.19325 1.77604 -1.75504 -0.701579 -0.841351 0.622684 0.299005 Si
26 1 0.0096591 8.21688 8.23276 2.7709 -0.411623 -0.0802037 0.688147 -0.581672 -0.7075 Si
ITEM: TIMESTEP
12100
ITEM: NUMBER OF ATOMS
64
ITEM: BOX BOUNDS pp pp pp
0.0000000000000000e+00 1.0887404739999999e+01
0.0000000000000000e+00 1.0887404739999999e+01
0.0000000000000000e+00 1.0887404739999999e+01
ITEM: ATOMS id type xu yu zu vx vy vz fx fy fz element
2 1 -0.0469983 2.75467 2.73202 0.195635 -0.172809 1.72649 0.0323876 -0.355674 -0.279939 Si
6 1 2.69761 2.62781 0.072277 -2.07805 -1.48636 -1.97058 0.19746 0.924027 0.384146 Si
7 1 1.36353 1.31115 1.48916 -4.47516 1.76501 -6.24637 -0.863758 0.49243 -0.92768 Si
8 1 2.73061 0.0288678 2.81697 -1.97981 -0.359226 2.87528 0.770573 -0.103039 0.100094 Si
34 1 5.43172 2.69299 2.63628 -6.16612 1.39724 3.01412 -0.0268805 1.13092 0.556571 Si
36 1 5.47329 -0.0283079 0.0212347 0.398524 -1.41926 2.90676 0.166771 0.153802 -0.690656 Si
39 1 6.81799 1.4406 1.2845 -1.52413 -3.30255 -6.9249 0.324422 -0.862799 0.064122 Si
40 1 8.11394 0.00184622 2.67697 1.29382 -3.32153 -0.564148 0.458555 0.292941 -0.0689628 Si
20 1 0.0830967 5.46945 -0.150274 -1.68117 -2.45172 -1.60901 -0.463066 -0.923526 0.933976 Si
23 1 1.37725 6.68835 1.37044 1.62432 2.0654 -2.44494 -0.346837 1.34273 -0.264744 Si
24 1 2.69929 5.46252 2.81988 -1.79731 -2.72149 -6.01612 0.719299 -0.220067 -1.0991 Si
1 1 4.07768 4.14244 1.368 1.18626 -1.15946 2.14152 -0.312535 -0.371777 -0.170048 Si
52 1 5.44877 5.50214 -0.0265661 -1.03575 -2.70356 1.94054 -0.0904281 -0.268998 0.930083 Si
55 1 6.85136 6.782 1.3575 -4.29188 -3.33492 -1.07696 -0.507364 0.421492 0.0821137 Si
33 1 9.57851 4.16182 1.30724 -0.917275 2.92727 0.186699 0.170827 -0.389532 -0.293339 Si
56 1 8.1613 5.40853 2.69624 1.2014 0.25646 0.738676 0.453619 0.333342 0.880289 Si
18 1 0.0088524 8.12603 2.69299 -4.10165 3.98633 -1.18052 0.864489 0.02341 -0.15131 Si
17 1 4.10046 9.5741 1.4339 -0.27577 0.0687368 -2.63272 -0.540508 -0.399577 -0.665135 Si
50 1 5.49099 8.19614 2.70753 2.51006 -3.15994 -3.06582 -0.850077 -0.856173 -0.00456107 Si
4 1 -0.0262929 0.058364 -0.0111962 -4.78775 1.69285 4.27643 0.580528 -0.572386 1.15558 Si
49 1 9.57702 9.51943 1.351 5.32612 5.75803 3.78256 -0.489738 0.273294 0.166277 Si
14 1 2.62855 2.81368 5.51572 0.67009 -6.9571 -4.00941 0.316524 -0.269337 -0.816328 Si
15 1 1.38511 1.3383 6.83252 1.0212 3.57859 -4.93304 -0.580263 -0.0320945 -0.132496 Si
3 1 4.03912 1.55469 4.11225 3.57563 -2.31839 -2.43328 -0.108752 -1.50026 0.0767926 Si
47 1 6.81987 1.30223 6.89953 5.63317 3.8353 -2.77359 -1.15314 0.889123 -1.03421 Si
35 1 9.49194 1.35461 4.0907 0.562215 7.56388 -0.136318 0.505665 -0.652317 -0.0458268 Si
46 1 8.12409 2.66234 5.45915 -1.79651 -1.09017 -1.36472 0.0230911 0.0387596 0.402956 Si
5 1 1.31872 4.10997 4.02955 2.88014 1.8312 -6.00914 -0.417024 -0.152401 1.45621 Si
31 1 1.39835 6.86159 6.86748 -2.05423 5.45005 2.46393 -0.441702 -1.33814 -0.260267 Si
9 1 4.1356 4.06646 6.74298 -0.490405 1.61928 0.691258 -0.362684 0.396565 0.556458 Si
19 1 4.04809 6.858 4.10374 -0.982258 1.19359 -1.7803 0.942345 -0.0837045 -0.213224 Si
37 1 6.78862 4.00124 4.07575 0.258265 -1.11769 5.48907 -0.0279982 0.568807 -0.533517 Si
60 1 5.41873 5.43537 5.37998 2.17164 1.18577 -1.39466 0.491433 0.147243 -0.074728 Si
63 1 6.79449 6.83537 6.70648 0.881081 0.930803 2.29273 -0.0987991 -0.154233 0.276028 Si
28 1 -0.0476275 5.42992 5.46416 1.09147 -3.19188 6.52806 0.565843 0.683594 0.251739 Si
41 1 9.46869 4.04048 6.82469 -2.15852 2.42387 4.6368 0.0490847 0.30983 -0.185987 Si
51 1 9.54804 6.87503 4.07964 1.03675 1.01555 -1.7223 -0.80238 -1.31418 -0.358956 Si
21 1 1.49388 9.3816 4.05712 -0.479498 2.82228 -7.99354 -1.1086 0.960163 0.70835 Si
30 1 2.81244 8.16732 5.56262 -2.0986 -1.21903 -3.31534 -0.658829 -0.193301 -0.772599 Si
44 1 5.40715 0.0594237 5.38874 1.56504 -6.83142 1.2505 -0.311652 0.516143 1.03503 Si
25 1 4.10344 9.55608 6.82919 2.55386 3.56814 -0.898682 0.587061 0.427049 0.85992 Si
53 1 6.70589 9.59111 4.04761 -1.42189 -1.10137 -0.748078 0.86153 0.245727 -0.328398 Si
12 1 0.0815272 -0.0649181 5.42967 4.34883 -5.25604 0.0145817 -0.407352 -0.0903034 -0.677713 Si
57 1 9.49085 9.41633 6.66598 -1.8474 -1.63514 3.67595 0.784724 1.34222 1.36178 Si
62 1 8.10378 8.23662 5.30499 -0.55582 -2.52214 -2.81379 -0.305356 -0.922413 0.368173 Si
10 1 0.0134522 2.71861 8.15081 1.37092 1.47815 1.0485 -0.243101 -0.50364 0.220387 Si
16 1 2.64033 -0.0404574 8.23168 -3.06558 2.6173 -1.22014 0.826002 0.0185103 -0.711359 Si
11 1 3.99122 1.30064 9.57496 6.08159 -2.02847 -1.69886 1.07071 0.0842777 -0.135738 Si
42 1 5.3673 2.7341 8.2022 2.67701 -3.62834 1.83666 1.12421 -0.429806 0.665126 Si
38 1 8.22465 2.7798 -0.0494576 3.05062 -0.273075 0.489262 0.243334 -0.412851 0.21453 Si
43 1 9.54559 1.30078 9.50461 1.2481 3.64338 0.415249 -0.145553 1.58474 -0.290204 Si
13 1 1.43528 3.99509 9.51255 -2.12941 0.712927 3.60637 0.219052 0.63592 -0.468521 Si
32 1 2.84091 5.42721 8.13783 -3.21214 -0.60168 2.78752 -0.96124 0.168903 0.657095 Si
27 1 4.04238 6.85933 9.61775 -5.36821 3.99796 0.828454 0.684033 0.113018 -1.35029 Si
45 1 6.84556 4.15377 9.58176 5.67163 0.361904 1.03612 -1.44611 -1.06561 -0.900775 Si
59 1 9.45534 6.70169 9.46645 7.89324 3.18003 -1.37054 0.637794 0.925244 0.27813 Si
64 1 8.06569 5.43423 8.14185 2.82539 0.105516 3.23112 0.579792 0.043741 -0.973552 Si
22 1 2.64578 8.19567 0.0348475 1.36112 -7.72725 0.937721 0.328973 0.393791 0.701135 Si
29 1 1.26054 9.55892 9.54937 -3.84571 -1.41159 4.04183 0.0983623 -0.882848 0.140801 Si
58 1 5.53097 8.17018 8.20523 0.151362 0.132672 1.55816 -0.836122 0.138789 -0.163248 Si
61 1 6.95686 9.51765 9.52359 -2.99935 2.30067 -1.29262 -0.870394 0.0486432 0.533374 Si
54 1 8.24817 8.10375 0.0314484 -3.71843 -2.98275 6.01377 -0.169579 0.244766 -0.443392 Si
48 1 8.2349 -0.000487561 8.11896 0.524517 3.04067 2.59737 0.357637 -1.26457 -0.0567892 Si
26 1 -0.0668861 8.13307 8.19455 -1.50525 -1.02045 0.580349 -0.0883068 0.271595 -0.473679 Si
ITEM: TIMESTEP
12200
ITEM: NUMBER OF ATOMS
64
ITEM: BOX BOUNDS pp pp pp
0.0000000000000000e+00 1.0887404739999999e+01
0.0000000000000000e+00 1.0887404739999999e+01
0.0000000000000000e+00 1.0887404739999999e+01
ITEM: ATOMS id type xu yu zu vx vy vz fx fy fz element
2 1 0.129742 2.71599 2.65009 -3.38239 -1.78389 -5.42933 -1.00332 -0.322816 1.45293 Si
6 1 2.7415 2.81363 -0.0717445 0.265434 1.47209 3.65123 -0.597156 -1.02039 -0.305351 Si
7 1 1.36825 1.3258 1.30715 5.15663 -2.73681 4.21923 1.09532 0.521034 -0.53882 Si
8 1 2.71862 -0.0417467 2.67856 1.11443 -1.11778 0.335174 -0.062214 -0.607714 -0.0204762 Si
34 1 5.44337 2.74385 2.79211 -0.668828 -2.01098 -1.19671 -0.189681 -0.975823 -0.0998201 Si
36 1 5.40243 0.075249 -0.0859631 -5.524 -3.03396 -0.689098 -0.0200425 -0.426334 1.95099 Si
39 1 6.79721 1.29589 1.44106 0.449287 1.62423 2.63358 -0.239483 0.365782 -0.443484 Si
40 1 8.15502 -0.101908 2.80246 2.00446 -0.134398 -0.12767 -0.0141074 0.572889 0.0403268 Si
20 1 -0.0572149 5.47179 0.0915925 4.25414 2.63921 -1.24882 0.0505782 -0.104738 -0.440914 Si
23 1 1.32865 6.83639 1.42552 -1.55982 -3.5472 2.09124 0.872885 -0.258446 -0.378416 Si
24 1 2.83271 5.39048 2.70044 3.74519 2.59867 2.63136 -1.67421 0.24586 0.448917 Si
1 1 4.10585 4.05931 1.35425 -0.0719046 3.2274 -3.7182 0.424672 -0.35529 -0.083022 Si
52 1 5.45057 5.39806 0.0241787 -3.35275 -0.906072 -2.17923 0.209291 -0.109943 -0.594795 Si
55 1 6.71968 6.80081 1.41255 4.52565 1.95665 4.539 0.856686 0.2956 -1.04723 Si
33 1 9.51223 4.0146 1.43706 -0.224801 4.65061 -0.352041 -0.746492 1.06426 -0.336245 Si
56 1 8.05151 5.48742 2.77922 -3.85191 -6.01704 1.10605 1.22287 -0.837277 -0.173252 Si
18 1 -0.039012 8.22957 2.72875 1.71169 -1.64062 -2.82223 -0.647188 -0.846062 0.145234 Si
17 1 4.12478 9.44733 1.28527 3.0465 0.727132 4.88219 -0.337691 0.663689 0.457339 Si
50 1 5.43232 8.09367 2.79562 -3.43359 0.373922 0.930271 -0.159502 0.801088 -0.526074 Si
4 1 -0.0173318 0.0124627 -0.00785903 -1.79453 0.25505 -5.72046 0.289732 -0.450504 -0.255797 Si
49 1 9.51337 9.5492 1.35625 0.0375189 -1.12296 -4.06386 -0.24717 -0.0686382 -0.206742 Si
14 1 2.8031 2.61189 5.38537 -1.33514 -0.993176 -0.770421 0.0265957 0.345739 1.30477 Si
15 1 1.4115 1.44707 6.81431 -5.27635 3.29912 1.16249 -0.214187 -0.564508 -0.12425 Si
3 1 4.07866 1.24215 4.11257 -0.566773 2.06148 4.11027 0.516464 0.561147 -1.57003 Si
47 1 6.78167 1.3378 6.70338 -5.39951 -3.21729 1.41521 1.11927 0.332324 0.97475 Si
35 1 9.49108 1.4313 4.06812 0.972658 -6.39957 2.04885 0.349229 0.355797 0.259079 Si
46 1 8.18129 2.87746 5.55034 -3.71296 0.362041 2.03836 -0.0878285 -1.56762 -1.29733 Si
5 1 1.51029 3.94743 4.14446 -1.30489 -0.473487 -2.1099 -0.931859 1.81111 -1.72784 Si
31 1 1.35222 6.8477 6.80386 -0.843059 -0.334403 3.43547 0.0090794 0.729288 -0.616246 Si
9 1 4.05266 4.03852 6.74971 2.03995 -1.27966 -1.75195 0.465691 0.373739 0.472318 Si
19 1 4.09559 6.74601 4.08533 2.86909 1.49377 -1.68905 -0.71484 0.715343 0.47302 Si
37 1 6.76202 4.11547 4.17145 0.760739 3.3935 -2.49994 0.185654 0.131821 -0.288127 Si
60 1 5.4456 5.48532 5.49103 3.21222 2.23024 -4.10782 -0.366766 -0.652096 0.134575 Si
63 1 6.83254 6.74113 6.86853 -2.74202 -0.742795 0.47477 -0.629242 0.749876 0.411625 Si
28 1 0.120879 5.50258 5.36246 -3.61971 -0.492024 0.252017 -0.842926 -1.02189 0.456643 Si
41 1 9.59935 4.15104 6.82612 4.33005 -2.64392 -0.810004 0.648215 0.535496 -0.0357358 Si
51 1 9.46928 6.83608 4.11872 3.90052 1.84268 -1.37559 0.551586 0.08558 -0.116937 Si
21 1 1.24282 9.55748 4.08613 -0.61739 1.20394 -0.120622 0.624128 1.20664 -0.563574 Si
30 1 2.61829 8.22493 5.31893 0.591637 1.51193 4.09833 1.05689 -1.38464 0.958348 Si
44 1 5.45952 -0.0324626 5.40369 -1.19008 7.24034 -1.62895 0.310299 -1.36798 0.125658 Si
25 1 4.09192 9.43257 6.71417 4.87527 -1.74396 -3.83689 -0.0149861 0.491012 -0.875092 Si
53 1 6.86234 9.35012 4.18594 -4.97215 2.88749 -1.27492 -0.565114 1.16384 -0.317294 Si
12 1 0.012635 0.127954 5.47589 -0.365938 -0.37056 1.92953 -0.627338 -0.684561 0.156433 Si
57 1 9.59458 9.57521 6.93447 5.32954 0.0674126 -6.17729 -0.629853 0.522756 -1.41254 Si
62 1 8.19419 8.13161 5.64096 1.23074 0.427249 5.95722 0.720694 0.178274 -0.572122 Si
10 1 -0.0399913 2.69632 8.20449 -4.07145 3.07035 3.94894 0.348732 0.54431 -0.272686 Si
16 1 2.87778 0.025593 7.96619 2.74182 -4.84608 1.86264 -1.43699 -0.0658878 1.8685 Si
11 1 4.14628 1.38924 9.43773 -2.25598 5.46173 1.70473 -0.925104 0.780629 -0.277152 Si
42 1 5.52736 2.72223 8.09525 1.00929 -2.50882 -2.20701 -1.09765 -0.106159 -0.401645 Si
38 1 8.13775 2.67143 0.00663237 2.96513 0.299282 1.35729 -0.181653 0.310507 0.837229 Si
43 1 9.50256 1.35873 9.58194 2.44264 -2.92479 0.784199 -0.141288 -0.206769 -0.651113 Si
13 1 1.27292 4.18362 9.46342 -0.264118 -0.446009 -1.00143 0.284464 -0.632126 1.05179 Si
32 1 2.65619 5.45361 8.09252 -2.62298 0.726701 -1.42747 0.764498 -0.534414 0.000880446 Si
27 1 4.09764 6.68453 9.47556 -1.19747 -1.54031 0.380328 -0.873302 0.872432 0.517641 Si
45 1 6.80101 4.02715 9.48512 1.67645 0.609778 3.24369 0.91756 1.05223 0.557078 Si
59 1 9.53227 6.8621 9.55708 -2.40798 -1.64888 -0.640557 -0.0814768 0.252234 0.502783 Si
64 1 8.249 5.49096 8.19194 -1.65504 -2.14703 -2.53691 -0.609388 -0.984373 0.504753 Si
22 1 2.68071 8.16819 -0.091631 -1.80867 1.19303 3.99293 0.412298 -0.862811 0.387558 Si
29 1 1.3875 9.59212 9.44473 0.0699708 -1.65409 -1.00689 0.505161 0.629638 -0.116664 Si
58 1 5.35135 8.12923 8.13387 3.81207 -1.63533 -1.12607 1.13726 -0.315457 0.378625 Si
61 1 6.649 9.58418 9.53004 -0.209477 -1.63796 -1.28605 1.29789 -0.886308 -1.07821 Si
54 1 8.09273 8.24085 -0.0161846 3.19545 5.21319 -2.33048 -0.309437 -0.600342 0.451263 Si
48 1 8.13775 0.0139444 8.18847 -2.80925 2.92356 -1.9536 -0.512611 0.202052 0.12569 Si
26 1 0.00925905 8.20913 8.18767 0.776737 -3.31193 0.000869839 0.458416 -0.642112 0.358258 Si
ITEM: TIMESTEP
12300
ITEM: NUMBER OF ATOMS
64
ITEM: BOX BOUNDS pp pp pp
0.0000000000000000e+00 1.0887404739999999e+01
0.0000000000000000e+00 1.0887404739999999e+01
0.0000000000000000e+00 1.0887404739999999e+01
ITEM: ATOMS id type xu yu zu vx vy vz fx fy fz element
2 1 -0.0454427 2.77743 2.798 -0.0014747 2.91304 0.0743756 0.407681 -0.393338 -1.24646 Si
6 1 2.72136 2.69179 0.0546776 -2.5486 2.98306 -4.80495 0.0710069 0.307951 0.270246 Si
7 1 1.32625 1.37054 1.3426 4.06222 -2.47475 -0.8625 -0.127911 0.0663895 1.4813 Si
8 1 2.73439 0.0805642 2.8046 6.09235 0.605956 0.0463078 -0.605959 -0.198432 -0.522795 Si
34 1 5.42883 2.79991 2.73075 0.831578 1.6397 2.31481 0.0760554 -1.02369 -0.753521 Si
36 1 5.53942 -0.0474078 0.0490125 3.10442 0.646078 -0.493242 -0.683783 -0.149861 -0.846704 Si
39 1 6.80789 1.424 1.25839 1.51778 4.98805 2.27469 0.342655 0.44676 1.00041 Si
40 1 8.21311 0.0104046 2.55535 -2.79139 -0.387882 3.28398 -0.502364 0.216543 1.29222 Si
20 1 0.0111776 5.36768 -0.0404509 -0.62133 -3.79401 0.858705 0.425335 0.343202 0.0506551 Si
23 1 1.35949 6.80952 1.35961 2.51725 -0.806719 -2.49787 -0.245947 0.348253 -0.885343 Si
24 1 2.62204 5.50305 2.74733 2.29569 2.01196 1.79192 1.14217 -0.39223 0.403481 Si
1 1 4.01773 4.11059 1.41612 -5.64727 -5.82997 6.10862 0.168175 0.573264 -0.306691 Si
52 1 5.47247 5.48217 0.0700485 3.77115 1.91415 2.01778 -0.540385 -0.522532 -0.29422 Si
55 1 6.85494 6.84237 1.30855 1.57459 0.328602 -1.23657 0.154776 0.231945 0.988926 Si
33 1 9.47606 4.05732 1.273 0.645405 -1.66971 -2.05978 1.26119 -0.379638 0.434691 Si
56 1 8.25542 5.43191 2.61391 0.401051 4.46617 -1.9326 -1.62257 0.17794 -0.00885414 Si
18 1 0.0483459 8.20793 2.73263 1.1579 0.364585 0.202965 0.333312 -0.906256 0.609107 Si
17 1 4.09589 9.61388 1.44989 -7.36337 -1.61525 1.42546 -0.204554 -0.265843 -0.78338 Si
50 1 5.45871 8.24158 2.69727 -1.84594 1.41712 0.81909 0.215058 -0.831701 0.500259 Si
4 1 -0.0244656 -0.0516258 0.0687722 1.57125 0.169955 3.40383 -0.0245721 0.711185 -0.840841 Si
49 1 9.59802 9.44679 1.36265 -1.24261 -2.74739 0.500782 -0.63039 0.531826 -0.0120324 Si
14 1 2.68845 2.79562 5.5097 4.21266 -0.231716 1.23528 -0.493501 -0.529668 -0.556823 Si
15 1 1.32557 1.28647 6.7555 -2.62877 -5.8661 3.54061 0.39856 0.431786 0.224524 Si
3 1 4.05362 1.45845 4.11475 2.43719 -5.68798 -3.53344 0.276504 0.288208 0.444129 Si
47 1 6.75264 1.3664 6.89482 1.01217 -3.42973 -2.61373 0.271645 0.174909 -0.678639 Si
35 1 9.5886 1.26782 4.06715 -3.76878 1.19952 3.57423 -0.95945 0.261749 -0.430601 Si
46 1 8.12611 2.62973 5.35004 2.53607 0.388548 1.66816 0.0298901 0.312469 0.859268 Si
5 1 1.3067 4.16311 4.1392 3.25643 3.52519 5.9244 -0.0330794 -0.491002 0.194103 Si
31 1 1.37005 6.736 6.80069 1.97203 -1.52689 -3.68874 0.354099 -0.0803432 0.162032 Si
9 1 4.03626 4.10613 6.85407 4.42112 2.18061 0.78578 0.567981 0.278896 -0.0908298 Si
19 1 4.12579 6.79189 4.0873 -2.34328 -3.3602 2.82377 0.168096 -0.113273 -0.734074 Si
37 1 6.84265 4.10747 3.97557 -3.01238 -3.35256 2.41492 0.499402 -0.100481 0.661774 Si
60 1 5.46638 5.37428 5.39746 -5.53244 -0.07591 4.35541 -0.360848 0.316408 0.369167 Si
63 1 6.74379 6.84686 6.72631 -1.20238 -2.12227 -1.68677 0.74129 -0.276033 -0.671565 Si
28 1 -0.101436 5.42704 5.51714 5.5539 5.60724 -1.95907 -0.0933768 0.0612297 -0.494009 Si
41 1 9.44494 3.98926 6.85545 -3.04306 0.538558 0.0375724 -0.117176 0.176778 -1.04354 Si
51 1 9.49887 6.75902 3.98249 -3.67855 -5.68893 0.502089 0.908922 0.811816 0.952531 Si
21 1 1.44174 9.51248 4.15893 3.63786 -1.79348 3.39533 0.388351 -0.789588 -0.279516 Si
30 1 2.83848 8.05023 5.52806 -0.129296 -1.62629 -5.67428 -0.844941 1.45637 -0.203587 Si
44 1 5.36265 0.0713592 5.51021 -0.264282 1.8649 -1.98368 0.381477 0.301477 -0.440141 Si
25 1 4.07501 9.60198 6.87319 0.845328 -3.80861 0.743442 -0.901656 -0.206106 0.624423 Si
53 1 6.72692 9.68723 4.05401 -1.61708 -0.832927 4.98899 0.867814 -0.482976 -0.347203 Si
12 1 -0.00901917 -0.107128 5.42394 -0.500492 4.8099 -2.23433 0.00829202 0.283608 0.527768 Si
57 1 9.48728 9.46963 6.79418 -0.809812 3.78567 8.47357 -0.17245 0.0155705 -0.391431 Si
62 1 8.11946 8.18378 5.29566 -4.30019 1.9973 -2.51219 -0.158897 0.118254 0.605684 Si
10 1 0.0361321 2.6666 8.10163 3.43278 -2.46336 -0.195686 -0.258487 0.0860807 0.466503 Si
16 1 2.59253 0.0695127 8.33467 -0.0708073 4.4283 -7.06287 0.800385 -1.07951 -1.22582 Si
11 1 4.05845 1.33002 9.66115 -2.45083 1.24592 1.74285 0.518712 -0.210931 -0.408052 Si
42 1 5.33461 2.70447 8.21845 0.0453806 4.33945 -0.908984 0.398404 0.225202 0.268632 Si
38 1 8.18804 2.74695 -0.119115 -1.07659 1.6221 -5.4122 -0.635341 -0.133437 -0.0972836 Si
43 1 9.58663 1.348 9.49557 -3.07321 -0.643947 -3.27055 -0.0646001 -0.236839 0.418618 Si
13 1 1.40324 3.96158 9.52575 0.347808 -3.13233 -0.0790471 -0.163592 1.07438 -0.294974 Si
32 1 2.7585 5.49318 8.25659 0.927099 -3.12262 -0.931186 -0.204341 -0.501728 -0.108617 Si
27 1 4.24553 6.85403 9.51966 1.90084 4.22553 -1.52431 -0.934205 0.171753 0.181977 Si
45 1 6.7283 4.14024 9.50749 -1.43835 -4.28923 -6.93598 0.28891 -0.523097 -0.11672 Si
59 1 9.5601 6.73702 9.46508 -2.32244 -2.67533 0.838127 -0.171198 -0.084524 -0.297827 Si
64 1 8.07001 5.45762 8.08303 -0.59972 4.51735 -1.53565 0.428002 0.00998383 0.622135 Si
22 1 2.819 8.18217 0.0152227 -1.519 5.8763 -1.36771 -0.838356 0.267914 -0.107884 Si
29 1 1.21978 9.47942 9.55197 -1.79215 0.0425178 2.12992 1.59112 -0.369095 0.375729 Si
58 1 5.53487 8.23546 8.11078 -2.17612 1.6541 -0.27402 -0.527444 -0.0648675 0.48644 Si
61 1 6.92621 9.45787 9.52999 5.42073 -0.302996 -0.960559 -0.463487 0.732789 0.427724 Si
54 1 8.29185 8.12306 -0.00606713 0.0857993 -4.02815 -1.28762 -0.309738 -0.278418 -0.495291 Si
48 1 8.1858 0.0110047 8.19726 3.53838 -3.91448 -3.50465 0.13972 -0.356567 -0.50357 Si
26 1 0.0245857 8.10361 8.07968 -3.71424 5.0043 0.727015 -0.730391 0.159106 0.614383 Si
ITEM: TIMESTEP
12400
ITEM: NUMBER OF ATOMS
64
ITEM: BOX BOUNDS pp pp pp
0.0000000000000000e+00 1.0887404739999999e+01
0.0000000000000000e+00 1.0887404739999999e+01
0.0000000000000000e+00 1.0887404739999999e+01
ITEM: ATOMS id type xu yu zu vx vy vz fx fy fz element
2 1 -0.00109543 2.69185 2.67545 5.28479 -2.16618 -0.101768 0.115207 0.395333 0.438329 Si
6 1 2.74911 2.69934 -0.0517801 -1.80775 1.09082 2.62894 -0.0342593 0.127722 -0.159157 Si
7 1 1.39916 1.37849 1.29486 -2.25007 2.03259 -2.72352 -0.826352 -0.440994 0.0272005 Si
8 1 2.67635 -0.0466011 2.64798 -4.65067 3.28823 -0.027883 0.675532 0.550569 -0.175506 Si
34 1 5.40241 2.62139 2.72614 -1.54976 2.08721 0.958063 0.796185 1.69283 0.240891 Si
36 1 5.37821 -0.00554391 -0.0447182 1.55884 -0.660518 2.20551 0.690799 0.591898 0.184496 Si
39 1 6.7942 1.32065 1.44497 0.965489 -4.39395 0.677257 -0.0497827 -0.599341 -0.830046 Si
40 1 8.21608 -0.0044169 2.78211 -0.86571 1.20158 -3.77606 -0.532592 0.183958 -0.786814 Si
20 1 -0.0611317 5.47455 0.0105848 -2.30365 4.22558 -1.07996 0.044261 0.492803 0.247598 Si
23 1 1.32224 6.80539 1.40153 -0.736102 0.759123 -0.566296 0.0437863 -0.552255 0.161177 Si
24 1 2.79997 5.35809 2.67668 -2.27148 2.80154 -3.51672 -0.610981 0.785432 -0.666527 Si
1 1 4.12724 3.99192 1.27236 1.45484 -1.73623 -0.459495 0.198086 0.254821 0.640291 Si
52 1 5.47607 5.36728 -0.0779439 1.68106 -4.52173 2.90436 -0.407332 1.14108 0.476363 Si
55 1 6.86951 6.74674 1.38304 -1.74416 5.07789 -1.2664 -1.71094 -0.564036 -0.695205 Si
33 1 9.49824 4.16008 1.46469 -2.15779 -1.72477 -2.36724 0.697852 -0.754212 -0.77856 Si
56 1 8.13799 5.44121 2.75458 0.506828 0.365912 1.70823 0.58295 0.440483 1.08836 Si
18 1 -0.128515 8.1544 2.70941 3.00792 1.90382 1.93347 0.850178 0.896123 -0.871751 Si
17 1 4.05445 9.50548 1.29826 0.0643221 -4.6124 1.67967 0.499709 -0.673807 0.798851 Si
50 1 5.44797 8.035 2.68406 0.0469381 -1.43378 1.50286 -0.368791 1.33785 0.0282042 Si
4 1 -0.0549033 0.0486202 -0.0647829 2.04418 2.90287 -4.5666 0.919996 -0.37652 0.760062 Si
49 1 9.42825 9.59281 1.28303 -4.15111 -0.512114 -1.90487 0.955514 -0.272908 0.92503 Si
14 1 2.73635 2.66172 5.39915 3.84006 1.44366 -1.21665 0.597854 1.01197 -0.508442 Si
15 1 1.37071 1.42284 6.77808 4.06414 2.47369 -1.77568 0.321059 -0.803469 0.839295 Si
3 1 4.10396 1.27006 4.01558 -3.03114 -0.0717512 -0.87824 -0.661311 -0.497712 0.842142 Si
47 1 6.89952 1.36472 6.78333 -0.996919 2.1728 5.8051 -1.01479 -0.433201 0.205178 Si
35 1 9.49975 1.38529 4.09913 3.91833 -2.46902 -3.7134 1.0076 0.0387645 0.263327 Si
46 1 8.17726 2.76828 5.44059 -0.742486 0.678375 -0.608624 0.46725 0.682089 0.22895 Si
5 1 1.39558 4.0966 3.99396 0.0759425 -3.87577 -2.84401 0.107812 -1.24188 0.521957 Si
31 1 1.34485 6.85655 6.77037 -1.51571 -0.925566 0.610714 -0.145779 -0.3524 0.449798 Si
9 1 4.10378 4.10668 6.77939 -3.88211 -2.71323 -0.91491 -0.123535 -0.891557 -0.385799 Si
19 1 3.99475 6.80223 4.07351 3.78913 0.104239 0.707891 0.448203 0.258258 0.273374 Si
37 1 6.76792 4.147 4.1233 -2.57038 1.28869 -0.0471584 -0.669187 -0.896615 -0.266383 Si
60 1 5.40876 5.54848 5.49026 1.71721 1.42158 -5.19164 0.183291 -0.531853 -0.314556 Si
63 1 6.79794 6.76835 6.94031 0.317318 -1.94257 0.712575 0.919241 0.0538567 -0.351118 Si
28 1 0.0896922 5.44161 5.37392 -4.5701 -3.94063 0.375607 0.25259 0.236057 0.370703 Si
41 1 9.63916 4.16972 6.77401 1.76927 -0.654054 4.908 -0.91838 -0.770154 1.14443 Si
51 1 9.60828 6.7628 4.10143 -2.35983 2.46949 1.47903 -1.49516 -0.0476897 0.0828038 Si
21 1 1.29833 9.56911 3.97204 -1.06542 3.91443 0.328928 -0.601692 -0.319703 0.963014 Si
30 1 2.63314 8.25166 5.40359 5.74702 -0.697277 -2.10576 0.373834 -0.578287 -0.454222 Si
44 1 5.5338 -0.0828693 5.37415 -0.377472 -1.87056 1.74633 -0.226496 0.305529 0.477008 Si
25 1 4.0628 9.49407 6.7732 -4.44961 4.07782 -2.78811 0.974657 0.0561764 0.0575631 Si
53 1 6.90585 9.43587 3.99762 2.5167 -3.35131 -1.73253 -0.43299 -0.917783 1.24233 Si
12 1 0.0323064 0.042159 5.48755 -1.00713 -5.05184 -0.189295 -0.10134 0.37727 -1.51133 Si
57 1 9.55599 9.62032 6.76434 -4.60856 -1.37986 -2.18577 -0.102042 -0.952932 1.45345 Si
62 1 8.27154 8.09146 5.54784 5.16169 0.743119 3.26472 -0.995026 0.243776 -0.864642 Si
10 1 0.0670777 2.73075 8.2223 -1.1802 1.11972 1.29406 -0.828454 0.44071 -0.527389 Si
16 1 2.74178 -0.0170164 8.12652 -2.9684 -0.882542 5.66719 -0.0648811 0.767766 -0.11574 Si
11 1 4.10371 1.42325 9.42768 0.841283 -1.28032 -4.75086 -0.11726 -0.874056 0.367474 Si
42 1 5.49889 2.76161 8.14511 3.1789 -0.26805 -4.31955 0.604186 -0.0389223 -0.356176 Si
38 1 8.17527 2.74491 0.171615 1.74651 -0.87683 1.42012 0.239534 -0.672328 -0.537813 Si
43 1 9.49659 1.4132 9.56459 -0.0800545 1.59587 2.01393 -0.227793 0.431276 -0.234092 Si
13 1 1.37412 4.10532 9.58466 -2.78518 2.63536 1.75128 -0.401341 -0.0853486 -0.226414 Si
32 1 2.65768 5.3443 8.08495 -2.09715 -0.119901 1.04924 -0.158907 1.30894 0.357423 Si
27 1 3.91038 6.77612 9.49596 -2.20186 -4.18664 1.48064 1.6046 -0.708417 0.199036 Si
45 1 6.92269 4.01629 9.59692 2.25753 -0.481547 1.03674 -0.925816 0.00739861 -0.414544 Si
59 1 9.44927 7.01683 9.65157 1.71513 1.26452 6.44294 0.688065 -1.43973 -0.359101 Si
64 1 8.23282 5.44963 8.35197 2.61126 0.750001 4.38243 0.420477 0.331501 -1.52394 Si
22 1 2.6668 8.13702 0.0372711 -0.527676 -3.25281 0.0637612 0.0522983 0.0129087 -0.1467 Si
29 1 1.43879 9.56691 9.5783 3.05061 0.00710338 -1.97794 -1.21833 -0.0707534 -0.666844 Si
58 1 5.43161 8.11947 8.23079 2.76632 2.39823 -6.0686 -1.31268 0.108028 -0.617507 Si
61 1 6.74662 9.48887 9.52235 1.93227 -2.5687 0.656301 -0.0990739 0.870025 0.252962 Si
54 1 8.00592 8.23955 0.0921628 -1.6122 1.3842 -2.40722 0.7852 0.0401135 -0.523667 Si
48 1 8.17243 -0.0216728 8.23023 -1.97015 6.04797 4.65594 -0.00181635 0.35249 -0.50246 Si
26 1 -0.00892614 8.22055 8.20519 1.45616 -1.10556 0.020915 0.267302 0.53306 -0.23662 Si
ITEM: TIMESTEP
12500
ITEM: NUMBER OF ATOMS
64
ITEM: BOX BOUNDS pp pp pp
0.0000000000000000e+00 1.0887404739999999e+01
0.0000000000000000e+00 1.0887404739999999e+01
0.0000000000000000e+00 1.0887404739999999e+01
ITEM: ATOMS id type xu yu zu vx vy vz fx fy fz element
2 1 -0.0429569 2.67986 2.74573 -2.1665 -0.585561 -0.796491 0.6017 0.710502 -0.0166973 Si
6 1 2.69321 2.72748 0.0695514 0.131396 -3.38653 2.79505 0.170293 0.491684 -0.078559 Si
7 1 1.37712 1.35477 1.47345 -4.78224 -0.0946846 4.89078 -0.167326 -0.334285 -0.905139 Si
8 1 2.73389 -0.0153761 2.78004 -1.55143 -1.81111 1.18631 0.304098 0.299399 0.452449 Si
34 1 5.5055 2.76676 2.65793 -0.377964 -5.32043 -2.764 -1.06515 -0.489852 0.126979 Si
36 1 5.49662 0.0212944 -0.0473219 1.32922 0.745063 -0.946305 -0.77953 0.25799 0.615243 Si
39 1 6.85985 1.40439 1.28783 -2.23703 7.51643 -3.16432 -0.7542 -0.75679 0.686019 Si
40 1 8.16377 0.0296077 2.69838 1.74652 -1.87543 -1.26393 -0.0126526 -0.411419 0.0334747 Si
20 1 0.0773298 5.40425 -0.037823 2.68531 0.15817 -3.43392 -0.649135 0.320665 -0.25945 Si
23 1 1.41978 6.79642 1.31182 -3.84947 -3.70904 -0.588416 -0.154526 -0.00984203 0.831663 Si
24 1 2.72528 5.45219 2.82987 2.21267 -3.31034 3.68342 -0.444726 0.128776 -0.304415 Si
1 1 4.08108 4.17325 1.40982 3.9379 6.29787 -0.0352491 -0.120454 -0.539592 -0.326076 Si
52 1 5.41465 5.58094 0.0693305 -0.108628 2.77289 -1.66337 0.504943 -1.06582 -0.487847 Si
55 1 6.85805 6.88603 1.34971 -1.17189 -2.1339 2.61238 -0.115146 -0.426477 0.599136 Si
33 1 9.57268 4.05199 1.30748 7.68363 0.991781 -1.12564 -0.993287 0.0389502 0.194917 Si
56 1 8.18266 5.4752 2.75048 -1.28267 -1.32146 -4.98788 0.313108 -0.270246 -1.25663 Si
18 1 0.0517808 8.12364 2.76883 -2.27867 -2.29753 -2.55834 -0.0966994 0.132283 -0.00456878 Si
17 1 4.12569 9.55418 1.38626 4.35547 6.64978 1.51176 -0.364173 0.260841 -0.597306 Si
50 1 5.43323 8.17973 2.72805 4.39988 -2.82506 0.430059 0.659432 0.222216 0.0131755 Si
4 1 0.0827981 -0.0802672 0.0580242 -4.44219 -0.00264044 2.36859 -1.03821 0.78296 -0.538074 Si
49 1 9.51877 9.45335 1.42488 6.74872 1.05043 -2.35752 0.613403 0.304926 -0.592389 Si
14 1 2.6575 2.78568 5.47734 -5.66523 -0.0577233 3.38747 -0.171078 -0.563213 0.9175 Si
15 1 1.35811 1.31349 6.84771 -0.581468 0.409306 -2.26272 -0.386872 0.951481 -0.551474 Si
3 1 4.00008 1.5223 4.11922 0.0103314 6.69503 1.41454 1.06239 -1.13885 -0.774148 Si
47 1 6.70125 1.38037 6.88793 1.44988 -3.82856 0.31477 0.998544 -0.024098 -0.527746 Si
35 1 9.60116 1.28148 4.06476 -1.23873 2.89227 -2.05768 -1.55542 0.731085 0.297594 Si
46 1 8.15193 2.6684 5.43002 -3.61808 -0.834021 -0.546049 -0.149842 -0.200856 -0.323499 Si
5 1 1.27531 4.06176 4.1711 0.0400851 0.932368 -3.50199 -0.0417115 0.807937 -1.01357 Si
31 1 1.40255 6.75289 6.80554 -0.376094 5.03624 0.132333 -0.613997 0.442634 0.310928 Si
9 1 4.12353 4.03238 6.80469 3.15299 1.66536 -2.40727 -0.878232 0.407454 0.409754 Si
19 1 4.15881 6.8172 4.12661 -1.75189 1.29921 -4.30858 -0.622339 -0.568158 0.11394 Si
37 1 6.81546 4.07452 3.99866 -2.3315 3.26801 -0.540209 0.616198 -0.339612 1.01601 Si
60 1 5.45222 5.312 5.43021 -2.23381 -0.0626865 3.03026 0.488187 1.43568 -0.353664 Si
63 1 6.82637 6.85576 6.6517 2.54156 0.237156 -4.03142 -1.39071 -0.865074 1.53941 Si
28 1 -0.0559719 5.51297 5.46272 0.756499 -1.63431 1.59896 0.194757 -0.576913 0.0027274 Si
41 1 9.50625 4.07938 6.74749 -0.964355 1.62638 -0.390564 0.045327 -0.507237 -0.053744 Si
51 1 9.46485 6.84908 4.12419 2.91105 5.61852 -0.774088 0.916839 -0.343391 -0.829528 Si
21 1 1.38818 9.518 4.1842 3.64204 -4.91627 -4.1207 0.226185 -0.535687 -1.1447 Si
30 1 2.73101 8.11324 5.48467 -0.974326 3.07564 4.63736 0.637821 0.432467 0.117007 Si
44 1 5.32917 0.0931385 5.53091 1.72959 -0.344239 -1.94844 0.390361 -0.49125 -1.15544 Si
25 1 4.09606 9.49271 6.86205 -2.02684 4.38455 2.23194 -0.187611 0.0198951 -0.837888 Si
53 1 6.75317 9.59668 4.08159 -3.72562 0.497545 -2.25694 -0.559765 0.633482 0.0540346 Si
12 1 0.0280365 -0.00457027 5.41372 4.34046 0.223114 4.06246 0.0799835 -0.242408 1.16216 Si
57 1 9.56119 9.50589 6.76729 0.334335 -2.88688 -2.65284 -0.68634 -0.364042 -0.261616 Si
62 1 8.09928 8.18875 5.34457 -3.71612 -0.852646 -4.86184 0.906229 1.24596 0.738104 Si
10 1 -0.0539784 2.74593 8.17364 0.321251 -1.45466 0.439083 0.611703 -0.352642 -0.322774 Si
16 1 2.75588 -0.0280369 8.11253 0.275604 -3.69406 -0.524923 -0.361461 0.337303 0.777032 Si
11 1 3.99171 1.37343 9.5377 1.2159 -0.901401 0.612696 0.580977 -0.554458 0.447612 Si
42 1 5.36574 2.71102 8.23836 -7.04775 0.497037 3.13902 -0.0839095 -0.0375045 -0.253518 Si
38 1 8.12381 2.66371 -0.0967869 -1.42393 -1.5651 0.0969313 0.716789 1.68863 0.230852 Si
43 1 9.48592 1.32765 9.48693 1.11947 -2.37915 0.12929 0.801698 -1.07927 0.317357 Si
13 1 1.42291 4.09224 9.46475 -2.91323 -2.28477 2.15474 -0.287932 -0.51458 0.505825 Si
32 1 2.78624 5.46393 8.15522 4.93064 -5.57723 -0.256628 0.548384 -0.170966 0.0577773 Si
27 1 4.1403 6.87587 9.53088 -0.263127 2.4804 2.05211 -0.866337 -0.140734 -0.0811259 Si
45 1 6.68143 4.0912 9.52542 -0.154146 1.93541 2.94892 0.811731 0.629503 0.280625 Si
59 1 9.46393 6.67707 9.44869 -0.1978 0.977263 -5.89257 0.87579 0.1213 -0.0456224 Si
64 1 8.08064 5.36388 8.01051 1.27945 -2.07821 -0.47908 -0.338566 0.606063 1.08618 Si
22 1 2.72705 8.22555 -0.0286084 -1.62495 0.31834 3.7634 0.56173 -0.165925 0.178543 Si
29 1 1.39488 9.52013 9.4351 -5.27117 0.889761 1.96486 -0.327521 -0.0615797 0.786411 Si
58 1 5.47772 8.21611 8.20086 1.1662 -1.26743 5.26885 1.15823 -0.484879 -0.498153 Si
61 1 6.89144 9.54519 9.58428 1.74446 2.73089 -0.489673 -0.750991 -0.714365 -0.606311 Si
54 1 8.24206 8.11605 -0.0592013 3.02667 -3.06799 3.61732 -0.0704173 0.313037 0.548995 Si
48 1 8.11086 -0.0775634 8.11964 4.15772 -3.45588 0.0557987 0.836908 0.941973 -0.0604369 Si
26 1 0.00247593 8.1208 8.16623 -3.02806 -2.05524 3.4581 -0.147465 -0.355055 -0.387324 Si
ITEM: TIMESTEP
12600
ITEM: NUMBER OF ATOMS
64
ITEM: BOX BOUNDS pp pp pp
0.0000000000000000e+00 1.0887404739999999e+01
0.0000000000000000e+00 1.0887404739999999e+01
0.0000000000000000e+00 1.0887404739999999e+01
ITEM: ATOMS id type xu yu zu vx vy vz fx fy fz element
2 1 0.0667542 2.78145 2.76361 2.65455 3.15975 -2.28408 -0.794242 -0.584588 -0.944468 Si
6 1 2.76076 2.70876 -0.104058 4.25852 -1.20672 -1.03965 -0.150711 -0.485579 0.492528 Si
7 1 1.32079 1.38908 1.33751 1.84307 -2.17095 -6.22351 1.01948 0.38601 0.0848125 Si
8 1 2.71074 0.0227531 2.72063 1.94481 -1.20481 -0.657321 -0.172591 -0.718643 -0.538495 Si
34 1 5.46145 2.73889 2.73538 0.219506 1.33808 1.67656 0.0121256 -0.589333 0.554018 Si
36 1 5.45029 0.0318604 0.0582474 -4.77969 1.27013 -1.46009 -0.276282 -1.26531 -0.39304 Si
39 1 6.73087 1.30395 1.4071 0.988646 -6.37259 0.922379 1.17329 1.51283 -0.199008 Si
40 1 8.09611 0.0148687 2.75924 -4.27687 -4.3633 4.15818 1.00501 -0.100339 0.359894 Si
20 1 -0.0693054 5.42305 0.0554683 -6.34279 -0.87689 7.54826 1.24494 -0.351007 0.496267 Si
23 1 1.34358 6.86618 1.40464 -0.818494 3.42098 4.7442 -0.207779 -0.324015 -1.11614 Si
24 1 2.6805 5.45429 2.67949 -0.5861 -2.17633 2.44518 0.954314 -0.291982 0.781602 Si
1 1 4.0917 4.00875 1.37186 -0.965713 -0.0663462 -0.429917 -0.533005 0.721383 -0.471428 Si
52 1 5.47126 5.3338 -0.0232367 -3.35523e-05 -1.41047 1.66373 -0.740251 -0.0400295 -0.00359139 Si
55 1 6.6995 6.75705 1.28486 0.149441 -0.286203 -4.82561 1.33755 0.471429 0.443929 Si
33 1 9.45739 4.03207 1.42735 -4.20681 3.02389 3.02652 0.524384 0.947541 0.0263919 Si
56 1 8.1151 5.50351 2.71303 -0.342939 0.356479 3.64124 -0.453512 -1.09828 0.499463 Si
18 1 -0.0334133 8.20329 2.75026 -0.658856 0.398609 -0.336701 -0.129758 -0.491812 -0.309419 Si
17 1 4.07612 9.49422 1.30563 2.78452 -0.847901 -0.941586 -0.0607735 0.43834 0.811435 Si
50 1 5.49891 8.16941 2.68097 -3.2875 -0.702372 2.11788 -0.964444 -0.315681 0.506806 Si
4 1 -0.0239993 0.0355438 0.0202555 2.20819 -3.6245 -2.03894 0.186123 -0.790343 -0.115005 Si
49 1 9.5019 9.55021 1.38862 -1.80672 1.22604 1.9573 -0.567091 0.0474171 -0.237531 Si
14 1 2.77892 2.70309 5.53285 3.50424 -1.21719 -4.6595 0.176354 -0.657349 -1.69679 Si
15 1 1.40139 1.31548 6.792 4.15005 5.53822 6.6709 -0.460639 0.113513 -0.789251 Si
3 1 4.18905 1.25619 4.055 0.287833 -2.32468 3.23632 -0.939763 1.0621 0.914888 Si
47 1 6.85062 1.41275 6.74969 -1.87877 3.5384 -5.23818 -0.37367 -0.702247 -0.289514 Si
35 1 9.52995 1.4851 4.05282 1.57425 0.943769 1.12821 -0.0147153 -1.45103 -0.24214 Si
46 1 8.2686 2.78374 5.43524 2.88387 3.137 3.00945 -1.18016 -0.0699539 0.408757 Si
5 1 1.39705 4.04292 4.09873 4.91358 -2.37925 4.81614 1.05334 0.408973 0.327671 Si
31 1 1.31358 6.81732 6.79135 3.50774 0.271149 0.608273 0.834871 0.0419784 -0.461864 Si
9 1 4.03942 4.09554 6.87156 -2.60161 -2.1451 -4.22146 0.263098 0.420872 -0.584434 Si
19 1 4.0928 6.82173 4.10975 0.739542 0.420355 3.86112 -0.521636 0.286725 -1.05522 Si
37 1 6.76573 4.06494 4.19111 1.34599 -1.30838 -0.320835 0.303491 1.17637 -0.911313 Si
60 1 5.36813 5.49433 5.51183 -2.68476 -1.8705 3.4549 0.567936 -0.853182 -0.00124837 Si
63 1 6.75408 6.81314 6.86098 0.41094 2.1747 3.40931 0.935587 0.493896 -0.71688 Si
28 1 0.0439761 5.39744 5.39056 5.85307 0.727283 -5.25253 -0.0311272 0.203562 0.765707 Si
41 1 9.55895 4.11746 6.79746 0.431616 0.06409 -1.55138 0.080462 0.411659 0.355178 Si
51 1 9.58597 6.72788 4.07444 -0.539625 -0.661653 -1.47855 -0.612038 0.965763 -0.0412907 Si
21 1 1.29376 9.52856 4.07506 -5.54145 0.564297 -0.603837 0.511438 0.889384 0.0349189 Si
30 1 2.69234 8.21996 5.40935 -2.7532 -3.76672 -7.10778 -0.401791 -0.844474 0.28625 Si
44 1 5.47377 -0.146107 5.44496 -2.61261 -3.36676 0.0860984 0.457391 1.0858 0.389709 Si
25 1 4.0087 9.51642 6.80832 4.76328 -6.55841 -4.1467 0.155409 0.398593 0.21142 Si
53 1 6.87983 9.41343 4.13585 0.773189 0.715266 1.66821 -0.263817 0.538369 -0.615945 Si
12 1 -0.0728967 0.0309154 5.4139 -1.14209 -0.141146 3.47151 0.273861 -0.210508 0.444276 Si
57 1 9.48733 9.50524 6.84544 2.55642 2.34445 6.04702 0.776689 0.903928 -0.277831 Si
62 1 8.26804 8.14044 5.48322 -0.829574 1.77444 7.19108 -0.911264 -1.3645 -0.0161782 Si
10 1 0.0497702 2.67194 8.04399 -1.71827 -4.94181 1.41725 -0.748289 0.513539 1.60155 Si
16 1 2.73414 0.0942235 8.18813 0.0454722 6.05148 -6.35946 0.343984 -1.53134 -0.0883985 Si
11 1 4.22738 1.27464 9.49834 -2.45955 0.284874 -1.49908 -1.16706 1.89335 -0.131649 Si
42 1 5.44126 2.74913 8.09269 4.94127 0.744394 1.32696 0.651579 -0.584337 0.604143 Si
38 1 8.13251 2.75446 0.0318964 1.53467 -2.84815 -0.214287 -0.349795 -1.27382 -0.629162 Si
43 1 9.53476 1.32806 9.52073 2.56191 1.25687 0.0136289 -0.271538 1.20199 -0.268591 Si
13 1 1.32913 4.10786 9.48604 2.5972 5.25389 -5.5553 -0.00564622 -0.297232 0.109491 Si
32 1 2.72248 5.48447 8.16403 -2.66344 1.53454 -4.70039 -0.740894 -0.188157 0.102968 Si
27 1 4.13175 6.70585 9.53912 4.6849 -5.5477 -5.80552 -0.201787 0.770656 -0.271923 Si
45 1 6.81747 4.09855 9.4403 -0.91804 3.57362 -0.993609 0.39236 -0.419886 0.523027 Si
59 1 9.64061 6.80962 9.57211 -3.56471 1.40258 1.58202 -1.60406 1.01415 -0.257134 Si
64 1 8.19838 5.53855 8.20396 -3.1662 0.904523 1.87088 0.328566 -0.746667 -0.418987 Si
22 1 2.76491 8.13282 -0.0749012 -1.75693 -0.386689 -0.303163 -0.56214 -0.0703693 0.610757 Si
29 1 1.39797 9.57988 9.52955 0.391673 7.69004 -5.07861 -0.370591 -0.13854 -0.0611944 Si
58 1 5.37215 8.16319 8.13838 -1.71079 -4.64548 -4.60691 0.118848 0.122003 0.809012 Si
61 1 6.70973 9.57976 9.51467 -3.24807 3.72409 3.72426 0.712317 -0.559293 -0.118441 Si
54 1 8.10191 8.17945 -0.0098653 0.358263 -1.32106 -0.818909 0.51285 -0.0957636 -0.227359 Si
48 1 8.14152 0.0166788 8.15247 0.29792 -2.11073 -0.584891 -0.269528 -0.0549539 0.256185 Si
26 1 0.0233884 8.19731 8.14735 -2.2979 4.02252 -1.15668 0.144749 0.118417 0.687817 Si
ITEM: TIMESTEP
12700
ITEM: NUMBER OF ATOMS
64
ITEM: BOX BOUNDS pp pp pp
0.0000000000000000e+00 1.0887404739999999e+01
0.0000000000000000e+00 1.0887404739999999e+01
0.0000000000000000e+00 1.0887404739999999e+01
ITEM: ATOMS id type xu yu zu vx vy vz fx fy fz element
2 1 -0.0503052 2.71932 2.73459 0.778568 1.50565 4.91232 0.343477 -1.14586 0.431096 Si
6 1 2.76317 2.66701 0.0157393 -2.94206 1.41628 -3.22035 -0.749654 0.921785 0.164649 Si
7 1 1.32737 1.36522 1.35083 1.56147 0.466274 1.2146 0.098824 -0.0165034 -0.0363167 Si
8 1 2.69964 -0.0580234 2.61572 1.9602 4.26385 5.29527 0.0728597 0.674526 1.38011 Si
34 1 5.46253 2.68285 2.65278 -0.0558928 3.66781 1.53698 -0.157177 0.517262 0.474546 Si
36 1 5.39297 -0.0119053 -0.00635267 3.91685 -0.613561 -1.01659 1.07817 -0.376609 -0.454116 Si
39 1 6.79527 1.28364 1.32411 2.79006 2.77893 -3.99273 0.187511 0.699568 0.0305646 Si
40 1 8.22748 0.0266706 2.65903 3.05875 -0.98659 -6.3621 -0.803858 -1.19308 -0.27526 Si
20 1 0.00870138 5.53893 0.0151155 2.9779 -3.10724 -7.02068 -0.699706 -1.2222 -0.874393 Si
23 1 1.27894 6.79772 1.38949 5.21368 -1.53341 3.254 1.56162 0.675462 -0.23967 Si
24 1 2.67197 5.41334 2.66836 -3.18732 2.41294 0.110489 0.181016 -0.174248 -0.339283 Si
1 1 4.14438 4.12254 1.2635 -6.22852 -0.57699 2.1684 -0.708936 -0.579847 1.03209 Si
52 1 5.44861 5.49906 -0.0439444 2.23884 0.116025 0.198348 0.46186 0.211169 1.29908 Si
55 1 6.82985 6.76127 1.45234 3.29753 -0.0406188 1.37613 -0.346113 0.781825 -0.697087 Si
33 1 9.61886 4.09677 1.41671 -7.66986 -2.31651 -3.04933 -0.483499 0.0747946 -1.53636 Si
56 1 8.26755 5.37183 2.70465 -0.931905 2.76539 -0.245781 -0.404385 1.27123 0.672799 Si
18 1 0.0189512 8.17429 2.72438 -1.75162 3.47347 0.813207 -0.158525 0.0529601 0.458044 Si
17 1 4.12992 9.5435 1.32335 -2.54072 0.481016 2.21791 -1.08923 -0.569571 -0.0618674 Si
50 1 5.40534 8.25135 2.73697 3.80996 1.33128 -3.35084 0.484768 -1.36696 -0.0343635 Si
4 1 0.0194309 0.0305908 -0.0727784 -5.465 1.62236 4.70477 -0.132868 -0.559876 1.01593 Si
49 1 9.59532 9.50857 1.36301 -0.441822 -2.53855 0.00356958 -0.209975 0.816488 -0.619727 Si
14 1 2.63298 2.8252 5.3555 -3.93682 2.01043 5.98217 0.456189 -0.49604 1.06404 Si
15 1 1.37503 1.38475 6.75775 0.376092 -4.24823 -8.33801 0.185641 0.108341 1.32272 Si
3 1 3.97999 1.42983 4.07119 -2.511 2.38307 0.16154 0.838419 -0.748683 -0.899469 Si
47 1 6.83876 1.31293 6.82983 -1.10707 -2.47259 5.27293 -0.426696 1.10487 0.87661 Si
35 1 9.44696 1.27636 4.07408 -0.260448 -3.98786 0.031181 1.64596 1.0944 0.603954 Si
46 1 8.14111 2.65248 5.44573 -2.64827 -2.53079 -2.87092 0.816542 0.174158 0.535036 Si
5 1 1.27218 4.11085 4.03232 2.97739 -0.34898 2.0149 -0.0951174 0.363605 0.0994106 Si
31 1 1.37642 6.73295 6.77914 -3.48082 -0.33544 0.0126586 -0.565635 0.735381 0.51875 Si
9 1 4.03315 4.10006 6.8078 -3.75744 -1.91587 2.46878 1.45358 -0.135372 -0.939193 Si
19 1 4.00914 6.76916 4.01422 0.846733 -1.14156 -0.788481 1.25354 0.329414 0.919598 Si
37 1 6.94922 4.00615 4.01999 1.34715 1.50667 -0.547243 -1.44597 0.0257006 -0.0732478 Si
60 1 5.58048 5.42442 5.36055 2.11849 0.635133 -4.54215 -1.41894 -0.269323 0.344002 Si
63 1 6.8628 6.75571 6.84781 -3.49701 -0.720779 -1.83209 -0.522481 0.42453 -0.392862 Si
28 1 -0.0702015 5.42796 5.46321 -2.50208 0.218016 3.66149 -0.100447 0.302784 -0.43815 Si
41 1 9.4963 4.04409 6.862 0.471886 0.64485 5.06918 -0.304363 0.15054 -0.86625 Si
51 1 9.4952 6.8956 4.0678 -3.06557 -3.16479 -2.15104 0.209787 -1.11711 0.415632 Si
21 1 1.41519 9.45377 4.09477 4.92211 -1.25837 5.6465 -0.203796 0.794214 0.194143 Si
30 1 2.75719 8.13115 5.52664 0.815986 -1.10285 5.44315 0.0660021 0.144105 -0.811192 Si
44 1 5.51845 0.109301 5.38829 -2.64744 4.90412 0.0218557 -1.60507 -0.920409 0.223843 Si
25 1 4.06814 9.61586 6.84411 -3.59739 4.51022 3.95672 1.21136 -0.725707 -0.730548 Si
53 1 6.82746 9.58898 4.02041 0.459034 0.00483969 2.08513 0.123632 -0.0542517 0.533134 Si
12 1 0.0313979 -9.83838e-05 5.47125 1.32089 0.450291 -3.6857 -0.0061316 -0.277327 -1.29681 Si
57 1 9.54824 9.54194 6.75353 -1.88399 -3.27288 -3.53012 -0.255762 0.108253 1.02635 Si
62 1 8.13134 8.20183 5.46464 1.84461 -0.963874 -7.2933 -0.08177 0.0631924 -0.383394 Si
10 1 -0.0101857 2.77454 8.18691 1.6394 0.924215 -4.64405 0.765505 -0.831067 -0.187171 Si
16 1 2.7136 -0.0632504 8.26089 0.169484 0.335978 5.49001 -0.723813 1.28399 -1.05197 Si
11 1 4.04599 1.31366 9.59146 1.80623 -1.71698 3.32229 0.249966 0.142737 -0.801544 Si
42 1 5.39509 2.71059 8.2418 -5.65248 -0.754473 -0.0271039 0.502594 -0.029332 -0.530817 Si
38 1 8.15079 2.77239 0.0847471 0.260074 4.9971 -3.9149 0.561338 -0.42981 0.0899671 Si
43 1 9.56442 1.44602 9.59185 -1.78087 -1.95737 1.27298 -0.661536 0.0608723 -0.40178 Si
13 1 1.38228 4.06931 9.54962 2.92524 -7.67002 1.83281 0.426463 0.983746 -0.0409343 Si
32 1 2.79167 5.49639 8.14382 2.65618 3.08194 0.917511 -1.3832 -1.18427 0.578603 Si
27 1 4.08374 6.76218 9.53097 2.75653 3.04469 2.60496 -0.0947805 1.38678 -0.0528899 Si
45 1 6.77439 4.09942 9.65818 1.22029 -2.12914 -0.537059 0.309053 -0.486872 -1.65766 Si
59 1 9.44032 6.87272 9.53791 2.57866 -2.43079 -2.14518 1.08678 -0.445065 -0.114627 Si
64 1 8.17168 5.39774 8.22597 -2.94762 1.1218 -4.67975 -0.379557 0.0323228 0.33242 Si
22 1 2.7133 8.15683 0.00764905 3.17241 2.34573 -5.81485 -0.188632 -0.333227 0.0809058 Si
29 1 1.30388 9.47234 9.50657 -0.907575 -3.9033 0.647925 0.611148 0.103873 0.482867 Si
58 1 5.42978 8.13328 8.16894 2.40632 4.57631 1.85045 -0.380219 -0.209841 -0.658717 Si
61 1 6.73382 9.43978 9.52824 4.00511 -5.29811 -1.15505 1.07249 1.71791 0.0583551 Si
54 1 8.15072 8.20676 0.0397349 0.560146 4.70103 1.57515 -0.444234 -0.558183 0.494014 Si
48 1 8.24826 0.0438876 8.21964 -1.70447 2.5033 0.369548 -0.767855 -1.12486 0.0930822 Si
26 1 -0.00908657 8.16697 8.13229 3.84285 -6.16248 -2.76246 -0.316154 -0.75127 -0.348661 Si
ITEM: TIMESTEP
12800
ITEM: NUMBER OF ATOMS
64
ITEM: BOX BOUNDS pp pp pp
0.0000000000000000e+00 1.0887404739999999e+01
0.0000000000000000e+00 1.0887404739999999e+01
0.0000000000000000e+00 1.0887404739999999e+01
ITEM: ATOMS id type xu yu zu vx vy vz fx fy fz element
2 1 -0.0167868 2.7015 2.7625 0.069167 -1.14693 -3.20533 0.283944 1.11042 -0.731751 Si
6 1 2.74443 2.7386 0.0627319 2.64606 1.60295 -1.06584 -0.395906 -0.0854504 -0.274265 Si
7 1 1.37082 1.37163 1.40689 0.287691 -1.28214 -0.0563102 -0.189029 -0.322573 -0.0214689 Si
8 1 2.72618 0.0143701 2.78297 -7.12611 -1.88374 -4.23196 0.199862 0.123304 -0.760775 Si
34 1 5.42957 2.75809 2.78389 -2.67523 -2.30782 -2.38116 -0.0284523 -0.127188 -0.603995 Si
36 1 5.47871 0.065177 -0.0360054 1.71823 0.83931 -2.58608 -0.489494 0.469445 1.01802 Si
39 1 6.85243 1.44526 1.35166 -1.41181 -1.78854 4.10144 -0.739042 -0.869564 0.69149 Si
40 1 8.18421 0.00459443 2.75613 5.08002 2.12235 -1.52193 -0.217276 1.23339 -0.145424 Si
20 1 0.0126093 5.3488 -0.0293371 -0.287045 3.21006 1.03072 0.0563448 1.29564 0.237591 Si
23 1 1.48435 6.797 1.30675 -4.54812 1.53327 -3.03073 -1.77531 -0.897674 1.00455 Si
24 1 2.75453 5.4047 2.76694 6.41185 -2.66805 -2.10021 -0.461118 1.18157 -0.209041 Si
1 1 4.04268 4.13347 1.40069 5.31907 -4.64846 -2.84037 1.33342 -0.473952 -0.484044 Si
52 1 5.39318 5.52053 -0.0440939 2.04908 -0.249229 -0.189519 0.304095 -1.04778 -0.22071 Si
55 1 6.80514 6.78253 1.33292 2.56316 0.169219 4.42122 0.143826 0.194079 -0.169777 Si
33 1 9.46883 4.03455 1.28939 3.44621 -1.48768 6.86015 0.667297 -0.0934018 0.889063 Si
56 1 8.15034 5.43997 2.68378 0.00153372 2.01147 -3.79077 0.360109 -0.134108 -0.338196 Si
18 1 -0.026102 8.12527 2.68845 -4.07471 2.39368 1.38841 0.602862 -0.0969866 -0.243831 Si
17 1 4.08542 9.59466 1.33385 0.171159 -3.66371 -3.31242 1.05351 0.00383082 1.03332 Si
50 1 5.48718 8.13864 2.68661 0.443433 -2.49429 -1.26102 -0.854872 0.772033 0.14333 Si
4 1 -0.014656 -0.0732933 0.0947448 1.40896 2.36552 -3.74137 0.284197 1.26351 -1.13618 Si
49 1 9.49394 9.55662 1.4086 -3.03007 -1.10713 -2.15676 0.0771774 -1.17386 0.0201667 Si
14 1 2.70532 2.63947 5.45514 2.37691 -2.60429 -4.41778 -0.0708479 0.773849 0.520721 Si
15 1 1.33284 1.33087 6.87724 -1.80196 -1.42072 0.960867 -0.31002 -0.0222425 -1.41776 Si
3 1 4.10049 1.3214 4.15373 -2.3659 -1.30027 -0.198344 0.19533 0.00522116 -0.328205 Si
47 1 6.80434 1.40776 6.75126 0.21979 -1.05441 1.50291 0.317755 -1.16437 -0.00914917 Si
35 1 9.5437 1.42424 4.12089 -2.61578 -2.85527 -2.45015 -0.88254 -0.654684 -0.497038 Si
46 1 8.13879 2.798 5.37296 0.567188 3.22632 0.108555 -0.915595 -0.798673 -0.521208 Si
5 1 1.40242 4.09829 4.09806 -4.9487 0.917878 0.746978 -0.417814 -0.843725 0.139785 Si
31 1 1.3752 6.87126 6.87008 -1.18708 -5.80147 -3.03455 0.130086 -0.963998 -0.803973 Si
9 1 4.0846 4.04261 6.81624 3.17555 1.15453 1.26872 -0.836452 0.146754 1.14009 Si
19 1 4.04062 6.84812 4.0925 -3.06423 -2.50747 -0.504161 0.337309 -0.013293 0.333865 Si
37 1 6.77155 4.19715 4.05731 -0.750975 3.41028 0.0793706 -0.296089 -0.563804 0.569263 Si
60 1 5.388 5.46942 5.51327 0.665384 2.46959 0.174303 0.53542 0.729314 -0.535319 Si
63 1 6.84867 6.88504 6.80789 0.42936 -3.56247 4.02648 -0.838669 -1.07417 0.0304091 Si
28 1 0.0813951 5.48932 5.44004 -0.602799 3.05543 -4.49235 -0.519267 -0.353104 0.265637 Si
41 1 9.45935 4.07399 6.63527 6.28567 1.74038 -4.25577 1.95678 0.410086 1.86023 Si
51 1 9.54235 6.73016 4.06415 2.49565 -2.81489 1.86012 0.0176097 0.528025 -0.35772 Si
21 1 1.29373 9.5735 4.02208 -4.00404 2.58107 -3.54134 0.24142 -0.794371 0.409316 Si
30 1 2.6439 8.23027 5.45936 -0.82525 3.93176 -0.823153 0.584739 -0.187373 -0.397783 Si
44 1 5.42307 -0.0924935 5.49756 3.89733 0.623603 -1.40657 0.762 0.920548 -0.481899 Si
25 1 4.14348 9.43166 6.83232 -0.433392 -1.21346 1.07429 -1.35547 0.873035 0.342491 Si
53 1 6.81025 9.54973 4.05399 1.91397 -2.21154 -5.51061 -0.372462 -0.46857 0.0734234 Si
12 1 -0.0324027 0.0102829 5.38094 2.50884 3.59178 3.15857 0.141339 -0.136255 1.52596 Si
57 1 9.54311 9.43696 6.78537 4.58627 2.70641 -1.21484 -0.189259 0.506924 -0.555825 Si
62 1 8.14848 8.13166 5.33544 5.21027 -4.27365 4.67995 0.685444 0.317967 0.677768 Si
10 1 -0.015836 2.70658 8.16602 3.81536 2.31587 3.35504 -0.943311 0.473762 -0.172168 Si
16 1 2.7373 0.0427112 8.14749 0.452435 0.290824 -2.45548 0.348762 -1.5445 0.869845 Si
11 1 4.05943 1.39366 9.54807 1.57873 3.61176 -2.03236 0.368992 -0.0817607 -0.171227 Si
42 1 5.50484 2.65764 8.18734 1.91879 1.7246 -0.429368 -0.958783 0.871018 -0.363887 Si
38 1 8.16413 2.67688 -0.0767958 -3.55703 -0.509255 3.1276 -0.189569 0.770336 0.106382 Si
43 1 9.45506 1.30021 9.50984 -1.59756 2.38281 3.44017 1.2587 -0.693309 -0.201023 Si
13 1 1.38164 4.05538 9.54736 -2.41929 1.1748 0.53387 -0.663544 -1.04039 0.266006 Si
32 1 2.61114 5.46401 8.2806 -3.74525 -1.82523 -0.301935 2.00902 0.139285 -1.51631 Si
27 1 4.00846 6.93154 9.53968 -7.50382 -1.92982 1.00976 0.41372 -1.79444 0.0146677 Si
45 1 6.85196 4.07599 9.45092 0.201933 -7.80891 2.23181 -1.01199 0.302299 1.05989 Si
59 1 9.57512 6.71673 9.38581 -3.84663 8.08725 6.16259 -0.406917 0.314963 1.64429 Si
64 1 8.1581 5.38076 8.07651 4.60947 0.180309 5.44727 0.305871 0.686995 -0.451825 Si
22 1 2.80184 8.18548 0.0851813 -0.0063873 -1.47781 3.11217 -0.677387 0.697645 -0.666937 Si
29 1 1.41368 9.48802 9.61541 0.31136 -2.34248 2.61823 -0.166778 0.641911 -0.651542 Si
58 1 5.44219 8.13783 8.2371 1.65349 2.6139 1.0571 1.0297 0.924287 -0.201657 Si
61 1 6.8098 9.63514 9.55026 -6.33713 -3.67427 0.454345 -0.00624959 -2.42093 0.217129 Si
54 1 8.21304 8.13475 0.0222284 -5.94659 2.57111 0.495866 -0.124918 0.240391 -1.23626 Si
48 1 8.11228 -0.08725 8.1153 0.353471 0.144974 4.43954 0.83577 1.26876 -0.697914 Si
26 1 0.062873 8.14994 8.17584 -0.129962 5.16035 -0.387841 -0.537982 0.745895 0.471403 Si
ITEM: TIMESTEP
12900
ITEM: NUMBER OF ATOMS
64
ITEM: BOX BOUNDS pp pp pp
0.0000000000000000e+00 1.0887404739999999e+01
0.0000000000000000e+00 1.0887404739999999e+01
0.0000000000000000e+00 1.0887404739999999e+01
ITEM: ATOMS id type xu yu zu vx vy vz fx fy fz element
2 1 0.0183255 2.71481 2.67436 -2.77112 -1.50155 3.3017 -0.189236 0.17412 0.132001 Si
6 1 2.69055 2.74379 -0.0650025 0.377206 -3.07185 3.29618 0.759988 -0.121025 -0.380553 Si
7 1 1.39884 1.38574 1.27578 -1.08951 2.97772 0.625023 -0.163324 -0.593278 0.802905 Si
8 1 2.77064 -0.00969308 2.69837 4.58483 -1.67575 -1.8348 -1.09901 0.00828701 -0.257522 Si
34 1 5.47949 2.68686 2.693 6.33572 -1.49357 -1.25006 0.0897224 -0.143162 -0.336556 Si
36 1 5.34224 -0.108933 0.0257872 1.11999 -0.270974 0.831944 0.579055 0.624364 -0.641192 Si
39 1 6.80501 1.24671 1.35714 -1.70072 1.308 -1.13464 -0.445526 0.63759 -0.177657 Si
40 1 8.11645 0.0242095 2.82783 -3.53834 3.6079 0.420392 0.612916 -0.54072 -0.406603 Si
20 1 0.00698261 5.44409 0.0743873 -1.76221 -2.68805 1.83083 -0.104211 0.484599 -0.35237 Si
23 1 1.3621 6.88207 1.36053 -0.566158 0.382881 0.144746 -0.329279 -0.512519 -0.163033 Si
24 1 2.68315 5.48913 2.69138 -4.40521 1.06982 2.07072 0.68033 -0.533032 0.601082 Si
1 1 4.03587 4.01741 1.35932 0.40717 1.00928 0.331875 -0.197148 0.229192 0.540851 Si
52 1 5.39429 5.3301 0.0349836 -2.18886 5.96678 -0.195218 0.232496 1.69592 -0.335825 Si
55 1 6.79626 6.81724 1.34798 0.293381 0.280106 -6.1711 -0.375419 -0.804847 0.826161 Si
33 1 9.46447 4.15364 1.44008 0.574566 2.43054 -4.28517 0.516611 -0.532681 0.0894844 Si
56 1 8.14892 5.44936 2.90864 5.43841 0.151079 3.22996 -0.408929 0.426403 -1.70956 Si
18 1 0.0059675 8.16521 2.77968 2.2598 -6.6413 1.69034 -0.482344 0.787673 -0.167605 Si
17 1 3.99038 9.41303 1.37014 1.11319 5.44546 1.78707 -0.180789 0.221824 -0.75929 Si
50 1 5.35379 8.14892 2.7348 -2.5325 0.0812284 -1.54034 1.73517 0.286372 -0.132314 Si
4 1 0.0397216 -0.00135124 -0.0506899 3.37248 -6.27187 3.11664 -0.27077 -0.129055 -0.06322 Si
49 1 9.48015 9.57992 1.39273 -1.69451 -1.96573 1.77276 0.320317 -0.44883 -0.182312 Si
14 1 2.75985 2.70982 5.38681 0.139503 5.32957 1.92319 0.527789 0.353031 -0.351426 Si
15 1 1.35018 1.43418 6.72036 -2.30105 0.192585 4.43864 0.223298 -0.610735 1.39647 Si
3 1 4.16801 1.2933 3.99661 3.03576 0.575826 -3.86081 -0.783846 0.870023 0.927069 Si
47 1 6.77256 1.40017 6.76855 -2.50065 2.59756 2.20735 0.343976 -0.257896 0.514054 Si
35 1 9.60507 1.34111 4.09229 8.86372 -0.354843 3.563 -0.32978 -0.0595068 -0.100784 Si
46 1 8.25297 2.62429 5.50123 2.87639 -1.71672 -0.718513 0.447124 1.49476 0.0382044 Si
5 1 1.31236 4.09286 4.08483 -5.31203 3.03574 3.09279 0.647756 0.0103009 -0.236215 Si
31 1 1.3211 6.78768 6.74282 2.44881 1.21515 -1.00464 0.446712 0.475096 0.645095 Si
9 1 4.11902 4.08257 6.84002 1.66075 -0.132696 0.476548 0.414965 -0.303859 -1.35513 Si
19 1 4.17429 6.77393 4.09849 3.05295 1.56907 2.86481 -1.285 -0.852684 -0.367555 Si
37 1 6.85686 3.953 4.12019 -2.37887 -1.3564 -6.4852 0.0233325 0.19432 0.300429 Si
60 1 5.54974 5.41406 5.41386 -3.43347 -5.86194 4.9719 -1.04933 -0.779189 0.371162 Si
63 1 6.73393 6.80094 6.80567 -2.05247 4.36158 -3.40884 1.19944 0.074019 0.132564 Si
28 1 -0.0218937 5.41677 5.50292 -0.630499 1.3901 0.817476 0.280135 0.365399 -1.07278 Si
41 1 9.60583 4.15711 6.8912 -1.94492 -1.40108 -3.262 -2.14279 -0.79712 -0.665395 Si
51 1 9.52155 6.81416 4.17522 3.12841 -0.0159663 0.72393 0.201865 0.354149 0.320667 Si
21 1 1.37348 9.57986 4.13544 -0.341812 -1.1245 2.08891 0.23371 -0.704635 -0.816917 Si
30 1 2.71833 8.08392 5.36889 -0.691362 -2.92344 -1.14559 0.262236 0.832364 0.656605 Si
44 1 5.42628 0.0385739 5.49177 -3.27904 -0.559116 4.30427 0.240583 -0.463024 -0.786797 Si
25 1 4.10809 9.49913 6.73618 0.953345 -2.90698 0.784843 -0.646015 -0.546489 -0.133769 Si
53 1 6.76027 9.53005 4.15475 -2.41919 3.26982 -0.971332 0.0214857 -0.542211 -0.0701306 Si
12 1 0.00335111 -0.0199026 5.48684 -3.18466 -1.90571 -3.78044 0.29303 0.821945 -0.416555 Si
57 1 9.52289 9.6548 6.86371 -2.36114 2.2513 0.110067 -0.337694 -1.3319 0.234764 Si
62 1 8.17416 8.18601 5.56663 -2.22398 2.25519 -5.07297 -0.217583 0.376633 -0.645692 Si
10 1 -0.0108761 2.81388 8.1808 -0.67072 -0.64967 -3.04882 1.53768 -0.538586 0.0408641 Si
16 1 2.77044 -0.0528976 8.07526 -2.44873 1.4186 1.00543 -0.198091 1.65608 -0.263375 Si
11 1 4.11966 1.39844 9.45541 -5.16758 -2.3627 -0.706955 -0.591749 -1.00982 0.643157 Si
42 1 5.5141 2.73359 8.17134 -1.88966 -0.0403693 0.0294831 -0.624084 0.246462 -0.215653 Si
38 1 8.17985 2.71448 0.0821807 0.626918 -2.29022 1.462 -0.343531 0.0883483 -0.663001 Si
43 1 9.56778 1.43941 9.50345 1.4778 -0.817455 -4.62573 -0.810914 -0.681855 0.459275 Si
13 1 1.40827 4.1806 9.50607 3.4691 -0.0914142 -1.43189 -0.584034 -0.229283 -0.0204033 Si
32 1 2.75888 5.47311 8.06773 2.87225 -2.43258 -1.16461 -0.459474 0.175302 0.588157 Si
27 1 4.11984 6.78451 9.44587 7.95536 1.12876 -3.83622 -0.230368 -0.507657 0.753154 Si
45 1 6.77578 4.08012 9.55898 -6.58621 6.06609 0.143746 1.10566 -0.285254 0.168684 Si
59 1 9.53268 6.85026 9.60796 -1.54275 -4.09714 -1.85594 -0.209156 -0.620417 -0.835321 Si
64 1 8.12138 5.48242 8.1739 -2.7097 -2.81983 -2.63825 0.452644 0.0934484 0.775608 Si
22 1 2.66589 8.11784 -0.141648 0.10459 5.13033 1.0775 0.90891 0.0169442 0.901833 Si
29 1 1.43753 9.5321 9.42501 1.15824 4.22203 -2.34887 -1.28848 0.0454347 0.313303 Si
58 1 5.42214 8.1599 8.11118 -1.10479 -2.18305 1.58412 -0.163361 -0.022965 0.0717662 Si
61 1 6.74401 9.47117 9.48139 6.64477 2.58561 4.84542 -0.0248522 1.20879 -0.0134141 Si
54 1 8.09891 8.20025 -0.0435955 2.86693 -3.37974 1.53456 0.670714 0.0795237 1.06584 Si
48 1 8.0872 0.080063 8.15188 -0.353785 -5.77811 -1.39165 0.423914 -0.164965 0.909027 Si
26 1 -0.018016 8.16745 8.15768 0.565872 -0.523434 0.670424 0.132541 0.260475 -0.124315 Si
ITEM: TIMESTEP
13000
ITEM: NUMBER OF ATOMS
64
ITEM: BOX BOUNDS pp pp pp
0.0000000000000000e+00 1.0887404739999999e+01
0.0000000000000000e+00 1.0887404739999999e+01
0.0000000000000000e+00 1.0887404739999999e+01
ITEM: ATOMS id type xu yu zu vx vy vz fx fy fz element
2 1 -0.0797703 2.72095 2.75691 1.96735 0.121892 -0.405011 0.909251 -0.37599 0.187174 Si
6 1 2.66672 2.71301 0.0410688 0.679428 -1.02737 -2.68553 0.463716 -0.158546 0.680783 Si
7 1 1.38142 1.34686 1.49708 -0.382365 0.53691 0.849501 -0.934155 0.713723 -1.15273 Si
8 1 2.71027 0.0018799 2.75405 -2.03177 0.272811 5.88737 1.10479 0.061463 0.53301 Si
34 1 5.39585 2.74213 2.70581 -1.85897 0.866563 0.0622349 0.283702 0.949156 0.940249 Si
36 1 5.54599 0.0319229 0.0602985 -3.46421 0.356436 0.480236 -0.179489 -0.035761 -0.659896 Si
39 1 6.79055 1.52266 1.41106 -0.857377 -3.80365 -1.91487 0.853632 -1.39201 -0.847509 Si
40 1 8.18011 0.0337017 2.65057 -1.33404 -1.50808 3.90088 -0.396061 -0.69828 -0.161181 Si
20 1 0.0642752 5.4279 -0.088184 0.109879 -1.6204 -1.17406 -0.423735 -0.465351 0.692498 Si
23 1 1.37077 6.73795 1.30931 2.77246 2.82916 1.89521 0.475246 0.662137 0.58366 Si
24 1 2.75017 5.4693 2.72751 -0.514349 -1.22638 1.16305 -0.275907 -0.385356 -0.506737 Si
1 1 4.11772 4.083 1.33952 0.979098 2.36906 0.147993 -0.58414 0.690994 -0.350962 Si
52 1 5.49119 5.47664 -0.0525803 0.520811 -6.51385 0.381295 0.0528419 -0.676294 0.702404 Si
55 1 6.82979 6.8115 1.36546 -0.992616 0.20597 -2.00257 -0.167594 0.408944 -0.776721 Si
33 1 9.64771 4.04677 1.30194 -1.19677 -0.966089 2.9405 -1.12119 0.495634 -0.690776 Si
56 1 8.19594 5.39111 2.56934 -5.6658 2.57505 2.4885 0.0911899 -0.0769282 1.80323 Si
18 1 0.0648852 8.13044 2.70545 -2.05356 2.74749 0.939338 0.245358 -0.137401 -0.0127807 Si
17 1 4.10191 9.5965 1.37186 1.50609 0.571495 -2.41833 0.398858 0.17746 0.330629 Si
50 1 5.497 8.25635 2.69084 3.60353 -1.74192 -1.41523 -0.787932 -0.951146 0.526454 Si
4 1 0.0114539 0.0842134 0.0109148 -1.9681 2.79426 0.332416 -0.136091 -0.62947 0.678495 Si
49 1 9.61195 9.46185 1.31254 2.48085 4.24399 2.5943 -0.747846 0.945465 0.276979 Si
14 1 2.68867 2.75721 5.55552 -2.42184 -3.34297 4.22481 -0.734957 -0.440868 -0.668618 Si
15 1 1.25589 1.16948 6.88311 4.77257 -1.04724 -3.14405 1.22391 1.65656 -0.803529 Si
3 1 4.0881 1.43175 4.0848 -0.191477 1.79319 0.868758 -0.807965 -0.402808 0.501065 Si
47 1 6.82612 1.2738 6.85112 5.22754 3.8077 -4.24733 -0.720742 1.22813 -0.740908 Si
35 1 9.39669 1.37653 4.06497 -5.85467 7.28765 -2.0231 0.85797 0.146904 0.273855 Si
46 1 8.09236 2.726 5.45976 0.742549 -2.57563 -2.3046 -0.417754 -0.384534 -0.134582 Si
5 1 1.30323 4.14184 4.03113 2.56286 -3.79309 -3.34972 0.684353 -0.91208 0.991448 Si
31 1 1.36462 6.75728 6.80907 -0.626934 0.698853 -0.43979 0.105771 0.167898 0.396735 Si
9 1 4.11136 4.18188 6.8219 -3.42304 2.37582 1.92257 -1.20065 -0.706543 0.219164 Si
19 1 4.01261 6.88646 4.08012 -0.755706 3.61683 1.60855 1.04842 0.515493 -0.165653 Si
37 1 6.74586 4.12546 4.1097 0.808311 -1.54156 6.63877 0.273944 0.116887 -0.869218 Si
60 1 5.34464 5.50745 5.43218 -0.0417687 2.49578 -0.266711 1.05103 0.363528 -0.246024 Si
63 1 6.77968 6.80565 6.81363 2.07979 -1.37136 -0.779007 0.243792 0.205278 -0.617625 Si
28 1 -0.0668244 5.43263 5.41404 1.09009 -5.29134 1.71782 0.830979 -0.183123 0.55255 Si
41 1 9.49619 4.0179 6.75453 1.12147 3.40231 -0.835397 0.340686 0.470203 0.495506 Si
51 1 9.57992 6.75067 4.01796 -1.58025 1.51414 -0.298174 -1.06474 0.250409 -0.62261 Si
21 1 1.43856 9.49318 4.09273 -0.384059 0.247488 -1.48172 -0.780469 0.0364452 0.473536 Si
30 1 2.79111 8.2211 5.58756 -3.06752 1.88256 0.732306 -1.06093 -0.586625 -1.0898 Si
44 1 5.47893 0.0371337 5.38178 0.972721 -4.7682 0.58756 -0.650419 -0.0873072 0.939066 Si
25 1 4.10472 9.59921 6.85439 -4.28941 2.17162 2.21677 0.450661 0.408007 0.513719 Si
53 1 6.81622 9.56693 4.08397 4.994 -2.55489 1.98662 0.847004 -0.115827 -0.609149 Si
12 1 -0.06208 -0.00284785 5.35775 1.7867 -1.79371 2.43186 0.297227 -0.663121 -0.110893 Si
57 1 9.55492 9.45398 6.70715 -1.5207 -1.7811 -0.140019 -0.13281 0.357985 0.603652 Si
62 1 8.1984 8.12054 5.36795 3.84229 -2.55593 1.05289 -0.61258 -0.249684 0.174515 Si
10 1 -0.00942304 2.66182 8.13558 -2.95849 0.806831 -1.13062 -0.889358 -0.247456 0.0566455 Si
16 1 2.66739 -0.0383674 8.31956 4.99726 -2.3788 -0.63722 0.554969 -0.158709 -0.341846 Si
11 1 4.08194 1.36813 9.64099 6.75968 -1.86816 -1.15785 -0.002207 -0.11709 -0.805984 Si
42 1 5.35853 2.71151 8.10105 -2.13147 0.298378 1.93065 1.06357 -0.470967 1.00745 Si
38 1 8.14083 2.79807 -0.0381272 -0.991493 -0.822296 1.76649 0.82588 -0.874215 -0.00433636 Si
43 1 9.48367 1.30097 9.49227 -2.16493 0.212576 -0.0655912 0.0643133 1.15502 0.406782 Si
13 1 1.30631 3.97008 9.53036 0.560119 5.33443 -0.72989 0.982341 0.754094 -0.611027 Si
32 1 2.74484 5.44124 8.2668 1.49119 0.144111 -1.60713 -0.612331 -0.0770518 -0.239132 Si
27 1 4.07398 6.84245 9.63737 -5.71591 0.549595 1.08737 0.268744 0.315192 -1.10397 Si
45 1 6.82106 4.07304 9.44466 3.40314 0.166278 -2.30524 -0.835921 0.272039 -0.133105 Si
59 1 9.54448 6.73386 9.52169 3.57114 0.672267 -1.07605 -0.116887 0.670047 -0.615635 Si
64 1 8.18058 5.43521 8.12204 1.79792 0.759345 -2.04432 0.00786013 -0.232209 -0.168527 Si
22 1 2.76296 8.20585 0.104361 2.69689 -6.22423 -4.803 -0.805336 -0.237307 -0.534426 Si
29 1 1.27884 9.48764 9.64274 7.84431 -0.694958 -2.0158 0.841791 -0.0551056 -0.356349 Si
58 1 5.45749 8.18369 8.19074 -2.00048 1.07027 2.47539 -0.616977 -0.321553 -0.0944935 Si
61 1 6.86021 9.51073 9.44839 -6.79959 3.86759 -2.12166 -0.185473 0.452179 1.28462 Si
54 1 8.19317 8.1406 -0.0480447 -4.26976 -0.896086 -2.64638 0.0927119 -0.0835349 0.190029 Si
48 1 8.20965 -0.0501735 8.10903 -2.72119 0.646459 -3.54818 0.303594 -0.654253 -0.124907 Si
26 1 0.00504148 8.1531 8.16829 -1.51142 -2.60389 -0.0978398 -0.137462 -0.402778 -0.0442702 Si
ITEM: TIMESTEP
13100
ITEM: NUMBER OF ATOMS
64
ITEM: BOX BOUNDS pp pp pp
0.0000000000000000e+00 1.0887404739999999e+01
0.0000000000000000e+00 1.0887404739999999e+01
0.0000000000000000e+00 1.0887404739999999e+01
ITEM: ATOMS id type xu yu zu vx vy vz fx fy fz element
2 1 0.0761919 2.66628 2.65563 -2.19306 -0.00803113 3.14431 -0.760921 0.588711 0.692817 Si
6 1 2.74076 2.78318 0.0087021 0.245121 -2.16078 -1.29493 -0.279788 -0.648303 -0.951734 Si
7 1 1.33088 1.36893 1.27304 1.22501 1.13806 3.56654 1.06416 -0.107038 -0.0401491 Si
8 1 2.64841 -0.0355969 2.60465 -3.44268 -4.50304 -6.22676 0.0568884 -0.244767 0.422813 Si
34 1 5.45529 2.71349 2.75525 2.00055 -0.775871 -2.39706 -0.11114 -1.23594 -0.402628 Si
36 1 5.41217 0.00575634 -0.0318968 -0.694587 1.1734 -0.695188 -0.857853 -0.359266 0.750264 Si
39 1 6.8036 1.25701 1.36658 2.68311 -0.896133 -1.95521 -0.373348 1.26431 0.148535 Si
40 1 8.16722 0.000648885 2.74264 2.487 1.14503 -2.89013 0.138744 -0.231403 0.514527 Si
20 1 -0.0892271 5.51215 0.0863898 2.82152 5.24576 0.447983 0.395563 -0.491479 -0.61173 Si
23 1 1.3075 6.82289 1.34291 -2.4807 -1.23461 -1.83654 0.275076 0.0660665 0.718495 Si
24 1 2.74106 5.42638 2.61254 -1.63167 -1.16353 -2.13531 -0.934433 -0.1047 1.23417 Si
1 1 4.09905 4.05982 1.38764 -0.190665 0.905125 -4.39033 0.469432 -0.0515684 -0.364033 Si
52 1 5.41188 5.47789 0.0598616 -3.12305 3.51418 -2.78367 -0.0451722 -0.740639 -0.802724 Si
55 1 6.72386 6.81079 1.40361 -1.61651 -2.85965 7.12732 0.918132 0.20527 0.135337 Si
33 1 9.5446 4.03168 1.37197 3.25015 -1.43901 2.39816 -0.397598 0.360292 0.497309 Si
56 1 8.17692 5.45843 2.7392 0.853956 -6.94276 -1.65514 -0.0699508 0.0113971 -0.308767 Si
18 1 0.0101161 8.20764 2.73668 3.06313 -0.128218 -0.514337 -1.28467 -0.358704 -0.431143 Si
17 1 4.03012 9.44984 1.32304 1.15728 -1.63716 -4.27882 0.490811 0.37736 0.110472 Si
50 1 5.3654 8.11316 2.80266 -1.77719 4.9163 0.752069 0.489414 0.59118 -1.0263 Si
4 1 0.0423511 -0.0102013 -0.0345096 0.217174 0.720199 -1.99174 -0.821231 -0.45606 -0.126858 Si
49 1 9.4637 9.55068 1.36563 -0.258838 -2.51043 1.34502 1.04768 -0.246888 -0.410208 Si
14 1 2.80641 2.70585 5.28196 -0.429718 3.75007 -6.63972 -0.0579788 -0.226699 1.59079 Si
15 1 1.44093 1.49949 6.81167 0.754174 0.137716 0.209993 -0.928325 -0.606759 -0.388646 Si
3 1 4.05083 1.19715 4.02335 -3.55017 3.88209 2.81474 0.841675 0.921376 -0.280482 Si
47 1 6.86692 1.37967 6.76432 -0.852422 -2.07133 3.75475 0.165067 -0.265709 0.281178 Si
35 1 9.59629 1.37659 4.06878 -1.39852 -3.8638 -1.32367 -0.62852 0.0876821 0.0600646 Si
46 1 8.22186 2.7837 5.44473 -0.0775415 4.48533 4.61333 -0.0282222 -1.13065 -0.430544 Si
5 1 1.3881 4.01546 4.06248 -0.168887 -0.928776 0.200797 -0.30556 1.48148 -0.845794 Si
31 1 1.40346 6.83396 6.81301 0.843645 -0.511608 3.45917 -0.879206 0.690606 -0.735522 Si
9 1 4.07948 4.03374 6.81004 -1.12027 -2.92844 -1.70307 0.537737 0.431829 -0.189214 Si
19 1 4.09226 6.69578 4.05952 -2.85165 -1.60959 -5.06763 -0.46328 0.141119 0.43835 Si
37 1 6.854 4.04432 4.0602 8.11609 -1.81365 0.851423 -0.0455513 0.427476 0.166517 Si
60 1 5.54123 5.40711 5.43537 5.30193 -3.6301 -4.93036 -0.783228 -0.299338 0.390929 Si
63 1 6.9179 6.73869 6.81589 2.55605 2.79873 3.68713 -0.950657 0.407188 0.699489 Si
28 1 0.00362929 5.49144 5.42735 -3.24157 2.48853 -0.335068 -0.251068 -0.589949 0.2401 Si
41 1 9.49089 4.07773 6.85301 -4.49263 -2.52696 0.8933 1.34201 0.959995 -0.412267 Si
51 1 9.44405 6.91522 4.12919 -0.638138 3.43362 1.69771 0.953513 -0.588799 -0.193491 Si
21 1 1.29453 9.55434 4.05167 2.02837 -1.77157 0.194775 0.461144 0.62355 -0.217671 Si
30 1 2.68609 8.18708 5.27192 2.50827 -0.419457 5.54518 0.482553 -0.879946 1.45637 Si
44 1 5.46638 -0.0279924 5.47348 1.93626 4.20681 -2.50871 0.196795 -0.469501 -0.685232 Si
25 1 4.05423 9.46644 6.74536 0.697337 0.690466 -2.27109 0.121153 0.20945 -0.459056 Si
53 1 6.83837 9.44586 4.07278 -0.821007 -0.25789 -0.836006 -0.954053 1.17548 0.283721 Si
12 1 0.00812934 0.0253246 5.46688 -1.79268 3.09489 -5.15314 0.134053 0.359071 0.891452 Si
57 1 9.46968 9.59804 6.91473 3.29133 -3.24705 -4.85941 0.666461 0.226498 -0.884288 Si
62 1 8.12756 8.24887 5.53696 -2.69604 2.07098 2.83828 0.676003 -0.520557 -0.0118882 Si
10 1 -0.0138225 2.82493 8.25018 0.941544 1.19253 -0.140141 0.544184 -0.656055 -0.431861 Si
16 1 2.77318 0.0137982 8.07019 0.286731 0.516898 3.88483 -0.776404 -0.461717 0.256158 Si
11 1 4.05899 1.32273 9.44939 -0.980417 -2.58461 3.01584 0.731036 1.29961 0.671182 Si
42 1 5.56981 2.70737 8.16294 0.210924 -6.11767 -0.0531252 -1.36005 0.123623 0.145929 Si
38 1 8.19685 2.64353 0.0407574 -2.74513 3.18313 0.0479631 -0.918667 0.831837 0.631898 Si
43 1 9.53062 1.41534 9.58877 -0.230061 2.14825 3.11677 0.91654 -0.644544 -0.62344 Si
13 1 1.31815 4.21556 9.60068 1.88378 -1.07795 -1.43705 -0.120529 -0.825746 0.38335 Si
32 1 2.64282 5.43809 8.17557 0.166083 7.54081 2.63167 1.06756 -0.369821 -0.600955 Si
27 1 4.03091 6.74911 9.49214 1.46835 -4.42019 3.28133 0.247232 0.661111 0.468661 Si
45 1 6.83133 4.07426 9.61316 1.73106 0.327832 4.07516 0.288656 0.310904 -0.073371 Si
59 1 9.5267 6.83659 9.56283 -1.51058 -0.804065 -0.750778 0.302545 0.712667 0.145777 Si
64 1 8.27751 5.44057 8.26718 -1.10356 -1.66179 1.08383 -1.51061 -0.351784 -0.356556 Si
22 1 2.64583 8.13321 -0.0177472 -2.51212 0.561255 1.95112 0.922919 -0.450767 -0.354795 Si
29 1 1.43197 9.50769 9.48862 -7.32078 -0.182595 -1.62117 -0.629131 0.940641 -0.338424 Si
58 1 5.403 8.1319 8.11118 -0.183884 -1.91004 -1.59246 0.853002 -0.214001 0.649807 Si
61 1 6.7556 9.56581 9.58534 -0.870111 -1.6464 0.048296 0.143651 -0.85484 -1.44596 Si
54 1 8.11658 8.16586 -0.00265876 1.44211 4.50835 1.49316 -0.2562 0.0256275 0.603292 Si
48 1 8.16882 0.0691445 8.2647 0.797983 2.56183 3.6963 -0.61055 -0.044011 -0.230068 Si
26 1 -0.0225677 8.22712 8.17727 2.03084 -0.0934369 -1.60047 0.452504 -0.785473 -0.0139553 Si
ITEM: TIMESTEP
13200
ITEM: NUMBER OF ATOMS
64
ITEM: BOX BOUNDS pp pp pp
0.0000000000000000e+00 1.0887404739999999e+01
0.0000000000000000e+00 1.0887404739999999e+01
0.0000000000000000e+00 1.0887404739999999e+01
ITEM: ATOMS id type xu yu zu vx vy vz fx fy fz element
2 1 -0.02721 2.787 2.74401 0.237658 1.75672 -0.599994 -0.190819 -0.214449 -0.486664 Si
6 1 2.72366 2.67346 0.0390537 2.15481 3.58052 1.18957 -0.37543 0.478788 0.484514 Si
7 1 1.32422 1.35672 1.42122 -2.70296 -0.876334 -5.97031 0.280551 -0.0609331 0.0836004 Si
8 1 2.79897 0.0901809 2.84027 6.15306 3.55073 -0.906516 -0.476055 -0.463992 -0.932629 Si
34 1 5.47849 2.76242 2.7362 -1.20054 2.71522 3.532 -0.883266 0.0362888 -0.700635 Si
36 1 5.44637 -0.000225104 -0.00417695 0.730005 2.24823 2.05727 0.635805 0.0345028 -0.163418 Si
39 1 6.81078 1.43184 1.28853 -2.26826 0.549807 3.39309 0.32516 -0.546074 0.729343 Si
40 1 8.12023 0.0150719 2.78224 -0.871502 1.38842 0.342132 0.54212 0.447141 -0.802738 Si
20 1 0.0704504 5.38104 -0.0856177 -2.99187 -4.29938 5.25239 -0.362457 0.460309 0.83635 Si
23 1 1.4243 6.75797 1.36658 2.79051 -0.749792 0.926374 -0.555956 0.509409 -1.40797 Si
24 1 2.66141 5.52169 2.80573 -1.99998 1.8565 -1.75756 1.5169 -0.443139 -0.392085 Si
1 1 4.01247 4.1489 1.39282 -1.15114 -1.63573 3.34911 0.441319 -0.482781 0.241603 Si
52 1 5.40213 5.4341 -0.0363856 3.16778 1.93909 -2.42525 -0.0752874 0.385317 0.449326 Si
55 1 6.80588 6.76496 1.29889 -1.74015 -2.11422 -4.13251 0.337679 0.089316 0.600843 Si
33 1 9.48116 4.10825 1.27718 -1.02335 -3.5152 -3.48664 0.761016 0.132994 0.926356 Si
56 1 8.13274 5.41733 2.77292 5.09558 4.24381 -4.23172 0.0772221 0.0795605 -1.02909 Si
18 1 0.0709912 8.12615 2.66166 -0.284735 0.0868454 -3.10589 -0.053435 -0.0606588 1.19008 Si
17 1 4.15474 9.58886 1.45366 -1.88264 2.56804 1.79553 -0.965596 -0.0415557 -0.895439 Si
50 1 5.48954 8.1817 2.67526 0.141223 3.52325 -0.237126 -0.0638451 -0.456592 0.511499 Si
4 1 -0.0547443 -0.0162547 0.047141 1.74705 -2.78854 4.14022 0.860892 0.455093 -0.438466 Si
49 1 9.60002 9.52784 1.42681 2.58515 1.36865 0.458804 -1.4232 -0.242327 0.00820236 Si
14 1 2.67633 2.72147 5.52218 -3.35249 -2.16574 0.570067 0.404035 0.0313794 -1.31155 Si
15 1 1.3287 1.3188 6.75004 -4.52629 -2.00172 2.17713 -0.191414 -0.298653 0.838395 Si
3 1 4.13856 1.43788 4.165 5.58321 -11.2525 -2.11126 -0.24209 0.153688 0.0254014 Si
47 1 6.77554 1.35784 6.78802 -0.168141 1.12358 -7.23034 -0.742801 0.195972 0.42589 Si
35 1 9.53962 1.40138 4.13854 -1.75978 2.99972 4.55693 0.302655 -1.21866 -0.49457 Si
46 1 8.09254 2.65733 5.40197 1.2845 -2.27865 -6.95814 0.342871 1.0019 0.780883 Si
5 1 1.40793 4.08811 4.06175 -1.7937 2.92269 1.40932 -0.883556 -0.225244 1.26611 Si
31 1 1.38887 6.90514 6.87307 -2.15865 -1.68567 -2.52326 0.214186 -2.04513 -0.483447 Si
9 1 4.04286 4.08297 6.77374 2.07715 1.30284 6.03666 0.562616 0.141987 0.772857 Si
19 1 4.09898 6.8789 4.09405 -1.55703 0.241664 0.924585 0.171495 -0.522083 -0.36775 Si
37 1 6.76273 4.07478 4.11164 -2.44682 -0.138724 -3.53974 0.164344 0.488833 0.197861 Si
60 1 5.40031 5.4797 5.45414 -1.36459 5.52533 6.4311 0.120735 -0.267648 -0.326553 Si
63 1 6.77872 6.86978 6.73075 -1.67449 -3.72115 2.19509 -0.3721 -0.0735802 0.057218 Si
28 1 0.0459585 5.35806 5.57084 6.06476 1.07067 -2.07501 -0.416488 1.21717 -1.03523 Si
41 1 9.42231 4.04312 6.83195 -1.3827 -2.69267 -4.12314 0.24991 -0.311482 -0.71099 Si
51 1 9.52915 6.78273 4.07067 1.80129 -6.66059 -3.14523 0.813804 -0.241189 0.483599 Si
21 1 1.46094 9.47886 4.06506 -3.89762 -1.85625 0.000796941 -0.534977 -0.00157955 0.0981703 Si
30 1 2.76462 8.1437 5.4836 -3.65778 0.632032 -4.7535 -0.149535 0.72489 -0.169765 Si
44 1 5.41502 -0.0139653 5.46778 2.00219 -2.40057 0.165125 -0.102175 0.612945 0.198819 Si
25 1 4.06427 9.55295 6.80869 4.43076 -4.02806 3.9634 0.114167 -0.241438 0.837275 Si
53 1 6.71317 9.56703 4.09994 -0.0380086 3.22667 -0.0329746 0.62454 -0.217828 -0.647366 Si
12 1 0.0306313 -0.128466 5.44709 -3.5586 1.73271 1.922 -0.625551 0.571416 -0.490035 Si
57 1 9.47015 9.41551 6.7733 0.0108402 0.716066 9.38568 0.49429 0.475617 -0.0288816 Si
62 1 8.09215 8.18277 5.33786 -0.650284 0.849626 -5.11149 0.61383 -0.363327 0.327867 Si
10 1 -0.0355369 2.67519 8.106 0.232319 0.446649 -1.64202 0.392981 0.195266 0.383466 Si
16 1 2.65417 -0.00317111 8.19537 -0.473962 4.72518 -0.346285 0.537927 0.290216 -0.319749 Si
11 1 4.05262 1.36008 9.57285 -0.974601 0.946623 2.79154 0.00600021 -0.486183 -0.479409 Si
42 1 5.38374 2.73846 8.21387 2.96405 5.89697 1.60183 0.445023 -0.0860708 -0.751271 Si
38 1 8.2212 2.73666 -0.0883234 1.84052 0.0276914 -2.48684 -0.830175 -0.0222282 -0.430722 Si
43 1 9.54895 1.29864 9.45889 0.0956312 -2.69478 1.89899 -0.43456 0.194708 0.250474 Si
13 1 1.39 3.99514 9.51786 -3.14322 -3.20038 4.67133 0.16548 -0.0232605 -0.809198 Si
32 1 2.76631 5.4343 8.17469 -4.39489 -0.687632 2.53556 -0.56367 0.513758 0.334538 Si
27 1 4.12259 6.87301 9.51922 2.69064 6.30496 -1.66386 -0.0117153 -0.661797 -0.347827 Si
45 1 6.77686 4.16019 9.49144 -3.88799 -1.77865 -3.4886 0.248781 -0.934644 -0.0435729 Si
59 1 9.5753 6.70384 9.42238 2.91336 -2.0283 -4.98593 -0.602554 0.0169914 0.767014 Si
64 1 8.06478 5.48782 8.05242 1.36837 1.29267 0.159339 0.681937 -0.216227 0.792623 Si
22 1 2.79613 8.18747 0.00437099 4.27665 2.8112 2.73361 -0.70624 0.676984 0.60121 Si
29 1 1.30005 9.53848 9.53048 1.79266 -6.80799 6.79046 0.395334 -0.574528 0.720795 Si
58 1 5.5085 8.20798 8.17416 -2.9808 -1.37126 0.0369552 -0.473833 0.28539 -0.349247 Si
61 1 6.9052 9.53959 9.51251 -4.08501 0.749344 1.15373 -0.153156 -0.296439 0.760552 Si
54 1 8.30354 8.08036 0.0183325 2.27106 -2.54214 -0.331522 -0.523358 0.672128 -0.561915 Si
48 1 8.15482 0.00194478 8.06047 2.50186 -2.53585 -5.40578 0.46987 -0.347654 0.589751 Si
26 1 -0.00856489 8.11599 8.18468 1.03993 3.58773 -1.7393 -0.330179 1.11942 -0.164294 Si
ITEM: TIMESTEP
13300
ITEM: NUMBER OF ATOMS
64
ITEM: BOX BOUNDS pp pp pp
0.0000000000000000e+00 1.0887404739999999e+01
0.0000000000000000e+00 1.0887404739999999e+01
0.0000000000000000e+00 1.0887404739999999e+01
ITEM: ATOMS id type xu yu zu vx vy vz fx fy fz element
2 1 0.0106152 2.69885 2.66339 -0.265877 -1.95828 -1.6523 0.302934 -0.367925 0.286366 Si
6 1 2.69936 2.73365 -0.0325857 -0.774138 0.0182441 2.86581 0.630286 0.623223 -0.117661 Si
7 1 1.4371 1.31078 1.28911 1.9785 0.0188251 3.33318 -0.904722 0.194294 0.528998 Si
8 1 2.72022 -0.0623372 2.73175 -0.651535 2.14539 1.16957 0.23624 0.771311 0.305078 Si
34 1 5.33908 2.66135 2.73425 1.38946 -2.57873 -2.0265 1.85036 1.12661 0.134884 Si
36 1 5.32867 -0.0200644 0.0513008 -3.80849 -5.09603 -0.430898 1.18889 0.364983 -0.898674 Si
39 1 6.79322 1.30271 1.42061 1.69238 -2.47238 -0.903645 -0.26938 0.0183064 -0.260758 Si
40 1 8.18248 -0.132887 2.72837 0.541282 3.19314 5.4196 -0.3461 1.13401 -0.31728 Si
20 1 -0.0362232 5.52459 0.0416712 3.58969 2.2542 -5.62002 0.31497 -0.551092 -0.44631 Si
23 1 1.31542 6.80834 1.42656 1.25591 1.10654 -1.71438 0.671473 -0.548269 0.577675 Si
24 1 2.82726 5.39106 2.75767 0.685734 1.42305 -0.895579 -1.23304 0.875678 -0.830702 Si
1 1 4.11716 4.08516 1.3333 -1.55241 -0.583427 -1.77206 -0.334943 -0.709379 -0.0895744 Si
52 1 5.5212 5.35862 -0.0143524 -5.86437 -4.55259 0.642266 -0.206826 1.18306 0.0614996 Si
55 1 6.80565 6.85386 1.38082 -0.385787 0.378223 1.21469 -0.382614 -0.453895 -0.717482 Si
33 1 9.54687 4.17065 1.44071 -3.51876 4.15457 0.390092 -0.0634406 -1.21142 -1.3575 Si
56 1 8.09272 5.39719 2.6606 0.433982 -2.20935 10.32 0.465646 1.2388 1.85027 Si
18 1 -0.0629116 8.20518 2.70753 0.614941 -1.95986 1.16914 0.38673 0.560913 -0.374319 Si
17 1 4.05744 9.46157 1.37144 -2.15336 -6.56516 1.60799 -0.137989 -0.369732 0.612004 Si
50 1 5.45252 8.14212 2.79622 -5.3562 -2.76255 -1.7228 -0.0934488 0.55896 -0.778006 Si
4 1 0.0297558 0.0528679 -0.134441 1.71069 1.42485 -4.83711 -0.0717247 -0.158044 1.41172 Si
49 1 9.53622 9.59234 1.23272 -4.6618 2.56198 3.46118 0.121802 -0.663402 0.37101 Si
14 1 2.70287 2.68234 5.44676 6.25852 1.35024 -2.43809 -0.000518319 0.986281 0.638119 Si
15 1 1.35145 1.40028 6.89548 -0.778814 1.41038 -4.0083 0.872968 -0.591209 -0.490494 Si
3 1 4.07191 1.40678 4.13054 1.22948 1.56057 -0.551724 -0.739597 -1.69759 -0.734842 Si
47 1 6.78035 1.37614 6.74879 -3.43944 0.127692 3.92136 0.556276 -0.76279 0.851926 Si
35 1 9.46184 1.3412 4.02869 4.11671 -4.62101 -0.789708 0.513586 0.501869 0.907413 Si
46 1 8.14326 2.75003 5.51598 0.623646 -3.26483 4.10374 0.936998 -0.106142 -0.981049 Si
5 1 1.40853 4.0518 4.03133 -3.0995 1.57207 -2.92944 -0.136102 -0.484498 0.0289031 Si
31 1 1.29494 6.79252 6.76172 -1.62106 1.01085 2.26324 0.392845 0.0735166 0.410555 Si
9 1 4.13888 4.11374 6.73677 1.45867 -2.56808 -3.32475 -0.709819 -0.79971 0.362531 Si
19 1 4.0671 6.83561 4.0822 3.57135 -2.2112 1.37248 0.000123749 -0.266628 0.604518 Si
37 1 6.79248 4.09006 4.15975 -0.743942 -3.29105 1.07256 -0.593514 -0.540731 -1.32023 Si
60 1 5.43401 5.49354 5.42283 2.49662 -0.53882 -5.0479 0.396194 0.208906 0.240821 Si
63 1 6.77475 6.7695 6.89889 -2.11239 2.90214 0.837711 1.0962 -0.736172 -0.969914 Si
28 1 0.0386033 5.42831 5.3173 -5.11535 -0.681665 5.68406 -0.117172 -0.120003 0.83335 Si
41 1 9.61642 4.09969 6.80257 3.88254 5.3442 2.20761 -0.407988 -0.227651 0.517466 Si
51 1 9.5666 6.81336 4.04581 -0.715688 -0.888307 6.53567 -1.853 -0.209367 0.268806 Si
21 1 1.29412 9.55801 4.10647 1.64559 5.68179 -0.641547 0.282197 -0.215098 0.522657 Si
30 1 2.7166 8.16275 5.48877 5.03893 -1.48806 2.61747 -0.403281 0.463575 -0.820792 Si
44 1 5.48146 0.013359 5.35863 -1.59715 2.54734 4.2903 -0.284341 0.450223 0.671435 Si
25 1 4.17994 9.53571 6.72221 0.328848 0.929874 -4.70678 -0.70534 -0.362226 0.634023 Si
53 1 6.80855 9.51038 4.12923 -3.43125 1.38724 0.248511 0.851957 -1.07541 0.189046 Si
12 1 -0.011404 0.0956876 5.53491 1.64675 -5.1587 0.0197105 0.393219 0.0554239 -1.62449 Si
57 1 9.64956 9.57811 6.81265 -1.62938 2.44549 -8.1392 -1.61117 -0.306784 0.741456 Si
62 1 8.21027 8.15646 5.61021 0.989511 2.45201 4.70326 -0.105194 -0.0859264 -1.58559 Si
10 1 0.0262986 2.66621 8.25839 -3.02548 4.42697 2.14801 -0.42741 1.49937 -0.881781 Si
16 1 2.79808 -0.0216715 8.13495 -1.16286 -8.68194 -1.61321 -0.179685 0.300066 0.283627 Si
11 1 4.12593 1.44441 9.49747 -0.0818354 2.33148 -4.65563 -0.627901 -0.975805 0.212414 Si
42 1 5.489 2.73161 8.13086 6.43439 -3.33526 -0.339821 0.20674 0.760861 0.0484025 Si
38 1 8.14675 2.76437 0.0707273 1.74619 1.18469 4.02848 0.979672 -0.811211 0.360779 Si
43 1 9.52521 1.38545 9.53373 1.85357 4.08813 -3.93461 -1.00787 0.27204 0.365009 Si
13 1 1.33845 4.12626 9.50711 3.04506 4.14683 0.0580971 0.0421886 0.197516 0.606407 Si
32 1 2.72066 5.42447 8.08166 2.27086 1.00372 -1.95434 -0.316786 0.013169 0.26373 Si
27 1 4.06114 6.70885 9.52668 -5.65499 0.835418 -1.17035 -0.0160162 0.478399 0.334096 Si
45 1 6.9186 4.06494 9.52496 1.41228 0.108027 2.25408 -1.52638 -0.698313 0.104712 Si
59 1 9.49748 6.87591 9.56846 -0.859587 -0.157572 4.20828 -0.328749 -0.431147 -0.182654 Si
64 1 8.18087 5.40919 8.24423 -2.61695 -1.83826 -2.52903 1.09149 0.839683 -1.13955 Si
22 1 2.64913 8.10861 0.0561129 -0.939754 -2.32017 -3.64893 0.526251 0.280858 -1.12637 Si
29 1 1.33464 9.54773 9.50588 3.84432 2.23084 -4.52839 1.12206 -0.762986 -0.35936 Si
58 1 5.41436 8.06169 8.1128 2.84146 1.63301 -2.08152 -0.876647 1.0694 0.880608 Si
61 1 6.68427 9.5311 9.43216 1.97157 -4.01335 -3.60398 0.397057 0.44016 0.618544 Si
54 1 8.08317 8.24593 -0.0527343 -1.30219 1.54792 -0.105007 0.122487 -0.125991 0.230842 Si
48 1 8.20582 0.00778243 8.15859 -5.08896 5.18695 -0.261938 -0.779123 0.0968588 -0.38002 Si
26 1 -0.0394323 8.17349 8.18017 1.40985 -2.32825 0.411322 0.847978 -0.211787 -0.0862898 Si
ITEM: TIMESTEP
13400
ITEM: NUMBER OF ATOMS
64
ITEM: BOX BOUNDS pp pp pp
0.0000000000000000e+00 1.0887404739999999e+01
0.0000000000000000e+00 1.0887404739999999e+01
0.0000000000000000e+00 1.0887404739999999e+01
ITEM: ATOMS id type xu yu zu vx vy vz fx fy fz element
2 1 0.0201741 2.71741 2.77376 -3.37992 -4.25327 0.970377 -0.0670021 0.746344 0.223033 Si
6 1 2.67686 2.72817 0.00834105 -6.93372 0.840342 -1.3807 0.138979 -0.490251 -0.226481 Si
7 1 1.30309 1.40107 1.37139 4.84619 -0.377624 3.65477 0.575242 -0.426795 0.134355 Si
8 1 2.72645 0.0101716 2.62595 -1.49025 -3.81121 3.37686 -0.623766 -0.296173 0.434364 Si
34 1 5.47246 2.76633 2.70783 -5.37212 -0.950263 0.126319 -0.424238 -0.874995 -0.243753 Si
36 1 5.58942 -0.0117472 -0.0275809 4.13334 1.08256 2.80392 -1.32184 0.581849 0.669546 Si
39 1 6.91921 1.47752 1.3294 2.2068 9.37152 0.412578 -1.00143 -0.894168 -0.14041 Si
40 1 8.18011 0.0114575 2.64636 0.0319083 -1.78156 -0.409613 -0.0959394 -0.000617122 0.943878 Si
20 1 -0.0162973 5.35734 -0.013874 3.28272 -1.93009 -1.11314 0.185854 0.881019 -0.445247 Si
23 1 1.3725 6.76567 1.27867 3.49723 -1.12724 -6.32037 -0.647153 0.917052 0.0491665 Si
24 1 2.6724 5.44806 2.65257 5.95944 -2.40875 1.3428 0.33501 -0.487889 0.639152 Si
1 1 4.02919 4.04518 1.37647 2.10882 2.44499 3.90666 0.428388 0.539468 -0.261096 Si
52 1 5.43839 5.48338 0.0989853 1.12248 1.17427 -0.277779 -0.0154638 -0.526294 -0.390986 Si
55 1 6.82347 6.82822 1.43875 2.53861 1.12389 0.335824 -0.198426 -0.327259 -0.202497 Si
33 1 9.55416 3.99686 1.27451 6.29138 0.179501 -0.254619 -0.395488 0.583922 1.42341 Si
56 1 8.23727 5.48142 2.70579 -4.96687 -1.69514 -6.60762 -0.244452 -1.06872 -0.865616 Si
18 1 0.0139238 8.15489 2.72177 1.07973 -1.36718 3.25635 0.306608 -0.446957 0.369391 Si
17 1 4.05839 9.51473 1.31685 -4.8443 4.36783 -0.789905 0.744952 0.55241 -0.529897 Si
50 1 5.38088 8.15565 2.70907 5.69729 -0.41699 3.63695 0.510843 0.294474 -0.0693811 Si
4 1 -0.0658804 -0.0442361 0.161135 1.38412 1.12167 1.30209 0.276691 0.663775 -1.64699 Si
49 1 9.49427 9.45326 1.39818 2.78802 0.727719 -5.31871 0.504374 0.37896 0.728483 Si
14 1 2.76428 2.73293 5.36166 -3.73874 -5.55304 2.79436 0.0454983 -0.209478 0.737369 Si
15 1 1.38055 1.36668 6.6916 -1.24739 -4.35845 4.54408 -0.497609 0.447231 0.5004 Si
3 1 4.04264 1.3061 4.00267 0.145099 5.73602 -1.25026 0.914266 1.15409 0.11054 Si
47 1 6.7722 1.25593 6.9278 2.65528 -0.692275 -1.5955 0.648666 1.13078 -1.18107 Si
35 1 9.57653 1.29331 4.08634 -4.85893 4.98493 -1.53715 -1.28094 1.15772 -0.533156 Si
46 1 8.18702 2.69588 5.49994 -3.37936 1.22264 2.01625 -0.359574 0.168729 -0.0812021 Si
5 1 1.38831 4.16731 4.17465 1.0226 0.198344 -3.39686 -0.948963 -0.18378 -1.01389 Si
31 1 1.38352 6.81218 6.82632 1.42502 1.15182 -2.81649 -0.00837897 0.494686 0.0946183 Si
9 1 4.09611 4.02293 6.84178 3.43597 5.95743 1.85159 -0.670801 0.782236 -0.436015 Si
19 1 4.12718 6.68789 3.99333 -3.87034 6.29429 -2.09057 -0.584665 0.564484 0.731179 Si
37 1 6.83134 4.13421 3.9824 -2.63307 2.84461 4.526 0.670681 -0.908674 1.53451 Si
60 1 5.44703 5.35827 5.42332 -2.92147 -0.486052 1.78461 0.0728788 0.319648 0.0225227 Si
63 1 6.81882 6.7717 6.73269 2.23794 2.59964 -2.95885 -0.754329 0.722224 0.845003 Si
28 1 -0.0551004 5.52527 5.51634 -0.913474 -0.406944 -1.96443 0.137916 -0.513033 -0.256773 Si
41 1 9.53944 4.14039 6.9391 -2.91844 -1.38382 -2.30873 -0.550359 -0.401545 -1.54082 Si
51 1 9.44367 6.8249 4.09317 1.29496 2.58764 0.208464 1.74413 0.126489 -0.19499 Si
21 1 1.42159 9.54391 4.09482 5.24968 -0.780276 -0.941001 -0.0864827 -0.57324 -1.03507 Si
30 1 2.7795 8.09696 5.38 -2.15025 3.41359 2.4713 0.169244 0.334396 0.651382 Si
44 1 5.38491 0.0524442 5.46256 0.862043 -1.25561 -1.732 0.52376 -0.91046 -0.414077 Si
25 1 4.05905 9.56516 6.83421 0.251335 3.02477 0.615786 -0.457386 -0.356354 -0.61526 Si
53 1 6.76806 9.55368 4.02296 1.53389 -2.1323 4.51567 -0.448251 0.455585 0.22295 Si
12 1 0.0156197 0.0022854 5.35232 -1.3291 3.09387 -2.84772 0.280607 -0.748131 1.54558 Si
57 1 9.51707 9.57676 6.82371 1.3428 -1.98131 0.515146 0.0659603 -0.765949 -1.07967 Si
62 1 8.11117 8.16925 5.35059 0.177044 -5.55769 -2.91228 0.197424 0.974844 1.36907 Si
10 1 0.00905803 2.73248 8.13865 1.05193 -1.05857 2.67953 0.271408 -1.03001 0.259289 Si
16 1 2.628 0.0181551 8.14907 3.33022 -1.60254 -0.745853 0.315427 -0.0995599 0.123206 Si
11 1 4.02992 1.34029 9.52364 -0.121868 2.95978 -0.0481407 0.634352 -0.189901 0.299932 Si
42 1 5.42514 2.69617 8.16306 -4.92616 -1.77969 -4.89056 -0.386949 -0.619611 0.528195 Si
38 1 8.20517 2.72356 -0.126836 -2.67094 -2.55807 -2.18688 -0.936542 1.02918 0.92977 Si
43 1 9.54917 1.38781 9.59639 -9.10654 -2.36917 -1.27982 1.01603 -1.16178 -1.12616 Si
13 1 1.32888 4.03749 9.52131 -2.25265 -1.31822 -0.963363 0.408117 0.408465 -0.0691985 Si
32 1 2.70383 5.45673 8.2332 -0.116692 -3.34171 4.04823 1.04795 0.015359 -0.0991596 Si
27 1 4.17136 6.89824 9.59553 -3.22212 2.02467 3.21489 -1.26884 -0.606766 -0.626322 Si
45 1 6.69535 4.06315 9.52228 5.94928 0.286272 -3.07875 1.05063 0.887475 0.216906 Si
59 1 9.50898 6.78871 9.54605 0.38053 -1.88771 -2.3116 0.724972 0.0936954 0.251461 Si
64 1 8.14939 5.48154 8.20943 2.78207 -2.62536 -1.10613 -0.943557 -0.406792 0.077634 Si
22 1 2.65871 8.26554 -0.0820249 -1.85958 -1.89132 3.69752 0.530151 -1.19101 0.746728 Si
29 1 1.25848 9.56232 9.53632 0.362869 -2.44001 3.87276 0.0832379 0.774749 0.0380657 Si
58 1 5.44728 8.25884 8.18266 -1.43707 -2.0018 3.5157 1.33405 -0.834787 -0.218332 Si
61 1 6.95925 9.47213 9.619 4.32826 4.86197 -5.6284 -0.813578 -0.174327 -0.676912 Si
54 1 8.23393 8.09259 0.115744 -1.73167 -0.509094 -4.31027 -0.565685 -0.124024 -0.953946 Si
48 1 8.21053 -0.0182579 8.2501 0.5001 -4.88952 0.431104 0.181054 0.179337 0.109419 Si
26 1 -0.00605477 8.19273 8.18517 -2.89397 -0.696705 4.94562 -0.477263 -0.511348 -0.38612 Si
ITEM: TIMESTEP
13500
ITEM: NUMBER OF ATOMS
64
ITEM: BOX BOUNDS pp pp pp
0.0000000000000000e+00 1.0887404739999999e+01
0.0000000000000000e+00 1.0887404739999999e+01
0.0000000000000000e+00 1.0887404739999999e+01
ITEM: ATOMS id type xu yu zu vx vy vz fx fy fz element
2 1 0.0478834 2.73435 2.6655 3.83274 0.597133 -3.72578 -0.980897 -0.427421 -0.255646 Si
6 1 2.76886 2.79211 0.0360363 2.70421 1.3129 1.82624 -0.292753 -0.980909 0.00867942 Si
7 1 1.37757 1.31814 1.33426 -3.74353 1.4463 -3.82459 0.0450153 0.917008 -0.399925 Si
8 1 2.6742 0.105076 2.83189 -0.468864 0.0203434 -3.49409 0.358751 -1.47543 -0.829111 Si
34 1 5.38266 2.71733 2.77409 5.03709 0.727851 0.601338 0.0862461 -0.102018 0.0335357 Si
36 1 5.43705 0.0232798 -0.00885025 -0.407041 -0.927652 -0.311136 -0.48115 -0.733428 0.451822 Si
39 1 6.72278 1.34192 1.43034 -2.71675 -2.26722 2.49605 0.582326 0.30864 -0.53209 Si
40 1 8.17697 0.0015509 2.6976 -6.13445 0.788557 0.443557 0.0472481 -0.046827 0.116764 Si
20 1 -0.0202083 5.46782 -0.0254559 -5.5182 0.945837 5.37873 -0.0295781 -0.448982 1.62348 Si
23 1 1.38758 6.83221 1.42695 -6.6166 0.425137 4.55027 -0.398756 -0.306062 -0.423157 Si
24 1 2.77472 5.48351 2.79691 -7.93065 3.66542 -4.98785 -0.499576 -0.277674 -0.0826186 Si
1 1 4.10736 4.11499 1.41758 0.324517 -4.20366 -3.03072 0.207636 0.429027 -0.326652 Si
52 1 5.50873 5.43011 -0.0200911 -0.315638 -1.21101 2.76075 -0.829073 -0.236626 -0.555156 Si
55 1 6.83244 6.86138 1.23155 -2.7133 3.90303 -2.77169 -0.261985 -0.400874 0.874481 Si
33 1 9.38784 4.05163 1.36364 1.68666 -1.98015 -3.16679 1.79287 0.633383 -0.312865 Si
56 1 8.14956 5.55331 2.65751 3.50858 -1.22217 1.05054 -0.759246 -1.1068 0.3043 Si
18 1 -0.0439889 8.22195 2.73133 6.33962 0.0277762 -2.02184 0.239575 -0.484345 -0.46564 Si
17 1 4.0895 9.52773 1.5 1.25657 -1.77087 0.685557 0.236794 0.822107 -0.675493 Si
50 1 5.52904 8.11901 2.71112 -6.55216 1.74314 1.38435 -0.527276 0.325775 0.609511 Si
4 1 0.0388285 -0.0111451 -0.101418 -0.147083 1.56321 -0.753362 0.0505448 -0.793644 1.0786 Si
49 1 9.4888 9.53001 1.29284 0.612155 -4.60189 -0.109435 0.49521 0.313508 -0.11701 Si
14 1 2.73999 2.7042 5.56159 3.96703 2.96354 -4.60339 -0.717886 -0.569053 -1.23867 Si
15 1 1.35596 1.33531 6.89415 2.07164 5.58441 1.36509 -0.0670135 0.197053 -0.802429 Si
3 1 4.08767 1.3244 4.16515 0.507021 -8.37754 -3.75425 0.0138343 0.807861 0.38925 Si
47 1 6.79543 1.44102 6.77146 3.74313 -1.2213 -2.65904 -0.222341 -0.333452 -0.43383 Si
35 1 9.56588 1.3591 4.04577 1.21035 2.24379 1.59473 0.376912 -0.357257 0.226632 Si
46 1 8.13348 2.7548 5.28413 1.86882 -0.0423329 -0.639077 -0.0670272 -0.220705 0.845932 Si
5 1 1.3845 4.00435 4.05632 1.49048 -0.0430522 2.26844 0.902105 0.367836 0.32087 Si
31 1 1.35386 6.74734 6.75083 5.02026 -0.547094 2.3399 0.144649 0.0972464 -0.189492 Si
9 1 4.02424 4.0972 6.81367 -3.31455 -0.464278 0.675742 0.88833 0.522525 0.188713 Si
19 1 4.07238 6.88116 4.16986 3.335 -3.67239 1.97903 0.02618 0.437029 -1.32482 Si
37 1 6.71196 4.15651 4.04373 4.33874 -5.44207 -4.35837 0.26261 0.870155 0.0735994 Si
60 1 5.34021 5.55894 5.48998 2.16437 -2.43351 -1.0442 0.986391 -1.58839 0.04629 Si
63 1 6.82638 6.77968 6.80582 0.778268 -2.45108 0.683886 0.379519 0.540676 -0.216971 Si
28 1 0.0112982 5.36526 5.33344 -0.757737 -0.879448 -1.35212 0.293565 0.141765 0.90512 Si
41 1 9.52549 4.03117 6.69456 -0.358894 -3.43202 4.00148 0.133806 0.110238 0.81342 Si
51 1 9.57544 6.7353 4.04423 -3.58422 4.57435 -4.16802 -0.414824 1.18755 0.042066 Si
21 1 1.30945 9.55682 4.08401 -1.156 -1.51541 0.484382 0.0156163 0.348975 0.110743 Si
30 1 2.68118 8.2565 5.40999 0.62993 -2.65765 -8.01436 -0.435194 -1.10154 0.629235 Si
44 1 5.45563 -0.0710276 5.45656 -0.378957 1.03071 -0.657374 0.292709 0.213512 0.224491 Si
25 1 4.00406 9.50961 6.81824 -0.0952565 -2.56763 -2.13536 0.836081 0.707105 0.342895 Si
53 1 6.89436 9.48068 4.07653 0.224984 2.2572 -1.1505 -0.640903 0.360624 -0.0337622 Si
12 1 0.018876 -0.0459545 5.54423 -1.79909 -3.29432 0.780058 -1.08299 0.48824 -0.536351 Si
57 1 9.41481 9.47988 6.84144 -3.65878 4.91837 5.24318 1.58015 0.658922 0.450665 Si
62 1 8.22872 8.14696 5.42651 -2.07811 5.3252 5.30227 -0.519776 -1.19076 -0.170881 Si
10 1 0.00540485 2.67496 8.17515 -2.74977 -1.34179 1.18544 -0.613578 0.805967 -0.028529 Si
16 1 2.68775 0.0447747 8.2094 -4.69967 1.96445 1.29621 1.09668 -0.794897 0.213587 Si
11 1 4.10369 1.41113 9.50225 -1.38266 -3.1308 3.8274 -0.000763392 0.321956 0.269672 Si
42 1 5.45724 2.82499 8.14458 4.84997 0.588014 1.47545 -0.329603 -1.05285 -0.202129 Si
38 1 8.1218 2.66359 0.0114034 5.43297 -1.55576 -0.683826 0.146259 -0.848374 -0.179782 Si
43 1 9.53032 1.28879 9.48143 8.00945 2.36155 2.66978 -0.434346 1.00095 0.454662 Si
13 1 1.33355 4.05926 9.58504 -1.87134 3.86673 -0.0616749 -0.164808 -0.180919 -0.471694 Si
32 1 2.66753 5.35279 8.1783 -2.91983 1.31943 0.752579 -0.377016 0.876142 -0.138343 Si
27 1 4.0143 6.75823 9.48581 8.41955 -3.16366 -1.38051 1.759 0.153872 0.0102329 Si
45 1 6.87046 4.02297 9.49961 -6.83134 3.22132 1.88241 -0.146845 1.19905 0.248733 Si
59 1 9.55117 6.82855 9.5509 0.282562 -0.349725 4.3276 -0.0986167 0.0593905 -0.973695 Si
64 1 8.22392 5.44454 8.15328 1.8123 5.48994 4.20299 0.0682933 -0.508499 -0.163209 Si
22 1 2.83634 8.12474 0.0771155 -3.43194 0.604175 -0.728344 -0.530013 0.0799251 0.310662 Si
29 1 1.51272 9.46005 9.594 -1.69098 3.23176 -2.49693 -1.28724 0.137333 -0.758638 Si
58 1 5.50412 8.19109 8.12071 -0.582678 -1.38569 -4.7005 -1.34653 -0.719338 0.541358 Si
61 1 6.81336 9.51357 9.52515 -1.48397 -0.299618 4.73292 -0.729372 1.02056 -0.39879 Si
54 1 8.13258 8.18982 -0.0810983 1.82292 -5.33713 0.12713 1.03863 0.011256 0.374049 Si
48 1 8.09215 0.04745 8.1602 3.00548 2.26439 0.425737 0.166033 -0.558778 -0.316 Si
26 1 0.0594737 8.14052 8.14858 -2.19731 2.81394 -2.0161 -0.262586 0.372694 0.419323 Si
ITEM: TIMESTEP
13600
ITEM: NUMBER OF ATOMS
64
ITEM: BOX BOUNDS pp pp pp
0.0000000000000000e+00 1.0887404739999999e+01
0.0000000000000000e+00 1.0887404739999999e+01
0.0000000000000000e+00 1.0887404739999999e+01
ITEM: ATOMS id type xu yu zu vx vy vz fx fy fz element
2 1 -0.0458055 2.77344 2.76095 -0.272999 3.18309 1.90783 0.657194 -0.972503 0.221784 Si
6 1 2.70267 2.59125 -0.0550026 0.433043 0.00719481 -1.44981 0.348769 1.37211 0.343059 Si
7 1 1.35891 1.34584 1.39665 -0.494733 -3.0977 1.22231 -0.472833 -0.0768847 0.125909 Si
8 1 2.76041 -0.0841145 2.69143 1.2099 4.86227 0.429732 -0.0486906 1.18066 0.491701 Si
34 1 5.50006 2.6608 2.64215 -2.08161 2.41913 3.65815 0.0396899 0.675349 0.336791 Si
36 1 5.40609 -0.0312257 -0.0475985 -0.802572 2.74066 -1.13736 0.620852 0.0208101 -0.735385 Si
39 1 6.80662 1.28751 1.27042 -2.79948 -0.614697 -4.09384 0.384542 0.296272 0.66845 Si
40 1 8.13944 0.0153838 2.76978 4.73345 -2.11231 -1.37834 -0.152845 -0.771852 -0.201993 Si
20 1 0.0312149 5.51246 -0.0456524 2.32251 2.51926 -5.84601 -0.409761 -0.781085 -0.908255 Si
23 1 1.25995 6.78108 1.38852 -0.546466 -4.60584 0.904242 1.79576 0.354519 -0.00451669 Si
24 1 2.72191 5.39169 2.73825 3.30966 0.842067 0.0190195 -0.182756 0.111493 -0.944035 Si
1 1 4.14055 4.03419 1.2972 -1.20427 3.5196 3.44568 -1.22549 -0.2365 0.259532 Si
52 1 5.40772 5.47851 -0.00959654 0.200184 3.6265 -0.743072 0.321798 -0.180283 0.63649 Si
55 1 6.81082 6.7018 1.44456 -3.26768 -6.62629 0.826216 -0.282497 0.772297 -0.37637 Si
33 1 9.62902 4.21223 1.43267 -3.22693 1.31515 -0.792939 -1.37108 -0.790552 -0.703592 Si
56 1 8.14295 5.39242 2.85147 -0.885312 -0.424814 -2.47712 0.887549 0.568638 0.0441969 Si
18 1 -0.00833357 8.12587 2.77192 -2.14726 3.31084 -2.95819 -0.370931 0.506769 -0.344548 Si
17 1 4.1165 9.52885 1.30505 4.84769 1.6003 4.84943 -0.679866 -1.23064 0.101994 Si
50 1 5.4151 8.10708 2.72089 3.59583 1.21502 -2.41676 -0.439996 -0.00245894 -0.396077 Si
4 1 -0.0438245 0.0604594 -0.018305 -3.69431 1.36669 0.94784 -0.381522 0.126777 0.530546 Si
49 1 9.52964 9.50434 1.39433 4.16829 1.9233 3.18853 0.0543235 0.724891 0.260772 Si
14 1 2.71379 2.79868 5.3844 1.28179 -0.230887 3.01926 0.0669976 -0.121846 0.454126 Si
15 1 1.39897 1.42901 6.7496 -2.10697 -2.70901 -3.8798 0.325068 -0.344705 0.252582 Si
3 1 4.05677 1.49486 4.04145 -0.28615 0.981043 4.37761 0.189935 -1.91937 -0.321425 Si
47 1 6.79823 1.30354 6.88139 -1.54439 -2.79982 0.0589433 0.118677 0.367057 0.277619 Si
35 1 9.52668 1.33298 4.16575 1.48508 -0.903705 1.90768 -0.0587153 0.664161 -0.31552 Si
46 1 8.18369 2.68981 5.61184 -3.43648 2.33213 -2.25026 0.310555 -0.0170301 -0.763244 Si
5 1 1.31538 4.11568 4.11002 2.77626 -3.05647 -3.88342 -0.0375444 0.364658 -0.0475143 Si
31 1 1.42349 6.84678 6.81428 -2.67311 5.01113 1.93354 -0.661854 0.308288 1.07153 Si
9 1 4.16221 4.04933 6.72694 -0.213509 -1.46396 -4.53641 -0.0816907 -0.46093 -0.226203 Si
19 1 4.0479 6.76781 4.09055 -1.68517 -0.574285 -1.30418 0.875183 -0.627844 0.164917 Si
37 1 6.81582 3.97226 4.15849 -5.19926 1.45599 3.67354 0.474692 -0.461887 -0.626255 Si
60 1 5.51807 5.36104 5.42454 -1.15859 4.29673 -0.592622 -0.801639 1.35136 -0.157117 Si
63 1 6.75438 6.84192 6.79807 -1.51991 -1.91605 0.373321 0.246895 -0.60757 0.120305 Si
28 1 0.0451353 5.5222 5.53232 2.16596 -1.95418 4.50821 -0.75399 -0.445599 -0.563009 Si
41 1 9.57825 4.11103 6.89961 -3.67365 -0.877975 2.58073 -0.573685 0.585886 -0.5687 Si
51 1 9.51622 6.89423 4.17841 3.03787 -0.934923 -0.245643 -0.211596 -1.49783 -0.279509 Si
21 1 1.42487 9.42487 4.05507 -0.310631 -2.41077 -1.62807 -0.116943 0.819494 0.372279 Si
30 1 2.75917 8.12596 5.46372 0.171303 3.47994 2.77747 0.151917 0.462854 -0.367847 Si
44 1 5.44696 0.0828853 5.42514 1.57936 -0.939017 0.239601 -0.855892 -0.296456 -0.10026 Si
25 1 4.11395 9.52132 6.7718 0.0977711 1.53105 -0.723827 0.550103 -0.245892 -0.116212 Si
53 1 6.66863 9.49561 4.08166 -3.18373 -3.90649 0.979525 1.36414 0.630389 -0.0363167 Si
12 1 0.117131 0.00836248 5.41721 2.98245 -1.71642 1.69031 -0.152613 -0.282622 -0.469205 Si
57 1 9.58483 9.56528 6.69894 -0.847568 -5.66481 -1.10745 -0.784937 -0.0157571 0.715592 Si
62 1 8.106 8.19645 5.45412 -2.28192 2.89144 -2.62006 -0.0943589 0.603013 0.0557507 Si
10 1 0.0642673 2.76929 8.15218 0.35705 -0.493002 -2.01375 -0.059397 -0.619567 -0.123579 Si
16 1 2.75498 -0.0314764 8.05378 1.20017 1.9583 -0.856874 -1.09151 0.584792 0.187762 Si
11 1 4.02854 1.2886 9.45173 1.70303 -2.2363 0.520701 0.499094 -0.050811 0.338786 Si
42 1 5.37834 2.70019 8.1762 -3.27914 1.07551 -1.08987 1.16309 0.246795 0.51129 Si
38 1 8.19846 2.75815 0.0629083 -0.176856 3.0449 -0.324296 0.33313 0.545267 -0.310016 Si
43 1 9.53552 1.44365 9.46422 -0.3826 -3.2232 -2.85132 0.0667318 0.00580192 0.93659 Si
13 1 1.45837 4.06799 9.42728 -2.83593 -3.69563 4.80907 0.176276 1.08058 0.767973 Si
32 1 2.89175 5.42932 7.99127 2.04165 -0.413712 1.03011 -1.76963 -0.198368 1.19917 Si
27 1 4.08772 6.72641 9.45643 -3.31038 -1.28805 -0.649574 -0.719831 1.53992 0.980904 Si
45 1 6.7666 4.13857 9.61621 4.89744 -1.04402 0.567699 0.0335899 -1.32679 -0.972332 Si
59 1 9.37578 6.87182 9.58547 5.47675 -2.47182 -2.46182 1.16429 -0.612863 -0.691818 Si
64 1 8.07691 5.44582 8.17448 1.03485 -0.0169606 -2.0691 0.521178 0.420116 0.299492 Si
22 1 2.60647 8.19926 -0.049821 4.84638 -0.655125 1.62298 0.381541 -0.229295 -0.469981 Si
29 1 1.2193 9.67718 9.41486 -4.26118 -1.59168 2.42303 1.43865 -1.15381 0.791924 Si
58 1 5.44028 8.15611 8.21945 1.46575 2.79781 -0.779961 -0.118079 0.238326 -0.775921 Si
61 1 6.84598 9.47382 9.53638 0.888988 -0.231208 -1.54761 -0.302208 0.787637 0.122458 Si
54 1 8.11419 8.1816 0.100518 1.06451 1.70161 2.54729 -0.264588 -0.424869 0.345637 Si
48 1 8.25048 -0.0250633 8.19077 -0.0357949 3.20209 -0.330043 -0.565764 -0.233324 -0.437455 Si
26 1 -0.104706 8.23434 8.18762 0.451563 -3.30959 -2.00025 0.532529 -1.07919 -0.633697 Si
ITEM: TIMESTEP
13700
ITEM: NUMBER OF ATOMS
64
ITEM: BOX BOUNDS pp pp pp
0.0000000000000000e+00 1.0887404739999999e+01
0.0000000000000000e+00 1.0887404739999999e+01
0.0000000000000000e+00 1.0887404739999999e+01
ITEM: ATOMS id type xu yu zu vx vy vz fx fy fz element
2 1 0.0561828 2.66103 2.6869 0.70065 -0.155568 -4.60681 -0.5276 1.27942 0.242629 Si
6 1 2.7558 2.78937 0.012299 0.314093 0.856286 1.98478 -0.693753 -0.262025 -0.223221 Si
7 1 1.34417 1.35938 1.33544 2.11184 -1.44918 -0.480104 1.13183 -0.341311 0.125391 Si
8 1 2.66755 6.08078e-05 2.8104 -0.465247 -2.63558 5.01889 0.433336 0.278726 -1.16704 Si
34 1 5.40657 2.81426 2.77245 -4.65152 -0.723416 -2.13189 0.00268363 -0.391616 -0.120357 Si
36 1 5.48075 0.083199 0.00836385 -2.90723 -1.36749 -1.71638 -0.359189 0.520475 1.27389 Si
39 1 6.79308 1.44061 1.38525 4.92369 -3.46492 0.345192 0.225672 -0.522107 0.297843 Si
40 1 8.19215 -0.087278 2.63969 0.495654 -1.40721 0.78145 0.0685906 1.79055 0.337365 Si
20 1 -0.0491198 5.33531 0.0762332 -0.65377 1.89407 1.08643 0.772164 1.39559 -0.284685 Si
23 1 1.39622 6.81469 1.39961 1.3836 0.457742 -0.343989 -0.43464 -0.471666 -0.354624 Si
24 1 2.72768 5.44053 2.7833 4.63353 -0.332083 5.39199 0.474468 0.882867 0.0503815 Si
1 1 4.06609 4.17753 1.37052 0.220565 0.676347 -1.94153 0.364594 -0.562792 0.270097 Si
52 1 5.51143 5.45395 0.0476776 0.586927 -4.00162 -0.907163 -0.0997504 -0.0288716 -0.84398 Si
55 1 6.82096 6.93647 1.27182 3.20927 3.31574 5.1572 0.429929 -1.11062 0.174087 Si
33 1 9.46546 3.97973 1.32257 2.20128 1.5983 0.657366 0.240768 0.124587 0.766361 Si
56 1 8.12428 5.49377 2.58244 -5.20729 1.66455 1.32973 0.248862 -0.248157 -0.110568 Si
18 1 -0.0104679 8.21409 2.68654 0.359359 0.813196 -0.152545 0.55632 -0.695553 0.108588 Si
17 1 4.14679 9.62839 1.34731 -2.70146 -3.59811 -1.01382 -0.443834 -0.71835 1.04137 Si
50 1 5.55065 8.19383 2.69288 1.60692 -4.35344 5.24613 -0.782279 1.02446 0.528865 Si
4 1 -0.0225032 -0.0538363 0.0873064 0.285096 0.763947 -2.98414 1.35429 0.221152 -1.64649 Si
49 1 9.58 9.49565 1.3209 -3.85081 0.827676 -4.03418 -1.11646 -0.562543 0.203171 Si
14 1 2.64156 2.64617 5.56774 -2.98708 -2.94015 -2.87485 0.978975 0.347265 -0.832373 Si
15 1 1.34542 1.30899 6.90199 2.52531 3.10136 1.04174 -0.855188 -0.220007 -0.568077 Si
3 1 4.06137 1.34548 4.14213 -3.97487 4.81901 6.48394 -0.0859682 0.438658 0.0803277 Si
47 1 6.81357 1.41938 6.74457 -3.62605 1.1318 1.38848 -0.325207 -0.805806 -0.0547858 Si
35 1 9.5051 1.42594 4.01013 -2.67744 -5.88729 -0.430508 -0.287235 -1.14942 0.146816 Si
46 1 8.14696 2.8179 5.32829 -1.32551 -0.248796 3.52327 -0.576617 -0.629339 0.0251511 Si
5 1 1.44715 4.01366 4.0994 2.0979 -1.17308 2.19169 -0.962492 -0.280138 -0.263635 Si
31 1 1.32592 6.78132 6.8039 -0.346542 -3.56074 -0.203302 0.136535 -0.658922 -1.14591 Si
9 1 3.96552 4.1068 6.84048 0.804632 -1.50443 -1.26061 0.033356 -0.351671 0.782166 Si
19 1 4.14548 6.88168 4.10077 -0.480148 0.815801 -0.266006 -1.03605 -0.0643649 -0.13158 Si
37 1 6.79518 4.25258 4.03849 0.648216 5.11649 1.30826 -0.629768 -0.666364 0.357051 Si
60 1 5.34184 5.44938 5.50836 2.75103 -0.0963975 -2.89103 0.951056 0.395714 -0.44567 Si
63 1 6.82301 6.80124 6.7831 1.26166 -0.923822 0.0511474 -0.10722 -0.157656 0.402411 Si
28 1 0.00085675 5.37372 5.34014 3.00144 2.50343 -1.22471 0.152387 0.614843 0.388184 Si
41 1 9.5066 4.04247 6.70237 1.35358 -0.605435 -1.03257 0.78705 -0.0989361 0.754874 Si
51 1 9.54748 6.74908 3.91362 -4.04042 0.270239 1.57955 0.109141 0.230449 1.15203 Si
21 1 1.23356 9.58553 4.10569 0.249878 1.67999 0.249292 0.658614 -0.5417 0.205768 Si
30 1 2.63636 8.20872 5.45382 2.35331 -0.768346 -0.254992 0.555901 -0.130235 -0.0964613 Si
44 1 5.39728 -0.0937803 5.44663 -1.31504 2.72801 -1.12893 1.08044 0.889765 0.104723 Si
25 1 4.05505 9.50724 6.86552 1.16523 0.450054 -0.0846627 -0.434193 0.0800657 -0.164908 Si
53 1 6.93381 9.5355 4.10167 -2.9952 2.05241 -1.95834 -0.874602 -0.75194 0.220992 Si
12 1 -0.0917476 0.0325159 5.46073 2.58238 2.65478 3.86653 0.0785892 0.264511 0.514912 Si
57 1 9.54905 9.48147 6.88918 4.63061 -0.674696 -0.678449 0.0331971 -0.365613 -0.89707 Si
62 1 8.27165 8.08609 5.43588 1.37596 -1.92318 1.65207 -0.178864 0.366128 -0.249786 Si
10 1 -0.0820576 2.61468 8.17924 2.21431 2.4313 3.53178 0.00357824 1.03025 0.193477 Si
16 1 2.7771 0.0922653 8.2334 3.49274 -1.09238 -4.89999 0.0791982 -1.25752 0.331705 Si
11 1 4.16851 1.39337 9.60784 -1.50476 3.91127 -4.1645 -1.18079 0.60191 -0.526081 Si
42 1 5.3992 2.70625 8.16112 2.59123 -0.685678 1.88528 0.233709 0.548822 -0.68704 Si
38 1 8.16504 2.66176 -0.0714112 1.26761 -0.740051 -2.10831 -0.857831 0.574916 0.176402 Si
43 1 9.49262 1.24234 9.59745 -4.06554 0.891096 1.98467 0.0467559 -0.154449 -1.06928 Si
13 1 1.27339 4.11038 9.5187 2.26288 -0.660091 -3.71997 -0.022348 -1.68801 0.52195 Si
32 1 2.59059 5.46931 8.25651 -1.25274 -1.73866 -5.06152 1.73892 0.502522 -0.514443 Si
27 1 4.16852 6.81209 9.57529 -2.7088 -1.68026 -1.45151 -1.01339 -0.938382 -0.334024 Si
45 1 6.78878 4.0748 9.44563 1.48714 -0.83515 -0.164193 0.574728 0.158639 0.657365 Si
59 1 9.63903 6.69273 9.43441 -5.46524 1.12967 -2.2209 -0.964077 0.578846 1.50825 Si
64 1 8.24086 5.4167 8.10702 -2.49154 -1.13355 1.00747 -0.951799 -0.227241 -0.266916 Si
22 1 2.83487 8.13698 0.0468647 -2.64153 1.19553 4.4735 -0.53591 0.647084 0.0465143 Si
29 1 1.44147 9.49649 9.54639 0.420844 -1.61608 -2.39623 -0.472363 0.086965 0.319834 Si
58 1 5.43305 8.14936 8.18849 2.16738 -0.676939 0.198574 0.751502 0.619921 -0.0433335 Si
61 1 6.70372 9.6754 9.56743 -1.62834 -0.00900181 -1.76305 1.44526 -2.72064 -0.805257 Si
54 1 8.22859 8.16839 -0.0708452 2.46704 2.91356 -2.36316 -0.00120637 0.506666 -1.16561 Si
48 1 8.11536 -0.070063 8.1417 1.50945 -0.938247 -0.618138 0.111922 1.34828 0.123212 Si
26 1 0.0669156 8.07428 8.15761 -3.75012 2.93741 2.11661 -0.0336942 1.42391 0.579052 Si
ITEM: TIMESTEP
13800
ITEM: NUMBER OF ATOMS
64
ITEM: BOX BOUNDS pp pp pp
0.0000000000000000e+00 1.0887404739999999e+01
0.0000000000000000e+00 1.0887404739999999e+01
0.0000000000000000e+00 1.0887404739999999e+01
ITEM: ATOMS id type xu yu zu vx vy vz fx fy fz element
2 1 -0.01126 2.7952 2.7922 1.05182 -1.3333 5.04445 0.020883 -0.73857 -1.02624 Si
6 1 2.72955 2.64043 -0.0503944 -2.41313 -1.82976 -2.69221 -0.01246 0.765645 0.492014 Si
7 1 1.34378 1.42285 1.33169 0.70662 2.76751 -4.24375 -0.773266 -0.438651 0.29998 Si
8 1 2.7156 0.0024089 2.58376 3.67889 -0.365417 -3.67282 -0.216769 -0.39146 1.15623 Si
34 1 5.52742 2.67735 2.7018 5.13009 -3.03767 0.972187 -0.59908 -0.455366 -0.772477 Si
36 1 5.42985 -0.0857053 -0.0247225 5.01036 -1.55974 2.39007 0.272377 -0.189991 -0.263601 Si
39 1 6.86632 1.24101 1.26383 2.66267 7.91422 0.937308 -0.995497 1.19788 0.605837 Si
40 1 8.17798 0.0360738 2.70401 -2.96495 -3.04467 0.0754859 -0.32438 -0.262779 0.72607 Si
20 1 -0.00824272 5.47436 -0.00470572 -1.33375 -4.87321 1.75648 -0.332668 -0.232005 0.197189 Si
23 1 1.31371 6.86548 1.35371 1.75257 -0.469122 0.217504 -0.161755 -0.177877 -0.338279 Si
24 1 2.63108 5.42797 2.62561 -6.14798 0.568274 -0.204398 0.308786 -0.217902 0.774022 Si
1 1 4.01755 4.02778 1.33704 -5.54199 -2.76845 0.553239 0.757248 -0.319611 0.296875 Si
52 1 5.41524 5.404 0.0354992 4.31891 -0.601467 2.22261 -0.291594 0.373722 -0.0490877 Si
55 1 6.77989 6.69704 1.45461 1.04109 5.12806 -6.73503 -0.152959 0.911147 -0.157281 Si
33 1 9.46884 4.10821 1.41773 -6.12588 0.142341 -2.12649 1.36326 -0.226516 -0.872478 Si
56 1 8.2442 5.40393 2.79628 6.47976 0.316559 0.520423 -0.771287 0.985978 -0.169005 Si
18 1 -0.0321978 8.18561 2.76671 -2.86409 -3.85895 0.212496 0.208438 0.123057 0.0925193 Si
17 1 4.06739 9.46264 1.31252 -1.66311 0.689069 1.97801 -1.03564 0.296903 -0.900831 Si
50 1 5.2982 8.15688 2.70194 -3.68837 0.467072 -2.85028 1.87298 -0.691512 0.300554 Si
4 1 -0.0400855 -0.0190225 0.0184213 -1.1917 -3.49766 4.38182 -0.0141433 0.672685 0.294185 Si
49 1 9.47422 9.55958 1.46188 -3.22686 -2.23709 -0.944107 0.601472 -0.661259 -1.24495 Si
14 1 2.77854 2.79295 5.33967 0.998581 1.68826 3.05564 -0.021186 -0.14225 0.167773 Si
15 1 1.44419 1.42657 6.62915 -0.233287 0.517351 -0.254079 -0.631525 -0.486254 1.59904 Si
3 1 4.04454 1.33131 4.02493 3.11972 -4.3382 -7.30471 0.901867 0.216748 -0.180888 Si
47 1 6.8311 1.35684 6.85844 -0.225813 -1.78846 3.2765 -0.112524 0.173251 0.120323 Si
35 1 9.58409 1.3119 4.05818 3.77586 2.88993 -1.43987 -0.0732326 0.346403 0.476557 Si
46 1 8.25354 2.65504 5.4777 3.31105 -1.07788 0.297432 0.37026 0.593957 0.605964 Si
5 1 1.30954 4.13325 4.12281 3.04619 4.28407 2.89802 0.309854 0.559301 -0.260504 Si
31 1 1.37107 6.8036 6.8023 0.151306 5.22454 -2.68486 0.115837 -0.243579 0.24544 Si
9 1 4.10082 4.03729 6.82396 1.09957 -1.75859 -0.638068 0.945856 0.638377 -0.448252 Si
19 1 4.07761 6.68449 4.01663 2.70479 -0.431006 -0.543257 -0.219723 0.0335881 0.327564 Si
37 1 6.96531 3.97367 4.03287 -0.143371 -1.11659 -5.47917 -0.915745 0.0914695 0.841402 Si
60 1 5.55981 5.37656 5.3549 -7.54401 -2.59442 5.53894 -0.739037 -0.45957 0.641585 Si
63 1 6.79659 6.78579 6.80985 -1.78179 2.37533 -1.75211 -0.109052 0.195766 -0.243716 Si
28 1 -0.0527093 5.49326 5.49638 -1.3392 -0.671028 -3.87007 0.369436 0.100297 -0.252159 Si
41 1 9.55255 4.18494 6.91917 3.29752 5.0018 4.33735 -0.835849 -0.930946 -0.825282 Si
51 1 9.48622 6.86019 4.13587 1.76769 -1.97752 -2.5353 0.126883 -0.0328943 0.239076 Si
21 1 1.42236 9.49537 4.09575 0.470182 1.62956 1.71988 0.0509393 0.0798699 -0.780289 Si
30 1 2.75292 8.05528 5.41096 -0.00831999 -5.2282 -3.33483 0.331587 0.856746 0.194985 Si
44 1 5.44122 0.0399227 5.47677 -1.24456 -2.728 -1.32809 0.000610776 -0.346757 -0.764532 Si
25 1 4.04565 9.56354 6.79857 -0.874648 -1.46406 -3.14468 -0.151022 -0.457858 -0.157011 Si
53 1 6.7774 9.54194 4.00027 2.06409 0.610597 0.79079 -0.72676 0.168238 0.654179 Si
12 1 0.0583742 -0.035555 5.4198 -2.23821 1.33792 -2.34852 -0.00435417 0.477627 -0.248036 Si
57 1 9.51054 9.61511 6.78277 -3.16053 5.99448 2.31119 -0.321898 -0.33216 0.670594 Si
62 1 8.08793 8.23646 5.4665 -0.599984 0.0935676 -0.729295 0.434672 -0.176596 -0.1579 Si
10 1 0.0746624 2.76105 8.10305 1.01575 -6.63718 -1.15772 0.717403 0.172676 0.31363 Si
16 1 2.64957 0.0170846 8.18263 -7.5664 2.36454 2.95879 0.236554 0.224103 -1.07822 Si
11 1 4.04865 1.29238 9.53671 -2.59701 4.18089 -0.774155 0.630531 -0.142108 -0.204153 Si
42 1 5.44961 2.6889 8.2567 0.718558 1.70187 -0.294648 -0.0725081 0.0943568 -0.589164 Si
38 1 8.13878 2.75634 0.0295141 -1.35689 1.22392 -1.46078 0.787239 -0.328276 -0.113197 Si
43 1 9.61586 1.48904 9.54219 3.62678 1.7339 -0.216634 -0.661507 -0.687941 0.27106 Si
13 1 1.45335 4.09373 9.55418 -0.254291 -1.19771 -0.0889152 -0.832941 0.295409 -0.641921 Si
32 1 2.79408 5.47757 8.16955 -1.31224 -2.367 1.39123 -0.597097 -0.509526 -0.346947 Si
27 1 4.10658 6.82317 9.50346 7.33191 3.78944 3.29831 0.425085 0.0469239 0.222202 Si
45 1 6.79465 4.08874 9.59821 -3.15298 -1.24383 -1.92173 -0.312429 -0.0710088 -0.384735 Si
59 1 9.49182 6.94767 9.60878 -2.45894 0.833961 2.91428 0.428891 -1.34777 -0.929369 Si
64 1 8.11308 5.48743 8.26285 -1.08375 2.16144 4.48824 0.641545 0.420799 0.0988135 Si
22 1 2.64665 8.14663 -0.110606 -4.21857 2.83508 -6.07785 0.508355 0.32752 0.842692 Si
29 1 1.28698 9.55452 9.49921 0.00720819 6.71369 -0.472106 -0.0102928 -0.286564 -0.142912 Si
58 1 5.4502 8.20603 8.11821 -0.13832 -1.20014 0.0382392 -0.153857 -0.519752 0.320127 Si
61 1 6.85208 9.40669 9.5705 8.52099 -1.31938 4.58395 -0.828721 1.58048 -0.674353 Si
54 1 8.11028 8.16396 0.088393 -0.946374 -4.92772 4.12771 0.317236 -0.369577 1.32042 Si
48 1 8.17343 0.0617636 8.29913 -0.429772 -2.89731 0.734132 0.441078 -0.548898 -0.633462 Si
26 1 -0.0112385 8.18084 8.10104 3.21055 -0.738511 3.29782 -0.484406 0.40286 0.442336 Si
ITEM: TIMESTEP
13900
ITEM: NUMBER OF ATOMS
64
ITEM: BOX BOUNDS pp pp pp
0.0000000000000000e+00 1.0887404739999999e+01
0.0000000000000000e+00 1.0887404739999999e+01
0.0000000000000000e+00 1.0887404739999999e+01
ITEM: ATOMS id type xu yu zu vx vy vz fx fy fz element
2 1 -0.0469402 2.7024 2.72186 2.32766 1.54669 -2.91735 0.542263 -0.491865 0.585498 Si
6 1 2.76343 2.73376 0.00378645 0.785273 1.54525 3.28629 -0.0102854 -0.403416 0.436133 Si
7 1 1.40893 1.3557 1.398 -1.55378 -1.3694 2.63297 -0.361678 0.149178 -0.440764 Si
8 1 2.74652 0.0113244 2.7845 -4.78216 3.07513 2.03171 0.342586 0.0490595 -0.165986 Si
34 1 5.3651 2.69522 2.74322 -7.14455 1.89979 -0.510223 0.604975 1.19617 1.02382 Si
36 1 5.4322 0.0840967 0.00433682 -0.242412 1.50656 0.59249 0.34317 -0.396334 -0.245046 Si
39 1 6.75711 1.41034 1.47613 -1.77874 -2.71504 0.837316 0.434 -0.518106 -1.02387 Si
40 1 8.19412 0.0604334 2.74954 1.12718 -1.36063 -5.90217 -0.320583 -1.34251 -0.767333 Si
20 1 0.00807375 5.46884 -0.0283869 -0.70503 -0.178473 -1.63104 0.366687 -0.397532 0.187555 Si
23 1 1.44952 6.78786 1.39569 -2.52328 3.40179 1.10567 -0.2602 -0.213655 0.015177 Si
24 1 2.80129 5.43131 2.84276 4.09376 -1.61253 0.394785 -0.301545 -0.116257 -1.6886 Si
1 1 4.17042 4.08286 1.33265 6.22583 2.69457 2.7741 -0.638474 1.04527 -0.200599 Si
52 1 5.47661 5.49421 -0.182783 3.89163 -1.30745 3.38581 -0.00358202 -0.375234 1.79721 Si
55 1 6.86988 6.79262 1.34279 1.60437 -0.584668 1.86806 -0.667041 0.398483 -1.1606 Si
33 1 9.5647 4.06298 1.37465 2.84974 -2.57904 -0.0957981 -0.812115 0.79996 -0.395376 Si
56 1 8.15731 5.48096 2.71066 -3.25967 6.13879 -7.38248 0.28624 -1.40478 0.654298 Si
18 1 -0.024826 8.10157 2.70272 -1.53471 2.80366 1.98185 0.370939 0.347118 0.149068 Si
17 1 4.11664 9.56071 1.37125 4.02363 0.463013 1.43218 1.34674 0.769343 1.34692 Si
50 1 5.58367 8.17619 2.72114 3.50667 -1.56797 0.173708 -1.99562 -0.177209 -0.015631 Si
4 1 0.0839667 0.00915428 -0.0846576 -0.683906 -0.113472 -3.33451 -0.88576 -0.037794 0.900287 Si
49 1 9.52604 9.51155 1.29053 3.6177 1.06054 -2.57787 0.523254 0.946672 0.702312 Si
14 1 2.6256 2.71455 5.53141 -0.00532766 -0.777683 3.54287 0.375995 -0.267005 -0.165387 Si
15 1 1.28262 1.24802 6.92546 0.0720387 -0.963534 -0.564602 1.01162 1.03784 -0.995834 Si
3 1 4.10154 1.38685 4.18399 -2.07036 3.29421 2.54092 -1.01993 -0.23369 -0.35929 Si
47 1 6.75827 1.37947 6.79119 -0.918053 3.31951 -0.110825 0.297809 -0.148046 -0.375958 Si
35 1 9.45715 1.33622 4.14209 -0.024774 -1.66439 -3.36905 0.754186 1.08603 -0.6549 Si
46 1 8.07977 2.72825 5.37618 -1.4318 -2.7728 -1.27889 -0.612774 0.149328 0.142928 Si
5 1 1.34273 4.09472 4.05607 -4.86778 -1.358 -1.23104 0.605494 -1.21015 0.0444077 Si
31 1 1.34266 6.76909 6.74209 -1.86728 -7.40052 -4.47399 0.495194 0.899426 1.08069 Si
9 1 4.10269 4.11438 6.78548 -0.0415607 1.7055 2.77884 -0.950792 -0.108043 -0.319342 Si
19 1 3.96758 6.93781 4.13958 1.13656 1.04897 0.393177 1.73855 0.356386 -0.303234 Si
37 1 6.64939 4.21157 4.15042 -3.49141 3.48584 -2.04509 0.735362 -0.621012 -1.09819 Si
60 1 5.33607 5.60735 5.51287 -0.494024 2.60445 -2.66783 0.367975 -0.286353 -0.240344 Si
63 1 6.80499 6.8077 6.89601 0.720701 -3.64584 -2.04737 0.145691 0.324456 -1.17249 Si
28 1 0.0986894 5.41584 5.39308 -2.63122 -2.32633 -2.0446 -1.03931 -0.749262 0.763448 Si
41 1 9.52043 4.00927 6.64041 4.44498 -0.0912094 -2.27588 0.478519 0.807414 1.37597 Si
51 1 9.61343 6.66091 4.12378 1.97627 1.66285 0.630073 -0.709727 1.27797 -1.36119 Si
21 1 1.34767 9.53326 4.0689 -0.601283 -0.12125 0.806262 -0.712168 0.330449 0.490908 Si
30 1 2.69916 8.28843 5.54277 -0.677061 2.57729 1.04609 -0.752136 -0.851073 -0.783806 Si
44 1 5.50439 -0.0274441 5.38346 -1.6964 0.0738645 1.55017 -0.743681 -0.0589878 1.31944 Si
25 1 4.12143 9.50815 6.84425 -2.12523 6.18047 4.66031 0.656081 0.818291 -0.00960083 Si
53 1 6.85729 9.51876 4.08352 4.17476 -1.41471 -3.05176 0.986728 -0.092328 -0.155007 Si
12 1 -0.0462213 0.0633505 5.47537 1.98804 -3.89636 4.68902 0.329511 -1.68895 -0.436864 Si
57 1 9.57452 9.41789 6.75171 1.01404 -1.16588 -2.25723 -0.508043 0.895984 -0.0725105 Si
62 1 8.2308 8.05535 5.37156 1.88677 -1.8835 -1.31889 -0.619762 0.25931 1.00681 Si
10 1 0.0208031 2.72129 8.13514 -1.21114 -2.42371 -0.242015 -1.94865 -0.723934 0.442895 Si
16 1 2.74011 -0.03282 8.19112 1.04542 -2.02692 1.15231 0.277883 -0.219851 0.488768 Si
11 1 4.09535 1.42326 9.47728 4.22236 -2.49294 -0.741536 -0.152233 -0.348029 0.249643 Si
42 1 5.41934 2.79079 8.11358 -4.0316 2.40212 -0.261186 0.513846 -0.72547 0.364937 Si
38 1 8.10033 2.74499 0.0659582 -2.03175 -2.83498 0.32157 0.70562 -0.729427 -0.29082 Si
43 1 9.40446 1.29756 9.49656 1.4143 0.0235943 0.0527959 1.04621 0.838906 -0.000726581 Si
13 1 1.35406 3.96946 9.53637 -4.96441 2.32156 0.84534 0.17918 1.7587 -0.237 Si
32 1 2.69439 5.39501 8.0978 1.96841 -3.59951 1.54577 -0.496849 0.18796 1.00903 Si
27 1 3.97497 6.8362 9.5043 -3.75781 -1.05786 -0.983905 0.499891 -0.374256 -0.0393154 Si
45 1 6.8472 4.03439 9.48453 0.232619 -1.22703 -1.03086 -0.659831 0.383671 -0.065652 Si
59 1 9.49062 6.80604 9.47157 2.65998 5.54538 5.87874 0.186734 0.0611646 0.100874 Si
64 1 8.13889 5.36658 8.11055 0.588192 -2.41225 0.326475 1.25586 0.0245348 -0.135882 Si
22 1 2.83989 8.23031 0.130402 2.7481 -2.98923 2.32633 -1.39336 -1.45443 -1.07487 Si
29 1 1.45065 9.44698 9.59344 2.4318 -1.59518 3.92768 0.00885946 0.744585 -0.464357 Si
58 1 5.43493 8.12645 8.23168 0.823166 4.35581 -2.42859 -0.61722 0.135945 -0.757326 Si
61 1 6.73928 9.53415 9.44832 -1.14337 -2.00736 -0.0299582 0.463736 0.771681 1.1716 Si
54 1 8.14083 8.23641 -0.0488596 -2.24477 -0.147832 -4.04782 -0.0653488 -0.868651 -0.365153 Si
48 1 8.13262 -0.0733063 8.0474 -1.04395 2.65161 4.44576 0.0313222 0.0789525 0.270066 Si
26 1 0.0522318 8.19973 8.17813 -2.02134 -1.70333 -3.10309 -0.0500059 -1.2966 -0.0818366 Si
ITEM: TIMESTEP
14000
ITEM: NUMBER OF ATOMS
64
ITEM: BOX BOUNDS pp pp pp
0.0000000000000000e+00 1.0887404739999999e+01
0.0000000000000000e+00 1.0887404739999999e+01
0.0000000000000000e+00 1.0887404739999999e+01
ITEM: ATOMS id type xu yu zu vx vy vz fx fy fz element
2 1 0.00410649 2.69891 2.72555 -2.76352 1.24562 1.47901 -0.214506 0.619145 -0.448087 Si
6 1 2.70966 2.72382 0.0484399 2.59864 -2.37299 -3.12685 -0.198798 -0.137505 -0.87162 Si
7 1 1.30154 1.3275 1.38512 -1.57739 -1.20911 2.79414 1.32319 0.392081 0.0965786 Si
8 1 2.73798 -0.0131018 2.72777 -1.41485 -4.38088 0.320108 -0.845694 -0.196612 -0.000460716 Si
34 1 5.53625 2.7307 2.61921 2.97078 -1.2124 -1.30027 -0.764932 -0.804743 0.283961 Si
36 1 5.44539 -0.0539251 -0.00686831 -0.44571 0.0579314 -5.01126 -1.10942 0.455224 0.24457 Si
39 1 6.82941 1.30434 1.27767 -1.70883 -1.86574 -3.43441 0.0909714 0.666277 0.077459 Si
40 1 8.12474 0.0552567 2.74833 2.5761 3.4461 0.227299 0.0397451 -0.361488 0.334177 Si
20 1 0.012588 5.43542 0.0208317 0.0187986 5.61319 -2.38347 -0.519671 -0.434427 -0.645428 Si
23 1 1.36478 6.79924 1.26383 -3.53227 -4.21537 2.19461 -0.3756 0.785796 1.30754 Si
24 1 2.67549 5.45171 2.6865 -0.0134287 -1.78295 0.289667 -0.0771677 -0.121915 1.34049 Si
1 1 4.04883 4.08696 1.42179 4.40696 -1.10186 -3.10176 0.0680275 -0.387792 -0.331307 Si
52 1 5.38783 5.44644 0.115778 -6.32263 5.33962 -3.50137 0.0769387 0.0372659 -1.26038 Si
55 1 6.75616 6.86921 1.31198 -2.40593 -3.87457 4.74426 0.763867 -0.821503 1.74815 Si
33 1 9.50737 4.07655 1.38256 2.55226 2.06007 2.25173 0.46728 -0.189003 -0.269553 Si
56 1 8.227 5.45176 2.78198 -0.995152 -1.61978 6.9795 -1.38185 0.418367 -1.06368 Si
18 1 0.010742 8.17233 2.77837 -0.378491 0.541609 -0.476106 -0.3267 -0.309049 -0.857656 Si
17 1 4.01206 9.48279 1.33544 2.44149 1.36371 -1.83501 -0.0895919 0.0957409 -0.446226 Si
50 1 5.33915 8.15697 2.72481 2.14502 -2.96846 -1.61793 1.45315 0.425883 -0.0835192 Si
4 1 0.0352776 -0.0214433 0.0404735 -3.68483 3.10252 0.340697 -0.747543 -0.570184 -0.646234 Si
49 1 9.45195 9.55183 1.44399 -2.88538 -4.14302 1.33088 0.98121 -0.504151 -0.697084 Si
14 1 2.74458 2.75772 5.35892 0.310763 4.54108 -4.27764 0.0137939 -0.267476 0.797042 Si
15 1 1.37452 1.4088 6.79788 3.43012 1.75487 -0.181819 -0.197588 0.17162 -0.13283 Si
3 1 4.12441 1.37542 3.99145 -1.84657 1.24103 2.43624 0.088833 0.265669 0.611342 Si
47 1 6.75721 1.37631 6.84698 -1.19481 -3.43241 6.33545 1.3647 -0.0773776 -0.504427 Si
35 1 9.62776 1.34508 4.03948 2.60875 -3.82011 4.49425 -1.43879 0.0479204 0.865413 Si
46 1 8.25888 2.70464 5.49864 -0.250637 7.00703 3.91036 -0.276087 -0.576684 -0.513208 Si
5 1 1.23109 4.08107 4.13704 3.58841 -1.58487 3.94298 1.16649 0.844412 -0.768226 Si
31 1 1.33516 6.78624 6.83337 4.16612 0.811551 4.28514 0.313296 0.618814 -0.662221 Si
9 1 4.12809 4.02985 6.86143 -1.43606 -2.72304 -3.55957 -0.457204 0.242239 -0.3884 Si
19 1 4.22403 6.69275 4.10181 -3.7521 -2.16366 -0.0650925 -1.88473 -0.157019 -0.0457232 Si
37 1 6.88597 3.95189 4.02459 0.297314 0.720569 4.21239 0.290063 1.03884 0.980956 Si
60 1 5.53572 5.30616 5.47903 2.63145 -3.34748 -0.987039 0.0115093 0.0261309 -0.743078 Si
63 1 6.78244 6.85473 6.69976 1.257 3.1889 1.34952 0.450157 -0.589237 1.30315 Si
28 1 -0.0793064 5.51663 5.47545 2.82772 4.39549 4.14073 0.907127 -0.360286 -0.0665971 Si
41 1 9.57268 4.14823 6.81666 -2.52601 -1.13314 1.87534 -1.0157 -0.429037 -0.13876 Si
51 1 9.49135 6.84274 4.14416 -2.6601 1.35185 5.2349 0.162738 0.532332 -0.386384 Si
21 1 1.31779 9.53478 4.14386 1.81741 -1.63852 -3.1302 1.58958 -0.559227 -0.777902 Si
30 1 2.74984 8.08349 5.41071 1.39684 4.64781 1.61422 0.0678755 0.1981 0.373649 Si
44 1 5.3531 0.0504992 5.55984 0.315277 1.69277 -0.835851 0.657549 -0.298281 -1.52568 Si
25 1 4.10752 9.46278 6.83068 -2.11518 -2.31909 -1.27656 -0.991693 0.145669 -0.726077 Si
53 1 6.73496 9.56992 4.11091 -5.2848 -5.0566 0.727243 -0.408877 0.215158 -0.0529573 Si
12 1 0.0258158 -0.00137402 5.41993 4.90366 2.53499 -4.43791 -0.222796 0.642458 1.00794 Si
57 1 9.50937 9.58271 6.78843 -1.82499 -2.20964 -3.12008 0.597507 -0.434411 0.370515 Si
62 1 8.14907 8.24891 5.45315 -0.760619 -0.439524 -2.37774 -0.142404 -0.103808 -0.487012 Si
10 1 -0.0467972 2.82534 8.19018 3.13079 5.37039 -2.65294 1.53772 -0.746839 -0.139764 Si
16 1 2.75887 -0.0177182 8.09929 3.68083 1.06633 -5.25566 -0.358588 0.332491 0.0122858 Si
11 1 4.06288 1.32265 9.48666 -0.430133 -4.57191 -4.49577 0.344207 0.342535 0.906212 Si
42 1 5.5079 2.68755 8.21172 -2.0134 -4.44675 -2.30118 -1.42953 0.165503 0.180124 Si
38 1 8.19981 2.70425 -0.0565202 1.07334 -0.49507 1.34547 -0.568245 0.416583 0.609983 Si
43 1 9.5836 1.37687 9.53699 -1.70719 -0.54373 -0.571924 -0.23993 -0.558415 -0.356366 Si
13 1 1.41725 4.1852 9.48101 4.24446 -2.99308 -3.1897 -0.412973 -1.0978 0.96088 Si
32 1 2.75034 5.51421 8.14785 2.27148 1.88612 -7.74519 0.75875 -0.541145 -0.0400171 Si
27 1 4.11529 6.82794 9.55157 0.999632 -7.14598 -2.18224 -0.0382889 -0.300518 -0.416101 Si
45 1 6.71466 4.08378 9.57159 -0.0424156 1.52669 6.51421 1.41989 0.645408 -0.0591986 Si
59 1 9.5104 6.70201 9.47821 -4.06892 -1.16273 -1.67682 0.443224 1.40447 0.631386 Si
64 1 8.15466 5.44295 8.10803 1.78724 -0.144829 -2.87519 -1.34398 -0.140181 0.275014 Si
22 1 2.65096 8.15726 -0.125771 -0.24847 2.31625 1.40194 0.985985 0.101159 1.11835 Si
29 1 1.41348 9.54888 9.45132 -4.95252 5.17007 -5.56736 -1.07796 0.376038 0.335536 Si
58 1 5.44966 8.17622 8.14343 -0.940557 -0.407687 3.31456 0.695613 -0.393598 0.811529 Si
61 1 6.7904 9.53391 9.59417 -0.439844 1.01985 0.967533 0.675067 -0.51572 -1.5019 Si
54 1 8.1784 8.14319 -0.00771342 -1.68981 5.17686 7.02377 0.2752 0.172316 -0.15777 Si
48 1 8.1597 0.0142925 8.15601 1.8699 0.0409637 0.726425 -0.119926 0.155019 0.853408 Si
26 1 0.0155582 8.17531 8.1716 -0.00498497 2.29516 -0.252678 -0.804492 -0.011234 -0.225804 Si
ITEM: TIMESTEP
14100
ITEM: NUMBER OF ATOMS
64
ITEM: BOX BOUNDS pp pp pp
0.0000000000000000e+00 1.0887404739999999e+01
0.0000000000000000e+00 1.0887404739999999e+01
0.0000000000000000e+00 1.0887404739999999e+01
ITEM: ATOMS id type xu yu zu vx vy vz fx fy fz element
2 1 0.0287191 2.72817 2.72159 3.28413 2.58106 0.342556 -0.15184 0.395983 -0.293006 Si
6 1 2.7137 2.73172 -0.0432465 1.73839 0.387313 -1.47551 -0.166515 0.0759928 0.182692 Si
7 1 1.36475 1.40657 1.36226 2.54817 -2.81879 -6.13455 -0.321015 -0.422449 -0.721265 Si
8 1 2.6987 0.00261274 2.6318 4.33111 2.48631 2.83921 0.488209 0.11021 0.302181 Si
34 1 5.45926 2.73417 2.76032 2.72987 4.05031 1.10032 -0.604983 0.176282 -0.377363 Si
36 1 5.47111 0.0412178 0.0500665 0.235845 1.64905 -0.837582 0.614875 -0.334143 -0.354985 Si
39 1 6.80487 1.42399 1.4101 -1.47435 -3.2731 -0.49595 0.0507573 -1.07509 0.292509 Si
40 1 8.16865 -0.0191644 2.74198 -3.21092 -3.05903 1.03231 0.467017 0.522532 -0.377792 Si
20 1 -0.000863457 5.37414 0.041967 -0.31516 -4.17577 3.91113 -0.161489 1.40947 0.396825 Si
23 1 1.34936 6.83967 1.36306 1.13522 0.278646 3.37843 0.224334 -0.811225 -0.890118 Si
24 1 2.68809 5.43745 2.64369 -2.22084 2.14882 2.56688 0.667755 0.582624 0.264034 Si
1 1 4.06477 4.0623 1.34273 -5.53929 2.31831 1.46925 0.201633 -0.227847 0.13706 Si
52 1 5.41541 5.38902 -0.0247049 6.89212 1.20524 1.73481 0.473242 0.0264729 0.0747866 Si
55 1 6.78241 6.70235 1.3545 2.60896 1.28019 -8.44555 -0.0803758 1.12642 -0.524272 Si
33 1 9.53274 4.03896 1.35545 -8.73111 -0.322757 2.05308 -0.247281 0.555509 1.00381 Si
56 1 8.10781 5.42234 2.72764 1.11574 2.03587 -3.77852 1.20233 -0.351942 0.0468881 Si
18 1 0.0132756 8.14731 2.686 -0.269281 3.21542 2.14884 -0.0130322 0.513276 0.581104 Si
17 1 4.07088 9.55897 1.29091 1.11628 5.83291 2.66148 0.233303 -0.383817 0.291246 Si
50 1 5.4801 8.21347 2.63236 1.36307 2.86667 -0.376453 -0.318294 -0.560318 0.726903 Si
4 1 -0.039828 0.00301903 0.0242259 1.26478 -1.48191 2.12192 0.90295 1.11165 -0.328413 Si
49 1 9.61189 9.55418 1.34402 2.17271 -0.787652 1.94827 -1.80623 -0.804004 0.628046 Si
14 1 2.77285 2.65839 5.49411 -5.24099 -3.17326 4.68523 -0.499218 0.409793 -1.18229 Si
15 1 1.33478 1.28232 6.77608 0.0274592 0.54726 3.7239 0.0588973 0.0574118 0.375684 Si
3 1 4.11013 1.28438 4.01198 -1.42125 -0.338492 -0.73788 -0.0075781 0.245914 0.910889 Si
47 1 6.91658 1.35033 6.71789 3.83868 4.04922 -7.53204 -1.75371 -0.159448 1.00998 Si
35 1 9.47145 1.50016 4.04357 -5.07299 7.67289 1.13243 0.685263 -1.86351 0.00128858 Si
46 1 8.20454 2.75468 5.44396 1.34128 -0.969162 -7.18255 -0.371164 0.92053 0.0554238 Si
5 1 1.4172 4.08899 3.9975 -0.518172 -3.71536 1.56434 -0.0835341 -0.844172 1.61277 Si
31 1 1.33931 6.83481 6.79075 0.587491 0.979651 -1.45301 0.107963 -0.957248 0.479382 Si
9 1 4.01517 4.15538 6.8438 -4.40883 -0.0318999 2.75303 0.613841 -0.537803 -0.0869023 Si
19 1 4.00965 6.87215 4.01129 2.25735 4.54736 4.00517 0.621608 -0.185712 0.337724 Si
37 1 6.79336 4.0827 4.10461 4.23293 -4.04219 -2.7438 -0.147799 0.210196 0.461852 Si
60 1 5.4152 5.48291 5.4425 -2.84848 1.60124 5.89576 -0.142958 0.37775 0.0202246 Si
63 1 6.84026 6.8142 6.8656 -2.13246 -0.639639 -0.0142562 -1.08867 -0.0613373 -0.210259 Si
28 1 0.0114048 5.35368 5.45067 2.91938 -1.77076 -5.8914 0.466321 1.14806 -0.622163 Si
41 1 9.52405 4.11551 6.82731 -2.67866 -4.91722 -5.61742 0.0382331 -0.752928 0.163494 Si
51 1 9.5532 6.7834 4.06149 3.26559 -3.58023 -8.71932 -0.0635973 -0.580839 0.212861 Si
21 1 1.38166 9.56225 4.00281 -5.42836 -5.78331 1.6602 -1.04916 -0.167008 0.293541 Si
30 1 2.6279 8.21845 5.4361 -5.79836 -3.01994 -3.52747 0.908588 -0.0956203 -0.365695 Si
44 1 5.50787 -0.0905702 5.39796 -1.33909 -3.18436 0.672631 -0.0506668 0.79219 0.0480523 Si
25 1 4.02289 9.58624 6.77381 0.683427 -5.81122 2.10769 0.440849 -0.821673 0.474432 Si
53 1 6.91805 9.43304 4.10553 3.98504 3.36823 -0.100488 -0.840073 0.14413 -0.488571 Si
12 1 -0.0890499 -0.0191588 5.3634 -0.258016 -0.268152 4.41718 0.342761 0.370377 0.130366 Si
57 1 9.49914 9.52173 6.84052 -1.47985 -0.130241 7.11213 0.140734 0.0227563 0.0797373 Si
62 1 8.21236 8.08534 5.49131 2.3084 1.92121 0.647576 0.257735 0.319284 -0.109563 Si
10 1 -0.0372709 2.65664 8.14788 -2.6029 -3.72668 0.535896 0.252482 0.659329 0.204147 Si
16 1 2.72981 -0.00987951 8.2525 1.41391 8.90124 1.5945 -0.245069 0.468773 -0.629502 Si
11 1 4.14293 1.34077 9.58679 -2.71661 0.0881599 5.76898 -0.650477 0.525529 -0.734908 Si
42 1 5.41449 2.71401 8.13585 -1.48858 5.15529 2.93873 1.02043 0.0488715 -0.254431 Si
38 1 8.16665 2.70918 0.0852964 2.25775 0.0622137 -2.96367 -0.264653 0.451402 -1.44957 Si
43 1 9.48033 1.3601 9.55827 -1.65392 -3.88433 0.83299 0.192691 -0.000298626 0.236192 Si
13 1 1.27827 4.12518 9.54506 2.67229 1.63241 -1.36388 0.825041 -1.3614 -0.700021 Si
32 1 2.71409 5.48475 8.27714 -3.88298 1.34247 2.50599 -0.861851 0.121541 -1.21266 Si
27 1 4.10075 6.79132 9.56027 1.32334 1.88398 -1.68402 0.187297 -0.014662 -0.125103 Si
45 1 6.85415 4.11076 9.49297 -2.03338 -0.167549 -2.11453 -0.523685 -0.983033 0.492555 Si
59 1 9.61355 6.85113 9.61161 -1.70335 -4.35734 -3.84682 -0.852869 -1.05454 -0.541519 Si
64 1 8.20728 5.48078 8.19466 -0.319426 2.50717 0.578687 0.52923 0.38442 0.420173 Si
22 1 2.7687 8.12143 -0.0315127 4.59688 -1.97707 -3.25856 -0.979608 0.866875 0.484126 Si
29 1 1.33396 9.56032 9.58579 5.19723 -2.81975 -0.530989 0.334047 -0.902421 -0.345209 Si
58 1 5.37509 8.1842 8.20224 1.2795 -0.68624 0.719551 0.603489 0.270698 -0.842129 Si
61 1 6.8085 9.55935 9.49662 -4.05771 4.24418 3.9861 -0.715021 -0.751952 1.29518 Si
54 1 8.16584 8.1433 0.0122295 2.26317 -2.46417 -4.81592 -0.0796984 0.5557 0.318013 Si
48 1 8.1264 0.0128981 8.23266 0.35097 -3.55667 -2.58881 0.832542 0.147176 -1.25692 Si
26 1 0.00810261 8.14732 8.18975 1.50688 -1.90605 -0.916244 0.155674 0.941328 -0.0215469 Si
ITEM: TIMESTEP
14200
ITEM: NUMBER OF ATOMS
64
ITEM: BOX BOUNDS pp pp pp
0.0000000000000000e+00 1.0887404739999999e+01
0.0000000000000000e+00 1.0887404739999999e+01
0.0000000000000000e+00 1.0887404739999999e+01
ITEM: ATOMS id type xu yu zu vx vy vz fx fy fz element
2 1 -0.0666002 2.68717 2.71172 -1.79006 -1.19276 0.725099 0.637511 -0.338479 0.560668 Si
6 1 2.72265 2.70071 0.0718404 -0.774691 -2.6996 0.575131 0.492341 0.645647 -0.144467 Si
7 1 1.40629 1.34757 1.389 -0.942513 7.15234 3.70097 -0.769656 -0.104167 0.429006 Si
8 1 2.69571 -0.0412634 2.79225 -2.38679 -2.56969 -4.4859 0.953026 1.00613 -0.274722 Si
34 1 5.35834 2.71339 2.74964 3.03096 -2.96026 -1.40843 1.47323 0.480742 -0.154191 Si
36 1 5.39343 -0.0285069 0.0210579 -1.23843 -1.52019 1.19284 0.63428 0.102368 -0.557381 Si
39 1 6.74486 1.34578 1.35402 3.25995 -0.733964 -2.85105 0.288727 0.482316 -0.0498983 Si
40 1 8.1792 0.00354492 2.65669 2.05697 1.37063 -0.816907 -0.291433 -0.259841 0.0250425 Si
20 1 -0.00147221 5.55183 -0.00757408 0.733417 -1.56661 -1.4916 0.580234 -1.1497 -0.504718 Si
23 1 1.3479 6.83051 1.39792 -4.20601 5.13389 0.377235 0.488461 -0.763662 0.432369 Si
24 1 2.74267 5.42698 2.74151 -2.0058 -1.36451 -1.09588 -0.254656 0.244672 -0.541531 Si
1 1 4.15977 4.1216 1.31413 -2.04049 -3.47006 -5.41049 -1.05924 -0.137669 0.594145 Si
52 1 5.43398 5.51104 -0.0513883 -2.44971 -4.54714 -0.307096 0.715724 0.193495 0.702811 Si
55 1 6.82896 6.85688 1.396 -0.622562 -2.6677 7.19145 -0.47859 -0.348748 -0.268475 Si
33 1 9.60659 4.10755 1.34749 2.67776 0.105574 -1.28537 -0.649129 -0.688791 -1.18023 Si
56 1 8.21538 5.36003 2.64499 -1.07263 -1.61879 3.13225 -0.306694 1.41473 0.814483 Si
18 1 0.0827805 8.1711 2.76989 -0.216536 -3.88406 -2.03539 -0.876604 0.433588 -0.476048 Si
17 1 4.10941 9.55884 1.40998 1.02428 -4.10784 -5.88804 -0.488465 -0.658044 0.643971 Si
50 1 5.44268 8.21247 2.83485 -4.03406 -0.691292 -3.44105 -0.0830435 -0.299226 -0.961132 Si
4 1 0.0873575 0.0661188 -0.0831386 -1.02676 -2.05886 0.656117 -0.667521 -1.0576 1.06374 Si
49 1 9.58461 9.50757 1.3286 -1.13795 1.29991 1.41453 0.203994 0.39699 -0.418855 Si
14 1 2.63827 2.81092 5.39536 3.36618 1.46477 -0.535789 0.459971 -0.160856 1.46351 Si
15 1 1.38418 1.39814 6.85983 -0.897824 -0.00645717 -7.04305 -0.130645 -0.678711 -0.487494 Si
3 1 4.02015 1.451 4.1532 -1.16465 1.99374 -0.767707 -0.242212 -1.0123 -0.745116 Si
47 1 6.83556 1.39542 6.78539 -0.356344 0.918758 2.87799 -0.825284 -0.694646 0.858064 Si
35 1 9.43229 1.30305 4.11903 1.36788 -3.80181 -3.30737 1.27802 0.0480141 -0.307782 Si
46 1 8.04673 2.67364 5.38273 1.54928 -2.56524 5.20162 1.55587 -0.577554 0.454379 Si
5 1 1.3014 4.10617 4.05674 -1.79903 3.48688 -1.29831 -0.453014 0.0620719 -0.450214 Si
31 1 1.43939 6.72122 6.81751 -3.56168 0.426439 -0.166923 -1.3341 0.902875 -0.402403 Si
9 1 4.07636 4.15668 6.77823 -0.148871 -0.661078 -1.11365 0.758005 -1.11905 -0.200199 Si
19 1 4.02641 6.83102 4.12728 0.241576 -2.98303 -4.85528 1.04505 -0.393535 -0.216947 Si
37 1 6.90685 4.04061 4.08275 2.50304 1.86905 -1.11039 -1.98385 0.593871 -1.65017 Si
60 1 5.52673 5.44906 5.35989 3.57396 -2.69005 -8.457 -0.625174 0.164018 0.792405 Si
63 1 6.81927 6.80602 6.81761 -0.392308 1.19282 2.04404 0.268864 -0.740724 -0.801108 Si
28 1 -0.0506458 5.45859 5.43162 -2.40256 0.836087 3.70536 -0.335535 -0.290098 0.149141 Si
41 1 9.40771 3.94666 6.72014 4.37429 6.79629 3.81166 1.48243 1.14495 0.698482 Si
51 1 9.49709 6.86947 4.02364 -1.4969 1.31455 0.052339 -0.231535 -0.709756 0.567339 Si
21 1 1.44503 9.47361 4.12502 2.47712 3.21215 0.796865 -0.673429 0.11404 0.767314 Si
30 1 2.78373 8.16888 5.54133 0.340129 -3.23124 4.18421 -0.408042 -0.0792502 -0.174979 Si
44 1 5.4552 0.100187 5.42225 0.267004 3.48497 1.86928 -0.683191 -0.303572 0.856243 Si
25 1 4.13664 9.54947 6.84912 -1.57261 4.19715 -0.434856 0.165409 0.276291 -0.23141 Si
53 1 6.77036 9.65179 4.07913 0.140511 -0.247751 -4.62507 0.593216 -0.619821 0.0494633 Si
12 1 0.0327289 -0.0625777 5.47874 -2.20152 0.384745 -4.22984 0.0051299 0.868477 -0.339828 Si
57 1 9.53297 9.48267 6.77925 5.92607 2.4601 -5.60446 -0.19899 0.228309 -0.228791 Si
62 1 8.09066 8.21592 5.43442 0.557777 -2.20133 1.53234 0.476751 -0.145293 -0.441894 Si
10 1 0.00537812 2.72537 8.20272 2.46661 -1.0667 -1.41623 -0.226668 0.38783 -0.721623 Si
16 1 2.69955 -0.062031 8.23719 -0.335731 -5.61326 3.41368 0.268016 0.54205 -0.360121 Si
11 1 4.02892 1.34598 9.60851 3.68461 -0.909853 3.34065 0.210875 -0.304662 -0.606948 Si
42 1 5.4234 2.66541 8.21016 1.65575 -5.8167 2.78918 0.00825097 1.21923 -0.227726 Si
38 1 8.14954 2.7273 -0.030789 -2.54909 2.49368 5.01625 0.639262 -0.200279 0.714086 Si
43 1 9.55398 1.34794 9.48623 2.23351 6.22693 -0.667993 -0.514488 0.286623 0.355274 Si
13 1 1.42569 4.04779 9.55554 -0.704782 -0.427374 1.25582 -0.883501 0.93112 0.212032 Si
32 1 2.749 5.43955 8.16847 3.43041 2.25642 1.59679 -0.153724 -0.679369 0.419792 Si
27 1 4.05937 6.79707 9.47778 2.78712 0.912413 0.534822 -0.121595 0.704279 0.935301 Si
45 1 6.82673 4.13696 9.56665 0.488438 1.79681 -0.303847 -0.816492 -0.865335 -0.74893 Si
59 1 9.5203 6.80839 9.43865 2.82775 7.6242 5.09411 -0.458655 -0.0857776 0.407603 Si
64 1 8.15944 5.3757 8.13403 -2.6129 -3.1525 0.718407 0.208453 0.453526 -0.251302 Si
22 1 2.73055 8.14094 0.128892 -2.10187 0.910301 0.248657 0.430287 0.284989 -1.5539 Si
29 1 1.34242 9.43366 9.54454 -5.40855 2.79739 -0.832255 0.274032 -0.00487079 0.0417589 Si
58 1 5.46342 8.08346 8.12823 -1.0544 1.76152 2.83761 -0.606516 0.873246 0.33663 Si
61 1 6.7442 9.51068 9.45476 1.417 -4.02967 -1.60375 0.560137 0.602583 0.265349 Si
54 1 8.13495 8.18438 -0.0719338 -1.03995 2.22711 1.92525 0.558058 -0.042941 0.341294 Si
48 1 8.22312 -0.00680344 8.10595 -3.10419 1.0156 5.93645 -0.813732 -0.140617 0.390176 Si
26 1 -0.0221895 8.13706 8.0921 0.391401 -2.06585 -0.858027 0.931787 -0.434123 0.338666 Si
ITEM: TIMESTEP
14300
ITEM: NUMBER OF ATOMS
64
ITEM: BOX BOUNDS pp pp pp
0.0000000000000000e+00 1.0887404739999999e+01
0.0000000000000000e+00 1.0887404739999999e+01
0.0000000000000000e+00 1.0887404739999999e+01
ITEM: ATOMS id type xu yu zu vx vy vz fx fy fz element
2 1 0.0417615 2.73467 2.7402 -3.85604 -3.21942 3.47461 -0.17323 0.18209 -0.230084 Si
6 1 2.72641 2.71234 -0.0581598 -1.09448 0.976543 -1.89215 0.0614039 -0.234085 0.23673 Si
7 1 1.35503 1.37127 1.3145 1.51218 -1.02522 -0.944988 0.0981112 0.231063 0.319588 Si
8 1 2.75014 0.0290054 2.64057 -1.39779 -1.80149 -0.306811 -0.869936 -0.817596 0.477025 Si
34 1 5.52235 2.74385 2.76795 -6.83566 -0.957796 0.417874 -1.3012 -0.936993 -0.615563 Si
36 1 5.43782 -0.0187332 -0.0665462 1.56113 -0.605607 2.32359 -0.381451 0.717489 1.05548 Si
39 1 6.82033 1.35097 1.36912 -1.41527 2.46045 2.22591 0.0682111 0.0387711 -0.23072 Si
40 1 8.13914 0.0641418 2.86726 4.38633 1.1989 -2.65696 0.201446 -0.403706 -0.381717 Si
20 1 0.00800569 5.40166 -0.0255046 -0.610665 1.96762 0.919183 -0.714609 0.0610614 0.303278 Si
23 1 1.38551 6.71766 1.29677 7.32139 -0.591519 -5.11076 -0.59963 1.86049 -0.0985567 Si
24 1 2.72002 5.45873 2.66354 4.83077 -2.68495 -0.29225 0.353773 -0.729542 1.1863 Si
1 1 4.03511 4.02704 1.39019 6.59182 3.02055 3.76457 0.784797 0.119741 -0.405826 Si
52 1 5.36367 5.43278 -0.0176318 0.247897 1.05419 -0.8036 0.284043 -0.758515 0.131591 Si
55 1 6.72007 6.72384 1.3863 0.408158 2.00833 -0.380374 0.937064 0.433321 0.0153948 Si
33 1 9.48471 4.08861 1.39051 3.21324 -0.866864 3.97271 0.489161 0.326018 0.52062 Si
56 1 8.12316 5.44549 2.87008 2.49675 -0.488002 -3.24982 0.128707 -0.136475 -1.20676 Si
18 1 -0.0467559 8.15384 2.68549 -3.57782 0.586819 3.15626 0.538499 -0.989424 0.269541 Si
17 1 4.06158 9.50486 1.33627 -0.0962746 1.15086 -1.79455 0.01051 0.0407032 -0.856429 Si
50 1 5.362 8.10936 2.68638 2.24591 -0.569682 3.08996 0.666785 0.328482 0.308362 Si
4 1 -0.0591773 -0.0255674 0.0948344 3.11405 0.144138 1.07161 0.380997 0.0687016 -1.26023 Si
49 1 9.46724 9.54374 1.45951 -0.804722 2.53666 -1.26251 -0.418441 0.173276 -0.117725 Si
14 1 2.82339 2.62994 5.37683 -4.0886 -2.34427 -0.11177 -0.0355642 0.186762 0.0703112 Si
15 1 1.35029 1.40447 6.72606 -0.212757 -3.90271 2.45997 0.149105 0.182656 0.561397 Si
3 1 4.16793 1.2042 4.0438 2.24516 -0.157353 -0.231435 0.0966859 1.40363 0.0443517 Si
47 1 6.81342 1.29334 6.77142 -3.59245 0.92415 1.48864 0.255794 1.16086 -0.354117 Si
35 1 9.60716 1.43849 4.18646 0.775729 -0.652467 -0.127395 -1.06942 0.0255874 -1.06711 Si
46 1 8.20185 2.77908 5.4927 -0.246916 0.536815 -4.24795 -0.523616 -0.346134 0.128591 Si
5 1 1.44064 4.04856 4.1076 -2.56113 2.45195 -1.16119 -0.330614 0.844381 0.0136127 Si
31 1 1.36202 6.99361 6.86074 -1.87672 -1.9171 -3.02261 0.488905 -1.4802 -0.958285 Si
9 1 4.13897 3.99799 6.78747 7.73251 2.6603 1.73136 -1.29381 1.03401 0.298613 Si
19 1 4.11923 6.7532 4.09163 -2.44513 2.58625 0.71365 -0.987756 0.00685158 -0.222845 Si
37 1 6.73928 4.08747 4.15593 -3.39896 3.94468 2.51228 1.00639 0.153871 0.610729 Si
60 1 5.43255 5.44671 5.5265 -3.60202 2.67609 3.87063 -0.0970211 -0.182357 -0.601689 Si
63 1 6.77505 6.80425 6.8265 -0.237539 -1.08287 0.200656 0.367226 0.635965 0.192669 Si
28 1 0.0837224 5.49304 5.54929 -1.20956 -0.614063 -1.25687 -0.0861101 -0.440316 -0.495388 Si
41 1 9.52389 4.14172 6.87019 -0.962512 0.949658 -4.35753 -0.0303215 0.60538 -0.856428 Si
51 1 9.54703 6.78654 4.17653 3.37752 -2.86037 4.21744 0.172039 0.340837 -0.402164 Si
21 1 1.27432 9.559 4.02206 -1.88295 4.27932 0.382356 1.07207 0.130008 -0.446986 Si
30 1 2.68937 8.17237 5.33034 2.79582 2.52059 2.45086 0.274904 0.218204 0.395974 Si
44 1 5.45527 -0.0785346 5.49723 1.29269 -3.44965 -0.174712 0.191145 -0.201801 -0.807192 Si
25 1 4.12963 9.41639 6.74529 2.828 1.17086 1.73614 -1.25128 0.816242 0.231227 Si
53 1 6.74042 9.448 4.09723 0.830899 1.52635 1.15413 0.395851 0.363738 -0.238591 Si
12 1 -0.00170335 0.0335653 5.42275 -1.23431 1.71158 0.805414 -0.0581795 -0.728901 0.861801 Si
57 1 9.51736 9.55077 6.8506 1.18222 -0.23733 1.71814 0.0979778 0.251231 -0.712619 Si
62 1 8.16131 8.1764 5.46838 1.7039 -4.69196 -1.6703 -0.0690725 -0.233746 0.345808 Si
10 1 0.000478702 2.83765 8.12986 1.91036 3.22918 -0.619333 0.348019 -1.75364 0.877911 Si
16 1 2.75155 0.0253154 8.03597 -0.616446 -0.440497 -1.44433 -0.249795 -0.615304 0.495324 Si
11 1 4.09473 1.37652 9.44024 2.87355 2.87149 -5.46471 0.34339 -0.0111387 -0.0871851 Si
42 1 5.53978 2.73221 8.09456 -2.35228 0.0407274 -3.34037 -0.568409 -0.82695 0.700146 Si
38 1 8.21504 2.71724 -0.00576329 -5.42234 -1.83953 0.262491 -0.953204 0.0238646 0.353827 Si
43 1 9.52016 1.36404 9.54044 -4.471 -1.19364 1.67788 0.594373 0.0252947 -0.738515 Si
13 1 1.37851 4.10771 9.54375 -1.29565 -0.422495 1.13416 -0.0575692 -0.11834 -0.685799 Si
32 1 2.65282 5.48122 8.12425 -4.61362 -1.79566 -0.186213 1.32204 -0.333418 -0.0171861 Si
27 1 4.07437 6.82865 9.50655 -5.65725 4.59307 1.89044 -0.40742 -0.549577 -0.469654 Si
45 1 6.80144 4.05815 9.52848 2.39555 -4.42266 -1.16608 0.420794 0.775645 0.0832442 Si
59 1 9.55324 6.76631 9.47017 1.89266 -1.11655 -4.84005 0.159351 1.23263 1.26972 Si
64 1 8.16727 5.50587 8.17035 3.83412 -3.5309 0.867305 -0.74875 -0.947536 0.184263 Si
22 1 2.70566 8.1892 -0.111658 1.48597 -1.78587 2.82922 -0.191803 -0.350707 1.27125 Si
29 1 1.34818 9.55999 9.48368 5.53107 -5.98265 1.9933 0.224981 1.22139 0.430353 Si
58 1 5.4242 8.18115 8.18896 -1.63291 -0.263088 -2.04469 0.68537 -0.346194 0.0122784 Si
61 1 6.79528 9.55839 9.53826 -4.59121 2.94604 -2.14119 0.619295 -0.947325 -0.196645 Si
54 1 8.17203 8.14623 0.0674319 -4.79584 1.42457 0.664708 -0.43401 -0.347638 -0.677865 Si
48 1 8.1141 0.026887 8.13736 -0.894398 -2.98174 -3.468 0.869327 -0.352863 0.98004 Si
26 1 0.0279959 8.23449 8.18929 0.96589 0.347249 -1.40595 -1.25632 -0.099817 0.202531 Si
ITEM: TIMESTEP
14400
ITEM: NUMBER OF ATOMS
64
ITEM: BOX BOUNDS pp pp pp
0.0000000000000000e+00 1.0887404739999999e+01
0.0000000000000000e+00 1.0887404739999999e+01
0.0000000000000000e+00 1.0887404739999999e+01
ITEM: ATOMS id type xu yu zu vx vy vz fx fy fz element
2 1 -0.0108765 2.67016 2.59484 0.946537 3.16827 -0.11405 -0.53876 0.451525 1.15257 Si
6 1 2.66793 2.8282 0.112303 3.87741 0.00236693 4.29593 -0.129283 -1.29207 -0.825686 Si
7 1 1.35818 1.31338 1.39715 -1.38024 0.128722 2.52537 0.640227 0.172663 -0.862289 Si
8 1 2.73782 0.0733649 2.82182 4.81291 2.07211 0.283435 -0.0750477 -0.816745 -0.335955 Si
34 1 5.38179 2.76239 2.65115 8.56434 -0.57625 -3.6654 0.627637 -0.28623 0.628824 Si
36 1 5.43741 0.0218294 0.0513774 -2.35257 0.124895 -2.84241 -0.0298892 -0.933136 -0.20592 Si
39 1 6.82813 1.35922 1.37202 0.616565 -1.50581 3.43371 -0.247229 0.419323 -0.130963 Si
40 1 8.20658 -0.0399441 2.66215 -8.03745 6.72928 6.45923 -0.532853 -0.021248 -0.220568 Si
20 1 0.0315689 5.41413 -0.00663955 -0.0434142 -0.116204 0.835629 -0.237896 0.616793 0.821525 Si
23 1 1.37194 6.85568 1.35852 0.202027 -1.88808 1.17797 0.282064 -1.0748 0.328049 Si
24 1 2.7727 5.53026 2.79909 -7.41572 3.68169 -0.158765 -1.33435 -0.466015 -0.581081 Si
1 1 4.0143 4.15734 1.39349 -4.19798 -1.66177 0.438765 0.873238 0.387276 0.0263254 Si
52 1 5.51113 5.41063 0.0415012 -2.96001 -0.202279 -3.09354 -0.610349 0.767552 -0.565159 Si
55 1 6.86774 6.89716 1.30645 0.0266059 0.63103 -3.10792 -0.254655 -0.0615987 -0.343398 Si
33 1 9.51714 4.05932 1.28828 -2.8792 -1.70529 -3.57193 0.128446 0.417259 0.243489 Si
56 1 8.16692 5.48769 2.60666 2.24986 0.0437099 5.33379 -0.164696 -0.983024 0.533765 Si
18 1 0.0459662 8.19172 2.6962 6.11587 -4.3575 -0.901084 -0.469135 0.262145 0.643843 Si
17 1 4.03051 9.49088 1.44013 -4.13725 -0.438401 2.17337 0.968605 1.64775 0.175601 Si
50 1 5.49165 8.21112 2.72141 -6.63973 1.02241 -0.0322765 0.193473 -0.215548 0.335388 Si
4 1 0.0899572 -0.0129802 -0.0803565 1.20266 -2.89805 -3.6087 -0.559951 0.0229178 0.831703 Si
49 1 9.58574 9.55339 1.2893 -4.84741 -1.629 2.1578 0.196044 -0.477091 -0.138454 Si
14 1 2.66632 2.74852 5.54475 2.2682 3.95488 -2.4355 -0.696743 -0.198916 -0.536 Si
15 1 1.25396 1.26978 6.88411 0.336736 1.03512 1.64484 1.16081 0.811616 -0.217381 Si
3 1 4.07762 1.46128 4.12458 2.61158 -3.38439 -1.95912 -0.319166 0.211676 0.0414643 Si
47 1 6.74172 1.42571 6.8018 1.55919 -0.890042 -1.20808 0.489148 -0.569774 0.36135 Si
35 1 9.52511 1.28531 3.96491 1.67386 -0.267185 2.93711 0.326319 0.750848 1.01501 Si
46 1 8.15183 2.64479 5.38647 2.01715 -2.65602 1.10688 0.217582 0.565878 -0.338707 Si
5 1 1.28458 4.06996 4.01677 -3.30636 0.789551 2.58543 1.02042 -0.311973 0.314378 Si
31 1 1.26381 6.66879 6.79232 3.92422 -0.732645 1.18916 1.18862 0.962294 0.248372 Si
9 1 4.06295 4.12924 6.84854 -1.90824 -2.86754 3.42649 0.69477 -0.148763 -0.456269 Si
19 1 4.16411 6.81576 4.09837 2.72456 -2.40986 2.96343 -0.499709 1.21736 -0.13352 Si
37 1 6.80826 4.06908 4.02217 1.903 -6.223 -4.35671 0.115766 0.343917 -0.278505 Si
60 1 5.45429 5.47587 5.37586 1.5745 -1.57211 2.42973 0.225196 -1.31047 0.975527 Si
63 1 6.80703 6.77081 6.76089 1.29793 1.36569 -1.18203 0.0883352 0.761527 0.0348502 Si
28 1 -0.0730835 5.38239 5.37121 -0.252052 1.6374 -0.0548572 0.0925502 0.145206 -0.0481417 Si
41 1 9.51156 4.05559 6.74915 0.684559 -2.06405 -1.14555 -0.173347 -0.970168 0.451675 Si
51 1 9.50458 6.75728 4.00341 -0.902453 -1.58314 4.05143 0.225085 1.21286 0.402775 Si
21 1 1.40004 9.54614 4.1599 1.74961 -3.20382 2.92521 -0.396481 -0.222242 -0.337491 Si
30 1 2.75079 8.13774 5.49119 -0.280649 -1.87114 -3.47717 -0.4364 -0.429469 0.230424 Si
44 1 5.38703 0.0849931 5.45912 -2.88447 1.35181 3.50486 0.567236 -0.532694 -0.216572 Si
25 1 4.07129 9.57969 6.82456 -1.06272 -3.02935 1.5282 0.298384 -0.488085 -0.0598786 Si
53 1 6.83639 9.60127 4.10127 1.20917 3.24216 -0.472717 -0.373617 -0.247485 0.213639 Si
12 1 -0.0618663 -0.0184172 5.47176 -1.58103 -1.64513 -0.456495 0.368969 -0.126025 -0.640842 Si
57 1 9.56125 9.49098 6.8323 -5.69991 -0.312164 -2.59127 -0.639497 0.0975681 0.194818 Si
62 1 8.19327 8.19029 5.45959 -1.94294 5.94188 0.755515 -0.1076 -0.607295 -0.684117 Si
10 1 -0.0453808 2.66323 8.23374 -5.11122 2.26933 -2.86484 -0.14392 0.816299 -0.890296 Si
16 1 2.72892 -0.0270031 8.22689 -1.15587 -1.26452 0.646026 -0.284235 0.360948 0.482503 Si
11 1 4.07088 1.42471 9.62142 -4.51745 -3.19869 -0.0470708 -0.430546 -0.0429501 -0.192127 Si
42 1 5.44216 2.76591 8.22464 4.15469 3.99071 2.25218 -0.910983 -0.475838 -0.752679 Si
38 1 8.14818 2.74641 -0.0287573 3.35011 1.51731 -2.16249 0.105968 -0.967983 -0.417342 Si
43 1 9.51712 1.29322 9.51314 4.26416 -0.128533 -1.47824 -0.488917 0.387003 0.545533 Si
13 1 1.29666 4.07408 9.5615 5.20856 1.70583 -1.94397 0.864863 -0.424029 -0.424965 Si
32 1 2.73603 5.41214 8.2396 1.67061 1.92924 -0.935175 -0.835069 0.585113 -0.170545 Si
27 1 4.09155 6.83892 9.56787 1.61547 0.263666 -0.745093 0.826396 -0.323523 -0.0948229 Si
45 1 6.8087 4.06958 9.46356 -5.46689 2.1954 0.058859 0.330337 0.628091 0.983769 Si
59 1 9.55976 6.72054 9.54643 -6.0524 -3.63621 0.502514 -0.440339 -0.249432 -1.11507 Si
64 1 8.14568 5.41105 8.0982 -4.64596 3.73108 -2.54581 0.563316 0.177365 0.444066 Si
22 1 2.77128 8.17561 0.0916162 -0.82982 5.64177 -4.38213 -0.307404 -0.591612 -0.7494 Si
29 1 1.40517 9.42153 9.59271 5.00114 1.19235 -0.731356 -0.0191441 0.302733 -1.11731 Si
58 1 5.49425 8.20036 8.13116 0.780054 -1.38209 -1.1748 -0.688334 -0.612668 0.18914 Si
61 1 6.84054 9.50793 9.5087 3.54198 -2.19163 3.71833 -0.503384 0.874699 0.162123 Si
54 1 8.27241 8.17782 -0.1319 5.935 -3.88061 -3.83285 -0.523157 0.0994873 1.36208 Si
48 1 8.14655 -0.0027305 8.12863 0.340076 1.85223 -4.31762 -0.114434 0.0329782 -0.222785 Si
26 1 -0.0301943 8.09626 8.19632 2.48052 4.16059 0.255834 0.836709 -0.0317678 -0.0703567 Si
ITEM: TIMESTEP
14500
ITEM: NUMBER OF ATOMS
64
ITEM: BOX BOUNDS pp pp pp
0.0000000000000000e+00 1.0887404739999999e+01
0.0000000000000000e+00 1.0887404739999999e+01
0.0000000000000000e+00 1.0887404739999999e+01
ITEM: ATOMS id type xu yu zu vx vy vz fx fy fz element
2 1 -0.0318842 2.75562 2.83745 1.10829 -0.0311189 -1.54224 0.897221 -0.391941 -1.12282 Si
6 1 2.67921 2.61462 -0.0932305 -1.4717 0.904249 -4.09184 0.820507 1.43365 0.771985 Si
7 1 1.38268 1.40055 1.35258 0.140315 -2.4799 0.761675 -1.13775 -0.209807 0.795013 Si
8 1 2.71098 -0.0847167 2.58193 -2.42834 0.64871 -1.18784 0.213644 1.13977 0.721794 Si
34 1 5.42988 2.64117 2.76761 -2.20534 1.40385 0.731955 0.743491 1.02807 -0.473689 Si
36 1 5.47788 -0.0369314 0.0721701 0.720645 4.92472 3.42064 0.135365 0.68912 -1.69891 Si
39 1 6.86573 1.42252 1.39998 -1.00079 0.23313 -3.6988 -0.712733 -0.99501 -0.173587 Si
40 1 8.15457 -0.00311993 2.73148 3.78855 -4.20761 0.369319 -0.244688 -0.43965 0.0980613 Si
20 1 -0.029023 5.51899 0.00335071 1.90851 1.54073 0.141685 0.273209 -0.95472 -0.931644 Si
23 1 1.34949 6.74941 1.33036 -1.68697 2.06927 -0.358552 -0.644352 0.818627 0.745465 Si
24 1 2.69879 5.37869 2.61836 2.50933 -1.11114 -1.67955 0.703261 -0.00128992 -0.352689 Si
1 1 4.13516 3.95796 1.31912 0.416452 -0.247013 1.75453 -0.999266 0.091859 -0.168394 Si
52 1 5.44881 5.38246 -0.00359994 0.188308 1.0631 -0.177286 -0.0553875 0.445076 0.328491 Si
55 1 6.78736 6.75054 1.40785 -2.61249 -6.42802 -1.26532 -0.622162 -0.502556 0.703774 Si
33 1 9.62109 4.135 1.40508 1.50409 -0.65534 1.59253 -0.755407 -0.80818 -0.400635 Si
56 1 8.20313 5.35265 2.75431 -2.46124 0.327249 -0.90705 -0.50354 1.34022 0.559147 Si
18 1 -0.0263979 8.13627 2.73833 -1.59372 2.35169 -2.28287 0.281155 0.537416 -0.686355 Si
17 1 4.03794 9.47106 1.28286 -1.47394 -3.11964 -2.66011 0.164686 -0.559132 -0.0221962 Si
50 1 5.37886 8.16997 2.73962 7.05114 6.13553 -4.5756 -0.195073 -0.854508 -0.659376 Si
4 1 -0.044835 0.0831361 0.0407636 1.99818 2.77951 -1.92838 -0.612389 0.198641 0.0956893 Si
49 1 9.45916 9.51484 1.31948 6.29489 3.13793 1.93143 0.926944 0.351195 1.15948 Si
14 1 2.79377 2.74731 5.35514 0.333915 -1.46309 0.921899 -0.0507604 -0.0710141 0.356498 Si
15 1 1.43741 1.37087 6.74735 -2.24858 -4.74188 1.52036 -0.388209 -0.107431 -0.165589 Si
3 1 4.06956 1.2987 3.98469 0.260086 1.37785 -2.0965 -0.14773 -0.740511 0.694995 Si
47 1 6.85071 1.27403 6.8711 4.10691 1.12691 -3.98137 0.176272 0.523402 -0.754333 Si
35 1 9.45123 1.37259 4.10556 -3.79217 5.93678 -2.31199 0.412289 0.284217 0.177089 Si
46 1 8.20219 2.74865 5.56087 0.0585898 3.39028 0.320027 -0.385009 0.0944387 0.0425788 Si
5 1 1.40853 4.1549 4.04692 1.71709 -2.4723 -6.02159 -0.57965 -0.786422 0.804297 Si
31 1 1.4304 6.87511 6.79147 -4.54668 1.86171 0.267451 -0.830423 -0.268904 0.878708 Si
9 1 4.17484 4.09037 6.76339 -3.26774 1.90037 -1.19018 -0.844529 -0.591152 0.0262578 Si
19 1 3.9385 6.77996 4.00889 -5.84366 -0.782265 -2.59214 1.7886 -0.446116 0.359104 Si
37 1 6.77464 4.06043 4.1387 -1.87492 -5.52225 6.24082 0.419988 -0.457609 -0.0562622 Si
60 1 5.42559 5.46155 5.43829 3.41197 3.3379 -1.85897 0.109912 0.872978 -0.620912 Si
63 1 6.80784 6.80929 6.84039 2.68571 -0.106771 2.39163 -0.0911959 -0.678136 0.0570163 Si
28 1 0.0351546 5.47243 5.45617 3.69389 -3.13682 0.62444 -0.132582 0.418316 0.322605 Si
41 1 9.58512 4.15251 6.95189 -3.56027 2.80223 1.26059 -0.0685557 -0.200487 -0.896769 Si
51 1 9.49521 6.86882 4.1387 -1.00677 1.02199 -1.52302 0.397138 -1.63946 -0.600435 Si
21 1 1.41392 9.54746 4.01703 0.73159 -1.07771 -3.85822 -0.625091 -0.742982 0.445116 Si
30 1 2.7842 8.1659 5.42276 -5.12222 4.36192 1.04166 -1.01982 0.746178 -0.427551 Si
44 1 5.55006 -0.0098586 5.35443 4.62962 -0.911112 -3.91488 -1.37936 0.333357 0.909587 Si
25 1 4.08266 9.56532 6.74242 -1.42053 -0.943149 -2.07134 0.575183 -0.0908477 0.683502 Si
53 1 6.77624 9.45055 4.0734 1.60077 -7.95046 5.09667 0.926747 0.281108 -0.431053 Si
12 1 0.0159861 0.0414707 5.35231 -0.568778 3.10885 -2.74703 0.477969 -0.00983881 0.367656 Si
57 1 9.52481 9.60744 6.71335 2.11881 -3.21991 2.88373 0.360187 -0.813442 0.660059 Si
62 1 8.14355 8.13302 5.46201 -0.203113 -0.420201 0.0997933 -0.224075 0.958991 0.351081 Si
10 1 0.0978846 2.70304 8.16224 0.342684 -1.88355 4.35694 -0.703289 -0.0097507 -0.206546 Si
16 1 2.64871 -0.0481499 8.20177 3.63418 1.11007 -0.0456964 1.11402 0.818627 -1.45412 Si
11 1 4.04223 1.36489 9.44638 1.98611 -1.02361 2.49705 1.11347 -1.34354 0.751808 Si
42 1 5.45917 2.68088 8.1097 0.612489 -1.39883 0.952418 0.56087 0.575313 0.843126 Si
38 1 8.17714 2.77077 0.0432374 -1.91715 0.199 4.89407 0.64299 0.549715 0.123316 Si
43 1 9.52033 1.45992 9.53885 -5.23777 -0.165178 -0.608464 0.556523 -0.411656 0.148775 Si
13 1 1.37772 4.04994 9.50348 -6.31555 0.926431 2.85134 0.0295945 1.25716 0.299558 Si
32 1 2.79427 5.41805 8.12078 3.7014 3.59118 1.33304 -0.752704 0.00308329 0.202905 Si
27 1 4.0429 6.76254 9.56955 -3.07182 -2.63205 1.53253 -0.00419513 0.500652 -0.146033 Si
45 1 6.85027 4.10451 9.5455 6.76613 -1.711 0.748718 -0.972549 -1.04417 -0.230999 Si
59 1 9.42968 6.93022 9.63762 5.5082 -0.139871 2.38696 1.13267 -0.566079 -0.597116 Si
64 1 8.17295 5.48863 8.3044 3.24902 -1.87376 -1.6502 0.145722 0.511018 -1.08751 Si
22 1 2.54308 8.16262 -0.038299 1.44388 -5.53921 -0.416752 1.27463 0.310701 -0.482184 Si
29 1 1.24025 9.67887 9.53714 -2.88112 -0.175112 2.77056 0.232654 -1.4876 0.565511 Si
58 1 5.40266 8.12436 8.15895 -2.61804 -0.102275 3.09035 -0.0316498 0.633795 0.187522 Si
61 1 6.88626 9.44684 9.50022 -2.38079 1.20563 -3.81516 -1.24719 0.780927 0.526561 Si
54 1 8.07097 8.14064 0.124754 -3.04086 2.12666 -0.427127 0.164535 0.372892 -0.717501 Si
48 1 8.26954 -0.00367227 8.21764 -0.246019 2.58963 3.65995 -0.612647 -0.1488 -0.159518 Si
26 1 -0.0393483 8.26295 8.22037 -2.12265 -1.82291 3.03928 -0.197484 -0.527761 -1.0394 Si
ITEM: TIMESTEP
14600
ITEM: NUMBER OF ATOMS
64
ITEM: BOX BOUNDS pp pp pp
0.0000000000000000e+00 1.0887404739999999e+01
0.0000000000000000e+00 1.0887404739999999e+01
0.0000000000000000e+00 1.0887404739999999e+01
ITEM: ATOMS id type xu yu zu vx vy vz fx fy fz element
2 1 0.0999919 2.66347 2.67922 -1.24473 -2.51834 -0.976657 -1.32878 0.926654 0.488941 Si
6 1 2.78524 2.81471 0.0713427 -1.64155 -1.0916 5.60429 -0.553262 -0.782783 -1.10191 Si
7 1 1.34116 1.33632 1.32188 -0.875878 1.1919 1.06128 1.21361 -0.323473 -0.142818 Si
8 1 2.67383 0.0597715 2.85268 -3.51301 -2.69057 3.01307 0.142094 -0.429853 -1.24846 Si
34 1 5.38334 2.77484 2.78328 -3.17568 2.4259 1.445 -0.0135523 -0.0491408 -0.130493 Si
36 1 5.40323 0.0269551 -0.0941025 0.417458 -4.86703 1.46456 -0.00904417 0.334428 2.07918 Si
39 1 6.72361 1.42211 1.39741 0.815864 0.378791 -1.28638 0.545599 -0.899601 -0.68534 Si
40 1 8.13568 -0.0441762 2.72353 0.220694 0.108521 -5.33539 1.20855 1.36282 -0.766858 Si
20 1 -0.0381291 5.40026 0.0320223 0.0360113 2.46095 2.01097 0.342988 0.863366 0.249683 Si
23 1 1.41399 6.81486 1.4046 -1.23136 -0.219342 -1.59022 -0.286702 -0.357831 -0.54906 Si
24 1 2.74346 5.45941 2.81031 0.00341364 0.122751 -3.73298 0.33579 0.772601 0.245585 Si
1 1 4.1008 4.21207 1.42586 4.1951 2.04984 -4.32397 0.22897 -0.588863 -0.289204 Si
52 1 5.45973 5.51977 0.0022998 -2.92165 -1.75775 2.87792 0.00698701 -0.258561 -0.173755 Si
55 1 6.78509 6.93614 1.32845 -3.04758 3.82979 4.68403 0.757674 -1.11335 -0.441506 Si
33 1 9.47574 3.98063 1.30402 5.28971 0.429272 -1.92975 0.18723 0.603663 0.942851 Si
56 1 8.12444 5.53935 2.65711 -0.751598 -7.46584 -2.36461 0.74665 -0.704143 -0.076343 Si
18 1 0.0463268 8.20319 2.72101 6.25944 1.39619 3.53967 -0.246475 -0.396145 0.0042144 Si
17 1 4.11314 9.59057 1.46621 3.67255 3.5632 -2.53459 0.247988 -0.451226 -0.0786461 Si
50 1 5.55119 8.1216 2.82425 -2.21783 -1.33566 6.89309 -0.820431 1.94582 -0.548023 Si
4 1 0.000396099 -0.0905729 -0.0115765 -1.83598 3.61597 4.48632 1.41918 -0.0676376 -0.444943 Si
49 1 9.57036 9.49108 1.32821 3.41857 -1.10973 -2.4166 -0.900964 -0.0989852 0.487098 Si
14 1 2.67928 2.69062 5.49086 -2.65159 -1.32192 -3.33712 0.878776 0.359267 -0.247812 Si
15 1 1.37651 1.43218 6.84857 2.17912 5.16789 -3.02116 -1.024 -0.930096 0.184259 Si
3 1 4.06973 1.35076 4.17514 -2.70625 3.05006 2.94016 -0.00146431 0.476544 -0.278589 Si
47 1 6.75435 1.41607 6.72886 -1.7271 -0.521298 1.47934 -0.312893 -0.769286 0.562651 Si
35 1 9.60225 1.35581 4.09696 -3.43475 -2.55045 -0.0280107 -0.459265 -0.848924 -0.129751 Si
46 1 8.0803 2.70423 5.33471 -1.94891 0.674418 1.06511 0.447541 0.072576 -0.32363 Si
5 1 1.42738 4.02666 4.10819 -2.69498 -0.64317 0.514237 -0.994984 0.40374 -0.372187 Si
31 1 1.39557 6.79892 6.76655 0.72295 -2.73084 4.85347 -0.514044 -0.651652 -0.534614 Si
9 1 4.00709 4.07716 6.81233 0.746717 1.93925 -0.546385 -0.171763 0.0960111 0.417546 Si
19 1 4.20334 6.82873 4.1645 4.11344 2.35332 -2.96014 -1.59305 -0.277559 -0.176762 Si
37 1 6.77062 4.17862 4.04066 4.09112 3.65979 -1.55616 -0.0283007 -0.298212 0.256454 Si
60 1 5.41108 5.41354 5.52627 5.03929 -3.15159 -4.51248 0.513688 0.00444604 -0.593173 Si
63 1 6.85489 6.7661 6.73796 -3.51218 0.729791 -1.42799 -0.571947 0.196392 0.715838 Si
28 1 -0.0331332 5.38678 5.42118 -5.17666 0.966521 2.17865 0.328844 0.233946 0.0274754 Si
41 1 9.42955 3.97977 6.71578 -2.46746 -6.04524 -0.649662 0.434219 0.813267 0.62329 Si
51 1 9.54484 6.85617 4.07015 -0.552178 5.81556 -3.19704 -0.294605 -0.33965 -0.0611963 Si
21 1 1.32277 9.5339 4.12896 -1.23196 1.22539 -1.1685 0.1468 0.327145 0.0153263 Si
30 1 2.70713 8.21071 5.41464 5.24055 -1.33596 4.82097 0.76259 -0.554569 0.489974 Si
44 1 5.38173 -0.0741607 5.46581 -1.36903 3.7353 0.577494 0.959076 0.979505 -0.139489 Si
25 1 4.04958 9.54817 6.83459 3.89828 2.62028 1.05103 0.113909 -0.919759 -0.358181 Si
53 1 6.875 9.58381 4.11443 -4.46269 6.40109 -2.15865 -1.3056 -0.77584 0.292827 Si
12 1 0.0302283 -0.0582093 5.58773 0.878517 -5.98668 -1.88412 -0.893292 0.584268 -0.524329 Si
57 1 9.42138 9.46083 6.88551 1.14859 -0.492858 -2.39057 1.15488 0.420667 -0.38468 Si
62 1 8.12518 8.19082 5.44231 1.50459 -1.33762 1.42955 0.92601 -0.473025 -0.264266 Si
10 1 -0.0985316 2.69168 8.16734 -1.50846 1.32419 -0.730403 0.917826 0.677905 0.25581 Si
16 1 2.73447 0.0515172 8.11145 -0.255575 -3.29331 4.48384 -0.138054 -0.354437 1.0108 Si
11 1 4.11766 1.37409 9.45395 1.09109 -1.21049 3.68728 -1.12399 0.889804 0.735339 Si
42 1 5.40626 2.76653 8.13374 0.0138107 -6.96234 -1.11114 0.245873 -0.285637 -0.401556 Si
38 1 8.17546 2.62318 -0.101294 3.78279 -1.02414 -5.30259 -0.951636 0.554839 0.889753 Si
43 1 9.57849 1.26692 9.55229 1.31631 -0.374017 3.44346 -0.812249 -0.0623108 -0.917935 Si
13 1 1.30909 4.1366 9.54843 1.89193 0.373033 -2.9901 -0.199552 -1.78142 0.27094 Si
32 1 2.62163 5.40789 8.1985 -3.18238 3.41112 4.6673 1.47937 1.07725 -0.423177 Si
27 1 4.12414 6.84362 9.47198 2.50267 -0.428419 1.20843 -0.445844 -0.968894 -0.0135384 Si
45 1 6.75711 4.06614 9.50308 -2.65222 5.5042 1.23772 0.691294 0.470997 0.2341 Si
59 1 9.59141 6.71872 9.40946 3.04316 -2.33373 -5.89764 -0.224725 0.4285 1.11054 Si
64 1 8.16577 5.42959 8.12744 0.593068 -1.09585 0.891702 -0.233976 -0.946961 -0.31454 Si
22 1 2.84295 8.15145 0.0247275 -2.58605 -1.80775 4.95514 -0.299979 0.197266 0.61081 Si
29 1 1.4964 9.43776 9.50234 -4.25966 -2.00875 -1.2115 -1.14991 0.798228 -0.0668064 Si
58 1 5.48536 8.13573 8.09264 1.53566 -0.987299 -2.56313 0.0710571 0.751385 0.334022 Si
61 1 6.7571 9.59641 9.53323 -5.95833 2.87644 -1.65679 0.97097 -1.56665 -0.735015 Si
54 1 8.24038 8.12407 -0.0755845 3.57979 0.735371 -0.55933 -0.413522 0.778152 -0.371684 Si
48 1 8.1085 0.0319638 8.1418 2.52893 -0.799176 -1.87607 0.0039596 0.278381 0.265516 Si
26 1 0.0544209 8.10313 8.1112 1.02407 -2.63734 -3.33727 -0.112137 0.646638 0.509452 Si
ITEM: TIMESTEP
14700
ITEM: NUMBER OF ATOMS
64
ITEM: BOX BOUNDS pp pp pp
0.0000000000000000e+00 1.0887404739999999e+01
0.0000000000000000e+00 1.0887404739999999e+01
0.0000000000000000e+00 1.0887404739999999e+01
ITEM: ATOMS id type xu yu zu vx vy vz fx fy fz element
2 1 -0.0430194 2.82877 2.68712 1.41962 -2.70904 1.22448 0.417896 -0.84472 0.377045 Si
6 1 2.7144 2.62499 0.0129396 1.08931 0.726365 -3.23456 -0.617501 0.833932 0.624515 Si
7 1 1.28659 1.32022 1.4053 3.0609 2.79551 -6.08544 0.325972 0.842403 -0.365144 Si
8 1 2.74379 0.051872 2.72625 4.60652 -0.178344 -4.3283 0.229119 -0.738832 0.552122 Si
34 1 5.49566 2.73813 2.69608 3.20098 -3.52734 5.40986 -0.276395 -1.04086 -0.444008 Si
36 1 5.46883 0.0010479 -0.0499608 -2.17894 -1.65057 -2.99618 -0.084053 -1.19263 -0.0075389 Si
39 1 6.86517 1.27254 1.2314 -2.65787 4.74224 4.14402 -0.0625784 1.3049 1.73203 Si
40 1 8.18093 -0.0274725 2.74557 -1.5875 0.793231 8.38681 -0.849865 0.26124 0.664607 Si
20 1 0.0259783 5.45719 -0.0828763 -0.541094 -5.50041 0.565538 -0.282278 -0.487959 0.356746 Si
23 1 1.24384 6.7785 1.38034 0.195243 -0.701345 1.62783 1.55092 0.258156 -0.84579 Si
24 1 2.69549 5.44611 2.7016 -0.571837 0.698472 0.584347 -0.479543 -0.48274 0.322159 Si
1 1 4.05346 4.07862 1.35021 -4.86556 -2.70962 1.19661 -0.0211672 -0.537027 0.122824 Si
52 1 5.40011 5.43173 0.0166201 -0.829959 -0.146186 -4.41006 0.0977776 -0.649017 -0.310523 Si
55 1 6.77611 6.66341 1.35167 -0.562685 -2.12211 -1.23083 0.490054 1.66066 0.449496 Si
33 1 9.50675 4.1859 1.33392 -5.1595 2.30202 -0.233508 0.152686 -0.488531 -0.188367 Si
56 1 8.14969 5.40903 2.78752 1.74473 1.85662 5.28731 0.000171699 0.20702 -0.265065 Si
18 1 -0.0403764 8.17042 2.66637 -3.50109 -2.99728 -3.439 0.193608 -0.487751 1.31902 Si
17 1 4.16521 9.51676 1.40627 -3.6082 1.56203 4.91883 -1.93975 0.920251 -1.81407 Si
50 1 5.40182 8.14286 2.62905 -6.54468 -2.61917 -1.28899 0.735642 -1.70886 1.15079 Si
4 1 -0.0668906 0.032351 0.00269086 -0.335218 -5.73769 0.801839 -0.36065 0.372334 0.50868 Si
49 1 9.5565 9.56041 1.4568 -0.678631 1.13682 2.04396 -0.814619 -0.198352 -1.68126 Si
14 1 2.77674 2.72957 5.44314 6.24109 -2.75265 0.921781 -1.16811 -0.142947 0.283729 Si
15 1 1.38327 1.3675 6.75012 -2.23892 0.351468 -1.80201 0.0861554 0.116153 0.158857 Si
3 1 4.09346 1.43019 4.16398 4.23647 -10.8103 -2.94835 0.669648 -0.779149 -1.56774 Si
47 1 6.79469 1.32037 6.85951 4.33928 -2.32785 -6.01605 0.228976 0.777907 0.0968825 Si
35 1 9.58782 1.38273 4.08634 3.64062 3.40525 4.91177 -0.977595 0.307596 0.190609 Si
46 1 8.15273 2.75307 5.52302 -1.38425 -1.37022 -0.779496 0.991087 -0.577955 0.00171444 Si
5 1 1.37196 4.03785 4.1397 7.37095 3.16835 1.02913 -0.0670516 1.11104 -0.548843 Si
31 1 1.37192 6.837 6.91764 3.16333 8.46468 -4.01914 0.208295 0.18591 -0.719295 Si
9 1 4.08414 4.02853 6.76154 1.38812 2.29367 -0.530229 1.38677 0.748442 0.380996 Si
19 1 4.08237 6.75421 4.05447 -0.243755 -0.722664 2.86535 -0.191767 0.695128 -0.0838769 Si
37 1 6.80788 4.02697 4.11524 -1.23434 0.838206 1.05743 0.359535 0.300711 -0.264384 Si
60 1 5.48166 5.42645 5.38523 -5.45967 -0.0770159 5.83599 -0.634433 -0.0312165 0.863427 Si
63 1 6.7718 6.85555 6.77885 0.405533 -2.20374 2.12729 -0.193695 -0.231943 -0.00989551 Si
28 1 0.0603459 5.48504 5.52548 2.12153 0.256247 1.49631 -0.419888 0.0548478 -0.749475 Si
41 1 9.5845 4.15753 6.89158 -0.922554 3.49693 1.57144 -0.517431 -0.72941 -1.10834 Si
51 1 9.51105 6.82663 4.08302 2.55298 -3.28727 -0.603696 0.169217 -0.136564 0.547457 Si
21 1 1.36608 9.45286 4.0255 1.25737 1.16156 -0.384405 0.295348 0.850333 -0.045845 Si
30 1 2.69641 8.14497 5.43321 -3.22267 -1.53925 -5.86158 0.626846 -0.270149 0.309507 Si
44 1 5.42702 0.0318592 5.4972 -0.539862 -5.6387 1.87556 0.0907224 -0.570394 -0.64615 Si
25 1 4.12069 9.50562 6.80611 1.61351 -0.924627 -4.665 -1.02544 0.292736 -0.037853 Si
53 1 6.6651 9.44605 4.06657 1.65016 0.805074 1.79776 0.927658 1.60365 -0.205717 Si
12 1 0.0695072 -0.0191706 5.39872 -2.56314 2.61288 3.9794 -0.219907 -0.103387 -0.0817244 Si
57 1 9.58308 9.5052 6.75236 -3.62964 5.77698 6.62115 -1.34836 0.911574 0.0806255 Si
62 1 8.0879 8.21091 5.41021 -3.1697 1.10608 3.34477 0.882802 -0.445374 0.167009 Si
10 1 0.0258141 2.71241 8.1385 0.189719 0.153084 -1.37527 0.577056 0.250023 -0.274953 Si
16 1 2.7128 0.0228252 8.1248 -0.9903 1.29028 -4.97047 -0.181117 -0.491152 0.365595 Si
11 1 4.03854 1.33136 9.56638 -0.388698 4.45457 -2.20448 0.686627 -0.0727998 -0.914571 Si
42 1 5.44557 2.71687 8.22455 1.9284 4.18889 -2.05495 -0.192939 -0.000746969 -0.134753 Si
38 1 8.1977 2.75705 -0.0157831 -1.14145 -0.440915 1.83306 0.209845 -0.0992557 -0.420866 Si
43 1 9.57131 1.40599 9.44866 3.66667 0.203849 -3.21493 -0.643469 0.0414258 1.23588 Si
13 1 1.4053 4.02338 9.50008 0.654906 1.33266 4.54906 0.481277 0.646119 -0.192532 Si
32 1 2.83181 5.44539 8.1073 -2.31252 -5.93392 -1.98089 -1.29396 -0.836395 0.681081 Si
27 1 4.11353 6.73459 9.50779 3.57279 4.22365 -3.60123 -0.271625 1.50454 0.294552 Si
45 1 6.81105 4.14377 9.5623 0.233064 -1.34865 -1.36705 -0.0407439 -0.468882 -0.600263 Si
59 1 9.5105 6.83425 9.56616 -0.980763 2.7759 -1.03309 -0.494516 -0.355501 -0.832382 Si
64 1 8.13603 5.47993 8.09931 -0.313282 2.97968 1.42948 0.109219 0.552722 1.40406 Si
22 1 2.67732 8.1554 -0.0315434 1.96482 1.17582 -3.32138 -0.116354 0.44498 0.257454 Si
29 1 1.20284 9.64126 9.50787 0.319327 0.771199 -0.156612 1.94473 -1.28694 -0.129782 Si
58 1 5.44872 8.21443 8.20251 -1.69939 -3.7216 0.324429 0.341269 -0.843999 0.0640201 Si
61 1 6.91191 9.47519 9.55458 2.67118 1.00622 -2.42818 -0.979973 0.791531 -0.123715 Si
54 1 8.17997 8.15297 0.0706882 -2.2319 -3.61079 0.941673 0.156841 -0.341847 0.733409 Si
48 1 8.19378 0.02629 8.206 -2.45609 -0.905095 -1.80572 0.49746 -0.984403 -0.92831 Si
26 1 -0.0793351 8.19311 8.18356 0.246555 3.30787 -0.333191 0.645545 -0.190578 0.246155 Si
ITEM: TIMESTEP
14800
ITEM: NUMBER OF ATOMS
64
ITEM: BOX BOUNDS pp pp pp
0.0000000000000000e+00 1.0887404739999999e+01
0.0000000000000000e+00 1.0887404739999999e+01
0.0000000000000000e+00 1.0887404739999999e+01
ITEM: ATOMS id type xu yu zu vx vy vz fx fy fz element
2 1 0.0419264 2.68154 2.67517 -2.24683 1.22835 -4.44809 -0.250633 -0.523999 0.485234 Si
6 1 2.67939 2.78518 -0.0884666 -3.70883 1.5631 2.86836 0.915892 -0.776832 0.696046 Si
7 1 1.44979 1.3415 1.26664 2.0764 -4.74896 4.43329 -0.785042 0.58774 0.771171 Si
8 1 2.70905 -0.0298737 2.68914 -1.29468 5.87908 4.08738 0.112311 -0.165784 -0.216895 Si
34 1 5.37378 2.69731 2.72155 -5.5429 3.2518 -2.82911 0.772815 0.589033 0.393477 Si
36 1 5.40253 0.00486751 0.0527221 1.07444 1.23571 1.30518 0.374844 0.509561 -0.532992 Si
39 1 6.8019 1.34214 1.4452 5.829 -5.39655 -1.53519 -0.104417 0.167402 -0.83039 Si
40 1 8.21376 -0.0741906 2.63874 2.7074 0.0882599 -3.84204 -0.230229 -0.0355229 0.379123 Si
20 1 -0.0425832 5.47292 0.076773 2.29424 2.03314 -6.17758 0.681272 -0.241483 -0.252894 Si
23 1 1.35033 6.81669 1.4605 3.20861 1.38276 -3.33363 0.0304009 0.0825898 -0.743868 Si
24 1 2.76817 5.44403 2.73073 4.72807 3.78698 2.40612 0.0399291 -0.361478 -0.565955 Si
1 1 4.09694 4.0388 1.2798 -1.15744 1.40618 2.82959 0.0144961 0.969544 0.500018 Si
52 1 5.55847 5.4399 -0.000865398 2.84343 -0.655426 2.99206 -0.828862 0.00414346 0.369934 Si
55 1 6.884 6.84001 1.38464 7.27978 0.654445 -0.803685 -0.829667 0.142245 -0.967084 Si
33 1 9.53639 4.09719 1.44503 0.979408 1.31766 -1.85808 0.295916 -0.0807968 -0.582854 Si
56 1 8.13516 5.46613 2.65357 -1.57907 2.20009 -3.3796 0.336415 -0.696641 1.29845 Si
18 1 -0.0651249 8.19826 2.72674 1.31332 0.824494 0.921133 0.507124 -0.131346 -0.524397 Si
17 1 4.05787 9.49322 1.30352 -1.63435 -4.51175 2.47056 0.834576 -0.156772 1.55317 Si
50 1 5.55531 8.15709 2.7339 1.48824 1.04203 -0.515259 -1.62369 0.394275 -0.19518 Si
4 1 -0.00704298 0.0781058 -0.0142962 3.9268 2.0698 -5.74711 0.605782 -1.30477 -0.315542 Si
49 1 9.55827 9.48407 1.20854 -2.10491 0.452812 -1.00279 0.431464 1.11355 1.68374 Si
14 1 2.63722 2.71094 5.48399 -0.704368 1.02184 0.897128 0.922835 0.0232563 -0.778379 Si
15 1 1.3453 1.38498 6.87348 -2.50567 -2.53492 3.66755 0.153937 -0.517829 -0.503854 Si
3 1 4.02908 1.34036 4.05164 -0.999089 7.91016 2.08158 -0.436237 0.463195 0.293074 Si
47 1 6.83499 1.34279 6.79837 -3.47335 3.81244 5.17642 -0.100167 0.372674 -0.43515 Si
35 1 9.42347 1.3344 4.06034 -0.123018 -5.23021 -1.89965 1.71672 0.266258 -0.541036 Si
46 1 8.21991 2.75829 5.41447 -3.02452 -4.01488 -0.25954 -1.43689 -0.410697 0.317579 Si
5 1 1.38558 4.07061 4.02288 -5.79934 -0.776595 -1.40023 0.0737406 -0.430551 0.0736218 Si
31 1 1.29191 6.79226 6.74828 -0.591547 -5.93654 2.84323 0.484538 0.246625 0.135226 Si
9 1 4.04876 4.09643 6.76906 1.79056 -1.17033 0.0801154 -0.0503923 -0.109993 -0.0746516 Si
19 1 4.04158 6.85968 4.07555 0.129153 -2.5228 3.23751 0.975194 -0.0186115 -0.126545 Si
37 1 6.79503 4.13512 4.09624 -1.55872 -1.73995 0.0197103 -0.494342 -0.282263 -0.341983 Si
60 1 5.39634 5.51639 5.46334 1.00413 4.50215 -6.07779 0.310439 -0.463689 -0.143799 Si
63 1 6.78006 6.75094 6.92808 0.441521 -0.577011 -1.36724 1.19844 0.644525 -1.13777 Si
28 1 0.0211803 5.41552 5.31059 -1.36228 -0.271399 -2.11373 -0.530391 -0.466407 1.29974 Si
41 1 9.55103 4.01771 6.80648 -0.760662 -1.56474 -1.59506 0.727162 1.20483 0.537336 Si
51 1 9.55023 6.73192 3.98328 -3.01727 -0.882445 2.37069 -0.432709 0.68674 0.672493 Si
21 1 1.31739 9.54019 4.05674 3.01852 -0.519974 2.9098 -0.136466 0.476496 0.641314 Si
30 1 2.71387 8.20146 5.42946 4.16868 0.337855 0.162817 -0.942908 -0.33508 -0.0793547 Si
44 1 5.49529 0.0317982 5.28574 -3.23946 7.05152 0.948051 -0.527704 -0.412357 1.981 Si
25 1 4.08087 9.50974 6.75124 1.0455 -1.47628 1.66661 0.837452 1.00609 0.250484 Si
53 1 6.87525 9.52122 4.08339 -0.723129 -0.166912 -0.87262 0.941135 -0.719036 -0.050632 Si
12 1 -0.0314227 0.0807829 5.4788 -0.806572 -3.58195 -0.463038 0.232908 -0.643159 -0.405258 Si
57 1 9.57712 9.56439 6.87702 4.58817 -3.85549 -4.81923 0.0269683 -0.470826 -0.720585 Si
62 1 8.31613 8.11465 5.47914 0.139475 1.08831 -1.51049 -1.5636 -0.0856069 0.240911 Si
10 1 0.0580485 2.67558 8.23904 1.4951 0.233542 5.43371 -1.93803 0.0451886 0.160162 Si
16 1 2.74437 0.039816 8.16754 -2.04239 -2.03067 0.579818 0.140629 -0.698934 -0.0681058 Si
11 1 4.0841 1.39419 9.5494 -5.6853 3.6969 1.62331 0.111883 0.0388438 -0.424951 Si
42 1 5.41647 2.75653 8.128 2.28992 1.11351 1.39624 0.78497 -0.293612 0.520117 Si
38 1 8.19745 2.76342 0.111964 -1.12014 1.35994 -2.38493 -0.639654 -0.854359 -0.08687 Si
43 1 9.42988 1.3189 9.6219 -3.13441 -0.802129 -2.791 0.93806 1.22994 -0.941777 Si
13 1 1.33373 4.08643 9.53229 0.138381 -3.28218 0.172706 -0.48358 1.22409 -0.0594903 Si
32 1 2.67816 5.41916 8.11177 1.65384 -2.26555 0.501556 -0.193946 0.216824 0.307898 Si
27 1 4.07381 6.70417 9.53159 -8.45521 1.75083 0.625148 0.0769343 0.940414 0.0567719 Si
45 1 6.87418 4.05213 9.57755 3.46722 -0.156286 -3.25834 -0.691023 -0.379371 -0.382554 Si
59 1 9.48605 6.82541 9.60901 -1.20289 -1.61672 5.29848 0.213736 0.490504 0.0509597 Si
64 1 8.19701 5.42866 8.29079 -4.65814 -3.40267 -1.82935 0.251315 -0.471263 -1.34195 Si
22 1 2.71454 8.15153 0.0279535 -0.720062 0.724603 3.82393 -0.364303 -0.810298 -0.724736 Si
29 1 1.37019 9.53625 9.52449 3.02448 -1.90758 3.85335 -0.0905901 0.188415 0.117261 Si
58 1 5.44255 8.1607 8.19368 3.10862 4.86942 -3.43616 -1.1198 -0.315972 -0.239923 Si
61 1 6.71165 9.55602 9.504 7.46828 -4.18662 0.0225237 0.764768 0.26914 0.592378 Si
54 1 8.11415 8.2702 0.0163287 2.15006 1.09152 -4.46753 -0.344858 -1.23502 -1.19971 Si
48 1 8.19 -0.0384935 8.19156 -1.11778 1.62063 0.846308 -1.02263 0.445741 0.0712929 Si
26 1 -0.0234263 8.14931 8.20163 -4.7764 -0.816373 1.46612 0.355762 -0.139527 0.0871245 Si
ITEM: TIMESTEP
14900
ITEM: NUMBER OF ATOMS
64
ITEM: BOX BOUNDS pp pp pp
0.0000000000000000e+00 1.0887404739999999e+01
0.0000000000000000e+00 1.0887404739999999e+01
0.0000000000000000e+00 1.0887404739999999e+01
ITEM: ATOMS id type xu yu zu vx vy vz fx fy fz element
2 1 -0.0161606 2.71732 2.81462 1.44624 -1.09984 0.900784 -0.00227453 0.854853 -0.760725 Si
6 1 2.71455 2.70234 0.0640668 -2.58926 2.77892 -2.52543 0.0490767 0.0450941 -0.728215 Si
7 1 1.33037 1.41956 1.41828 -3.01695 0.178462 -0.0815993 0.148314 -1.15203 0.27729 Si
8 1 2.73565 0.0185629 2.77885 -1.00963 -2.7886 -1.54009 -0.700283 0.248993 -0.307855 Si
34 1 5.48685 2.74615 2.74396 1.69375 -1.22845 -1.445 -0.802815 -0.184507 -0.621241 Si
36 1 5.55214 -0.0302403 -0.0425033 0.417695 -1.04375 1.13515 -1.13776 0.499169 0.846671 Si
39 1 6.83866 1.4469 1.29204 0.235483 4.941 2.69136 -0.299876 -0.58272 0.127204 Si
40 1 8.14692 0.066479 2.67944 1.70433 0.642581 -1.30034 -0.194606 -0.119233 0.107666 Si
20 1 0.0348375 5.35048 -0.0415719 0.0894064 3.42822 1.00311 -0.794345 0.825461 -0.114077 Si
23 1 1.39185 6.78284 1.29021 -1.60028 -5.86933 -0.0911641 -0.3229 0.166405 0.738233 Si
24 1 2.69549 5.44243 2.77248 -0.990151 -0.260236 -3.67401 -0.143327 0.230192 -0.10387 Si
1 1 4.0144 4.08551 1.40659 1.47068 -4.27184 0.0838816 1.05159 0.107215 0.131688 Si
52 1 5.45159 5.47389 0.0778282 -0.199101 -0.938487 0.34551 -0.416822 0.029291 -0.531618 Si
55 1 6.82133 6.9165 1.36828 -3.21382 3.20579 2.09017 -0.4762 -1.54627 0.6442 Si
33 1 9.47606 4.02488 1.31322 4.36323 -2.17111 -0.063977 0.668701 -0.0477635 0.0606585 Si
56 1 8.2373 5.49341 2.68075 -2.80846 -0.592398 0.344108 -0.886416 -0.101269 -0.790275 Si
18 1 0.0489009 8.16031 2.76644 -1.06098 2.39422 -2.31977 -0.126031 0.00624961 -0.382563 Si
17 1 4.08685 9.5834 1.40466 -2.1094 -2.41955 -2.71073 0.0982845 -0.085752 -0.780577 Si
50 1 5.34732 8.15083 2.74972 2.39247 -3.41008 -0.0213215 1.62689 1.12894 -0.374786 Si
4 1 -0.00734546 -0.0735384 0.110155 -4.19492 3.54892 4.43866 -0.305123 0.649331 -0.664064 Si
49 1 9.41546 9.46741 1.44276 -2.87782 -3.17998 -5.67648 1.28509 -0.194107 -0.660389 Si
14 1 2.75255 2.7465 5.41541 -1.80123 0.91062 -0.255901 -0.453205 0.176966 0.899646 Si
15 1 1.39396 1.33992 6.70033 0.245336 0.325393 -1.23606 -0.152411 0.408024 1.17936 Si
3 1 4.03704 1.39812 4.10615 0.56969 -4.46815 -3.12518 1.41474 -0.291548 -0.0662914 Si
47 1 6.74982 1.3264 6.8466 -2.67544 -5.03562 4.82655 0.449994 0.400666 -0.0854511 Si
35 1 9.57749 1.2827 4.0593 0.698172 -1.42722 -1.48105 -0.887693 0.61475 0.794293 Si
46 1 8.11737 2.67626 5.4243 4.11692 5.99851 1.38442 0.790269 0.328694 -0.0267073 Si
5 1 1.34571 4.10834 4.19271 4.42726 -2.21929 -2.17341 -0.576553 0.31201 -0.78173 Si
31 1 1.44402 6.7399 6.76545 -3.52804 3.00626 0.239206 -0.716966 0.467573 0.793578 Si
9 1 4.04726 4.07251 6.86275 3.10957 -2.83672 0.125028 0.107597 -0.066035 -0.0213401 Si
19 1 4.14334 6.77149 4.08723 0.446089 0.0664795 -5.26629 -0.92046 -0.736212 0.391075 Si
37 1 6.86227 4.13831 3.9834 -5.70208 2.74027 1.95592 -0.0159331 -0.685975 1.05097 Si
60 1 5.42573 5.32445 5.42059 0.375911 0.666743 0.924495 0.279236 0.801901 -0.109507 Si
63 1 6.77035 6.82116 6.65137 -0.00135357 -0.711049 -1.48371 -0.242668 -0.304482 1.36775 Si
28 1 -0.0750809 5.51459 5.48853 1.59078 1.70401 -0.600314 0.734679 -0.588356 -0.468403 Si
41 1 9.53203 4.11581 6.81646 3.75979 -0.835721 7.25861 -0.987633 -0.661807 -0.539902 Si
51 1 9.49421 6.81159 4.06007 -2.28392 1.82841 1.24853 0.808319 0.430915 0.222835 Si
21 1 1.41479 9.53042 4.18118 -1.57435 2.76295 -1.31095 0.401628 -0.975741 -0.960635 Si
30 1 2.802 8.08442 5.47678 0.237358 3.42726 -1.36711 -0.0423335 0.989736 -0.066511 Si
44 1 5.33898 0.00991532 5.57691 3.57501 0.892966 -3.87504 0.734149 0.0442102 -1.93699 Si
25 1 4.02713 9.56363 6.89499 -3.53057 1.1923 -0.661118 0.144887 -1.01152 -0.212721 Si
53 1 6.79191 9.60827 4.03414 -0.520969 -6.28906 2.36151 -1.18596 -0.324595 0.801934 Si
12 1 0.0427434 -0.0391296 5.43046 1.54929 5.71207 -4.39572 -0.78388 0.16874 0.263271 Si
57 1 9.4656 9.54203 6.74364 -2.07223 1.59815 -0.962246 0.830039 -0.578812 0.365763 Si
62 1 8.1284 8.16569 5.36497 2.42775 -2.55239 -1.38809 0.0713829 0.722111 -0.267686 Si
10 1 0.00598526 2.72398 8.09705 1.7793 2.99441 -1.30911 0.892913 -0.181462 -0.09838 Si
16 1 2.6817 0.0118948 8.2031 2.05969 -1.87906 0.338178 -0.19388 0.469489 -0.0919208 Si
11 1 4.07547 1.35337 9.54244 5.61697 -0.851389 -4.83814 0.0859588 -0.393614 0.536055 Si
42 1 5.41266 2.68577 8.18715 -0.883415 -2.0312 -4.41042 -0.617959 -0.0197365 -0.511689 Si
38 1 8.13788 2.7073 -0.175511 3.10102 1.26443 0.636668 0.446029 0.412697 0.871853 Si
43 1 9.61189 1.36224 9.47691 -1.51639 -0.219757 5.71254 -0.516591 -1.02265 0.331595 Si
13 1 1.40265 4.0325 9.50108 -3.65165 -1.30081 0.618467 -0.441021 -0.457424 0.362157 Si
32 1 2.70975 5.45993 8.26385 -0.409758 1.02485 -1.62497 1.07926 0.326203 -0.616911 Si
27 1 4.14375 6.92206 9.54859 3.35906 -5.89879 4.77823 -0.203531 -1.1114 0.0469262 Si
45 1 6.68652 4.06027 9.47625 0.00711652 -3.34184 2.75174 1.14155 1.28068 0.230019 Si
59 1 9.50667 6.79427 9.45492 -1.25054 -1.18463 2.16749 1.39522 -0.474158 0.0443508 Si
64 1 8.12582 5.47672 8.10576 4.16635 4.48897 1.65287 -0.769441 -0.363106 0.0799299 Si
22 1 2.73296 8.23093 -0.015893 -5.71693 2.46227 -1.67491 0.315715 -0.203799 0.579389 Si
29 1 1.35503 9.51458 9.53372 -2.77009 1.70473 -0.637869 -0.345476 0.411769 0.162785 Si
58 1 5.50387 8.2305 8.15305 0.244903 -0.498835 2.63844 0.0436162 -0.46311 -0.22929 Si
61 1 6.90233 9.46081 9.59149 -1.56992 -0.784766 1.42517 -0.389073 0.46767 -1.14222 Si
54 1 8.19007 8.06614 -0.02966 0.615218 3.53965 4.70731 0.509805 1.0204 0.511435 Si
48 1 8.14874 -0.0228608 8.1671 3.03521 1.0265 -0.921859 0.525968 0.203638 0.275904 Si
26 1 0.0809723 8.1782 8.09196 2.20262 1.18364 5.66528 -1.07946 -0.320865 -0.0419358 Si
ITEM: TIMESTEP
15000
ITEM: NUMBER OF ATOMS
64
ITEM: BOX BOUNDS pp pp pp
0.0000000000000000e+00 1.0887404739999999e+01
0.0000000000000000e+00 1.0887404739999999e+01
0.0000000000000000e+00 1.0887404739999999e+01
ITEM: ATOMS id type xu yu zu vx vy vz fx fy fz element
2 1 0.0502995 2.73801 2.71802 3.02001 2.30106 1.36102 -0.0546432 0.338313 -0.490841 Si
6 1 2.79616 2.72762 -0.0943312 5.20555 -1.38077 1.59168 -0.734062 0.485554 0.671123 Si
7 1 1.36832 1.37866 1.32504 -2.23673 -1.45767 -3.14685 0.146359 -0.120446 -0.904354 Si
8 1 2.7007 -0.0185274 2.6543 1.93899 0.378748 1.44064 0.558057 -0.0485755 0.344768 Si
34 1 5.41514 2.66993 2.7653 -1.39419 1.99176 1.63733 0.396372 0.511378 -0.320898 Si
36 1 5.39014 0.0212287 -0.0373571 1.00423 1.99276 -1.35972 0.183443 -0.311549 -0.158974 Si
39 1 6.73062 1.27644 1.4231 -4.44201 -1.10365 0.0596054 0.299781 -0.0800043 0.462251 Si
40 1 8.19506 -0.0180033 2.79793 -4.19621 -5.60022 0.378045 0.0522673 0.399032 -0.00277703 Si
20 1 -0.0492837 5.45503 0.00332997 -2.20442 -2.50206 4.05519 0.291865 0.673174 0.877754 Si
23 1 1.36107 6.84831 1.39165 -2.87822 1.59486 2.0704 -0.117934 -0.911301 -0.0765813 Si
24 1 2.76634 5.39564 2.73439 -0.238911 -1.14636 2.49465 -0.490181 0.89417 -0.434247 Si
1 1 4.15047 4.08989 1.37549 -0.10874 4.59466 1.82354 -0.623356 -0.786297 -0.501872 Si
52 1 5.42905 5.40741 -0.061747 3.22463 1.71857 3.60105 0.0220077 0.120118 -0.547286 Si
55 1 6.78084 6.68883 1.3409 -1.96339 1.61338 -3.52068 -0.111327 0.835891 0.0660106 Si
33 1 9.50533 4.09817 1.41315 -2.12544 -0.438138 0.553401 -0.183782 0.208891 0.543652 Si
56 1 8.1093 5.48684 2.81698 3.6206 1.83073 -5.24446 0.776387 -0.815118 -0.0552463 Si
18 1 -0.111038 8.15811 2.73306 2.78271 2.37392 0.716522 0.772081 0.417305 -0.0371699 Si
17 1 4.11247 9.46925 1.32034 2.72123 3.13812 4.73446 -0.230689 0.318368 0.163016 Si
50 1 5.47606 8.09532 2.67342 -0.656363 3.6419 4.38617 -0.627052 -0.175599 0.605155 Si
4 1 0.00938695 -0.0359591 -0.0962619 0.867867 -3.48177 -0.822245 0.125368 1.15688 0.396778 Si
49 1 9.5184 9.59624 1.31388 4.27762 0.249337 2.71162 -0.471215 -0.729932 0.544732 Si
14 1 2.78045 2.67124 5.49198 2.1887 0.515074 1.04944 -0.389803 0.295927 -1.17886 Si
15 1 1.36013 1.37296 6.83965 1.4923 -0.141772 1.00306 0.281131 -0.0717701 -0.638243 Si
3 1 4.13691 1.28746 4.07549 -2.37383 1.1722 1.0617 -1.03777 -0.344233 0.338397 Si
47 1 6.79255 1.42238 6.79161 1.49348 1.65815 -6.87803 0.384996 -1.21971 -0.341887 Si
35 1 9.6382 1.44928 4.11034 -0.36521 2.93649 -0.633666 -1.26866 -0.980584 -0.254889 Si
46 1 8.23258 2.74762 5.45601 -2.32925 -3.24464 -0.421398 -0.603836 0.658148 -0.135843 Si
5 1 1.37964 4.09037 4.05558 -0.0244763 0.813072 1.82436 1.07216 -1.07534 0.570947 Si
31 1 1.32141 6.86725 6.76075 3.61716 -2.7475 -3.32168 0.547448 -0.966556 0.311832 Si
9 1 4.15417 4.06251 6.77078 -2.11206 1.8831 -0.71597 -0.747158 0.220127 0.178557 Si
19 1 4.03318 6.80514 4.11808 2.64431 -0.0771662 2.73011 0.208724 0.609144 -0.495255 Si
37 1 6.7114 4.09444 4.12811 3.09845 -2.82714 -2.32769 0.83723 -0.110491 0.296419 Si
60 1 5.41185 5.53043 5.49795 -3.51618 -3.58487 4.44688 0.543047 -0.469242 -0.202693 Si
63 1 6.82528 6.80443 6.89812 -0.920835 -1.54502 -1.93694 -0.222217 -0.365399 -0.162364 Si
28 1 0.0876031 5.39457 5.4243 -0.769287 -2.72805 -1.67592 -0.126193 1.12185 0.0828362 Si
41 1 9.60571 4.17422 6.75918 -2.50916 -1.52935 -2.16049 -0.52502 -1.30107 1.09318 Si
51 1 9.56226 6.77989 4.21737 2.14471 1.56235 -3.58929 -0.740795 0.127501 -0.916656 Si
21 1 1.29119 9.58501 4.0456 -1.46393 -2.91431 0.514615 -0.202557 -0.222307 -0.194573 Si
30 1 2.63041 8.23583 5.40151 1.6861 -4.14126 -1.73086 0.472526 -0.477997 -0.259749 Si
44 1 5.4943 -0.108245 5.41618 -2.56375 -5.64013 1.39523 0.257043 0.975317 0.0980245 Si
25 1 4.0827 9.49226 6.72035 1.34896 2.64464 -0.653138 -0.304659 0.220804 0.421928 Si
53 1 6.84098 9.39039 4.09661 1.42647 4.39514 -1.04265 0.175676 0.559185 -0.285923 Si
12 1 -0.00914807 0.0439893 5.47933 3.19573 -3.32057 7.18061 0.381449 -0.0543932 -0.13454 Si
57 1 9.53968 9.56718 6.82765 -2.3828 -1.03079 3.92157 -0.913257 0.164105 0.65164 Si
62 1 8.16682 8.13064 5.5484 -4.85864 4.8464 3.94541 0.52232 0.138685 -0.199617 Si
10 1 0.0539322 2.73916 8.15593 -2.14916 -7.32721 -1.20674 -1.1161 0.602444 0.174487 Si
16 1 2.75571 0.0148026 8.07275 -2.45079 8.29478 -2.07904 0.250031 -0.36168 0.275506 Si
11 1 4.12048 1.38002 9.39091 -2.10749 -2.33726 0.779585 -0.268878 -0.240177 0.763535 Si
42 1 5.47138 2.75119 8.12849 -3.73316 4.59094 2.08301 0.377225 0.140694 0.131213 Si
38 1 8.11049 2.65941 0.190063 0.582809 -1.59719 -4.50025 0.447103 0.574705 -1.72072 Si
43 1 9.48526 1.42807 9.51707 6.37828 -1.24741 -1.57796 0.15705 -0.326871 0.652177 Si
13 1 1.30722 4.16398 9.5262 -2.16063 3.7946 -2.82297 0.953791 -1.07055 -0.0696103 Si
32 1 2.69378 5.36801 8.06935 1.06322 -2.02809 1.3345 -0.253229 1.06092 0.0270558 Si
27 1 4.00872 6.78193 9.42415 3.40522 2.4346 -2.56987 0.813555 -0.834185 0.37503 Si
45 1 6.86828 4.03514 9.51271 -5.82984 0.86316 -1.91703 -0.460715 -0.305399 1.01087 Si
59 1 9.53614 6.93214 9.62911 0.0556374 0.562712 -1.3125 -1.05167 -1.03655 -0.591315 Si
64 1 8.20412 5.41579 8.22489 -1.51831 3.16016 1.96299 0.779497 1.0632 -0.0108307 Si
22 1 2.77748 8.10153 -0.0294256 3.34417 -2.48625 0.472309 -0.922314 0.775878 -0.0370873 Si
29 1 1.44522 9.55188 9.47417 -2.22726 1.45381 -1.80761 -0.323258 -0.879966 -0.0368011 Si
58 1 5.38553 8.15747 8.13039 2.00051 -1.56841 -5.9679 0.387854 0.296091 0.35142 Si
61 1 6.76564 9.55018 9.49966 -0.905035 0.36651 2.08709 -1.1221 -0.719405 0.701026 Si
54 1 8.03284 8.2163 0.0735397 1.9586 -7.09085 -2.53674 0.96555 -0.0548234 -0.448838 Si
48 1 8.06981 0.0239597 8.25534 1.47444 0.871956 2.24013 1.30761 0.555763 -1.67464 Si
26 1 -0.0197767 8.15671 8.16052 -1.54698 2.02626 -4.16765 0.497427 0.947966 0.339857 Si
ITEM: TIMESTEP
15100
ITEM: NUMBER OF ATOMS
64
ITEM: BOX BOUNDS pp pp pp
0.0000000000000000e+00 1.0887404739999999e+01
0.0000000000000000e+00 1.0887404739999999e+01
0.0000000000000000e+00 1.0887404739999999e+01
ITEM: ATOMS id type xu yu zu vx vy vz fx fy fz element
2 1 -0.129423 2.76511 2.69289 -0.8302 0.978674 -0.201365 0.797135 -1.59062 0.918084 Si
6 1 2.69512 2.66485 0.110787 0.824464 -4.18864 0.182607 0.276647 0.189943 -0.432104 Si
7 1 1.31523 1.31917 1.46419 1.40966 2.7025 2.22709 0.0904476 0.410771 0.104477 Si
8 1 2.75922 -0.00939105 2.83168 -1.35501 0.668753 0.702767 0.124354 0.61932 -0.413353 Si
34 1 5.47925 2.74826 2.5656 0.205446 -2.90866 5.7655 0.0974282 0.0630561 1.30961 Si
36 1 5.42908 0.00250737 0.0336209 -2.13757 -0.49685 -2.04976 1.14705 0.0651144 -0.554787 Si
39 1 6.85348 1.3634 1.27092 4.04519 -1.91192 -4.27126 -0.0220452 0.708639 -0.344598 Si
40 1 8.14492 0.0196466 2.62892 1.58545 -1.31633 0.246176 0.0965568 -0.90738 0.0717643 Si
20 1 0.0197318 5.49119 -0.00475772 -0.951172 1.14133 -3.9588 0.731222 -1.18395 -1.14738 Si
23 1 1.35736 6.77462 1.37006 -1.8694 1.1535 5.00284 0.337137 0.633938 -0.278907 Si
24 1 2.64189 5.45126 2.74838 -0.857378 -2.09576 2.35945 1.09091 -0.403956 0.0371297 Si
1 1 4.10829 4.13917 1.32025 -1.01225 3.46021 -4.12767 -1.05168 -0.0112461 0.571077 Si
52 1 5.45041 5.50184 0.0177033 -2.12081 -0.977522 -3.54841 0.512235 0.431041 0.972067 Si
55 1 6.89537 6.88795 1.32859 0.226213 -5.08522 1.97539 -0.344941 -0.737902 0.280174 Si
33 1 9.61275 4.11863 1.31941 -2.15845 2.48133 -5.27225 -1.01565 -0.29257 -1.13462 Si
56 1 8.23569 5.37203 2.62462 -4.17431 -2.02112 4.9791 -0.779612 1.09713 0.727443 Si
18 1 0.0830065 8.11998 2.72467 -1.77017 -4.33306 -1.66958 -0.559713 0.441233 0.0596451 Si
17 1 4.15147 9.6231 1.38377 6.04459 2.25121 0.493771 -1.16401 -1.05599 0.766533 Si
50 1 5.49694 8.22887 2.7176 2.01434 -2.67088 -1.2958 -0.223956 -0.178324 -0.238939 Si
4 1 -0.0183715 0.073954 -0.00498838 -2.99137 -0.844954 -1.63104 0.400072 -1.25804 0.713638 Si
49 1 9.58385 9.48063 1.35914 -1.38136 1.30592 -1.40702 0.165162 0.684757 -0.00196264 Si
14 1 2.50529 2.83248 5.44439 -0.212642 -0.227448 3.77906 1.86906 -0.741341 0.646816 Si
15 1 1.33225 1.32746 6.85767 4.09318 5.4474 -2.33381 -0.03827 -0.278796 -0.318183 Si
3 1 4.0692 1.55442 4.09328 -1.71742 3.10393 6.49001 -0.484329 -0.441114 -0.0744147 Si
47 1 6.7757 1.36869 6.88924 0.387984 0.422118 3.09807 0.22974 0.242615 -0.120584 Si
35 1 9.42574 1.27473 4.05172 1.16898 -1.17861 1.99905 1.30406 0.628771 0.22907 Si
46 1 8.11823 2.65801 5.40618 -2.46316 1.16341 1.6846 0.0152084 -0.353859 0.517905 Si
5 1 1.19667 4.0998 4.06364 6.83232 -1.39288 2.58463 0.420525 0.44547 -0.462854 Si
31 1 1.36257 6.69618 6.85759 2.13061 4.49725 3.86709 -0.203293 1.47318 -0.321619 Si
9 1 4.04643 4.11092 6.83883 -5.02563 -1.38415 -4.50666 0.608251 -0.75695 -1.15914 Si
19 1 4.10012 6.852 4.05759 -3.17166 0.0687795 -1.38045 0.0955563 -0.613229 0.270055 Si
37 1 6.86203 4.03183 4.03924 -1.09178 6.31271 0.217296 -0.573517 0.499453 -0.652863 Si
60 1 5.4968 5.43006 5.41097 0.164548 1.83783 -3.98645 -0.692152 -0.0333521 -0.0487803 Si
63 1 6.79247 6.86851 6.75638 1.84462 2.95756 1.5249 0.275912 -0.198571 -0.158782 Si
28 1 -0.0371167 5.44987 5.45604 3.82945 -1.94082 1.97624 -0.679636 -0.161461 0.0330261 Si
41 1 9.50709 3.96913 6.75243 -0.119697 2.67525 0.981504 -0.324313 1.01043 -0.0455307 Si
51 1 9.53447 6.79479 4.00448 -2.22169 3.57021 -0.413568 -0.0548355 -0.307103 0.278788 Si
21 1 1.44909 9.42744 4.12092 2.50906 -1.60125 -0.89646 -0.335035 0.441282 0.297041 Si
30 1 2.78003 8.12759 5.55281 -3.31208 3.21996 2.72608 -0.117697 -0.075387 0.0956971 Si
44 1 5.4112 0.142702 5.44377 1.01721 1.01113 -0.909282 -0.628584 -0.857667 0.736331 Si
25 1 4.09281 9.5552 6.95516 -1.11426 0.0799288 0.508194 0.727633 -0.121884 -1.40094 Si
53 1 6.75278 9.66131 4.05816 -1.8583 -3.73697 -1.6402 0.396582 -0.301071 0.0278861 Si
12 1 0.028858 -0.0663812 5.42172 -0.64129 -1.08122 -0.576848 0.0215572 0.424463 -0.393903 Si
57 1 9.57532 9.43297 6.70584 1.30282 -0.638477 -4.81283 0.128957 -0.412857 0.0594632 Si
62 1 8.14442 8.19201 5.29863 -1.22978 -1.8225 -2.78407 -0.133246 -0.0270717 0.566738 Si
10 1 -0.062863 2.68405 8.16231 1.32469 -2.74013 -1.63535 0.915438 -0.00116052 0.287897 Si
16 1 2.70664 -0.0529997 8.26372 0.0552866 -4.66651 1.78115 -0.260422 1.00466 -0.393057 Si
11 1 4.04759 1.28938 9.63434 -2.91401 0.315048 0.0176313 -0.521712 0.602923 -0.209052 Si
42 1 5.33877 2.70908 8.29645 0.155644 -3.03574 -0.26917 0.784357 0.438135 -0.509088 Si
38 1 8.21809 2.79578 -0.0849135 0.455265 -0.930361 4.01885 -0.231717 -0.402572 0.645505 Si
43 1 9.53366 1.31544 9.51758 -2.45082 2.1976 -4.08625 -0.619954 0.459973 -0.672838 Si
13 1 1.44295 3.99323 9.49547 2.45076 -3.33006 0.342818 -0.775215 1.16462 0.278022 Si
32 1 2.81567 5.48376 8.13972 4.52062 -1.34492 -2.63979 -0.878054 -0.787601 1.50953 Si
27 1 4.13045 6.77499 9.58333 -0.481636 -3.19847 -4.58574 -1.13426 1.56543 -0.0262584 Si
45 1 6.74722 4.18379 9.59764 5.65 6.22735 -0.708848 0.508456 -1.11593 -1.53076 Si
59 1 9.47131 6.69104 9.46861 0.425137 3.98122 0.30894 0.508965 0.618754 0.0564432 Si
64 1 8.11354 5.40657 8.05648 -1.05871 -5.42916 -1.46619 -0.0912959 -0.275047 0.337724 Si
22 1 2.68532 8.24562 0.0846251 0.555559 -0.560512 1.43293 1.01353 -0.778374 -0.57028 Si
29 1 1.32457 9.54428 9.55973 -0.978478 5.31371 -1.54707 -0.464433 -0.510548 0.321797 Si
58 1 5.49303 8.15591 8.2572 -2.96898 -1.14399 3.39512 -0.478642 -0.120826 -0.586868 Si
61 1 6.80398 9.50117 9.58378 5.4366 0.623545 -3.10631 1.2428 0.942875 -0.771833 Si
54 1 8.28035 8.16616 -0.0562218 -1.28221 3.82198 3.78848 -0.679328 -0.113989 0.183717 Si
48 1 8.30162 -0.0834764 8.03563 -1.41352 -0.082327 3.20246 -1.85842 0.294705 1.67145 Si
26 1 -0.0322563 8.11509 8.21212 -1.32851 -4.67391 0.0585125 0.487033 -0.194945 -0.608259 Si
ITEM: TIMESTEP
15200
ITEM: NUMBER OF ATOMS
64
ITEM: BOX BOUNDS pp pp pp
0.0000000000000000e+00 1.0887404739999999e+01
0.0000000000000000e+00 1.0887404739999999e+01
0.0000000000000000e+00 1.0887404739999999e+01
ITEM: ATOMS id type xu yu zu vx vy vz fx fy fz element
2 1 0.131389 2.72057 2.75904 0.638624 -1.07026 -2.75616 -0.592377 0.30556 -0.890239 Si
6 1 2.77591 2.72974 -0.127117 -5.69967 3.85539 -2.71628 -0.739084 0.154896 0.495595 Si
7 1 1.39798 1.39005 1.26469 1.10667 -2.66522 -3.92197 -0.149353 0.163123 0.149937 Si
8 1 2.67021 -0.0325234 2.58156 -3.78477 0.679554 3.12972 -0.252423 -0.470066 0.623609 Si
34 1 5.4816 2.73183 2.79152 -2.35815 0.771786 -7.07611 -0.889599 -0.860984 -0.282012 Si
36 1 5.43922 0.0351587 0.02244 1.51548 -3.48338 -1.67247 -0.608121 -0.61797 0.875796 Si
39 1 6.7939 1.3526 1.39785 1.98509 -0.441797 -1.44797 0.00857587 0.0453157 0.330912 Si
40 1 8.1248 0.0053077 2.80905 3.82594 -1.42672 -3.02646 0.665261 0.5551 -0.310699 Si
20 1 -0.0533519 5.41142 0.0965048 1.78609 -1.05003 -0.074613 -0.495765 0.124527 -0.0347278 Si
23 1 1.33905 6.7817 1.37602 3.11679 -0.0713367 -3.19783 -0.130959 0.882637 -0.464787 Si
24 1 2.71358 5.41778 2.65563 0.928127 0.466572 0.210213 0.233909 0.175557 0.72193 Si
1 1 4.0232 4.01022 1.38428 1.39262 -2.37492 0.59435 1.28221 0.272804 -0.629601 Si
52 1 5.42309 5.4004 -0.0172176 2.91536 1.08743 2.56871 -0.0144226 -1.38838 0.325341 Si
55 1 6.68859 6.72996 1.37617 4.62905 4.01395 1.21951 0.950144 0.978644 -0.210418 Si
33 1 9.43987 4.01605 1.47397 -0.530865 1.88536 7.11922 1.27093 0.647111 -0.0593665 Si
56 1 8.11483 5.47685 2.76296 0.206481 3.51926 -1.97938 0.0232377 -0.350841 -0.0812476 Si
18 1 -0.0742016 8.23236 2.69505 -7.20808 4.62148 1.33514 0.479248 -1.52453 0.169623 Si
17 1 4.00099 9.454 1.26848 -1.70973 -3.01888 -3.2897 0.752065 0.566362 -0.117377 Si
50 1 5.412 8.20377 2.68006 3.7258 -6.31986 -0.599823 -0.164622 -0.843661 0.469118 Si
4 1 -0.0155311 -0.0423329 0.0703135 -2.21398 3.75534 2.83312 0.0316798 0.123926 -0.794056 Si
49 1 9.462 9.53792 1.4339 1.0863 -0.930731 0.290576 -0.662033 0.242419 -0.994895 Si
14 1 2.85246 2.62907 5.37538 -6.36338 -2.97373 -4.14215 -0.694807 -0.284489 0.432699 Si
15 1 1.43876 1.36227 6.77868 0.847499 1.4178 -0.991593 -0.933841 1.15409 -0.230715 Si
3 1 4.06279 1.1672 4.0226 -1.86345 2.79231 -0.254394 1.352 0.737538 -0.0518634 Si
47 1 6.94285 1.30928 6.67 -0.273073 -1.51621 3.22616 -1.28646 0.754951 0.344054 Si
35 1 9.53865 1.50467 4.05606 -2.00923 -1.07538 -2.7432 -0.168755 -0.836454 0.0931974 Si
46 1 8.27658 2.87552 5.44862 2.24705 0.192003 -2.33055 -0.609182 -1.30691 0.12169 Si
5 1 1.52791 4.02209 4.09166 -0.802094 -2.78439 -0.433141 -1.22369 0.87981 0.228172 Si
31 1 1.33048 6.92344 6.77122 -3.77458 -0.927849 -0.3249 -0.121069 -0.926758 -0.220666 Si
9 1 4.02434 4.01631 6.80388 2.80014 -1.65624 -0.101732 0.228666 1.13422 0.94674 Si
19 1 4.04757 6.78156 4.05009 2.00175 2.27395 -0.748275 0.350352 0.086502 0.240314 Si
37 1 6.84225 4.08034 4.13384 1.96858 0.650255 1.33364 -0.582601 0.659098 -0.0492942 Si
60 1 5.43062 5.39161 5.49973 0.467176 -0.247542 1.8377 0.0537247 0.770629 -0.260273 Si
63 1 6.85706 6.79154 6.87255 -0.622173 -1.33885 0.37368 -0.737985 0.16739 -0.405434 Si
28 1 0.0414456 5.4643 5.40771 -0.761717 2.90229 -1.38435 0.440073 -0.516997 0.28261 Si
41 1 9.53138 4.16968 6.85774 1.41866 -1.38044 0.752946 0.944459 0.383947 -0.321073 Si
51 1 9.53684 6.796 4.0782 -0.152249 -3.05334 -1.95141 0.0482263 0.437655 0.0469975 Si
21 1 1.22102 9.588 4.01171 -2.12582 1.28202 -1.55016 1.0655 0.304369 0.267018 Si
30 1 2.62018 8.18539 5.35563 2.41775 -2.0094 -2.98142 0.406838 0.276001 -0.553962 Si
44 1 5.4907 -0.175316 5.41339 -1.45758 1.56778 -1.99128 0.270073 0.886493 -0.325696 Si
25 1 4.03063 9.45883 6.72289 0.748395 -0.647255 1.42461 -0.0550166 0.467609 0.831235 Si
53 1 6.9188 9.38301 4.09359 -0.629339 1.74019 -1.00937 -1.16525 0.612396 -0.112842 Si
12 1 -0.0357328 0.132533 5.40495 4.91769 1.8951 2.34544 -0.398449 -1.16809 1.01635 Si
57 1 9.48285 9.5673 6.92321 1.42336 2.65257 5.73271 0.64193 1.19568 -0.838292 Si
62 1 8.25116 8.1573 5.51952 4.57348 -3.56546 -2.37162 -0.16128 -0.707542 0.131869 Si
10 1 -0.00554124 2.76654 8.14887 2.0526 3.99021 4.72027 0.292207 -0.593763 0.682867 Si
16 1 2.79282 0.10983 8.12523 0.284773 1.64044 -7.18051 -0.272858 -2.20213 0.104419 Si
11 1 4.15689 1.31172 9.52528 4.58626 1.49273 -0.646045 0.291031 1.45158 -0.881347 Si
42 1 5.52814 2.69804 8.09068 -1.42663 1.5153 2.46753 -0.0709704 -0.684625 0.164039 Si
38 1 8.17309 2.69434 0.0657718 -0.0618455 -0.145026 -2.57809 -0.306947 -0.195264 0.379021 Si
43 1 9.49803 1.37099 9.6291 -4.12919 0.380636 7.11002 0.950656 0.073158 -0.878531 Si
13 1 1.31656 4.19976 9.54699 1.98952 0.62075 1.49608 0.114776 -1.1411 -0.242791 Si
32 1 2.61638 5.58359 8.19671 -5.58798 -1.10712 -2.94039 1.15711 -1.33697 -0.951165 Si
27 1 4.10566 6.75774 9.56017 -2.4987 0.439568 3.71511 0.158631 -0.0968592 -1.29497 Si
45 1 6.88043 3.99262 9.55444 1.67105 -6.46403 5.91978 -0.563402 1.27936 -0.47778 Si
59 1 9.56646 6.81948 9.54854 -2.25356 -1.79315 -0.629336 0.368569 1.09401 0.634848 Si
64 1 8.23462 5.50757 8.24297 2.04877 1.34626 3.0675 -0.873095 -1.02543 0.0121173 Si
22 1 2.7401 8.06921 -0.136348 -2.45671 -1.76299 -1.8592 -1.36843 0.757842 1.52179 Si
29 1 1.38395 9.54958 9.48184 2.59362 -3.79004 -0.603018 0.699623 0.875652 0.473223 Si
58 1 5.37583 8.15238 8.16609 3.18752 3.50685 3.77417 0.633378 0.165513 0.0107067 Si
61 1 6.69955 9.61476 9.54487 -6.89642 1.23134 2.40865 0.455698 -1.44862 -0.192726 Si
54 1 8.08056 8.17343 0.0124005 -3.57582 2.91592 1.79284 0.108237 -0.106831 0.0755381 Si
48 1 8.07714 0.0822724 8.2723 1.76615 -2.71162 -1.64415 1.06916 -0.578498 -0.520571 Si
26 1 0.0759551 8.24875 8.15341 -1.64343 0.700811 2.34964 -1.50534 -0.629718 0.476042 Si
ITEM: TIMESTEP
15300
ITEM: NUMBER OF ATOMS
64
ITEM: BOX BOUNDS pp pp pp
0.0000000000000000e+00 1.0887404739999999e+01
0.0000000000000000e+00 1.0887404739999999e+01
0.0000000000000000e+00 1.0887404739999999e+01
ITEM: ATOMS id type xu yu zu vx vy vz fx fy fz element
2 1 -0.0630183 2.6977 2.73358 -1.2104 1.48555 3.21476 -0.32454 0.354298 0.560151 Si
6 1 2.71019 2.75091 0.108185 2.21159 0.218996 0.959595 -0.232047 -0.405898 -0.66184 Si
7 1 1.34557 1.39186 1.46084 -1.10942 2.50098 2.598 0.348211 -0.630752 -0.652387 Si
8 1 2.77848 0.0540659 2.79788 5.84519 1.25092 -3.08983 -0.168901 -0.492663 -0.229052 Si
34 1 5.41856 2.73178 2.75011 4.77378 0.0337944 0.467273 0.446922 0.244516 -1.09039 Si
36 1 5.48454 -0.00557007 -0.0459054 4.80974 3.32495 0.737854 -0.279194 -0.374498 -0.20052 Si
39 1 6.78697 1.33553 1.31261 -0.863148 0.823945 3.16878 -0.162978 0.728557 0.605274 Si
40 1 8.17832 0.0205185 2.66335 -4.92394 5.15226 -2.43821 -0.316092 -0.410444 0.346478 Si
20 1 0.077046 5.4338 -0.0599163 -0.617657 -3.25709 1.55921 -0.415093 0.396626 0.401329 Si
23 1 1.38842 6.90915 1.34841 -4.37964 -2.30813 2.43888 0.389358 -1.77051 0.142774 Si
24 1 2.74415 5.46669 2.75086 -1.62295 3.05139 1.11949 -0.986429 -0.00272489 -0.167382 Si
1 1 4.09127 4.15525 1.32354 -3.8016 -3.21163 0.986925 0.172402 -0.432036 1.09374 Si
52 1 5.44042 5.50182 -0.00249919 2.92172 1.63465 1.17779 -0.227287 0.839698 -0.533217 Si
55 1 6.81133 6.79141 1.44705 0.299428 0.99429 -1.49064 0.188263 0.708968 -0.722277 Si
33 1 9.52579 4.03832 1.26389 -2.18888 -2.05529 -1.32901 0.0702634 0.684411 0.604382 Si
56 1 8.22314 5.43836 2.74541 2.89933 2.02322 -3.87519 0.192485 -0.440044 -0.917687 Si
18 1 0.115362 8.12454 2.82685 4.78431 -2.44119 -1.11503 -1.0763 0.979064 -0.390481 Si
17 1 4.14313 9.57336 1.36413 -0.950842 1.1466 3.93768 -0.246374 0.322872 0.581483 Si
50 1 5.42657 8.20827 2.79195 -6.04753 4.23289 -4.291 0.35431 -0.158091 -0.622003 Si
4 1 0.068985 0.0137603 -0.0383927 2.14111 -5.62108 0.333852 -0.422563 0.0219843 0.267684 Si
49 1 9.60854 9.54288 1.39537 -4.5617 -4.56173 0.459546 0.151438 -0.632197 -0.293912 Si
14 1 2.66714 2.78807 5.47847 4.67545 3.99772 1.99852 -0.0908848 0.274197 -0.22211 Si
15 1 1.34868 1.34334 6.73228 -6.03541 -5.40063 2.28836 0.0669675 -0.803171 0.926124 Si
3 1 4.05643 1.47573 4.15276 1.99748 -3.35836 -1.60073 -0.241273 -0.176536 -0.335119 Si
47 1 6.71827 1.42671 6.83805 -2.57159 -2.51615 0.789107 0.512463 -1.07836 0.769079 Si
35 1 9.4916 1.27449 4.1142 6.03336 -3.18538 -0.908308 0.418828 0.252949 -0.142037 Si
46 1 8.08907 2.60405 5.45539 0.0935577 0.652641 1.06071 0.822261 0.868642 -0.567512 Si
5 1 1.23695 4.11926 4.14049 -3.97035 1.1666 4.33018 1.01942 -0.20834 -1.01849 Si
31 1 1.38888 6.65776 6.82123 1.35605 -4.06876 -3.74389 0.464627 0.595407 -0.143685 Si
9 1 4.05633 4.13663 6.81337 -1.85681 -1.19597 3.26297 1.43456 -0.427242 -0.568955 Si
19 1 4.12165 6.78626 4.10527 3.1815 -1.36227 1.83947 -0.571652 0.731288 -0.0927813 Si
37 1 6.90314 4.03054 4.03218 -1.28569 1.22468 -6.7163 -0.732481 -0.00170423 0.22725 Si
60 1 5.52926 5.45555 5.31009 -4.73824 -1.83833 -0.982135 -0.678003 -1.19772 1.38228 Si
63 1 6.75444 6.77889 6.76675 -5.44625 1.35724 0.00480572 0.315955 0.319978 0.0377799 Si
28 1 -0.0804022 5.43389 5.49419 -2.81733 2.4628 -4.95328 -0.10573 0.387936 -0.573281 Si
41 1 9.44582 4.04713 6.71885 7.13078 0.231658 -0.796052 0.214591 -0.824085 0.907319 Si
51 1 9.48649 6.82986 4.10742 4.07416 -6.41388 -1.13463 0.479234 0.0788821 0.361892 Si
21 1 1.50889 9.45554 4.17948 -2.22573 -0.563866 5.07478 -0.756997 0.724944 -0.602089 Si
30 1 2.78106 8.12974 5.55002 1.31767 -1.49158 1.80124 0.402299 -0.720675 0.0597522 Si
44 1 5.37097 0.138686 5.49267 -5.08953 0.456518 4.80193 0.367299 -1.01552 -0.301249 Si
25 1 4.10488 9.58429 6.85703 1.04133 -3.2742 -1.15788 -0.212123 -0.11306 -0.759432 Si
53 1 6.7498 9.64052 4.08611 1.23196 1.19734 -1.52879 0.182566 -0.0305248 0.402383 Si
12 1 -0.00380952 -0.122881 5.44739 -4.27771 2.22951 -3.7335 0.577819 0.906587 -0.588999 Si
57 1 9.54056 9.47264 6.76403 0.547509 -0.816845 -3.58879 -0.921078 -0.00960396 0.591405 Si
62 1 8.07669 8.19301 5.44409 3.5528 2.32189 1.16869 0.308508 0.0809137 -0.38754 Si
10 1 0.00570204 2.69743 8.10083 -0.405892 -2.71552 -4.73783 -0.216913 0.502951 -0.291581 Si
16 1 2.6969 -0.0688026 8.19551 -1.93229 4.59151 5.57672 -0.53674 0.975721 0.025035 Si
11 1 4.00101 1.34351 9.5981 -2.67301 -1.07606 4.48521 0.402873 0.0752982 -0.30836 Si
42 1 5.40268 2.71541 8.23334 1.27482 2.26769 -3.14768 -1.15698 0.400224 -0.505612 Si
38 1 8.08439 2.72844 -0.0520457 -0.547522 3.53303 -2.17606 0.496088 -0.0541317 -0.830283 Si
43 1 9.53212 1.35665 9.43203 5.78898 -2.41201 -3.34381 -0.244169 -0.0569122 1.14699 Si
13 1 1.397 4.01915 9.50782 -0.93392 -3.57555 -3.02305 -0.0638184 0.054165 0.145645 Si
32 1 2.79612 5.40604 8.24182 0.104665 1.704 4.86469 -0.85358 0.438336 -0.317684 Si
27 1 4.06698 6.93659 9.45739 6.79634 0.503421 0.525403 0.636659 -0.992808 1.21924 Si
45 1 6.71964 4.15376 9.45899 -7.027 -1.16915 -2.94267 0.485863 -0.744726 1.12301 Si
59 1 9.59789 6.80868 9.4345 -2.53252 -1.96134 5.29506 -1.24087 -1.06599 0.33554 Si
64 1 8.10094 5.37276 8.08812 -3.08105 3.4328 -1.65438 0.880822 1.30274 0.334137 Si
22 1 2.77956 8.22672 0.0470097 2.52097 6.85689 -0.187067 0.0212204 -0.247119 -0.335439 Si
29 1 1.36806 9.40209 9.53841 -3.46235 1.91147 1.76923 -0.469728 0.728204 -0.674469 Si
58 1 5.44761 8.21181 8.10218 0.697702 1.52822 -3.43784 0.318238 -0.489983 0.157151 Si
61 1 6.83256 9.47533 9.46435 7.04759 -4.18146 4.57235 -0.123458 0.416152 0.748705 Si
54 1 8.20882 8.15988 -0.0218758 2.9836 -1.22002 -4.23026 0.197474 -0.314901 0.496864 Si
48 1 8.14206 -0.0240293 8.14788 -3.7017 0.0889495 0.779442 0.230607 0.204565 -0.907055 Si
26 1 0.0206967 8.07179 8.03386 4.75518 5.66249 -2.09466 0.503385 0.721917 0.954019 Si
ITEM: TIMESTEP
15400
ITEM: NUMBER OF ATOMS
64
ITEM: BOX BOUNDS pp pp pp
0.0000000000000000e+00 1.0887404739999999e+01
0.0000000000000000e+00 1.0887404739999999e+01
0.0000000000000000e+00 1.0887404739999999e+01
ITEM: ATOMS id type xu yu zu vx vy vz fx fy fz element
2 1 -0.0517627 2.73768 2.72949 0.685867 1.50941 0.522955 1.25004 -0.183289 -0.557641 Si
6 1 2.70681 2.68003 -0.0618721 3.13115 0.95505 -4.54565 0.996967 0.606037 0.491574 Si
7 1 1.41684 1.35976 1.30636 0.269423 -0.28654 1.88095 -1.11119 0.103773 1.00252 Si
8 1 2.70974 -0.0511113 2.68003 -1.76653 -1.8316 -0.515243 0.286761 0.941843 0.155878 Si
34 1 5.43962 2.66405 2.74111 -3.87482 -1.83165 3.44515 -0.108646 1.13016 0.612526 Si
36 1 5.38759 -0.042355 0.0870614 -2.70763 -0.381109 0.468548 0.925189 1.51112 -1.4659 Si
39 1 6.76569 1.41276 1.43356 -3.80943 -2.05031 -1.00966 0.747199 -1.54303 -0.554295 Si
40 1 8.21324 0.0717955 2.78537 4.71146 -1.10143 1.09257 -0.865355 -0.886916 -0.801753 Si
20 1 0.000909643 5.47096 -0.00239318 -1.43033 0.897954 -1.6008 -0.12833 0.0283168 -0.419672 Si
23 1 1.38891 6.7549 1.33258 1.51014 2.88443 0.931282 -0.866702 0.632167 0.649309 Si
24 1 2.71622 5.42355 2.69759 3.44822 -3.8714 1.43342 1.05683 -0.00869288 -0.236774 Si
1 1 4.15355 3.9836 1.33469 4.11893 0.219868 0.96331 -1.23899 0.74336 -0.127389 Si
52 1 5.42024 5.36889 -0.112328 0.194005 -0.376983 0.399359 0.539208 0.219351 1.21424 Si
55 1 6.81568 6.76582 1.27959 -0.154506 -4.57355 0.424829 -0.72988 -0.81904 0.928255 Si
33 1 9.56245 4.18556 1.4148 1.95388 -1.95787 1.20454 -0.508139 -1.34117 -0.574243 Si
56 1 8.16252 5.39573 2.77486 0.0304807 3.4079 2.70815 -0.776229 0.984646 -0.15809 Si
18 1 -0.109007 8.10928 2.67423 -4.36116 1.82424 3.86033 1.51894 0.589852 -0.303745 Si
17 1 4.06035 9.51777 1.35868 1.03794 -1.70553 -4.90131 -0.349959 -1.04224 0.211467 Si
50 1 5.41362 8.11348 2.66622 3.71597 -0.155632 1.43028 0.317518 0.376871 0.350822 Si
4 1 0.0144535 0.0153355 -0.0058055 1.3501 2.37871 -1.82923 -0.531903 0.415469 -0.182453 Si
49 1 9.49362 9.54381 1.3081 -0.214363 1.62716 -1.78533 -0.254276 0.260626 0.679757 Si
14 1 2.74825 2.66412 5.44529 -1.36644 0.13747 2.44774 0.165919 0.523013 -0.158966 Si
15 1 1.30036 1.35299 6.88138 2.89099 -1.17037 -1.2596 0.95326 -0.0182077 -0.395007 Si
3 1 4.16567 1.26669 4.04171 0.554382 -1.91864 -2.28223 -1.18387 -0.0118794 0.77705 Si
47 1 6.84336 1.32241 6.78644 -0.558712 2.81616 -0.873476 0.343668 0.768439 -0.686921 Si
35 1 9.52201 1.41348 4.12138 -2.28748 1.35288 2.69969 0.197651 0.043659 -0.128344 Si
46 1 8.18243 2.77302 5.41351 3.43037 -2.37167 -0.575081 -0.782995 0.205147 0.641565 Si
5 1 1.3555 4.12335 4.02747 -0.977912 4.04699 -0.975371 0.279089 -1.1234 1.07792 Si
31 1 1.3336 6.90531 6.79306 -0.719311 -1.45898 -3.1823 0.0364382 -0.420043 0.573288 Si
9 1 4.20067 4.11774 6.80462 3.02238 3.25914 0.855767 -2.25745 -1.20384 0.337298 Si
19 1 3.9812 6.90336 4.10638 -6.59501 -3.73891 2.03936 0.992926 -1.57824 -0.38723 Si
37 1 6.66188 4.14929 4.13715 -1.53137 -2.73722 2.60307 1.00377 -0.562519 -0.0629364 Si
60 1 5.38193 5.52877 5.56296 1.45378 4.56381 0.92874 0.578765 1.16958 -1.66027 Si
63 1 6.81261 6.85157 6.88816 2.05213 -4.27144 0.360466 0.581448 -0.880702 -0.368275 Si
28 1 0.0522969 5.44883 5.47542 4.14805 -2.51633 1.90374 0.319733 0.0767824 -0.362717 Si
41 1 9.60585 4.08767 6.79029 -0.329896 4.48924 -1.12556 -0.72758 0.103868 0.0248815 Si
51 1 9.60143 6.72428 4.08595 -4.57031 0.944742 3.78188 -0.8991 -0.0736725 0.0310522 Si
21 1 1.26625 9.60963 4.00024 4.06996 0.195091 0.898362 0.0964451 -1.4122 0.74898 Si
30 1 2.70085 8.22627 5.43986 -2.97389 3.32044 -0.441725 -0.951915 1.02839 -0.33722 Si
44 1 5.54499 -0.0505842 5.43776 4.72531 -0.126455 -3.6345 -0.96483 0.256483 0.137608 Si
25 1 4.16157 9.48156 6.77965 -3.22272 1.77042 0.912571 -0.513382 0.132342 0.779899 Si
53 1 6.78776 9.50475 4.06504 0.681976 -3.90335 2.05181 1.38426 -1.01712 -0.318044 Si
12 1 -0.0407711 0.0439049 5.4546 0.634045 1.71291 3.19313 0.608137 0.333237 -0.301821 Si
57 1 9.56316 9.58363 6.77952 0.445415 5.1932 0.841973 -0.050374 -1.73903 -0.187084 Si
62 1 8.2531 8.05971 5.43541 -2.56713 -1.48853 1.22514 -0.806011 1.47876 0.116333 Si
10 1 0.0187047 2.80569 8.21225 3.91294 1.17279 -0.198748 -0.407265 -1.0731 -0.139236 Si
16 1 2.69967 -0.0978227 8.20008 2.91318 -2.25523 -3.37955 1.23786 1.52279 -0.705887 Si
11 1 4.14507 1.44793 9.47431 2.42465 -1.912 -5.78443 -0.663303 -2.03414 0.334584 Si
42 1 5.51786 2.71831 8.11225 -2.37628 -1.05595 1.38013 0.575214 0.388983 0.455614 Si
38 1 8.16549 2.71803 0.104786 -1.80449 -2.54113 8.33122 0.549933 0.53994 -0.532584 Si
43 1 9.49716 1.39656 9.50343 -3.65042 3.41267 -2.81665 0.107443 -0.361622 0.244788 Si
13 1 1.37188 4.06979 9.56119 -4.17876 2.66391 0.867283 -0.0512784 0.906744 -0.325547 Si
32 1 2.667 5.4223 8.09303 3.985 -3.68455 -5.69755 0.438471 0.131058 0.432956 Si
27 1 4.02856 6.73825 9.5321 -5.29102 2.39527 -4.77834 -0.465717 0.200994 -0.231821 Si
45 1 6.88896 4.06624 9.53449 1.50644 -1.56122 -2.61443 -0.392217 -0.580103 -0.407789 Si
59 1 9.46144 6.84531 9.54645 1.60851 7.30667 1.68681 0.640514 -0.153975 0.112458 Si
64 1 8.21932 5.40744 8.16481 3.24372 -2.35128 0.588129 -0.209439 0.540921 -0.158427 Si
22 1 2.69644 8.1358 0.028818 1.71615 -2.26673 -2.24964 0.412528 0.231852 -0.508681 Si
29 1 1.36708 9.55409 9.57661 6.2072 -0.851408 -2.42517 -0.10192 -0.765775 0.389222 Si
58 1 5.43098 8.09532 8.25838 -3.86955 1.96121 0.474429 -0.504187 0.609254 -0.877546 Si
61 1 6.73963 9.55917 9.45412 -4.19652 -0.827164 -3.78818 0.61398 0.122334 1.13055 Si
54 1 8.08114 8.19145 0.009099 -7.44116 0.489118 3.61488 0.333338 0.52427 -0.914495 Si
48 1 8.19351 -0.0358216 8.05559 -0.109694 0.357862 2.86954 -0.411279 0.711273 1.69576 Si
26 1 -0.00985113 8.23623 8.2504 -2.84729 -4.13452 -3.05179 -0.275725 -0.259774 -0.799352 Si
ITEM: TIMESTEP
15500
ITEM: NUMBER OF ATOMS
64
ITEM: BOX BOUNDS pp pp pp
0.0000000000000000e+00 1.0887404739999999e+01
0.0000000000000000e+00 1.0887404739999999e+01
0.0000000000000000e+00 1.0887404739999999e+01
ITEM: ATOMS id type xu yu zu vx vy vz fx fy fz element
2 1 0.0158458 2.63519 2.66269 -3.2545 0.095786 2.70911 -0.45533 1.27391 0.457385 Si
6 1 2.68787 2.76945 0.0584401 1.0112 -4.69377 3.85867 0.11743 -0.635533 -0.851612 Si
7 1 1.34387 1.32644 1.36346 -0.60552 1.90009 2.22639 0.432201 -0.223469 -0.610415 Si
8 1 2.71706 0.00993946 2.71583 -3.37282 -1.76283 5.15638 -0.550397 -0.15345 -0.0101704 Si
34 1 5.47808 2.76047 2.58373 3.49471 2.73154 -4.62245 0.2918 -0.41071 1.03668 Si
36 1 5.43227 -0.0213697 -0.0297082 -0.991255 -1.23862 -2.39844 -0.323696 -0.252928 1.12023 Si
39 1 6.84693 1.3329 1.32813 2.89196 0.366629 -4.10138 -0.376858 0.383197 -0.751539 Si
40 1 8.11942 -0.0080058 2.73367 -1.891 1.35253 1.07255 1.0748 0.612699 -0.132165 Si
20 1 -0.00865206 5.38024 0.0295637 0.380549 2.56326 0.911181 0.227195 0.704809 0.180759 Si
23 1 1.35578 6.85018 1.28218 4.45121 -2.50849 -4.40559 -0.00525319 -0.507945 0.725194 Si
24 1 2.71979 5.4729 2.69151 -4.7648 -0.951662 -0.61147 -0.94593 0.439521 0.712988 Si
1 1 3.99828 4.11707 1.42627 0.915638 2.82335 -1.91314 0.939039 -0.217287 -1.04042 Si
52 1 5.41702 5.47656 0.119897 -3.82049 1.26057 -1.37374 0.0656269 0.0851628 -0.903987 Si
55 1 6.85756 6.87431 1.38313 1.06799 5.70136 -1.12827 -0.318415 -0.316506 -0.408453 Si
33 1 9.51813 4.06074 1.368 0.120987 2.14792 -0.476756 0.0775116 -0.172782 0.139076 Si
56 1 8.1701 5.47605 2.6994 0.172678 -7.73463 0.437942 0.521642 -0.25326 0.606301 Si
18 1 0.0637259 8.19576 2.73435 3.61757 -2.0969 0.497102 -0.810922 -0.313107 -0.279025 Si
17 1 3.93536 9.51025 1.33749 4.7134 4.28852 -1.34692 2.11419 0.232989 0.1426 Si
50 1 5.4283 8.16509 2.70749 1.13669 -2.6437 1.00337 0.328449 0.994919 0.0915752 Si
4 1 -0.0060666 -0.05976 0.0200015 -2.46609 0.470452 0.654251 0.523384 0.131989 -0.13422 Si
49 1 9.50998 9.54069 1.40442 -2.07693 0.246626 1.92982 0.38507 -0.505613 -0.0384055 Si
14 1 2.73063 2.73628 5.34731 -5.07192 -0.709703 -3.38691 -0.270233 -0.122402 0.593329 Si
15 1 1.30241 1.39059 6.79985 2.89608 2.67795 0.767369 0.371634 0.424294 -0.479262 Si
3 1 4.12824 1.3786 3.93433 -3.34264 6.8844 3.47134 -0.16241 0.337416 1.09677 Si
47 1 6.81393 1.39705 6.82623 -0.316568 1.96928 4.00847 -0.634015 -0.971183 0.251378 Si
35 1 9.58203 1.34465 4.04539 -1.15781 -0.223854 -2.81382 -0.944104 -0.392821 0.4342 Si
46 1 8.19938 2.65251 5.50044 -2.0927 2.80609 -0.425576 0.441527 0.263732 -1.05246 Si
5 1 1.27929 4.10216 4.03333 -1.22475 -3.32714 -2.22195 0.415041 0.111786 0.10556 Si
31 1 1.3401 6.79832 6.79964 2.06972 1.08129 4.70832 -0.164545 -0.0756022 0.0346787 Si
9 1 4.07353 4.06057 6.8558 -2.62674 -1.0619 -2.84449 -0.237955 0.219008 -0.40382 Si
19 1 4.22455 6.68881 4.04791 1.49118 7.36617 -3.29247 -1.24523 0.567132 0.26292 Si
37 1 6.90993 3.98322 4.04613 2.74847 3.78573 0.201762 -0.524418 0.335845 -0.146762 Si
60 1 5.52006 5.31052 5.41402 2.24777 -5.25925 -0.25217 0.0184373 0.233316 0.474855 Si
63 1 6.81688 6.79464 6.75439 2.07542 7.81403 -2.45163 -0.173391 -0.0311376 0.125357 Si
28 1 -0.103369 5.47328 5.43998 -2.09088 0.170543 3.92353 0.979787 -0.666107 0.383362 Si
41 1 9.46613 4.08188 6.82887 -4.4052 -5.29007 -3.64451 0.160397 0.28551 0.258093 Si
51 1 9.53193 6.85029 4.10421 2.0772 1.64687 0.902162 -0.583419 0.504803 -0.58772 Si
21 1 1.37848 9.52759 4.09221 -1.49073 2.9907 -2.0281 0.640765 -0.151699 -0.0924948 Si
30 1 2.74137 8.07411 5.37655 3.14386 -1.68544 4.81844 0.415353 0.206687 0.279384 Si
44 1 5.35436 0.0388698 5.47819 -1.57802 -0.991657 4.47929 1.1768 0.188688 -0.729222 Si
25 1 4.0473 9.51012 6.78443 -1.65136 1.70436 3.12064 -0.0254228 -0.331757 0.0803147 Si
53 1 6.83277 9.59385 4.10197 1.06331 4.0874 -3.29543 -1.64564 -0.620667 0.306734 Si
12 1 0.00637978 -0.0344224 5.40439 4.02774 -6.05936 -2.75105 -0.204915 0.256386 0.826601 Si
57 1 9.51048 9.53182 6.83375 -3.23938 -6.88358 -6.03353 0.213155 0.649076 0.271682 Si
62 1 8.15934 8.24926 5.47404 0.525799 -1.8339 -2.64778 0.0937496 -0.865754 -0.469876 Si
10 1 -0.0534338 2.76101 8.22571 -4.29856 0.144308 -0.455413 0.735713 0.00920292 -0.342857 Si
16 1 2.74283 0.0763664 8.11702 -1.95425 -1.83698 3.82507 -0.665869 -1.03892 0.271842 Si
11 1 4.06973 1.33243 9.54127 1.056 -1.1302 -0.175048 -0.0135543 1.15168 0.211018 Si
42 1 5.4638 2.71315 8.20102 -1.17717 -6.3867 3.31203 -0.560333 -0.0578056 0.0811411 Si
38 1 8.20298 2.74383 -0.0518371 1.71891 -0.860477 -5.84643 -0.457648 -0.430959 0.830513 Si
43 1 9.55909 1.33764 9.58483 -1.3775 0.971328 2.59951 -0.223001 0.0390955 -0.531868 Si
13 1 1.37595 4.16875 9.54077 6.26614 0.44604 -2.8843 -0.608132 -1.60752 0.40096 Si
32 1 2.68746 5.48296 8.24864 -4.54866 5.35849 2.53626 0.975184 0.341747 -1.23515 Si
27 1 4.0702 6.87193 9.57606 -1.133 -2.29449 3.43957 0.803459 -0.811086 -0.441222 Si
45 1 6.7649 4.07861 9.56762 1.91361 4.06566 4.11738 -0.00191594 0.746354 0.138862 Si
59 1 9.55152 6.69429 9.55191 -2.62268 -4.87825 -5.18296 0.115981 1.00419 -0.442667 Si
64 1 8.11564 5.47067 8.19245 0.809193 -2.06421 -0.784298 -0.0340902 -0.678168 -0.164755 Si
22 1 2.69712 8.19666 -0.0551986 -1.37132 -1.29392 4.06932 -0.157433 -0.434876 0.466256 Si
29 1 1.41116 9.50419 9.5081 1.07722 1.0035 -2.60201 -0.799034 1.12082 -0.679048 Si
58 1 5.47958 8.15682 8.13829 3.9389 -2.47372 2.84474 -0.0746004 0.519425 0.640323 Si
61 1 6.87273 9.52711 9.62173 -1.8401 3.89791 3.05435 -0.738207 -0.589168 -1.36789 Si
54 1 8.2687 8.14025 -0.0243701 4.40142 -1.21957 -1.46327 -0.40101 0.0322508 0.742914 Si
48 1 8.141 0.0249467 8.22845 0.84699 -1.75383 -3.20807 0.499496 -0.0905518 -0.383276 Si
26 1 -0.0204382 8.16603 8.19156 3.48582 -3.67186 2.41303 0.182506 -0.47688 -0.0710719 Si
ITEM: TIMESTEP
15600
ITEM: NUMBER OF ATOMS
64
ITEM: BOX BOUNDS pp pp pp
0.0000000000000000e+00 1.0887404739999999e+01
0.0000000000000000e+00 1.0887404739999999e+01
0.0000000000000000e+00 1.0887404739999999e+01
ITEM: ATOMS id type xu yu zu vx vy vz fx fy fz element
2 1 -0.000164241 2.76329 2.74089 2.22211 -1.0236 -1.43319 0.167023 -0.505759 0.35732 Si
6 1 2.73457 2.73188 0.00701818 0.434855 -1.23399 -2.79386 -0.869519 0.0744743 0.598929 Si
7 1 1.36672 1.37444 1.43192 -0.793919 1.06272 -5.07684 0.046951 0.337326 -0.755231 Si
8 1 2.72406 0.0204154 2.73938 4.30969 -1.56459 -6.43665 0.497463 -0.408678 0.183918 Si
34 1 5.40764 2.7678 2.86843 2.37441 -2.93217 -0.997509 -0.49708 -1.0404 -1.55309 Si
36 1 5.4949 0.0903171 0.0194935 -2.26418 2.07867 1.94983 -0.0919418 -1.08427 -0.213329 Si
39 1 6.82281 1.41051 1.4055 -1.31723 -0.973683 -0.078904 -0.451744 0.206576 0.651759 Si
40 1 8.19448 -0.0112881 2.70457 -4.38322 -1.37818 3.27315 -0.57063 -0.484774 0.517576 Si
20 1 0.0409798 5.49034 -0.0365444 -1.40411 -2.90383 4.81725 -0.489925 -0.920772 0.407584 Si
23 1 1.38299 6.75627 1.40388 -6.27842 2.5944 3.33952 -0.0421983 0.759648 -0.803579 Si
24 1 2.74104 5.47154 2.71378 -2.21998 -0.335433 -0.305784 0.16483 -0.897079 0.368973 Si
1 1 4.09229 4.08939 1.35139 -2.50962 1.09785 1.18873 0.148707 -0.0907659 0.509185 Si
52 1 5.44229 5.39842 -0.0516027 1.27586 -1.81175 -1.2732 0.179439 -0.0937416 -0.0128651 Si
55 1 6.73201 6.76905 1.33547 -3.37096 -5.335 -0.546105 0.604589 0.687659 0.223057 Si
33 1 9.55982 4.00856 1.28266 -0.844245 0.084384 1.05243 -0.445493 1.5078 0.531947 Si
56 1 8.11244 5.39941 2.71674 -2.28482 2.06125 -0.450153 0.361413 -0.174096 -0.825718 Si
18 1 0.0630048 8.19033 2.68947 -0.72421 -1.3246 -4.27329 -0.699453 -0.638193 0.847575 Si
17 1 4.15083 9.54756 1.3952 -4.76193 -0.291414 0.974709 -0.968231 0.975951 -0.961805 Si
50 1 5.44238 8.26996 2.72853 -0.478216 3.52179 -3.43235 -0.105219 -2.36706 0.259385 Si
4 1 0.0320839 0.0375412 0.010153 1.25373 -4.32241 0.90559 -0.742835 -0.0848327 0.157397 Si
49 1 9.55917 9.5028 1.35587 4.27393 2.47628 1.67089 -0.104297 0.427756 -0.490871 Si
14 1 2.74237 2.69254 5.54983 -0.264402 -1.04 1.08605 -0.292666 -0.18382 -0.211164 Si
15 1 1.39116 1.2288 6.80454 -2.39823 -0.00554454 0.870524 -0.511399 0.700294 0.32002 Si
3 1 4.03378 1.32625 4.18902 4.12695 -4.48594 -4.62776 0.710752 0.376918 -0.694468 Si
47 1 6.81661 1.34888 6.74859 6.81368 0.960837 -8.62349 -0.109701 0.790061 0.19628 Si
35 1 9.45678 1.40851 4.08385 1.84623 8.10267 0.586146 0.385055 0.217371 -0.509807 Si
46 1 8.09864 2.79395 5.39732 2.48551 -0.842913 -1.46561 0.655596 -0.39323 0.919115 Si
5 1 1.47362 4.03179 4.11134 2.21983 0.949655 0.689567 -0.707303 0.391061 -0.267192 Si
31 1 1.38874 6.77246 6.85613 -3.57344 5.6788 -4.15153 -0.108622 0.23767 -0.599058 Si
9 1 4.05713 4.1205 6.83058 -0.868152 -1.39207 2.74488 1.11734 0.122146 -0.58515 Si
19 1 3.98257 6.87108 4.08895 0.908733 -1.45283 -0.873512 0.882148 0.817325 -0.257004 Si
37 1 6.7312 4.11185 4.11638 3.2413 -3.8638 0.469793 0.420324 0.820968 -0.117001 Si
60 1 5.42324 5.55279 5.38957 0.213776 -1.03385 2.35135 -0.783891 -0.970366 0.805919 Si
63 1 6.83338 6.77084 6.77313 1.6622 -1.52909 4.50777 -1.07411 1.01362 0.44792 Si
28 1 0.0674304 5.3948 5.43698 2.89206 -0.815818 -3.51372 -0.74294 0.791981 -0.347008 Si
41 1 9.53458 4.09157 6.80644 1.42895 3.36059 0.427523 0.191056 -0.5681 -1.07428 Si
51 1 9.43965 6.82101 4.048 3.01248 -0.431998 -3.00667 1.88232 -0.7332 -0.0749724 Si
21 1 1.40763 9.52569 4.09518 -3.801 -4.83676 -1.33736 -1.36767 0.889274 -0.667322 Si
30 1 2.64135 8.24556 5.47587 -7.04492 -2.05391 -2.72798 0.951742 -1.09464 0.688658 Si
44 1 5.52522 0.00130369 5.41093 0.611301 -5.50408 -2.8493 -0.985174 -0.921506 0.461654 Si
25 1 4.06046 9.5636 6.82356 1.47768 -2.61598 -2.63743 0.326821 0.347845 -0.39539 Si
53 1 6.83803 9.40726 4.12697 1.47003 -1.94263 1.30608 0.0862354 2.25825 -0.957915 Si
12 1 -0.0666523 0.0235822 5.36984 -3.51875 6.36454 2.02457 0.680392 -0.715134 0.553263 Si
57 1 9.53406 9.4893 6.77873 2.62892 2.03746 7.49744 -0.350265 0.284597 -0.0948079 Si
62 1 8.13174 8.11139 5.42917 -0.550926 3.88514 0.702992 0.926704 0.106399 0.828294 Si
10 1 -0.0301351 2.65163 8.09873 -0.478844 -0.64965 -0.121758 0.330498 -0.0403048 0.303782 Si
16 1 2.74161 -0.0359008 8.2874 4.47205 5.88623 -0.941106 -0.353292 -0.00104208 -0.580992 Si
11 1 4.05633 1.39475 9.58513 0.572183 -1.47752 3.45977 0.813361 -0.198813 -0.605835 Si
42 1 5.42724 2.69327 8.12136 0.637983 3.98924 1.87654 -0.237894 -0.0833783 0.0101243 Si
38 1 8.12967 2.7072 -0.0239032 -1.6209 0.249659 4.51877 0.145205 0.150965 -0.704545 Si
43 1 9.48197 1.336 9.47863 1.13983 -0.764992 1.92899 0.448192 0.174657 0.614658 Si
13 1 1.29685 4.01779 9.51694 -1.89144 3.33054 3.27344 0.975304 0.589607 -0.484881 Si
32 1 2.78121 5.45999 8.19869 0.776754 0.143667 0.198484 -1.27077 -0.670215 0.492938 Si
27 1 4.09811 6.79229 9.54929 5.01741 1.9676 -0.115074 0.178782 0.509829 -0.158436 Si
45 1 6.80117 4.07186 9.4055 0.60174 -1.02745 1.49676 0.396554 0.159129 0.670905 Si
59 1 9.56815 6.82838 9.50715 3.20945 -0.33636 0.120776 -0.708276 -0.505261 -0.239674 Si
64 1 8.20868 5.46106 8.06759 -1.0479 0.938716 0.510747 -0.0851297 0.013655 1.42978 Si
22 1 2.75519 8.13575 0.0366716 1.77346 -1.45694 -3.15561 -0.12008 0.304285 0.36797 Si
29 1 1.32762 9.49661 9.59186 -1.28798 -1.22217 -0.269508 0.568091 -0.232547 -0.185183 Si
58 1 5.39907 8.20543 8.15215 -4.3525 -3.85805 1.45436 0.83139 -0.971866 -0.104822 Si
61 1 6.83431 9.51913 9.48193 -1.76219 3.78891 1.19139 -0.562121 0.724044 0.433806 Si
54 1 8.16925 8.15495 -0.0347062 -0.946323 -0.204964 -1.23299 -0.0968559 -0.22185 0.50959 Si
48 1 8.14384 0.0333344 8.11145 -0.654588 -0.604261 2.60623 0.399106 -1.02698 -0.110013 Si
26 1 0.018125 8.13994 8.16238 -1.68754 4.26863 1.67523 0.0733466 0.553534 -0.0258724 Si
ITEM: TIMESTEP
15700
ITEM: NUMBER OF ATOMS
64
ITEM: BOX BOUNDS pp pp pp
0.0000000000000000e+00 1.0887404739999999e+01
0.0000000000000000e+00 1.0887404739999999e+01
0.0000000000000000e+00 1.0887404739999999e+01
ITEM: ATOMS id type xu yu zu vx vy vz fx fy fz element
2 1 0.0409776 2.70663 2.74634 -2.30407 1.79081 -0.705792 -0.773237 -0.650764 -0.419957 Si
6 1 2.75374 2.69858 -0.06132 0.35213 2.05686 2.51079 0.270059 -0.120683 0.15127 Si
7 1 1.38282 1.33341 1.28723 0.734489 -2.03283 5.31825 -0.0397776 0.686594 0.680511 Si
8 1 2.69644 -0.0291615 2.68656 -0.219427 2.64377 0.721676 0.494955 -0.130989 -0.126056 Si
34 1 5.42604 2.68618 2.71336 -2.38197 2.04538 2.04443 0.475756 0.190637 0.519324 Si
36 1 5.3363 -0.074676 -0.0108881 1.14016 0.38835 2.40667 0.874195 0.494821 -0.354361 Si
39 1 6.71724 1.29819 1.36947 0.828923 -3.6208 0.25046 1.13485 0.132538 -0.558457 Si
40 1 8.15242 -0.0433867 2.75507 3.16662 2.47936 -3.98103 0.135602 0.471704 -0.694481 Si
20 1 -0.0445141 5.54644 0.0302642 3.01992 2.6272 -3.29555 0.648474 -0.960939 -0.260272 Si
23 1 1.32909 6.83683 1.39547 2.72902 1.76253 -0.268522 0.0122311 -0.022915 -0.00241214 Si
24 1 2.70836 5.4217 2.67355 1.21857 2.72529 -2.046 0.421501 -0.0609387 -0.0228775 Si
1 1 4.13728 4.02868 1.31851 1.93908 -2.53463 -3.66739 -0.753279 0.633504 0.0026594 Si
52 1 5.43124 5.4718 -0.0389322 -0.107801 -0.427 1.05059 -0.0181525 -0.29494 0.953622 Si
55 1 6.75593 6.77564 1.42448 -0.456138 -0.736618 2.99537 0.691305 -0.052058 -0.214408 Si
33 1 9.55345 4.13869 1.42821 1.57535 -2.89807 -0.628245 0.279435 -0.810125 -0.676734 Si
56 1 8.19464 5.40819 2.76172 4.28441 -0.310681 1.82392 -0.573765 0.729436 0.978246 Si
18 1 -0.0209548 8.19314 2.75287 2.7698 -0.11586 2.82649 0.298664 -0.0864153 -0.381692 Si
17 1 4.07181 9.43876 1.32601 5.44052 -2.57307 -3.64031 -0.384716 -0.272537 1.14682 Si
50 1 5.45842 8.11067 2.83437 -3.09016 5.14891 0.335007 -0.728622 0.518911 -1.27791 Si
4 1 -0.00965159 0.0709895 -0.0562495 3.72374 4.02756 -2.04946 0.350424 -1.25332 0.50778 Si
49 1 9.57716 9.53548 1.335 1.09776 -1.26788 4.45988 -0.754455 0.343189 0.180375 Si
14 1 2.73093 2.80814 5.36506 2.08221 2.0365 -1.05563 0.371355 -0.414032 -0.0634679 Si
15 1 1.42419 1.50519 6.7869 0.350785 -2.71966 -1.56743 -0.263165 -0.934102 -0.50693 Si
3 1 4.0767 1.34716 4.06245 -0.922823 2.10013 4.09316 -0.546782 0.080939 -0.258764 Si
47 1 6.80444 1.36813 6.8246 -4.99172 -0.874297 3.75709 0.303638 -0.248591 -0.00837645 Si
35 1 9.50008 1.31874 4.15092 -5.591 -6.94765 1.79371 1.20771 -0.119814 -0.395975 Si
46 1 8.21573 2.69624 5.49977 -0.219432 -0.0973259 1.70893 -1.08766 -0.924308 -0.357727 Si
5 1 1.31592 4.12187 4.04177 -4.81866 2.20327 3.04882 0.376143 0.291591 0.494245 Si
31 1 1.3692 6.85141 6.80486 -0.734732 -8.59798 5.13296 0.354245 -0.333941 -0.557973 Si
9 1 4.16304 4.07026 6.71983 -0.00100084 1.46405 -0.526803 -1.00531 -0.31168 1.00573 Si
19 1 4.08503 6.73892 4.09485 -0.384004 -3.21759 1.85765 0.282165 -0.574559 0.0206626 Si
37 1 6.84085 3.98344 4.16663 0.833906 -3.91522 0.0734177 -0.254186 0.764103 -1.03087 Si
60 1 5.48461 5.40912 5.48601 0.296286 4.72278 -6.21853 0.371905 0.370157 -1.05183 Si
63 1 6.77451 6.76882 6.86772 -2.75936 -3.12354 0.356802 1.55196 -0.393588 -0.801757 Si
28 1 -0.0147782 5.46464 5.48549 -2.7393 -0.169454 -0.181574 -0.240629 -0.546237 0.190772 Si
41 1 9.42919 4.01207 6.83392 -0.393666 0.329235 -0.343213 1.76369 1.8234 1.17799 Si
51 1 9.57364 6.86387 4.1377 -3.43514 -1.36355 1.04241 -1.58664 -0.0906334 0.276594 Si
21 1 1.35925 9.50364 4.06709 5.06782 0.876856 1.88085 0.538605 0.18302 0.773439 Si
30 1 2.82272 8.14172 5.41449 5.10554 1.54777 2.32894 -1.47228 0.203058 -0.0964372 Si
44 1 5.47801 0.0223306 5.37541 -1.01378 7.90428 0.355624 -0.791521 0.730953 1.24208 Si
25 1 4.1241 9.52785 6.72456 2.35435 0.14851 2.31535 0.134856 0.14632 0.593216 Si
53 1 6.732 9.58699 4.08552 -2.73778 1.03873 1.16502 1.31919 -1.21217 0.0973343 Si
12 1 0.0762656 -0.0202518 5.54603 -3.70925 -4.09502 -2.35566 -0.528228 0.537111 -0.838345 Si
57 1 9.49371 9.55447 6.84435 3.18532 -0.128138 -4.08718 0.750025 0.192698 -0.506012 Si
62 1 8.10359 8.27126 5.5408 1.39268 -0.119929 0.929833 -0.0268454 -1.23777 -1.08207 Si
10 1 0.0949056 2.75517 8.17657 0.140711 -0.0576243 -1.47784 -1.19565 0.442116 0.358853 Si
16 1 2.67301 0.0230207 8.05778 -3.31865 -5.53295 1.21609 0.923615 -0.388778 0.417034 Si
11 1 4.10849 1.31358 9.44512 -2.13832 -0.52134 4.17558 -0.855898 0.141609 0.280561 Si
42 1 5.44683 2.74392 8.18068 2.43101 -1.33448 -0.612155 0.693605 0.200727 -0.000108621 Si
38 1 8.19607 2.75885 0.0294181 -1.97727 3.78143 -1.15403 -0.338079 -0.657513 0.786992 Si
43 1 9.57375 1.39513 9.54871 0.0746352 0.200188 -3.27398 -0.426244 0.801467 -0.737646 Si
13 1 1.40942 4.14074 9.55965 -1.31559 -3.14206 -1.70305 -0.533628 0.279068 -0.147643 Si
32 1 2.73894 5.40693 8.06512 2.99842 2.07986 -0.0789587 -0.0223226 0.00253516 0.356201 Si
27 1 4.05841 6.72925 9.46956 -2.10087 1.74607 1.08092 -0.283969 1.10796 0.0272267 Si
45 1 6.8293 4.12625 9.60995 -3.59368 2.26914 -4.27427 -0.578151 -0.879427 -0.506446 Si
59 1 9.52517 6.84855 9.50844 3.31295 -0.343863 -0.349057 -0.182059 0.634821 0.738529 Si
64 1 8.14927 5.46644 8.31134 -2.38196 -2.71013 -2.35605 0.122282 -0.434992 -1.80995 Si
22 1 2.64366 8.14285 -0.0197962 -0.71155 1.95155 1.37399 0.484725 -0.0306216 -0.863342 Si
29 1 1.30183 9.56087 9.45377 -0.420004 -0.259349 1.81466 0.355336 -0.162726 0.173801 Si
58 1 5.46592 8.07783 8.08514 -1.18827 6.57968 -4.07604 -1.71173 1.12967 0.985287 Si
61 1 6.69703 9.51485 9.4573 -2.3272 -4.67443 -3.38335 1.48838 -0.0417421 0.556753 Si
54 1 8.1211 8.17254 0.047031 0.527454 0.207196 0.335728 -0.191022 0.175559 -0.689507 Si
48 1 8.24411 0.0192602 8.1715 0.280202 1.19386 -3.8816 -1.58157 0.270563 0.775673 Si
26 1 -0.0410546 8.1825 8.09221 0.0298296 -1.61409 -5.34236 0.248713 -0.0569281 0.851236 Si
ITEM: TIMESTEP
15800
ITEM: NUMBER OF ATOMS
64
ITEM: BOX BOUNDS pp pp pp
0.0000000000000000e+00 1.0887404739999999e+01
0.0000000000000000e+00 1.0887404739999999e+01
0.0000000000000000e+00 1.0887404739999999e+01
ITEM: ATOMS id type xu yu zu vx vy vz fx fy fz element
2 1 -0.0288813 2.70833 2.65339 0.914271 -3.55915 4.7974 0.345265 1.15951 0.335731 Si
6 1 2.68206 2.7081 0.133917 -2.84791 4.26466 -3.38193 0.308051 0.819656 -1.22635 Si
7 1 1.29146 1.36628 1.34045 4.35511 0.838466 -1.7243 0.527718 -1.06306 0.935241 Si
8 1 2.7443 0.0834225 2.78493 -0.469383 -1.02859 0.448125 -1.19077 0.116678 0.159541 Si
34 1 5.45502 2.78183 2.69849 -1.53272 -0.0986704 1.71352 -0.154177 0.18542 -0.0987266 Si
36 1 5.51582 0.0478787 -0.0131972 -0.406879 -2.50045 1.41969 -0.469653 0.424493 0.587718 Si
39 1 6.90922 1.44402 1.318 -1.80066 5.57732 3.402 -1.18225 -0.393078 0.424171 Si
40 1 8.1687 0.0372596 2.71431 2.78451 4.32518 1.38626 0.245069 0.281841 -0.0656756 Si
20 1 0.0347453 5.33217 -0.0143927 2.07914 1.64343 -1.99553 -0.546449 0.967207 -0.790174 Si
23 1 1.3702 6.71338 1.28446 6.01418 -3.38181 -4.1421 0.746962 0.556945 0.51073 Si
24 1 2.73295 5.4834 2.79111 3.17035 -0.334872 -2.10084 -0.409491 0.212657 -0.146331 Si
1 1 4.01625 4.19509 1.40112 -0.547494 -2.46716 4.69331 0.732794 -1.32484 -0.0307478 Si
52 1 5.46097 5.41424 0.0283434 -2.509 2.25606 -4.8912 -0.127048 0.880383 -0.322762 Si
55 1 6.83877 6.86421 1.28065 -0.63976 -0.021015 -0.106246 0.034215 -0.349305 -0.00673478 Si
33 1 9.49215 4.087 1.25056 -2.95783 0.996996 1.45117 -0.304833 -0.709953 0.974106 Si
56 1 8.144 5.4822 2.6501 -1.25137 1.12271 1.24314 0.600442 0.203169 -0.519062 Si
18 1 0.0411362 8.10376 2.60078 -4.15322 1.08596 2.17822 -0.266944 0.45605 0.771003 Si
17 1 4.10806 9.66664 1.47674 -8.08711 0.178329 1.27413 0.325867 -0.708376 -1.48523 Si
50 1 5.45197 8.16638 2.64856 0.993668 -5.93626 2.32284 0.883625 0.958321 0.361932 Si
4 1 -0.0322101 -0.118901 0.102269 -0.35522 -1.01963 1.18481 0.318981 1.51914 -1.10377 Si
49 1 9.50595 9.54098 1.41392 -3.81979 -0.627827 -4.37814 -0.0521146 -1.14057 -0.00918628 Si
14 1 2.71889 2.62647 5.46587 0.610598 -2.03091 -0.412892 -0.632266 0.641672 0.672542 Si
15 1 1.26094 1.3156 6.79323 -1.05816 -0.0912819 0.967532 0.699831 0.0468986 1.05776 Si
3 1 4.11427 1.41852 4.14308 -0.0450822 -6.30119 -2.35671 0.627002 -0.752464 -0.405615 Si
47 1 6.79039 1.3239 6.76809 -0.434801 -2.34071 1.07704 -0.482114 0.317588 0.870237 Si
35 1 9.59501 1.36541 4.02537 2.29039 -1.54152 0.356334 -1.43888 0.00778586 0.871561 Si
46 1 8.04406 2.69445 5.37401 1.29454 3.3815 -1.09072 1.44051 1.23941 -0.401692 Si
5 1 1.43561 4.00542 4.10314 2.14853 -0.974245 -3.28821 -1.21768 0.535846 -0.205082 Si
31 1 1.35907 6.84221 6.8175 -1.02571 3.81043 -3.79423 -0.15719 -0.379502 0.873963 Si
9 1 3.96131 4.06606 6.8417 4.96932 -0.544022 0.581121 0.722456 0.153136 0.0985148 Si
19 1 4.16775 6.86975 4.03296 -2.33421 3.23751 -1.30254 -1.11443 -0.546974 1.1377 Si
37 1 6.73403 4.27648 4.00944 -5.15696 5.25117 1.87055 0.447235 -2.18979 0.627842 Si
60 1 5.37575 5.41756 5.47643 0.746673 -0.728188 4.67305 -0.141873 1.07353 0.0387492 Si
63 1 6.82184 6.84688 6.72049 1.54284 0.949349 -1.09917 -0.71745 -0.313941 0.684924 Si
28 1 0.0184812 5.43174 5.48218 -2.99536 3.78914 2.35566 0.365683 0.0128495 -1.02592 Si
41 1 9.5319 4.10424 6.81113 -3.15396 -3.39046 0.440358 -1.15971 -1.07554 -1.22057 Si
51 1 9.57424 6.78196 3.9841 2.1025 -1.90806 3.50572 0.342351 -0.600122 0.303146 Si
21 1 1.2834 9.52276 4.05245 -3.07047 4.79407 0.870291 1.16403 -0.287102 -0.00892907 Si
30 1 2.71295 8.15588 5.45419 0.259884 3.19933 1.19583 0.515086 0.86911 -0.282236 Si
44 1 5.36461 -0.0539576 5.55623 2.2103 -1.01846 1.94036 1.1172 0.390559 -1.77029 Si
25 1 4.08167 9.5407 6.92383 -1.58342 2.24148 -1.54693 -0.651729 -1.15231 -0.217257 Si
53 1 6.83381 9.55486 4.03327 2.77561 -0.285988 1.46734 -0.908927 -0.374569 0.802259 Si
12 1 -0.0493113 -0.043513 5.44373 2.67584 2.51242 -1.69291 -0.0214109 -0.00165945 -0.286803 Si
57 1 9.54102 9.44076 6.79409 -6.49041 -1.03591 0.614366 -0.355484 0.0879784 0.00180187 Si
62 1 8.21747 8.09893 5.32436 3.06972 -4.39911 -0.527069 -0.204661 0.936225 0.381956 Si
10 1 -0.133581 2.71342 8.19045 2.94257 8.32114 -1.65541 1.59551 -0.454746 -0.248831 Si
16 1 2.72308 -0.0149954 8.25544 1.81604 -2.61986 0.476531 -1.04561 0.666518 -0.180428 Si
11 1 4.04734 1.44606 9.5735 4.22744 2.31784 -6.94715 0.645195 -0.565888 0.0384332 Si
42 1 5.44967 2.76966 8.16396 0.501764 -2.09503 -5.53881 -0.611378 -0.726471 -0.415967 Si
38 1 8.18532 2.68321 -0.135261 -0.864047 -2.70791 -1.50317 0.050252 0.858748 0.37105 Si
43 1 9.54635 1.26161 9.53164 -4.27559 -0.576297 1.59024 -0.258908 -0.415837 -0.0998032 Si
13 1 1.34196 4.00636 9.54225 1.39139 -1.03551 2.92659 0.119383 -0.461783 0.00362529 Si
32 1 2.67645 5.45421 8.2711 -4.74444 -0.348885 3.58434 0.345493 0.476214 -0.561458 Si
27 1 4.14623 6.86625 9.57531 -3.67074 -2.37747 0.981475 -0.73514 -0.937571 0.355239 Si
45 1 6.77625 4.11019 9.4919 6.68621 -4.5432 1.20965 0.569923 -0.178984 -0.0532793 Si
59 1 9.53027 6.68351 9.45664 -2.69465 -1.62319 -3.49993 0.602961 0.164563 0.517424 Si
64 1 8.12896 5.41506 8.06111 5.1215 -0.207526 0.446162 -0.260055 0.514105 0.595305 Si
22 1 2.78885 8.21296 0.0795683 -0.0766486 -0.026322 -0.739399 -0.213844 -0.0762866 0.0476156 Si
29 1 1.32823 9.49155 9.61662 4.24508 -6.68943 1.7931 1.05423 0.378383 0.224171 Si
58 1 5.4865 8.18436 8.25793 2.04888 -3.76162 1.72488 0.994561 0.426292 -0.799751 Si
61 1 6.93871 9.57076 9.59405 -0.437622 2.17485 -3.06164 -0.908976 -0.803071 -0.527098 Si
54 1 8.31848 8.13314 -0.0470913 -3.11439 4.25372 -0.896734 -0.864458 0.203015 0.344932 Si
48 1 8.16631 -0.0405674 8.11352 -2.10321 1.06539 -2.09628 0.562025 0.233284 -0.0581514 Si
26 1 0.010133 8.18985 8.27931 4.71941 2.58927 1.60703 -0.244001 -0.991387 -1.40702 Si
ITEM: TIMESTEP
15900
ITEM: NUMBER OF ATOMS
64
ITEM: BOX BOUNDS pp pp pp
0.0000000000000000e+00 1.0887404739999999e+01
0.0000000000000000e+00 1.0887404739999999e+01
0.0000000000000000e+00 1.0887404739999999e+01
ITEM: ATOMS id type xu yu zu vx vy vz fx fy fz element
2 1 0.0700372 2.68898 2.6742 -1.73877 -0.492456 -5.46379 -0.426664 0.676508 0.434891 Si
6 1 2.67701 2.78621 -0.0500288 2.15704 -3.47402 5.3894 0.256063 -0.85454 0.452846 Si
7 1 1.39903 1.32488 1.34719 -2.57311 -0.409798 -1.45197 -0.358915 0.666696 -0.956752 Si
8 1 2.67108 -0.00847487 2.70278 1.19511 -1.45343 0.841634 1.42363 -0.738502 -0.728211 Si
34 1 5.40659 2.63761 2.71677 2.47149 -1.90573 -5.01448 0.605189 0.672704 -0.513256 Si
36 1 5.44117 -0.0593704 0.00777313 -0.171269 -0.0223209 -3.17044 -0.548872 0.00596663 -0.239347 Si
39 1 6.83192 1.29371 1.39567 1.393 -0.838654 -1.00731 -0.679567 -0.517576 0.300756 Si
40 1 8.22427 -0.0976344 2.70655 -5.78761 -0.980896 4.75803 -0.876635 0.868809 0.833537 Si
20 1 -0.00581368 5.46258 -0.0324587 0.546395 -4.5485 1.0037 -0.331182 0.70968 1.75717 Si
23 1 1.34879 6.89832 1.42446 -4.5376 5.01663 -2.56851 -1.01099 -1.11461 -0.145325 Si
24 1 2.7421 5.41995 2.69663 -1.86781 -0.173933 0.522317 -0.496051 0.437955 -0.234051 Si
1 1 4.04554 4.04086 1.35137 -1.00119 1.6331 -1.11851 0.601047 -0.0497881 0.160164 Si
52 1 5.45931 5.40113 0.0560767 -1.06662 -3.82066 4.48537 -0.314186 0.171408 -1.16746 Si
55 1 6.8219 6.76015 1.39057 4.9303 2.06832 -3.13316 -0.741862 -0.0105074 0.210047 Si
33 1 9.50227 4.08699 1.41433 1.82061 1.68718 -1.47138 0.807954 0.653794 0.0783224 Si
56 1 8.1325 5.47829 2.78644 0.637999 -0.162719 1.38016 -0.019013 -1.24061 -0.389327 Si
18 1 -0.146394 8.25105 2.77526 6.23532 -2.14003 -1.46733 1.27739 -0.251619 -0.299084 Si
17 1 3.98951 9.35694 1.29053 -4.95523 1.54131 0.491745 0.693174 1.51975 0.738736 Si
50 1 5.43445 8.08567 2.7062 -2.97069 0.513263 -1.86881 -0.6456 -0.0830127 0.554126 Si
4 1 0.0192922 0.0444259 -0.0719034 0.589927 -2.87865 -1.23076 -0.0978779 -0.049169 0.352326 Si
49 1 9.51954 9.57596 1.2758 0.381839 0.371713 1.18895 0.395076 -0.279574 0.305798 Si
14 1 2.78614 2.72087 5.45082 2.05393 -0.960449 -3.98809 -0.340812 0.364182 -0.765531 Si
15 1 1.43203 1.3999 6.81845 -6.05649 1.1276 1.55836 -0.741799 0.0105429 -0.678629 Si
3 1 4.06422 1.33911 4.021 4.36354 3.19303 -7.96224 -0.508129 -0.105483 0.413946 Si
47 1 6.80732 1.36826 6.86495 4.83142 3.60567 -3.6115 0.574921 -0.458836 -1.18212 Si
35 1 9.55237 1.3788 4.03239 0.793708 5.46368 0.973531 0.0402354 -0.265834 -0.0681901 Si
46 1 8.28974 2.71975 5.48851 -4.12008 -8.6258 1.5333 -0.755091 0.0993196 0.413114 Si
5 1 1.38755 4.12603 4.05041 -3.98822 4.09488 -0.863414 0.241962 -1.3054 0.0425095 Si
31 1 1.32551 6.81586 6.83042 3.52697 -0.825171 -1.13352 0.259263 -0.509374 -1.0333 Si
9 1 4.19513 4.0507 6.75324 -0.791924 1.86651 3.23489 -0.357307 0.212161 0.360909 Si
19 1 4.05291 6.69116 4.11563 2.60452 -3.45566 1.07178 0.173559 1.42385 -1.16124 Si
37 1 6.83184 3.96844 4.08299 5.1055 -5.05517 -1.61956 -0.318717 0.877163 0.306357 Si
60 1 5.46589 5.4863 5.40109 2.36229 -3.11734 -0.277747 1.0999 -1.50345 0.589602 Si
63 1 6.81944 6.76567 6.86146 1.572 0.0906093 -1.16268 -0.254774 0.415465 -0.273238 Si
28 1 -0.0119492 5.45118 5.31955 1.18958 -1.69849 1.21487 0.149521 1.06851 1.20993 Si
41 1 9.62141 4.20125 6.84177 2.08404 2.35762 -0.628388 -0.059269 -1.44517 0.42196 Si
51 1 9.39878 6.83966 4.11291 -0.86858 3.08595 0.0668647 0.904638 0.446296 0.337537 Si
21 1 1.40291 9.57328 4.07292 0.50685 -2.49486 -4.43832 -1.69075 -0.345116 0.112098 Si
30 1 2.70144 8.14596 5.35331 -1.62935 -5.13614 -6.72565 -0.219648 -0.595586 0.803883 Si
44 1 5.45297 0.0367962 5.33717 -1.70858 -0.491303 2.03817 0.290355 -0.153528 1.12679 Si
25 1 4.09754 9.48272 6.64045 1.15819 -2.00682 -0.822874 -0.116087 0.842441 0.791172 Si
53 1 6.78404 9.45714 4.11429 0.0787954 3.8994 -1.60794 0.399445 0.305006 -0.832152 Si
12 1 0.00862999 0.0809349 5.42068 1.66209 -3.88022 2.85618 0.762696 -0.14652 0.300098 Si
57 1 9.55335 9.67031 6.84722 2.13774 2.0033 0.00935907 -0.542739 -0.866534 0.170665 Si
62 1 8.14915 8.20877 5.55739 -4.15232 2.52169 1.89938 0.134247 0.0294826 -0.010338 Si
10 1 0.11892 2.70315 8.25097 -3.67144 -1.94617 5.41696 -1.47165 0.819946 -0.855736 Si
16 1 2.73403 0.00372558 8.06213 -2.46474 3.79402 -0.997506 1.22299 -0.3366 0.41862 Si
11 1 4.06616 1.39089 9.51382 -5.17329 1.81561 2.11733 0.235309 -0.565725 -0.0758196 Si
42 1 5.50484 2.7157 8.179 3.14329 4.01091 6.52883 -0.599497 0.159176 0.202285 Si
38 1 8.14339 2.71773 0.156227 1.66937 -1.3839 1.59354 0.193426 0.0462363 -1.3255 Si
43 1 9.47323 1.43432 9.56721 5.50043 1.67154 -2.90426 0.614262 -0.0043222 0.301627 Si
13 1 1.35252 4.17253 9.53747 0.649634 3.45085 -1.48941 0.411481 -0.697688 -0.293551 Si
32 1 2.74271 5.35016 8.10291 0.453663 -2.98817 1.50839 0.0855265 1.16072 0.00102041 Si
27 1 4.01578 6.80018 9.51645 -1.64796 7.26908 -0.510369 1.33319 -0.998097 -0.608344 Si
45 1 6.87058 4.02861 9.53723 -6.93306 2.18746 -0.299887 -0.630274 0.374785 1.03562 Si
59 1 9.50321 6.91791 9.65016 -1.96368 1.56571 3.93903 -0.746517 -0.824888 -0.556777 Si
64 1 8.17167 5.45668 8.25291 -4.80244 2.77505 -0.23659 0.829149 0.466539 -0.0563149 Si
22 1 2.63716 8.08802 -0.0880675 0.203217 -0.213259 -0.0385993 -0.130272 0.793349 0.308771 Si
29 1 1.4111 9.59253 9.477 -1.47247 1.40449 -0.0629665 -0.982488 -0.889257 -0.422159 Si
58 1 5.41861 8.18849 8.10441 1.5685 -2.96156 1.07227 -0.235946 -0.601723 0.466919 Si
61 1 6.81977 9.48906 9.4876 6.38582 -2.24052 4.62232 -1.16605 -0.0213028 0.86189 Si
54 1 8.05249 8.21614 0.115683 4.40595 -6.39537 -0.448681 0.953746 -0.22732 -1.13537 Si
48 1 8.12436 0.0246567 8.29217 1.23976 -0.577551 2.45707 0.694757 0.45469 -1.31934 Si
26 1 -0.0656613 8.14979 8.17884 -5.49536 3.66955 5.0229 0.751134 1.30414 0.150421 Si
ITEM: TIMESTEP
16000
ITEM: NUMBER OF ATOMS
64
ITEM: BOX BOUNDS pp pp pp
0.0000000000000000e+00 1.0887404739999999e+01
0.0000000000000000e+00 1.0887404739999999e+01
0.0000000000000000e+00 1.0887404739999999e+01
ITEM: ATOMS id type xu yu zu vx vy vz fx fy fz element
2 1 -0.0485233 2.76822 2.82373 0.0193234 -1.13354 -0.438304 -0.050764 -1.59183 -0.545944 Si
6 1 2.6935 2.7036 -0.0245336 -0.67984 0.155377 0.162998 0.828034 -0.346715 0.575754 Si
7 1 1.38207 1.39464 1.42071 1.70186 -0.919887 2.60853 -0.726141 -0.021455 0.190768 Si
8 1 2.76586 0.0284106 2.78148 -3.21934 -0.214589 0.510393 -0.397567 0.0182787 -0.00819426 Si
34 1 5.41363 2.76858 2.77303 -1.54047 2.19392 6.71049 0.134885 -0.743838 0.325416 Si
36 1 5.51498 0.0386023 0.00679715 -2.73134 1.70201 4.53585 -0.0941354 -0.0610902 -0.459415 Si
39 1 6.78864 1.45738 1.39948 -1.65111 2.00464 0.826089 0.62324 0.264166 -1.16298 Si
40 1 8.13898 0.0350459 2.65313 5.21485 -4.99761 -3.04144 0.0333252 -1.23749 0.256332 Si
20 1 0.00714727 5.45635 0.00496864 -0.535271 3.29921 -0.558671 0.336184 -0.911973 -0.900265 Si
23 1 1.41479 6.73619 1.36815 -0.294743 -2.39077 4.72374 -0.0435162 1.07205 -0.0860214 Si
24 1 2.7581 5.44583 2.7548 0.309742 0.441277 -1.75282 0.181103 -0.767492 0.0166251 Si
1 1 4.13385 4.01128 1.36062 0.631813 2.63134 -1.04405 -0.800508 1.62282 -0.619165 Si
52 1 5.49728 5.50014 -0.0125211 -0.883039 0.758586 -0.85643 -0.330205 -0.608498 1.13902 Si
55 1 6.86858 6.89401 1.35867 -4.03721 -0.317722 -3.91765 -0.572381 -0.608184 0.250532 Si
33 1 9.56683 4.07442 1.3769 2.04021 1.06134 -4.02336 -0.303979 -0.394877 -1.17341 Si
56 1 8.20944 5.40574 2.64829 -1.7785 -6.16799 -0.755446 -0.703574 0.784834 1.10925 Si
18 1 0.111994 8.13975 2.78206 -1.42251 -0.254428 -1.98509 -0.426797 -0.0359669 -0.662516 Si
17 1 4.16324 9.62906 1.42306 7.15116 1.57932 0.868499 -0.52008 -0.854558 -0.408241 Si
50 1 5.45634 8.2064 2.81859 2.01215 3.91394 -1.32867 0.570545 0.376165 -1.19921 Si
4 1 -0.0391235 0.0542846 0.0337027 0.308867 1.22581 -0.805479 0.0221724 -0.648753 0.701853 Si
49 1 9.50714 9.40445 1.34528 4.56974 1.19583 -1.95135 0.755819 1.40874 0.525724 Si
14 1 2.64989 2.77338 5.45652 -1.78098 -0.880615 7.81384 0.839882 -0.472354 0.510399 Si
15 1 1.34907 1.32312 6.76226 1.34329 -1.45321 2.12556 0.332413 -0.455396 0.190212 Si
3 1 4.05343 1.39703 4.15217 -0.0437258 0.992654 2.93595 0.14285 0.555324 -0.262805 Si
47 1 6.72338 1.30755 6.84291 -2.79423 0.37629 1.93449 0.891981 1.20745 -0.185759 Si
35 1 9.44207 1.25156 4.11908 -0.00922036 0.0758604 -0.406756 0.766768 1.33303 -0.0328792 Si
46 1 8.0626 2.70988 5.44639 0.0329313 6.41569 -2.62559 0.0494209 -0.510082 -0.0543993 Si
5 1 1.32539 4.06299 4.11956 4.81657 -1.61886 -2.74094 0.332432 1.23983 -0.301223 Si
31 1 1.47273 6.71266 6.74195 -1.73445 4.69023 5.88284 -0.880577 1.49632 1.03276 Si
9 1 4.05249 4.14692 6.80936 1.16679 2.4841 -3.95112 -0.289182 -0.588737 -0.894989 Si
19 1 4.06789 6.90514 4.0975 -0.256576 2.21758 -0.165974 0.157843 -1.19621 0.0420494 Si
37 1 6.71855 4.15712 4.09685 -7.00075 0.437994 0.765143 1.15076 -0.216727 -0.306519 Si
60 1 5.38449 5.48587 5.44598 -2.20132 3.56445 -0.616796 -0.510704 0.106776 -0.437909 Si
63 1 6.69875 6.83545 6.72911 -1.09206 1.9299 -0.367467 1.38333 -0.317405 0.587043 Si
28 1 0.0107552 5.44935 5.47894 0.848286 -5.10071 -2.40909 -0.399129 -1.29219 0.128041 Si
41 1 9.51621 3.94462 6.82668 -0.445625 -0.601245 0.172268 -0.70446 2.16245 -0.678666 Si
51 1 9.60549 6.75109 4.06169 -0.338809 3.17338 -5.21353 -0.733936 0.103041 -0.192197 Si
21 1 1.45931 9.50069 4.16962 1.56416 1.9977 0.823105 -0.105783 0.0671394 -0.923501 Si
30 1 2.80446 8.18443 5.51415 -4.86879 3.91254 3.09719 -0.255671 0.234167 0.253042 Si
44 1 5.43276 0.0729089 5.4783 4.06969 0.769913 -4.15644 -0.702949 -1.25256 -0.112665 Si
25 1 4.0716 9.59823 6.90832 1.54764 -0.166843 -1.87177 0.471978 -0.337393 -0.739597 Si
53 1 6.81203 9.58379 4.13258 -0.689928 -5.05802 3.45033 0.200293 -0.000685377 -0.264116 Si
12 1 0.0349747 -0.077563 5.42028 -6.22285 -0.933009 -4.17315 -0.775572 0.291791 0.229461 Si
57 1 9.48447 9.45371 6.71815 2.36779 0.549484 -2.71179 1.02751 -0.0535362 0.2241 Si
62 1 8.15787 8.08137 5.39052 0.164966 0.0274652 1.23807 -0.125138 0.370432 -0.339959 Si
10 1 0.0110268 2.65152 8.07165 -2.08682 -6.27667 -0.484743 0.0786123 -0.496226 0.970519 Si
16 1 2.64657 -0.0391955 8.24135 0.299508 -2.93852 5.74164 0.137543 0.900873 -0.309468 Si
11 1 4.07391 1.36113 9.50424 1.17464 1.92738 3.49987 -0.265728 -0.451331 0.485842 Si
42 1 5.32052 2.71551 8.08226 -1.79314 -4.86134 -4.45222 1.07134 0.252041 1.03588 Si
38 1 8.18832 2.77714 -0.152874 0.654986 0.78796 2.8589 -0.15052 -0.482569 1.59931 Si
43 1 9.55429 1.31868 9.46136 -1.71316 -1.71774 -1.76965 -0.407957 0.340916 -0.277123 Si
13 1 1.38355 3.94372 9.44582 -4.50403 -0.776236 1.50146 -0.578462 2.16097 0.34529 Si
32 1 2.78091 5.46108 8.16526 3.35893 1.00395 -1.18553 -0.777568 -0.8657 0.644112 Si
27 1 4.15718 6.76218 9.49565 3.67771 -5.53991 1.61189 -0.947327 1.84479 0.658499 Si
45 1 6.71563 4.10674 9.49346 4.00037 2.78171 -3.4014 0.382856 -0.229558 -1.01183 Si
59 1 9.46029 6.80802 9.53234 4.375 -0.980131 0.908792 1.65924 -0.405845 -1.1364 Si
64 1 8.10778 5.48589 8.13222 2.53101 -4.29391 -2.72989 -0.00864311 -0.794857 -0.429035 Si
22 1 2.69778 8.2612 0.0273086 0.436617 -4.02151 3.91146 1.36101 -1.19623 0.113144 Si
29 1 1.28101 9.54609 9.59605 -1.03491 5.19241 1.84494 0.054508 -0.0816396 -0.382185 Si
58 1 5.48517 8.18657 8.13954 -2.02322 -0.5703 -0.125634 -0.89923 -0.220411 0.292337 Si
61 1 6.84085 9.44034 9.51104 -1.44383 3.90804 -3.7355 0.0891773 2.03127 -0.490766 Si
54 1 8.19017 8.15439 -0.0866481 0.729278 1.76849 1.41793 -0.306448 -0.0336706 1.19317 Si
48 1 8.21367 -0.0316808 8.0516 -0.0912311 -0.433671 -2.19232 -0.828917 -0.451912 1.31368 Si
26 1 0.0432941 8.1743 8.12045 -0.176873 -8.52878 -0.536233 -0.443512 -1.00973 0.0491686 Si
ITEM: TIMESTEP
16100
ITEM: NUMBER OF ATOMS
64
ITEM: BOX BOUNDS pp pp pp
0.0000000000000000e+00 1.0887404739999999e+01
0.0000000000000000e+00 1.0887404739999999e+01
0.0000000000000000e+00 1.0887404739999999e+01
ITEM: ATOMS id type xu yu zu vx vy vz fx fy fz element
2 1 0.0638303 2.73554 2.64325 3.02374 0.271416 1.31131 -0.0390303 0.250435 0.667032 Si
6 1 2.81047 2.73192 -0.014082 -0.574701 0.775875 -2.8289 -1.13906 0.126351 -0.0394758 Si
7 1 1.31447 1.33371 1.29161 -0.528761 -0.89226 -0.947043 1.25757 0.311508 0.0333997 Si
8 1 2.65811 -0.0134004 2.70881 -0.997107 0.932355 0.427632 -0.288077 -0.158095 0.121553 Si
34 1 5.43854 2.73858 2.72743 -3.16949 3.69784 -2.32101 -0.00761906 -0.0954196 0.233308 Si
36 1 5.39584 -0.0159506 -0.0652263 0.474455 -3.48421 -3.666 -0.161102 -0.237982 1.69158 Si
39 1 6.73374 1.34289 1.34288 1.13827 -2.7871 -0.906518 0.557043 -0.344845 0.356497 Si
40 1 8.16827 0.00300038 2.74806 -1.68837 -0.80407 0.46427 0.387988 0.707973 -0.349526 Si
20 1 -0.0753545 5.40227 0.0116826 -0.292713 2.62132 0.708688 0.0571476 0.565325 0.444308 Si
23 1 1.25916 6.76189 1.37544 0.970921 -0.932527 -1.46183 1.20243 0.584794 -0.250314 Si
24 1 2.71182 5.43608 2.76428 2.09255 0.33833 -2.53126 -0.257536 0.539659 -0.313811 Si
1 1 4.08481 4.14117 1.41499 1.20578 -3.29302 2.62439 -0.0186222 -0.673663 -0.475462 Si
52 1 5.41128 5.44402 -0.00240808 -0.602549 0.105425 0.454375 0.279902 -0.323529 -0.365245 Si
55 1 6.75377 6.78144 1.34168 -2.23576 -0.725704 8.9228 0.54731 0.40961 -0.639376 Si
33 1 9.49842 4.04725 1.37106 2.23379 -0.257841 4.76809 -0.282259 0.662547 0.509944 Si
56 1 8.11796 5.53099 2.70224 -2.79215 2.21282 -0.887721 0.793816 -1.06722 0.190286 Si
18 1 -0.0838881 8.24841 2.64372 0.596778 5.69132 1.54547 0.160572 -1.55376 0.840378 Si
17 1 4.04075 9.49964 1.39327 -2.90374 -3.55777 -2.37309 0.761736 0.146613 -0.449818 Si
50 1 5.48476 8.11683 2.68615 -0.157171 -3.87245 7.68381 -1.20364 0.157732 1.01962 Si
4 1 -0.0253922 -0.059962 0.0179625 -5.06698 4.67496 2.93124 0.867404 -0.147249 -1.13042 Si
49 1 9.49448 9.53733 1.32123 1.56904 0.00563252 2.63978 -0.833518 0.425273 0.351377 Si
14 1 2.80605 2.70849 5.4497 1.34348 2.13118 -5.51713 -1.12216 -0.80542 -0.308092 Si
15 1 1.36045 1.40002 6.86821 6.06203 2.3041 -7.31699 0.48504 1.19429 -0.674402 Si
3 1 4.09145 1.28846 4.0594 -5.35509 -1.27848 3.57489 0.142288 0.271289 0.202592 Si
47 1 6.86103 1.36154 6.75277 1.75455 -2.22746 -0.498812 -0.883726 -0.0623921 0.272943 Si
35 1 9.66283 1.41834 4.07416 -5.13585 -2.48799 1.21548 -1.201 -0.533687 -0.144505 Si
46 1 8.19916 2.74772 5.3882 1.50081 -0.789579 3.50018 0.288883 0.0734075 0.122724 Si
5 1 1.41893 4.05467 4.08427 2.6066 -3.28294 0.512017 -0.550742 -0.0153058 0.334656 Si
31 1 1.33918 6.8663 6.76865 1.86719 -2.76927 -1.62093 0.0264365 -0.469539 0.282252 Si
9 1 4.06769 4.03042 6.80682 1.71476 -1.86693 -1.56389 0.0667677 0.744123 0.903542 Si
19 1 4.09711 6.72604 4.15272 0.219046 -2.74714 -2.56414 0.13298 0.964933 -0.598453 Si
37 1 6.8145 4.13782 4.07419 2.79029 -0.200857 6.17133 -0.109462 -0.559303 -0.093221 Si
60 1 5.44408 5.36855 5.51618 3.56424 -4.708 -0.286272 0.369722 0.640775 -0.21258 Si
63 1 6.85168 6.76303 6.83494 0.0820814 -5.31778 -1.78618 -0.437765 0.662114 -0.455654 Si
28 1 0.0228632 5.45782 5.45187 -1.35774 4.58408 4.6115 -0.0340036 -0.15294 -0.610928 Si
41 1 9.53404 4.11317 6.79453 -6.45461 -2.59996 4.9332 0.0882405 -0.225119 -0.0439461 Si
51 1 9.51286 6.82949 4.09811 -1.48637 3.18305 2.68212 0.175062 0.392773 -0.342226 Si
21 1 1.22191 9.51889 4.0623 -0.0783263 -0.426978 1.10331 1.23295 0.632169 0.406652 Si
30 1 2.68103 8.1802 5.40965 6.0123 -1.80153 -1.61133 -0.0119753 -0.232506 -0.548455 Si
44 1 5.43828 -0.113439 5.43786 -2.01659 0.668624 0.447226 0.560102 0.984921 -0.224361 Si
25 1 4.07015 9.45336 6.7678 -1.43341 4.44647 2.01512 -0.000311908 0.592342 0.628196 Si
53 1 6.83316 9.48822 4.04569 -0.430407 1.73065 -1.14059 -0.409435 0.106203 0.124347 Si
12 1 0.0411849 0.0751648 5.53389 7.26729 -0.500111 3.60735 -0.876785 -0.959111 -0.36556 Si
57 1 9.48678 9.56563 6.89341 -1.67689 -1.3408 4.14386 0.0365142 0.678551 -0.536596 Si
62 1 8.16395 8.22093 5.45396 -1.75016 1.95579 1.94051 0.198349 -0.722461 0.499844 Si
10 1 -0.00582422 2.78325 8.20025 3.79543 4.507 -2.41458 -0.100563 -0.35884 0.0859783 Si
16 1 2.80064 0.124522 8.08587 2.0718 2.15709 -8.472 -0.545888 -2.31309 0.632127 Si
11 1 4.14294 1.33104 9.49008 4.29075 -4.48937 -4.21315 -0.22038 1.3798 -0.0760981 Si
42 1 5.48398 2.7554 8.16593 -3.63724 1.98395 0.232804 0.130288 -0.914699 -0.381368 Si
38 1 8.21205 2.64226 0.0599634 2.3351 -0.180003 -8.46724 -0.699161 0.27856 -0.537403 Si
43 1 9.57839 1.33355 9.56567 -0.514058 -0.415667 6.01945 -0.264008 0.494011 -0.128494 Si
13 1 1.29908 4.16704 9.57359 3.20399 2.33357 0.781321 1.21899 -1.26736 -0.245965 Si
32 1 2.64611 5.45009 8.13521 -0.0168948 0.155797 -2.15545 0.667484 0.162767 -0.00728279 Si
27 1 4.08925 6.80138 9.48358 -0.895664 -1.84971 -0.126255 0.0418226 -0.868081 -0.192343 Si
45 1 6.82929 4.02877 9.57297 -0.523942 -1.37953 2.99968 0.648917 0.922691 -0.106096 Si
59 1 9.5742 6.79961 9.52548 0.0906907 -0.646413 -4.56185 -0.593808 0.852283 0.302533 Si
64 1 8.23451 5.48117 8.17024 -0.398332 5.97424 4.3737 -0.7131 -1.059 0.639777 Si
22 1 2.81491 8.09793 -0.0142254 -4.00842 -0.257741 -2.80138 -2.09401 0.375729 0.300521 Si
29 1 1.39762 9.49768 9.44852 -3.35934 -3.15991 -2.19144 0.838736 0.873145 0.860049 Si
58 1 5.45867 8.14329 8.17379 0.666811 1.64252 -3.62408 0.22415 0.256931 -0.288349 Si
61 1 6.76365 9.56961 9.56174 -5.78675 -0.734759 -1.32105 0.274093 -1.08127 -0.371275 Si
54 1 8.13983 8.18116 0.0197037 0.113778 -0.444029 -1.85166 -0.058224 -0.537015 -0.662836 Si
48 1 8.10717 0.0606653 8.27912 3.91309 1.43477 -0.438503 0.654274 -0.285743 -1.00295 Si
26 1 0.00466505 8.19443 8.14651 -3.24589 5.98974 -4.87861 -0.218028 -0.396984 0.114875 Si
ITEM: TIMESTEP
16200
ITEM: NUMBER OF ATOMS
64
ITEM: BOX BOUNDS pp pp pp
0.0000000000000000e+00 1.0887404739999999e+01
0.0000000000000000e+00 1.0887404739999999e+01
0.0000000000000000e+00 1.0887404739999999e+01
ITEM: ATOMS id type xu yu zu vx vy vz fx fy fz element
2 1 -0.0655352 2.74966 2.69704 -0.987431 0.440956 -0.482031 0.123277 0.0664005 0.223978 Si
6 1 2.67809 2.67549 0.076111 1.49563 -0.282982 2.18767 -0.0928021 0.496526 -0.740539 Si
7 1 1.29684 1.36521 1.40905 -1.22677 0.810712 -3.30528 0.214847 -0.181197 -0.0800288 Si
8 1 2.75497 0.0307 2.71014 2.3732 2.85975 -1.08657 0.439871 -0.0397751 -0.214689 Si
34 1 5.52766 2.70695 2.6734 2.70081 -2.85831 2.49895 -0.54964 -0.117121 -0.834953 Si
36 1 5.48334 0.0183882 -0.0566477 3.29085 5.73816 -1.34971 -0.0222675 -0.250966 -0.394572 Si
39 1 6.90509 1.23034 1.26656 2.00985 3.59738 1.914 -0.64685 1.59256 1.15409 Si
40 1 8.20255 -0.0576534 2.7074 -1.20025 3.33422 0.475999 -0.936119 0.489256 0.78257 Si
20 1 0.0351074 5.46018 -0.0203839 0.313399 0.395026 -0.968209 0.0469095 -0.142669 -0.095938 Si
23 1 1.35817 6.83246 1.33857 -2.52047 -3.09288 2.75861 -0.0566589 -0.599232 0.269173 Si
24 1 2.69451 5.4231 2.67885 -1.41953 3.40454 4.28196 -0.108583 0.238227 0.420578 Si
1 1 4.04171 4.12328 1.30193 -4.47924 3.33188 -1.70467 0.758824 -1.1373 1.09592 Si
52 1 5.44232 5.47095 0.0641501 3.03427 -0.892043 -4.1121 -0.2275 0.29981 -1.26813 Si
55 1 6.83905 6.75622 1.37516 1.5029 1.83467 -4.56887 0.218556 0.235648 0.728163 Si
33 1 9.52039 4.14415 1.32214 -5.24852 -3.08882 -4.46604 0.548503 -0.575191 0.185579 Si
56 1 8.20492 5.35879 2.76078 2.20732 1.76453 -0.462253 -0.342461 1.18243 -0.606828 Si
18 1 0.0144254 8.10805 2.73402 3.72884 -3.84636 -5.93314 -0.120804 0.844922 -0.132305 Si
17 1 4.20142 9.57904 1.3045 0.201875 0.895471 7.89254 -1.76415 -0.337081 0.312214 Si
50 1 5.43518 8.15811 2.65496 0.114018 2.49568 -3.98769 0.487314 -0.211815 0.0233111 Si
4 1 -0.0457448 0.0504062 0.00731126 4.60658 -4.41203 -2.16065 0.0671316 0.0523685 0.00529839 Si
49 1 9.5618 9.58376 1.43083 -3.84559 -2.8092 -1.04809 0.577556 -1.42601 -0.784941 Si
14 1 2.64366 2.71136 5.43386 3.80302 1.96376 2.00299 0.978026 1.054 -0.275324 Si
15 1 1.39166 1.39497 6.75071 -4.42441 -2.79162 4.91955 -1.45191 -1.42313 0.905435 Si
3 1 4.06236 1.47951 4.08669 0.315748 -0.615141 2.38659 0.499975 -1.16551 -0.299043 Si
47 1 6.78087 1.38778 6.89748 -0.0438254 -1.32852 -0.193533 0.476752 -0.730355 -0.30011 Si
35 1 9.49012 1.36579 4.04479 5.64505 -1.29778 -0.650172 0.172787 -0.139893 0.627591 Si
46 1 8.16176 2.73086 5.48515 -5.62231 -0.399241 -4.75933 0.242225 -0.486378 0.112144 Si
5 1 1.32495 4.05601 4.08293 5.19284 -1.6427 2.94809 0.113635 0.32195 -0.586164 Si
31 1 1.37369 6.81484 6.92974 2.02887 1.75517 0.663829 0.0621808 -0.646055 -1.53987 Si
9 1 4.0439 4.07745 6.76153 -7.08935 -2.41329 -1.13007 1.16656 -0.172099 -0.139655 Si
19 1 4.10927 6.79922 3.99636 -0.26571 -0.648829 2.95081 -0.889059 0.127013 0.412004 Si
37 1 6.87504 4.02256 4.05757 -0.510386 5.00999 -3.24166 -0.820783 0.348023 0.445706 Si
60 1 5.47576 5.47569 5.3436 -5.78966 3.01918 0.935535 -0.0799044 -0.778425 0.862511 Si
63 1 6.79243 6.84194 6.80194 0.87047 0.461381 3.18752 -0.0958526 -0.445246 0.281991 Si
28 1 0.043355 5.43727 5.44908 1.67002 -2.10497 -5.25583 -0.345769 0.91887 0.242287 Si
41 1 9.54145 4.12847 6.80104 0.765281 0.626618 -0.527062 0.106786 -0.877213 0.275969 Si
51 1 9.4918 6.80471 4.06736 0.666513 -2.93707 -2.13532 0.461311 -0.344666 0.785154 Si
21 1 1.43699 9.48445 4.02563 -3.59504 -2.75372 -0.619278 -0.750183 0.269093 0.184459 Si
30 1 2.69565 8.13761 5.43369 0.953657 2.56394 -0.237195 0.773636 -0.377953 0.314562 Si
44 1 5.40691 0.037604 5.46768 -0.927747 -2.53736 0.391024 0.140799 0.0462583 -0.271748 Si
25 1 4.06781 9.50757 6.82076 0.759832 -4.83691 -2.40607 -0.161524 0.263056 -0.428166 Si
53 1 6.73891 9.50437 4.03668 2.78733 -1.37712 -0.910848 0.370882 0.615142 0.555417 Si
12 1 0.0108236 -0.0497147 5.37034 -3.97897 2.12867 0.932276 0.633291 0.848164 -0.0598081 Si
57 1 9.5835 9.50368 6.74232 -2.23376 -2.60183 -0.00364753 -0.504312 -0.384688 0.844188 Si
62 1 8.1281 8.19348 5.43574 0.976862 1.02375 -1.61674 0.212567 -0.152171 -0.367091 Si
10 1 -0.0437253 2.66963 8.19598 -2.32548 -3.38006 0.731768 0.923588 1.07818 -0.856797 Si
16 1 2.69647 -0.0218622 8.15698 -5.59166 2.16371 5.7184 -0.0944754 0.451755 -0.394323 Si
11 1 3.98262 1.32093 9.57197 -7.32528 4.53433 2.90094 0.763234 0.28402 -0.183476 Si
42 1 5.40275 2.70671 8.26177 5.27777 6.04345 -1.39517 -0.352798 0.737501 -0.42629 Si
38 1 8.16855 2.76587 0.0313196 -3.16471 0.817272 1.36645 -0.218321 -0.0598199 -0.74534 Si
43 1 9.47085 1.39689 9.5231 2.69694 -4.33689 -3.48563 0.232799 -0.393273 0.617247 Si
13 1 1.41483 4.0728 9.50966 -0.98208 -4.54366 0.46047 -0.592779 -0.393073 0.204258 Si
32 1 2.79085 5.42797 8.16024 -1.08439 -1.50359 2.38363 -0.62356 0.0577805 0.294219 Si
27 1 4.05404 6.82041 9.52904 1.63473 1.85938 -0.35899 0.555847 0.298104 0.595544 Si
45 1 6.80896 4.16182 9.55079 -0.510497 -1.35748 -1.35219 -0.615782 -1.17235 0.433523 Si
59 1 9.50289 6.80479 9.58802 -2.11792 -2.45158 0.663484 -0.413266 -0.773366 -0.18575 Si
64 1 8.1607 5.40743 8.17784 -1.96063 0.230965 -1.07715 0.102249 1.39888 -0.259605 Si
22 1 2.67025 8.201 0.0225628 3.98048 3.31906 2.27593 0.943146 0.621732 -0.498742 Si
29 1 1.32129 9.59759 9.52965 -1.70692 -0.300474 1.20209 -0.590381 -1.21921 -0.0373167 Si
58 1 5.44044 8.22547 8.20195 2.18459 -1.68753 -0.593301 0.260823 -0.696617 0.017199 Si
61 1 6.87622 9.51396 9.57169 8.98122 -1.67438 2.34171 -0.309842 -0.267027 -0.153373 Si
54 1 8.20809 8.16127 0.0904645 3.10821 0.280876 -0.834966 -0.0831436 0.30404 -0.114687 Si
48 1 8.2335 -0.0648943 8.20366 -2.66107 1.07579 0.606921 -0.543365 0.587028 -0.89873 Si
26 1 -0.06924 8.0645 8.21212 2.96068 3.02411 4.43974 0.728965 1.98813 -0.0379577 Si
ITEM: TIMESTEP
16300
ITEM: NUMBER OF ATOMS
64
ITEM: BOX BOUNDS pp pp pp
0.0000000000000000e+00 1.0887404739999999e+01
0.0000000000000000e+00 1.0887404739999999e+01
0.0000000000000000e+00 1.0887404739999999e+01
ITEM: ATOMS id type xu yu zu vx vy vz fx fy fz element
2 1 0.0403887 2.70478 2.77999 1.7053 1.1607 -2.3468 -0.153736 -0.144135 -0.927614 Si
6 1 2.70963 2.72327 -0.0968502 -4.978 1.38627 1.14255 0.942049 0.285728 0.994635 Si
7 1 1.46487 1.39746 1.33506 -0.986094 -2.44157 0.669818 -1.25242 -0.707734 0.421856 Si
8 1 2.71521 -0.0326479 2.76199 -2.34986 1.47782 2.1159 0.0455783 0.467369 0.011208 Si
34 1 5.39338 2.71361 2.75924 -1.37513 -1.99059 -3.16433 -0.331376 0.616966 0.92003 Si
36 1 5.40677 -0.0189126 0.144496 -0.024751 -4.29125 3.45382 0.587201 0.901131 -1.12674 Si
39 1 6.75883 1.45818 1.43613 0.677847 -3.41154 -1.81787 0.258199 -1.24177 -0.63887 Si
40 1 8.13162 0.0272971 2.70048 3.42063 -4.15926 -2.67856 0.723196 -0.381139 -0.832916 Si
20 1 -0.0130499 5.4409 0.0526291 0.237951 -2.36309 -1.47478 0.191133 0.393395 -0.56025 Si
23 1 1.40163 6.80529 1.44005 1.09567 4.33852 -1.45286 -0.753549 0.00275979 -0.601797 Si
24 1 2.69672 5.47222 2.83461 0.853483 -2.62572 0.430698 1.47404 -0.0737972 -1.39001 Si
1 1 4.0878 4.045 1.35689 1.66736 -1.40951 2.58753 -0.442498 1.13406 -0.276476 Si
52 1 5.52387 5.41499 -0.0891018 2.48032 0.469214 5.25553 -0.36988 -0.00458634 1.71823 Si
55 1 6.83227 6.87231 1.34553 3.01758 -2.84899 -2.86478 -0.724261 -0.403839 -0.656709 Si
33 1 9.53254 4.07881 1.4151 1.81618 3.45454 -0.145517 -0.263651 -0.532573 -0.440004 Si
56 1 8.10743 5.46263 2.66544 1.36198 2.93586 -1.12254 0.420627 -0.164908 0.500872 Si
18 1 -0.0452048 8.16273 2.73471 -8.75539 0.376161 3.59112 1.06085 0.588385 -0.185306 Si
17 1 4.06393 9.50328 1.40245 0.0617863 -3.26996 -4.42754 0.0497338 -0.502897 0.580071 Si
50 1 5.50211 8.19682 2.79022 1.28624 -4.5537 1.03729 -0.474208 0.198511 -0.806585 Si
4 1 0.0552651 -0.0226172 -0.0266991 -0.820855 0.213252 -1.16789 -0.0525504 0.606639 0.208815 Si
49 1 9.54524 9.4891 1.27123 2.84549 4.42549 -2.79984 -0.762359 0.590735 0.626838 Si
14 1 2.65408 2.71975 5.5201 -4.41165 -2.7587 0.776805 0.84003 0.128748 -0.476164 Si
15 1 1.39236 1.31513 6.85335 1.81625 3.85574 -2.29284 -0.0195521 -0.174572 0.0577762 Si
3 1 4.02926 1.35039 4.16929 3.18214 3.45797 -4.17544 0.179528 0.136797 -0.703441 Si
47 1 6.83682 1.34827 6.70899 -4.19287 1.27595 3.37264 -0.564879 0.535492 0.401106 Si
35 1 9.45349 1.36669 4.06049 -0.110719 -0.118445 -2.21058 1.46986 -0.464066 -0.215682 Si
46 1 8.20154 2.72014 5.35261 5.05059 -3.97261 2.58622 -1.48932 0.757495 0.463896 Si
5 1 1.40835 4.07779 4.07018 -5.99317 3.01596 -3.53491 -0.752412 -0.488578 0.912237 Si
31 1 1.33363 6.79657 6.68961 -3.73728 1.35207 1.42962 -0.161878 -0.270281 1.61361 Si
9 1 4.0759 4.10396 6.79615 8.7717 1.44943 0.727545 -0.80089 -0.555194 0.522312 Si
19 1 4.02395 6.95729 4.11091 0.919977 -3.71275 -0.853695 1.15776 -1.90796 0.339636 Si
37 1 6.72968 4.17883 4.0955 -4.16889 -5.18383 -1.69391 0.393341 -0.881186 -0.0829131 Si
60 1 5.38439 5.47065 5.53021 0.0800146 3.83532 1.0648 0.198516 1.26129 -1.26732 Si
63 1 6.81586 6.83593 6.82633 -2.48411 -1.06233 -2.32874 -0.00901775 -0.511451 -0.165665 Si
28 1 -0.0015827 5.39967 5.37841 2.28522 0.204927 -2.32194 -0.234168 -0.172852 0.12294 Si
41 1 9.53287 4.00035 6.75694 4.64314 2.3982 0.920088 0.300707 0.802638 0.256745 Si
51 1 9.55505 6.74659 3.99793 -1.29949 2.01941 -0.719857 -0.533978 -0.249845 0.446493 Si
21 1 1.34888 9.55298 4.16258 2.87684 0.283264 -0.982031 -0.512843 -0.457368 -0.216022 Si
30 1 2.73478 8.16324 5.52306 -1.70199 -2.31752 -4.6148 -0.490009 1.47096 -0.47944 Si
44 1 5.48251 -0.0275405 5.3775 1.52202 3.85062 -1.72615 -0.528259 0.30483 0.942335 Si
25 1 4.09122 9.57367 6.825 2.06446 1.01947 0.44187 0.565628 -0.754298 -0.0206256 Si
53 1 6.87045 9.56215 4.08287 -6.15245 0.983426 0.216315 0.259989 -0.95189 0.19154 Si
12 1 -0.0409508 0.0651628 5.501 1.6418 -0.019691 1.61622 -0.0531424 -0.541639 -0.475235 Si
57 1 9.53007 9.52582 6.84528 4.18027 5.8607 -1.34248 0.149787 -0.621983 -0.952597 Si
62 1 8.23627 8.07316 5.39941 -1.22407 0.752672 0.0468866 -0.280293 1.18938 0.427236 Si
10 1 0.0598278 2.68509 8.12486 3.96131 0.699464 6.08499 -1.2212 -0.0462085 0.905958 Si
16 1 2.75928 -0.0332184 8.22684 -0.426626 -3.28639 -4.27649 0.414161 0.925096 -0.0838334 Si
11 1 4.16601 1.38938 9.56218 1.23175 0.538345 -3.66161 -0.864078 -0.994703 -0.048429 Si
42 1 5.39879 2.71599 8.1318 -0.808136 0.561645 2.56906 1.53697 0.0505875 -0.285034 Si
38 1 8.12867 2.70777 0.00547862 1.64565 -1.11665 3.48166 0.668603 0.368086 0.570319 Si
43 1 9.47708 1.34429 9.54532 -2.91371 5.58209 1.39068 0.665337 -0.301295 -0.844374 Si
13 1 1.35091 4.06625 9.51606 -1.28661 0.63416 1.26577 -0.380351 0.725176 -0.277913 Si
32 1 2.69372 5.44759 8.12944 4.08236 -7.08096 -3.77366 0.0185978 0.201163 0.16137 Si
27 1 4.14541 6.74933 9.51441 -3.90056 1.73336 -0.433587 -1.19654 0.208532 0.0222863 Si
45 1 6.86229 4.05509 9.49611 2.60039 0.904249 0.61149 -0.735825 -0.406525 -0.511127 Si
59 1 9.49952 6.82268 9.47134 -2.02982 7.01162 5.63183 0.620647 -0.411089 0.433513 Si
64 1 8.15946 5.41057 8.14154 -1.33363 -2.6299 3.58526 0.603326 0.0462295 -0.523155 Si
22 1 2.7465 8.12786 0.0119292 -6.26292 -1.3103 -2.6323 0.344091 -0.273602 0.00245962 Si
29 1 1.42364 9.50257 9.52818 2.53415 2.52603 2.11732 -0.233648 -0.170916 0.373416 Si
58 1 5.42872 8.13729 8.19606 0.538405 2.30858 1.73282 -0.266254 0.541995 -0.931802 Si
61 1 6.67501 9.59069 9.46327 -1.08983 -2.85115 -1.96512 0.857757 -0.0696019 0.883311 Si
54 1 8.10509 8.19975 -0.120399 -1.84923 -1.50387 4.8028 0.230946 0.286707 0.341699 Si
48 1 8.12244 -0.0362362 8.08683 3.5754 -2.44516 2.92551 -0.0149541 0.764573 1.04573 Si
26 1 0.0548702 8.19341 8.1688 -5.06381 -3.61706 1.32098 -0.304208 -0.656962 -0.416442 Si
ITEM: TIMESTEP
16400
ITEM: NUMBER OF ATOMS
64
ITEM: BOX BOUNDS pp pp pp
0.0000000000000000e+00 1.0887404739999999e+01
0.0000000000000000e+00 1.0887404739999999e+01
0.0000000000000000e+00 1.0887404739999999e+01
ITEM: ATOMS id type xu yu zu vx vy vz fx fy fz element
2 1 -0.0110269 2.72791 2.78951 -0.775914 -1.59669 1.85736 0.290483 0.225617 -0.0864486 Si
6 1 2.75113 2.68599 -0.027954 0.855367 0.026073 -0.96605 -0.375097 -0.111664 -0.153188 Si
7 1 1.28968 1.38496 1.37797 -0.306727 3.69727 2.85701 1.08917 -0.0425504 -0.205501 Si
8 1 2.76718 -0.0109475 2.62551 -0.823101 -1.91322 3.71072 -1.02578 -0.190012 0.648683 Si
34 1 5.50198 2.64087 2.6812 -1.87904 2.3507 -0.524373 0.479622 0.760653 0.192559 Si
36 1 5.50765 -0.0319804 -0.128647 0.805748 -0.729818 -1.25592 -1.06952 -0.516946 1.29071 Si
39 1 6.81611 1.30139 1.29369 1.33699 6.43852 1.76761 -0.120183 0.517369 -0.31253 Si
40 1 8.08779 0.0625036 2.76753 -1.10328 -0.181982 -0.440545 0.846342 -0.347094 0.445123 Si
20 1 -0.0253736 5.40253 -0.0208022 -1.85812 -1.62274 2.03593 0.0902888 -0.177293 0.380371 Si
23 1 1.33274 6.84251 1.25775 2.43008 -3.18941 -0.234915 0.490793 -0.322937 0.915178 Si
24 1 2.72821 5.39019 2.66736 1.47259 -0.928115 2.33892 -1.22685 0.450377 0.490917 Si
1 1 4.08764 4.03583 1.38557 2.86594 -1.21321 -0.220495 0.102859 -0.576234 -0.300073 Si
52 1 5.39156 5.45267 0.08029 -3.53836 -1.04567 -0.441601 0.000144026 0.405966 -0.833864 Si
55 1 6.73827 6.80114 1.48861 1.51022 8.32489 2.77985 0.537374 -0.403292 -0.7609 Si
33 1 9.50263 4.02894 1.43056 2.40811 -0.526893 2.52067 0.0854903 0.890772 -0.667535 Si
56 1 8.24273 5.5086 2.79065 -4.27028 -3.64504 -1.09632 -0.360043 -0.578224 0.125274 Si
18 1 0.0344642 8.17222 2.78357 2.6505 1.19582 -0.671333 -0.906581 -0.596279 -0.519048 Si
17 1 4.03153 9.48001 1.2425 1.41889 2.81137 0.828746 1.0104 0.837434 0.108217 Si
50 1 5.32338 8.14495 2.71432 0.22574 -3.27827 1.24449 0.599963 0.394881 0.672131 Si
4 1 -0.0223296 -0.0120005 0.0429355 -5.46264 -0.458423 2.70943 -0.369153 -0.649974 -0.0363315 Si
49 1 9.41141 9.50395 1.49453 -3.1005 -3.54996 -2.0785 1.06468 0.28008 -0.898429 Si
14 1 2.83789 2.78923 5.30416 3.16324 0.0897411 -0.203568 -1.03319 -0.909476 1.10111 Si
15 1 1.35557 1.42432 6.72167 -2.46157 -1.16327 0.141665 0.837204 0.758938 -0.566971 Si
3 1 4.15441 1.30281 4.00372 -3.01433 0.14102 5.31388 -0.562297 0.198596 0.295968 Si
47 1 6.76439 1.35875 6.85707 -3.10893 -2.92325 1.93807 0.442456 -0.690086 -0.118264 Si
35 1 9.61584 1.33803 4.12077 0.975092 -3.54918 -3.30069 -1.87146 0.506022 0.367375 Si
46 1 8.19519 2.69668 5.62116 -2.92924 2.57501 2.29095 1.19049 0.0179602 -1.17198 Si
5 1 1.27528 4.14015 4.1791 4.54341 -1.94449 0.138735 0.866135 0.0208191 -1.38582 Si
31 1 1.37686 6.76964 6.78931 1.75118 -3.982 -3.32272 0.279609 1.11652 -0.0585278 Si
9 1 4.0932 4.04944 6.83787 -3.72348 1.46439 -4.14245 0.0897276 0.641838 -0.217443 Si
19 1 4.15544 6.61068 4.0863 2.18478 5.47774 -2.13709 -1.17777 1.57844 -0.692835 Si
37 1 6.96771 3.98151 4.09159 -4.74606 10.888 1.36169 -1.11837 0.266484 -0.179026 Si
60 1 5.48201 5.33342 5.39553 -2.10636 -5.97886 -0.178125 0.780866 -0.67625 0.866642 Si
63 1 6.73996 6.76102 6.79928 -1.00796 4.8042 -3.62965 0.679444 0.280262 -0.545159 Si
28 1 -0.0702657 5.5225 5.48988 -2.41048 0.292331 3.92998 1.10464 -0.7971 0.6184 Si
41 1 9.54394 4.22324 6.88611 3.62156 -0.805731 1.64647 -0.839325 -0.926409 -0.118496 Si
51 1 9.54929 6.84141 4.23248 1.79042 -1.1961 1.7064 -0.722141 1.14597 -1.55503 Si
21 1 1.35134 9.51569 4.08821 -1.21377 7.7669 2.16667 1.67811 0.294252 -0.235019 Si
30 1 2.81009 8.11018 5.39858 4.69191 0.91117 5.73112 -0.775647 -0.420627 -0.0931336 Si
44 1 5.36781 -0.00745198 5.51992 -4.64876 -0.677249 4.15516 1.16564 0.100985 -0.967491 Si
25 1 4.0657 9.5005 6.7934 -2.48561 5.1372 -0.23518 -0.789454 0.390958 -0.0364665 Si
53 1 6.76601 9.54063 4.09017 5.35549 0.357332 -0.254125 -0.970653 -0.0498981 0.138252 Si
12 1 0.0515503 0.00883647 5.4268 2.99184 -3.60813 -3.0578 -0.25269 -0.364417 0.330449 Si
57 1 9.51577 9.57661 6.77239 -3.00586 -1.88854 -3.19263 -0.280073 0.784873 0.548761 Si
62 1 8.11941 8.2341 5.49253 3.98087 -7.92689 0.380453 -0.178892 -0.812552 -0.0745914 Si
10 1 0.0535533 2.81057 8.09793 -1.74298 -2.67268 -4.22396 0.101694 -0.183594 0.319533 Si
16 1 2.66835 0.0629687 8.06411 1.24219 -3.41588 0.606973 0.106057 -1.13132 0.27148 Si
11 1 4.08381 1.26312 9.44119 6.08377 1.54625 -2.94849 0.264286 1.40518 0.222761 Si
42 1 5.50084 2.72043 8.15505 -3.14507 -6.81193 -5.81414 -1.70667 -0.512418 0.348124 Si
38 1 8.13601 2.75025 -0.0257529 2.55023 -1.62037 -3.78755 0.774454 -0.721218 0.117519 Si
43 1 9.66178 1.42432 9.50096 1.68383 -1.23438 1.67195 -1.40921 0.00934014 0.360659 Si
13 1 1.39634 4.12108 9.48912 0.101256 1.90474 -6.21677 -0.112631 -0.630308 0.832394 Si
32 1 2.716 5.48624 8.20917 -3.18935 4.99396 1.21132 0.804652 -0.115462 -0.738477 Si
27 1 4.06143 6.91659 9.51888 5.78063 -4.94643 0.572695 0.800277 -1.30636 -0.187412 Si
45 1 6.70707 4.04317 9.55258 -2.96981 -1.08456 0.939153 1.04817 1.51969 0.298606 Si
59 1 9.58871 6.81142 9.51254 -0.506309 -2.04586 -0.481775 -0.633639 1.04765 0.234568 Si
64 1 8.125 5.51289 8.23304 1.36149 1.6112 -3.01744 -0.395727 -0.659963 0.140568 Si
22 1 2.68356 8.23075 -0.12287 1.7587 -0.296288 1.08344 -0.587329 -0.53197 0.682269 Si
29 1 1.33176 9.54054 9.44949 -1.91482 4.29212 -1.78643 -0.0348492 1.30354 0.175904 Si
58 1 5.43437 8.17974 8.06426 -0.791412 -0.213693 0.301092 0.236695 -0.111943 1.54652 Si
61 1 6.83901 9.42339 9.5761 0.242678 1.41332 1.48856 -0.150569 0.452741 -1.54736 Si
54 1 8.11301 8.11523 0.0812667 0.312867 2.29621 -1.47101 0.896725 -0.560661 0.0581975 Si
48 1 8.1455 0.0472194 8.24749 -3.95092 0.809819 -3.08269 0.699605 -0.593124 -0.32281 Si
26 1 0.029488 8.25325 8.06813 4.04344 0.247942 0.987202 -0.478739 -1.38654 0.440945 Si
ITEM: TIMESTEP
16500
ITEM: NUMBER OF ATOMS
64
ITEM: BOX BOUNDS pp pp pp
0.0000000000000000e+00 1.0887404739999999e+01
0.0000000000000000e+00 1.0887404739999999e+01
0.0000000000000000e+00 1.0887404739999999e+01
ITEM: ATOMS id type xu yu zu vx vy vz fx fy fz element
2 1 -0.037306 2.75676 2.6361 0.485687 2.5237 2.00733 0.359174 -0.636034 0.43755 Si
6 1 2.71902 2.82423 0.0780119 2.04092 -2.69416 -3.96636 -0.445686 -0.926101 -0.113429 Si
7 1 1.3763 1.33227 1.39689 0.945146 -3.23817 -3.76148 -0.144981 0.760145 -0.775196 Si
8 1 2.70726 0.0297777 2.75927 3.28066 -0.87261 -3.12004 0.57865 -0.522122 0.0106085 Si
34 1 5.40617 2.79908 2.76208 -0.461488 -1.85155 4.55858 -0.856161 -1.02269 -0.843329 Si
36 1 5.42956 0.11333 0.0715626 1.59604 1.40501 -3.76177 0.215554 -0.634821 -0.764516 Si
39 1 6.78037 1.37376 1.4302 -2.41529 -1.27674 -1.26773 0.179367 0.521072 0.465739 Si
40 1 8.29207 0.019616 2.62321 -2.61101 -1.71484 -1.31825 -1.3737 -0.666682 1.07894 Si
20 1 0.0341012 5.44324 -0.0180127 -2.27607 -0.301142 0.389104 -0.494597 0.171541 0.305963 Si
23 1 1.41831 6.7595 1.37651 -5.31363 -0.119073 1.80718 -0.583583 0.879076 -0.393318 Si
24 1 2.73648 5.48919 2.73505 -0.245338 -1.84347 0.379701 0.171513 -0.513695 0.759788 Si
1 1 4.11205 4.1936 1.3531 -1.47793 5.36751 2.0957 0.150927 -0.177389 0.127049 Si
52 1 5.45317 5.50172 -0.0969315 2.87546 2.87705 1.97109 0.212764 -1.23818 -0.0434861 Si
55 1 6.85364 6.74299 1.21698 -0.734761 -3.59178 -1.3742 0.213494 1.48992 0.993877 Si
33 1 9.51981 4.05363 1.24366 -4.23917 -1.5193 0.571353 0.200154 0.863939 1.16611 Si
56 1 8.19029 5.44842 2.65666 1.45629 2.81616 -2.97428 -0.65179 -0.855206 -0.756145 Si
18 1 -0.0493117 8.12838 2.66599 0.105 3.99639 0.943276 0.790658 -0.0490801 0.456324 Si
17 1 4.18138 9.59459 1.43683 -2.2074 1.95255 3.77851 -0.934657 0.376133 -0.42463 Si
50 1 5.54219 8.21302 2.62381 0.951398 3.48464 0.22017 -0.230921 -1.43241 0.882831 Si
4 1 0.0873313 -0.0356978 -0.0570132 0.177227 1.04176 1.17004 -0.58906 0.83488 0.0241428 Si
49 1 9.60191 9.54856 1.27544 0.00620615 -1.9663 -0.453763 -0.0204823 -0.332183 0.236522 Si
14 1 2.61035 2.63203 5.57626 -0.527429 2.71572 2.09128 0.849411 0.828251 -0.702781 Si
15 1 1.2941 1.22261 6.92838 4.14404 -0.0472241 1.84385 -0.355707 0.545479 0.264654 Si
3 1 4.05798 1.3558 4.12478 -0.967878 -0.703842 -2.66483 0.0261637 0.640675 0.380807 Si
47 1 6.76784 1.37228 6.80175 5.83015 1.44765 -3.38207 0.791852 0.90238 -0.670377 Si
35 1 9.55232 1.36735 4.03812 0.705828 6.13634 3.68837 -0.354368 0.570973 -0.485086 Si
46 1 8.1328 2.76018 5.28515 -0.842781 -0.596774 -3.04919 -0.873318 -0.241877 0.67085 Si
5 1 1.33361 4.04322 4.037 -0.0131276 1.16517 4.7104 0.881288 -0.1716 0.355333 Si
31 1 1.29432 6.74781 6.85034 4.23177 0.414995 -2.76475 0.787223 0.113329 -0.630441 Si
9 1 4.08524 4.10012 6.88731 -2.24885 -0.456339 4.29956 -0.349538 0.232765 -1.43464 Si
19 1 4.02591 6.94439 4.09389 -2.75687 -4.04022 7.17715 0.388058 0.341085 -0.163771 Si
37 1 6.66537 4.19981 3.97547 8.94869 -4.91478 -1.37243 1.59745 0.42022 1.50114 Si
60 1 5.43147 5.61439 5.47269 0.0325254 -0.524125 0.276909 -0.762607 -1.36157 -0.146197 Si
63 1 6.89489 6.80482 6.81789 -0.618515 -3.85924 2.6396 -0.69226 0.767535 0.620531 Si
28 1 0.0318281 5.37505 5.41498 2.359 0.259617 -4.68706 -0.201169 0.63199 -0.378327 Si
41 1 9.58479 3.99912 6.66591 -2.93548 -0.283088 -1.38971 -0.828028 0.097367 -0.113459 Si
51 1 9.50695 6.70408 4.03812 -1.22578 -0.141099 -0.818621 1.15462 0.399662 -0.0110796 Si
21 1 1.32544 9.54861 4.05258 1.02353 -9.1583 2.63784 -1.19942 0.226484 -0.138191 Si
30 1 2.57195 8.27755 5.49183 -3.73305 -0.727245 -1.2348 1.34829 -1.02102 0.58804 Si
44 1 5.50984 0.0193663 5.43337 0.331892 -5.35392 -3.44936 -0.830602 -0.926106 -0.0715048 Si
25 1 4.11259 9.54539 6.87234 -0.249405 -4.5575 -1.43006 -0.130587 0.0258793 -0.804908 Si
53 1 6.86036 9.47061 4.06298 0.483227 -0.268518 2.32235 0.82782 1.15519 -0.410146 Si
12 1 -0.0986797 0.00988477 5.431 0.79648 5.16737 3.21301 1.05622 -0.764511 0.350386 Si
57 1 9.53244 9.43749 6.79862 -2.87992 1.91087 5.94373 -0.0275916 0.136086 0.308891 Si
62 1 8.23351 8.0703 5.3711 -5.24916 7.71553 -0.889453 -0.464403 0.627089 0.633814 Si
10 1 -0.14676 2.74186 8.18225 1.46289 -1.74623 -0.636975 1.00445 -1.64546 0.0816742 Si
16 1 2.77244 -0.0858296 8.30807 1.45943 11.1626 -0.751658 -0.501829 0.712514 -0.39093 Si
11 1 4.04146 1.4369 9.5972 -5.74372 -4.84085 2.01985 0.260525 -0.126739 -0.0539996 Si
42 1 5.42485 2.73169 8.17806 -2.26548 4.99832 0.654652 0.292907 -0.223263 0.388467 Si
38 1 8.14665 2.66865 0.083328 -0.255108 -0.535793 0.182162 -0.710918 0.2025 -1.53303 Si
43 1 9.396 1.31427 9.51948 2.12328 -3.17606 -3.68293 1.27404 -0.0617531 0.369685 Si
13 1 1.25312 4.00732 9.56251 0.797937 0.609309 1.0148 1.13348 0.758704 -0.673048 Si
32 1 2.69578 5.42764 8.21033 2.14792 -2.15363 -0.285598 -0.760052 -0.393745 0.333587 Si
27 1 4.01881 6.80846 9.55535 -1.49312 4.13697 -4.21714 0.715153 0.313214 -0.462704 Si
45 1 6.87301 4.06843 9.47565 -0.425043 -1.84827 -0.0284236 -0.247118 -0.0490237 0.335695 Si
59 1 9.49368 6.77442 9.56133 1.42102 0.527391 -0.416073 0.431687 -0.707583 -0.981194 Si
64 1 8.2766 5.33409 8.02216 -0.432312 3.0138 0.831946 -0.49306 0.829388 1.27423 Si
22 1 2.85896 8.16837 0.113117 3.91201 -2.54813 -2.41629 -0.670473 -0.291149 0.501331 Si
29 1 1.46535 9.4022 9.65113 -0.0874806 -1.94693 -2.99853 -0.568994 0.163457 -0.967488 Si
58 1 5.43203 8.21391 8.278 -0.427883 -1.1068 -3.64839 0.609934 -1.01885 -1.07451 Si
61 1 6.79609 9.60888 9.54962 3.10921 -0.934085 1.93751 -0.0723543 -0.0473103 0.605799 Si
54 1 8.2283 8.21435 -0.0374545 -3.13086 -0.578398 -0.28643 -0.924066 -0.0636217 -0.0878455 Si
48 1 8.11777 -0.0104337 8.10364 1.00535 0.578187 6.86707 0.23618 -0.450495 -0.0627763 Si
26 1 0.0311802 8.06992 8.24232 0.245097 0.6119 -5.74543 -0.394931 1.03336 0.0521301 Si
ITEM: TIMESTEP
16600
ITEM: NUMBER OF ATOMS
64
ITEM: BOX BOUNDS pp pp pp
0.0000000000000000e+00 1.0887404739999999e+01
0.0000000000000000e+00 1.0887404739999999e+01
0.0000000000000000e+00 1.0887404739999999e+01
ITEM: ATOMS id type xu yu zu vx vy vz fx fy fz element
2 1 -0.0116836 2.7166 2.72953 0.156323 4.02321 -3.88488 -0.430304 -0.233273 0.113471 Si
6 1 2.74087 2.61399 -0.0462714 0.677853 0.708538 2.10583 0.128152 0.355573 0.0456805 Si
7 1 1.39182 1.33879 1.37529 -2.00438 1.90596 2.02492 -0.678886 0.0215255 -0.0596286 Si
8 1 2.73724 -0.0491986 2.71454 -3.68513 2.27793 -0.987873 0.186614 0.528307 -0.745105 Si
34 1 5.52757 2.66619 2.58512 6.16062 2.833 0.154685 0.196139 -9.76987e-06 1.58813 Si
36 1 5.35246 -0.140857 -0.0113969 -2.15105 1.36367 -1.47816 0.943718 0.611704 -0.123034 Si
39 1 6.79721 1.28754 1.27453 0.906338 -8.13837 -1.58022 0.600722 -0.308074 -0.26936 Si
40 1 8.06812 -0.0217204 2.82176 3.35953 2.28125 -0.0293714 1.01848 0.787193 -1.71228 Si
20 1 -0.000606654 5.47885 0.0232721 0.779848 2.49109 -0.505717 0.360843 0.00583662 -0.401025 Si
23 1 1.32501 6.89634 1.33517 -1.35862 -0.324971 3.01923 -0.297301 -1.15918 0.605817 Si
24 1 2.64392 5.40876 2.66442 -4.56122 2.52568 -2.07552 0.755875 0.136367 -0.658298 Si
1 1 4.07707 3.9219 1.33731 -0.575835 -6.26614 -6.18155 -0.597781 1.60254 0.00176288 Si
52 1 5.38521 5.421 0.0481968 1.34357 1.67511 -3.59446 0.382047 0.167011 0.883919 Si
55 1 6.8295 6.78861 1.43807 0.472468 -3.66925 0.718906 -0.865622 -0.603346 -0.2537 Si
33 1 9.54734 4.20808 1.48062 0.665344 0.880652 -1.62219 0.25298 -1.58766 -1.43822 Si
56 1 8.15376 5.38658 2.80523 1.64372 -0.723299 3.79032 -0.0615697 1.04621 0.728195 Si
18 1 0.00419278 8.17403 2.77515 0.0493212 -4.96537 -3.11468 -0.124165 0.473299 -0.60721 Si
17 1 3.93079 9.44563 1.26805 10.2794 -0.932665 -5.49109 1.25358 -0.22609 1.3147 Si
50 1 5.41298 8.14623 2.72986 0.837255 0.13377 -3.20909 -0.427429 0.570002 -0.533682 Si
4 1 -0.0565916 0.0762922 -0.0190872 -0.324217 2.91415 -3.75489 0.684514 -0.950564 0.941737 Si
49 1 9.49737 9.53664 1.40812 0.645183 0.00841019 2.83047 -0.110214 0.298585 0.0140818 Si
14 1 2.74304 2.80884 5.28865 -3.7345 -1.27832 -0.787258 -0.000334536 -0.498607 0.489958 Si
15 1 1.39826 1.49195 6.77645 2.52449 2.95373 -2.17853 0.459193 -0.855229 -0.961816 Si
3 1 4.13242 1.36461 3.95858 -1.81423 0.397298 3.83354 -0.325188 0.328881 0.467599 Si
47 1 6.90322 1.38985 6.83066 -1.30275 -0.47514 3.0724 -1.18818 -0.819961 0.739871 Si
35 1 9.43021 1.3802 4.12353 -3.95038 -3.03112 0.849085 1.97676 -0.836561 -0.0631714 Si
46 1 8.25467 2.70135 5.56621 2.29167 3.50171 -1.64166 -0.36652 -0.327704 -0.501784 Si
5 1 1.26412 4.15801 4.03804 -1.77769 -2.8847 -0.279749 0.209917 -0.192033 0.647779 Si
31 1 1.38173 6.84369 6.7869 -0.41529 -0.862014 6.87622 -0.466634 0.226697 0.518932 Si
9 1 4.10868 4.07114 6.75296 -2.60912 -1.6937 -1.04194 0.265486 -0.582348 0.844128 Si
19 1 4.06386 6.7356 4.02088 -0.704145 1.85556 -2.34064 0.822599 -0.92107 0.452485 Si
37 1 6.93463 3.89232 4.16147 -2.25822 -1.14081 -0.853402 -1.37801 1.02589 -1.13798 Si
60 1 5.53545 5.33944 5.43234 2.44248 4.00692 -4.37965 -0.249615 1.02475 -0.491217 Si
63 1 6.79508 6.86911 6.8075 0.299354 -0.393394 2.29394 0.389321 -1.38608 -0.352898 Si
28 1 -0.0358264 5.51294 5.51161 5.40575 1.27195 1.99683 -0.0746298 -0.713751 -0.401675 Si
41 1 9.47046 4.09426 6.84851 1.14001 -3.11936 -1.16868 1.47589 0.843714 1.38711 Si
51 1 9.53518 6.83819 4.10999 -1.76213 -1.37319 -2.12024 -0.945767 0.0595571 0.438902 Si
21 1 1.44344 9.51591 4.04038 1.56093 -0.824831 -3.79173 -0.400595 -0.647052 0.912404 Si
30 1 2.77979 8.08353 5.39572 -2.6997 3.04953 -2.32511 -0.694677 0.645266 -0.254908 Si
44 1 5.42911 0.075354 5.42696 2.41525 3.84903 0.603579 -0.0725855 -0.158042 0.780101 Si
25 1 4.03544 9.48382 6.75233 -0.607676 -2.40608 4.47939 1.15433 0.292448 0.448347 Si
53 1 6.72879 9.60045 4.08459 -2.79221 -3.80078 -5.45523 -0.448318 -1.4064 0.629491 Si
12 1 0.112852 -0.0290222 5.43634 -1.17095 -0.817459 -1.08953 -1.02576 1.15583 -0.256072 Si
57 1 9.52053 9.57753 6.76629 2.0974 -2.55973 -3.47818 0.675647 -0.270433 -0.0295304 Si
62 1 8.11961 8.25854 5.46496 2.15509 -0.578526 -1.13853 0.190752 -0.431541 -0.734224 Si
10 1 0.121239 2.75022 8.20761 -1.87083 1.11394 2.45908 -1.08889 1.13395 -0.14614 Si
16 1 2.69903 0.0326619 8.0798 -0.937099 -4.93843 -0.759856 0.455028 0.03213 0.178859 Si
11 1 4.12591 1.27166 9.51633 -0.0905637 -1.67285 3.12996 -0.854185 -0.176236 -0.165854 Si
42 1 5.46879 2.66874 8.27512 0.74177 -0.396435 3.5931 0.442779 1.1006 -1.21351 Si
38 1 8.22204 2.79914 0.0112379 2.36022 1.9296 2.62353 -0.0525349 -0.320417 0.882445 Si
43 1 9.58046 1.42945 9.53802 -2.02853 2.55109 1.02038 -0.473862 0.285088 -0.509761 Si
13 1 1.50889 4.15146 9.53406 -0.510987 -3.75047 1.45731 -1.2371 -0.350852 0.353097 Si
32 1 2.76122 5.48511 8.10108 0.0654129 2.45368 -4.53393 0.162208 -0.472775 -0.175952 Si
27 1 4.06681 6.72971 9.54361 0.188808 -4.74155 -0.703479 -0.220054 1.03007 0.0255917 Si
45 1 6.79795 4.14711 9.6381 1.53372 3.94419 2.33416 -0.212622 -0.739227 -0.821039 Si
59 1 9.48726 6.82848 9.55928 -3.18755 2.84191 5.87064 0.318839 0.26243 0.257551 Si
64 1 8.11022 5.50069 8.25857 0.30106 -1.76125 2.3597 0.106108 -0.307898 -0.998429 Si
22 1 2.59931 8.15318 -0.063926 -2.09639 4.13191 2.99447 0.564521 0.0713142 -1.11422 Si
29 1 1.32349 9.6335 9.46692 -1.34643 2.77617 2.63989 -0.528407 -0.701778 0.137441 Si
58 1 5.44921 8.07697 8.17637 0.634041 6.40734 5.11011 -1.14005 1.21948 -0.0348862 Si
61 1 6.78656 9.48785 9.49932 -4.60391 -2.46455 0.391696 0.361405 0.0465236 0.0678111 Si
54 1 8.10977 8.15433 0.0557919 1.78902 -0.225968 1.47808 0.503961 0.334919 -0.217432 Si
48 1 8.26414 -0.0107704 8.17882 1.99075 0.598562 0.516358 -1.0058 0.510033 0.49931 Si
26 1 -0.0732564 8.19997 8.15191 -0.982237 -3.44583 0.94921 0.74519 -0.0495336 -0.0126569 Si
ITEM: TIMESTEP
16700
ITEM: NUMBER OF ATOMS
64
ITEM: BOX BOUNDS pp pp pp
0.0000000000000000e+00 1.0887404739999999e+01
0.0000000000000000e+00 1.0887404739999999e+01
0.0000000000000000e+00 1.0887404739999999e+01
ITEM: ATOMS id type xu yu zu vx vy vz fx fy fz element
2 1 0.041046 2.6691 2.77616 -0.971192 -4.93264 3.47003 0.553933 1.09626 -0.7773 Si
6 1 2.70931 2.74429 -0.025034 -2.17313 -0.590527 -2.56468 0.24818 1.47467 0.183986 Si
7 1 1.41432 1.40351 1.30469 0.125711 -0.574962 0.170539 -0.462863 -0.80882 1.13914 Si
8 1 2.72862 0.000839508 2.71703 2.04429 -0.755415 0.971387 -0.884911 0.637549 0.825518 Si
34 1 5.37108 2.79415 2.89117 -2.08507 0.749961 -5.20281 0.208818 0.237698 -1.8905 Si
36 1 5.4698 0.0932422 0.0275898 -0.837125 -2.66114 4.15595 -0.258543 0.246558 0.285332 Si
39 1 6.77962 1.45992 1.43335 -1.31888 3.8939 -4.39903 -0.283102 -0.265907 0.267341 Si
40 1 8.14823 0.0223782 2.74993 0.15021 0.824212 -0.162117 0.730543 0.0338219 -0.0400328 Si
20 1 0.00952767 5.40693 0.0340858 2.20389 -0.89392 -1.21727 -0.346666 -0.125945 -0.67539 Si
23 1 1.38473 6.73612 1.35408 1.95843 -0.124445 -3.40838 0.782069 0.552784 0.160154 Si
24 1 2.78812 5.46682 2.75884 3.08251 -0.116813 3.44638 -0.373922 0.465437 0.623317 Si
1 1 4.0917 4.20812 1.35561 -0.614486 3.15361 5.28792 -0.0979456 -2.06017 0.253079 Si
52 1 5.47661 5.41129 -0.0208397 -0.0993623 1.30411 0.932545 0.116477 0.81252 -0.709975 Si
55 1 6.73798 6.85994 1.33107 -0.137344 3.72532 1.59491 0.805819 -0.14895 -0.0410303 Si
33 1 9.52385 4.01993 1.33667 -0.527183 1.89942 3.27432 -0.491808 -0.102095 0.503034 Si
56 1 8.08857 5.42754 2.70421 -1.95355 0.373233 -2.92295 1.29206 1.01187 -0.803862 Si
18 1 0.111583 8.15261 2.71867 -4.50766 1.92856 1.74324 -1.16177 -0.261538 -0.325763 Si
17 1 4.14414 9.64914 1.43662 -3.61001 0.180101 1.90231 -0.3634 -0.998043 -1.34951 Si
50 1 5.44385 8.26761 2.73559 2.74831 -1.62283 -0.423359 0.6799 -0.596828 0.292281 Si
4 1 0.0528843 -0.0631377 0.0755416 0.455021 -1.26937 3.37478 -0.332083 0.435337 -1.32448 Si
49 1 9.55371 9.48803 1.39156 1.48325 0.977302 -0.387858 -0.536587 -0.113832 -0.0739388 Si
14 1 2.74311 2.60046 5.52924 -1.37516 1.91782 1.52963 -0.525604 0.605771 0.248771 Si
15 1 1.30547 1.26177 6.80051 -3.97721 -2.55791 2.54721 0.147762 0.231455 0.704067 Si
3 1 4.05093 1.34833 4.14281 1.11874 1.92386 0.774756 0.6076 -1.08633 -0.0213512 Si
47 1 6.80552 1.35144 6.65692 -2.1392 0.15103 -1.16275 -0.909161 -0.24385 0.916557 Si
35 1 9.54389 1.43101 4.11693 3.668 0.0733012 -4.72021 -1.25219 -0.738408 -0.363798 Si
46 1 8.03905 2.76167 5.3611 1.90695 -0.373768 -2.14359 1.79347 0.447193 0.347704 Si
5 1 1.50779 4.00402 4.15528 -0.77724 -1.1412 -3.15437 -1.10403 0.393729 -0.696647 Si
31 1 1.36242 6.83263 6.76218 -5.83622 1.04396 -4.86554 -0.45398 -1.09825 0.649578 Si
9 1 3.97106 4.10035 6.84256 2.42435 -1.97232 -3.9014 0.560358 0.223025 -0.12864 Si
19 1 4.1248 6.9203 4.12871 3.28746 2.45256 -3.3111 -0.662435 -0.652655 0.0176554 Si
37 1 6.77077 4.20416 4.09207 -1.39199 4.39892 1.60526 -0.431048 -1.03307 0.0819447 Si
60 1 5.41311 5.42065 5.45678 -1.36613 -4.34934 4.41498 -0.610047 1.06382 0.617378 Si
63 1 6.80119 6.79968 6.79649 -0.791703 3.49014 -2.13754 -0.336219 -0.256292 0.0543009 Si
28 1 0.0166778 5.38084 5.42626 -5.52994 -0.00077915 1.29805 0.31643 0.541322 -0.310333 Si
41 1 9.5045 4.07198 6.77256 -2.26606 1.55082 -1.17436 -0.607568 -0.548634 -1.16728 Si
51 1 9.5644 6.82638 4.03898 4.88596 -1.92784 -1.2785 0.111564 -1.28586 -0.17912 Si
21 1 1.28376 9.53584 4.12157 -6.46748 2.82963 3.07504 1.23932 0.38564 -0.175301 Si
30 1 2.65839 8.19611 5.52061 5.154 -1.62414 6.18168 1.02589 0.71484 -1.09823 Si
44 1 5.45405 -0.117243 5.44815 -3.39078 -1.99944 2.44351 0.180485 1.04362 -0.901109 Si
25 1 4.10368 9.54851 6.82172 -0.257644 3.01992 -0.611876 -1.05655 -0.183276 0.548583 Si
53 1 6.91285 9.4525 4.14051 0.235232 2.98611 -0.482102 -0.682818 0.548813 -0.440351 Si
12 1 -0.11239 -0.0183577 5.43254 3.00962 1.29557 -0.529551 0.481284 -0.216098 0.518153 Si
57 1 9.51468 9.48295 6.85977 2.19034 -1.59696 1.59169 -0.366429 0.152309 -0.292739 Si
62 1 8.22644 8.06708 5.46179 2.5673 -3.24784 -3.33236 0.0654172 0.640476 0.31377 Si
10 1 -0.121409 2.67876 8.09093 4.12964 1.66894 -2.02616 1.30352 -0.178441 0.562902 Si
16 1 2.78555 0.0361534 8.26815 3.18017 1.30798 0.00196351 -0.873628 -0.602048 -1.03151 Si
11 1 4.07987 1.44087 9.56589 5.86513 -0.456818 -0.886949 0.975256 -0.160231 -0.52993 Si
42 1 5.43391 2.70482 8.03194 -2.71861 -1.80178 0.475999 -0.417828 -0.142145 0.669157 Si
38 1 8.11204 2.66431 -0.0808311 -3.60579 -1.71711 -0.239337 0.449571 0.691067 0.216174 Si
43 1 9.51608 1.2819 9.48717 -1.85115 -1.37263 3.37265 -0.214169 -0.306966 0.532338 Si
13 1 1.28327 4.06809 9.47837 0.0802315 2.0837 1.06506 0.107927 -0.433773 0.222179 Si
32 1 2.65808 5.52566 8.24764 -3.05574 0.958224 3.4457 0.476577 -0.275164 -0.6676 Si
27 1 4.16863 6.86444 9.51645 0.315838 0.441302 2.70974 -0.684645 -1.23273 0.44683 Si
45 1 6.76416 4.06016 9.39884 2.51973 -4.20894 1.88694 0.484708 -0.140752 0.623389 Si
59 1 9.62 6.72101 9.40397 3.46636 -5.71809 -7.3166 -0.785067 0.513876 1.02036 Si
64 1 8.17802 5.39833 8.07423 4.32764 -2.45773 -3.15955 -0.272376 0.495458 0.657782 Si
22 1 2.83773 8.12258 0.0415823 2.40688 -2.37871 1.0206 -0.65118 0.997105 0.35894 Si
29 1 1.39457 9.46019 9.52169 2.12228 -3.57292 -2.81149 0.859918 0.579398 1.17172 Si
58 1 5.41113 8.18583 8.14634 0.287719 -1.19602 0.292336 1.36801 0.486747 0.0323921 Si
61 1 6.77008 9.62209 9.52852 -3.46047 5.38084 0.597526 -0.254953 -1.14472 -0.155754 Si
54 1 8.17944 8.15259 -0.10828 -2.4796 4.07197 -1.18196 0.339107 -0.0667479 0.453761 Si
48 1 8.05155 0.0120193 8.10973 -3.12568 -2.6123 -1.88627 1.30352 -0.00996367 -0.0673699 Si
26 1 0.089208 8.16612 8.15233 1.29761 -0.229673 2.34738 -0.869979 -0.241631 -0.280728 Si
ITEM: TIMESTEP
16800
ITEM: NUMBER OF ATOMS
64
ITEM: BOX BOUNDS pp pp pp
0.0000000000000000e+00 1.0887404739999999e+01
0.0000000000000000e+00 1.0887404739999999e+01
0.0000000000000000e+00 1.0887404739999999e+01
ITEM: ATOMS id type xu yu zu vx vy vz fx fy fz element
2 1 -0.0159323 2.69712 2.67847 -1.71889 2.31221 3.41213 -0.608049 0.437687 1.03705 Si
6 1 2.72295 2.75902 0.0857491 2.11403 -2.65497 -0.335093 -0.384384 -1.67198 -0.862354 Si
7 1 1.3232 1.34423 1.42662 2.06509 3.1364 -0.973022 0.649464 0.190684 -1.18405 Si
8 1 2.68848 -0.0105567 2.71076 3.92185 -3.84112 -2.78521 1.54841 -0.383635 -0.554753 Si
34 1 5.46209 2.6878 2.67827 1.44775 -7.23492 2.38736 -0.191908 -0.335377 0.280505 Si
36 1 5.44624 -0.0666845 -0.0570659 1.70188 1.0975 -1.21334 0.03746 -0.116351 0.287705 Si
39 1 6.77526 1.29741 1.31653 2.58696 -1.78843 4.17642 0.683305 0.149804 0.145428 Si
40 1 8.22532 -0.0226923 2.69221 -7.18799 2.79169 2.30325 -1.23359 0.229811 0.398054 Si
20 1 0.0131309 5.48912 -0.0741197 -2.56764 -2.9581 3.6584 -0.0859537 0.245186 1.4887 Si
23 1 1.32372 6.87874 1.38341 0.917262 2.70916 -0.940816 -0.259722 -0.835346 -0.526442 Si
24 1 2.68129 5.43309 2.63544 -0.639397 -2.54047 -0.24651 0.0988988 -0.170193 0.544753 Si
1 1 4.0916 4.04401 1.33784 -0.751669 0.224246 -3.26176 0.280574 0.816485 0.671054 Si
52 1 5.40006 5.46826 0.012798 0.380252 -6.34802 3.32615 0.0540588 -0.130768 -0.268171 Si
55 1 6.75158 6.73918 1.43344 -0.0901198 0.585663 2.22028 0.688934 0.428809 -0.38754 Si
33 1 9.55323 4.06765 1.28777 0.200421 -2.14709 0.728339 -0.0244518 0.883176 0.701523 Si
56 1 8.22675 5.47377 2.75489 1.87893 0.35836 3.78065 -0.748108 -1.48632 -0.641606 Si
18 1 -0.0468522 8.17703 2.74612 4.77537 -4.21317 3.87343 0.532151 0.392113 0.474632 Si
17 1 4.10283 9.43036 1.27064 -2.64904 -0.0486789 -5.11521 -0.493051 1.16282 1.35922 Si
50 1 5.39619 8.10216 2.73941 -8.63095 1.10959 1.01547 -0.157724 0.25867 0.0418964 Si
4 1 0.0135644 0.0456063 -0.0388291 1.60427 -3.7879 -0.363313 -0.038465 -0.144062 0.299126 Si
49 1 9.5919 9.5658 1.35822 -5.65366 0.19662 0.502081 -0.548831 -0.5588 -0.498969 Si
14 1 2.72505 2.8004 5.43644 2.62592 -2.31115 -1.46294 0.57504 0.28048 -0.646746 Si
15 1 1.43754 1.39952 6.75364 1.88613 -0.824156 -3.06633 -1.00779 0.130026 0.504421 Si
3 1 4.07944 1.354 4.07964 2.21532 -1.71411 -3.47817 -0.551671 0.764816 -0.37235 Si
47 1 6.79681 1.39557 6.92186 1.37656 1.40024 -2.86692 0.916286 -0.34927 -0.841638 Si
35 1 9.52767 1.31753 4.11352 -0.636637 3.15428 3.3034 0.327196 0.58064 -0.73206 Si
46 1 8.25933 2.69241 5.49925 0.358771 -3.34815 6.42694 -1.38063 -0.468412 -0.0170443 Si
5 1 1.26798 4.16093 4.04778 -1.75421 5.99262 5.10657 0.582456 -0.669113 0.150804 Si
31 1 1.33763 6.75787 6.91974 3.38363 -2.80356 -1.25304 0.868535 -0.147863 -1.9161 Si
9 1 4.23909 4.08618 6.8007 -0.430629 2.38877 5.97962 -0.937353 -0.211832 -0.324993 Si
19 1 4.07628 6.67183 4.07436 0.874277 -2.96395 2.63965 -0.6054 1.266 -0.396377 Si
37 1 6.87575 3.95708 4.06334 5.72211 -2.07751 -1.17456 0.181971 1.10227 -0.0310857 Si
60 1 5.52809 5.45524 5.35431 -1.06502 1.31563 -2.90799 0.32424 -1.36741 0.642204 Si
63 1 6.82655 6.7275 6.81361 -0.458161 -3.14646 0.730412 -0.097954 1.40769 -0.197985 Si
28 1 -0.0799901 5.48879 5.45882 -0.980715 -1.74679 -3.35593 0.325036 0.241394 0.0938137 Si
41 1 9.49131 4.10689 6.81368 6.34164 6.60813 1.23549 0.886661 0.117474 0.789472 Si
51 1 9.43124 6.86316 4.10935 -2.46549 0.625487 4.71729 0.564126 0.68038 0.711167 Si
21 1 1.434 9.5322 4.06711 3.13455 0.82108 -0.281172 -1.57352 -0.216949 0.396499 Si
30 1 2.73699 8.14765 5.40841 -0.335053 -2.75819 -3.2559 0.118083 -0.833366 0.991192 Si
44 1 5.44106 0.103798 5.4574 -0.673558 -3.60198 1.42274 0.109364 -0.520195 0.463793 Si
25 1 4.12576 9.53924 6.77929 1.23618 1.6011 -1.31598 -0.403102 -0.162742 -0.622201 Si
53 1 6.68963 9.58958 4.05598 1.30159 1.42711 1.33667 1.01891 -0.183777 -0.010679 Si
12 1 0.0125434 0.0343363 5.44651 -3.71269 1.19997 0.890747 1.05684 -0.408892 -0.270288 Si
57 1 9.56716 9.57729 6.78939 1.04483 4.16268 -2.48615 -0.591286 -0.105192 -0.056659 Si
62 1 8.08646 8.29443 5.49892 0.204616 0.217212 4.71603 -0.0129911 -0.855686 -0.547921 Si
10 1 0.0751362 2.7821 8.17977 -2.23088 -0.579806 -3.19132 -0.503755 -0.379762 -0.435866 Si
16 1 2.68383 -0.0528211 8.08096 -1.56129 0.916525 0.552521 0.495312 0.291489 1.2066 Si
11 1 4.07995 1.29709 9.5524 -4.94711 -1.49851 -2.06429 -1.07786 0.531237 -0.240082 Si
42 1 5.45597 2.71409 8.26545 2.52474 1.51246 -1.60367 -0.0467309 0.188437 -0.18089 Si
38 1 8.15018 2.74093 0.0131479 -1.1385 0.224576 2.77171 -0.303028 -0.35801 -0.483671 Si
43 1 9.541 1.41548 9.51387 3.78995 4.31585 -3.9424 0.170618 0.0919074 0.0860254 Si
13 1 1.36526 4.10059 9.62097 2.89991 1.67905 -5.57453 0.729759 -0.390603 -0.95681 Si
32 1 2.77045 5.32631 8.17492 2.37192 -2.37991 0.0924461 -0.0908053 1.04674 0.407198 Si
27 1 4.02536 6.85005 9.54076 -1.63653 7.47007 -1.79009 0.380933 -0.45478 -0.518804 Si
45 1 6.80608 4.14047 9.53885 -5.14419 2.11387 -5.59184 -0.155131 -0.370894 0.671758 Si
59 1 9.56853 6.85659 9.52476 -3.31745 4.909 2.23523 -1.21019 -0.419152 0.16079 Si
64 1 8.17452 5.46815 8.22211 -5.02845 1.30585 1.15249 0.363199 -0.0999549 -0.293075 Si
22 1 2.65311 8.18964 0.00525693 -1.36594 2.40645 -3.93837 0.0730137 -0.421157 -0.433905 Si
29 1 1.30539 9.49251 9.5197 2.84513 1.89817 -2.75756 -0.156783 0.205325 -1.04279 Si
58 1 5.45189 8.17262 8.11985 -3.41956 -1.37814 -3.93566 -0.334035 -0.919041 0.186269 Si
61 1 6.7883 9.48473 9.47128 2.43508 -3.14432 1.26851 1.05524 -0.170312 0.821718 Si
54 1 8.16356 8.11891 0.0776119 0.510153 -5.96001 -0.619171 -0.23269 0.641997 -0.529356 Si
48 1 8.22983 -0.0190942 8.20383 -0.56208 -0.289315 0.278715 -0.627777 0.36308 -0.185414 Si
26 1 -0.0809887 8.11515 8.08018 0.0764204 5.90122 -1.09289 0.978661 1.19059 1.1953 Si
ITEM: TIMESTEP
16900
ITEM: NUMBER OF ATOMS
64
ITEM: BOX BOUNDS pp pp pp
0.0000000000000000e+00 1.0887404739999999e+01
0.0000000000000000e+00 1.0887404739999999e+01
0.0000000000000000e+00 1.0887404739999999e+01
ITEM: ATOMS id type xu yu zu vx vy vz fx fy fz element
2 1 -0.0289027 2.76433 2.72264 -0.0788075 0.504603 -1.0973 0.489528 -1.22384 -0.516374 Si
6 1 2.71304 2.70435 -0.0629631 0.0469135 4.52203 0.0323441 0.397363 0.470225 0.969781 Si
7 1 1.39305 1.38514 1.29254 2.71656 0.502507 3.28514 -0.953827 0.28629 0.583504 Si
8 1 2.73514 0.0510673 2.64975 -3.70667 0.474873 0.867955 -1.19612 -0.332332 1.2022 Si
34 1 5.44504 2.75153 2.6735 -0.769763 2.69565 2.59399 0.108285 -0.577607 1.22047 Si
36 1 5.40617 0.0593287 0.109417 -2.7481 2.87455 3.55863 0.224064 -0.363297 -1.49798 Si
39 1 6.84631 1.36521 1.41172 -4.31833 5.48362 0.767866 -0.49797 0.679789 -0.382664 Si
40 1 8.17654 0.0730261 2.75596 6.79793 -1.9128 -2.15468 -0.0356207 -1.69334 -0.463831 Si
20 1 -0.0101363 5.49685 0.0441273 0.112514 1.92056 -2.16812 -0.0615747 -1.43743 -0.832075 Si
23 1 1.43059 6.72332 1.30449 5.52424 0.217619 2.17736 -0.602017 1.33398 0.640475 Si
24 1 2.7573 5.49339 2.70376 -3.19107 0.853541 -0.830965 -0.143904 -1.41451 -0.125521 Si
1 1 4.06262 4.02149 1.37549 0.880718 -1.12813 0.195066 0.0513505 1.06307 -1.09972 Si
52 1 5.47961 5.37597 -0.0659233 -0.854762 7.84266 -7.57284 -0.415935 -0.031444 1.31655 Si
55 1 6.88252 6.79063 1.25297 1.66716 -0.0373541 -5.47252 -1.01538 0.0812685 0.892254 Si
33 1 9.52148 4.16057 1.45217 -2.15794 -1.34137 -2.84797 0.271722 -1.08864 -1.56503 Si
56 1 8.16804 5.41517 2.71798 5.56734 -0.827769 -2.35107 -0.850749 1.0664 1.14611 Si
18 1 0.0136005 8.09825 2.63883 -3.57253 -1.91629 -1.4593 0.0205023 0.191465 0.179274 Si
17 1 4.03968 9.54894 1.44484 2.78654 -1.39529 0.237183 0.558084 -0.408223 -1.36285 Si
50 1 5.45915 8.1826 2.67508 5.81874 2.82556 -1.2371 0.798299 -0.452515 -0.090534 Si
4 1 0.0137039 0.00766473 -0.0197656 5.22326 -0.97595 -5.83682 -0.85229 -0.059882 1.06657 Si
49 1 9.46253 9.50469 1.36443 2.0852 -0.965517 -1.07268 1.12288 0.895258 0.135568 Si
14 1 2.7279 2.68417 5.37054 -6.09461 0.53636 3.07414 -0.412167 -0.967817 0.851816 Si
15 1 1.24198 1.33074 6.87017 1.12728 -2.89543 5.32024 1.55489 0.0396922 -0.955891 Si
3 1 4.12959 1.28516 4.03278 -1.06442 -1.34815 0.822328 0.0579424 1.03919 0.171819 Si
47 1 6.81063 1.31303 6.76306 -1.93925 1.12233 2.8196 0.1825 1.35608 0.0332018 Si
35 1 9.53924 1.31451 4.0624 -1.26181 -3.66906 -0.173531 0.374612 1.10245 0.756343 Si
46 1 8.1266 2.72673 5.37395 0.808365 3.32981 -5.27531 0.0368641 0.0271656 0.466122 Si
5 1 1.40377 4.02603 4.00152 0.267696 1.56068 -3.37685 -0.00145086 1.18335 0.811202 Si
31 1 1.36463 6.8812 6.76039 -1.52864 -1.27874 1.42292 -0.247974 0.756803 1.11012 Si
9 1 4.02947 4.06813 6.77351 2.20521 1.89637 -0.064023 0.0114934 0.183913 0.410223 Si
19 1 4.04025 6.881 4.00243 -4.9205 2.65909 0.60999 1.05318 -0.362074 0.917135 Si
37 1 6.65794 4.17726 4.14223 -3.51203 -2.12265 -2.95254 0.932759 -0.371118 -0.481605 Si
60 1 5.33869 5.54979 5.5578 1.29526 4.03271 1.72244 0.205747 0.162113 -1.19515 Si
63 1 6.83106 6.84445 6.84994 5.08292 1.01865 0.0647888 0.124714 -0.67872 -0.019522 Si
28 1 0.0800487 5.41286 5.4728 -0.944551 -3.25399 -0.071509 -0.144331 -0.98317 -0.050347 Si
41 1 9.50008 4.03815 6.84368 -3.50047 -4.18238 -3.76079 0.27438 0.591863 -0.800076 Si
51 1 9.65586 6.70845 4.07903 -1.84395 -2.01757 -1.60414 -0.912106 0.226407 -0.497915 Si
21 1 1.25097 9.57727 4.01882 5.75545 1.57427 1.53461 1.71329 -0.596507 -0.50227 Si
30 1 2.75958 8.23994 5.35766 -5.49341 4.02003 1.53223 -1.29954 0.169271 0.257337 Si
44 1 5.51482 -0.00322491 5.43044 4.96133 4.19809 -4.00407 -0.865758 -1.31572 -0.153467 Si
25 1 4.06852 9.50673 6.83123 -0.864035 1.57567 1.54475 0.683202 0.531584 -0.00685773 Si
53 1 6.88806 9.47496 4.06772 2.54899 -1.67732 1.25588 -0.280926 0.152252 0.240737 Si
12 1 -0.0234741 -0.0700299 5.4563 -3.78636 -0.0994439 -0.529088 -0.645845 0.742177 0.195651 Si
57 1 9.49658 9.46538 6.7906 -2.90632 -2.64421 -1.06319 0.595218 0.104485 0.188716 Si
62 1 8.25604 8.0491 5.41728 -1.72787 -0.776564 -1.50834 -0.483767 0.463229 -0.155347 Si
10 1 -0.0239805 2.73343 8.20851 -1.2315 0.0664368 0.0538156 -0.513888 -0.490822 0.334708 Si
16 1 2.66439 -0.0425751 8.23517 -4.31278 -5.23383 5.48768 0.532562 0.788114 -0.689166 Si
11 1 4.06106 1.4662 9.47688 0.796312 2.65772 1.98794 0.924216 -1.53543 0.0541542 Si
42 1 5.50387 2.78341 8.11291 -1.9112 -4.18382 1.18133 -0.237628 -0.493631 0.190822 Si
38 1 8.16199 2.74748 0.0451893 -2.32396 0.269615 1.53594 0.939444 -0.40589 0.644033 Si
43 1 9.48159 1.33432 9.5563 -3.76343 0.111583 -2.05999 0.231659 0.447864 -0.475087 Si
13 1 1.38215 4.02499 9.54413 -4.69398 -4.49128 4.33959 -0.85081 1.77424 -0.337387 Si
32 1 2.69727 5.47863 8.13676 -0.443972 1.18777 1.08513 -0.594274 -1.01381 -0.15942 Si
27 1 4.04735 6.68336 9.54299 0.33624 -1.72771 3.8897 0.422301 1.88166 0.0882485 Si
45 1 6.88392 4.05164 9.57646 5.91021 -0.740229 0.88608 -0.633618 0.216381 -1.25065 Si
59 1 9.42534 6.79081 9.60449 0.420794 -0.0572185 0.598088 1.72535 0.515939 -0.491058 Si
64 1 8.19305 5.44487 8.21211 3.83521 -3.39876 -2.8913 -0.59521 -0.259109 -0.491001 Si
22 1 2.69738 8.18339 0.0366223 1.9148 1.04821 1.60814 1.15957 -0.67569 -0.208085 Si
29 1 1.36358 9.53657 9.62822 4.56667 -1.0528 6.32949 0.0860908 0.140869 -0.26413 Si
58 1 5.47069 8.13789 8.22031 0.61298 -0.724474 3.61243 -0.630183 0.254151 0.326065 Si
61 1 6.86225 9.52373 9.5749 -0.826063 0.842817 -2.07491 -1.34882 1.52463 -0.853406 Si
54 1 8.18068 8.22527 -0.037995 -1.13325 -0.470705 0.514808 -0.231696 -0.738938 0.848981 Si
48 1 8.18958 0.00924549 8.06081 -0.727614 0.248976 -1.80664 -0.375664 -0.539545 1.48437 Si
26 1 -0.0507636 8.27936 8.34525 2.48114 -6.12814 -1.23201 0.0669589 -1.93258 -1.76014 Si
ITEM: TIMESTEP
17000
ITEM: NUMBER OF ATOMS
64
ITEM: BOX BOUNDS pp pp pp
0.0000000000000000e+00 1.0887404739999999e+01
0.0000000000000000e+00 1.0887404739999999e+01
0.0000000000000000e+00 1.0887404739999999e+01
ITEM: ATOMS id type xu yu zu vx vy vz fx fy fz element
2 1 0.0463829 2.66515 2.70508 0.0148834 1.95122 -1.98033 -0.546321 0.88882 0.104246 Si
6 1 2.713 2.74596 0.100787 2.419 -4.24767 -0.0980151 -0.0479964 -0.229558 -0.826595 Si
7 1 1.36433 1.28425 1.40865 -4.06093 -4.70563 0.242577 0.477914 0.0337022 -0.0497434 Si
8 1 2.72108 0.0163738 2.88892 0.897858 3.48479 -1.17374 -0.0668936 -0.00992433 -1.22875 Si
34 1 5.40905 2.70565 2.68642 -1.53604 5.36475 -6.66004 0.315735 1.49181 -0.110346 Si
36 1 5.45945 -0.0327164 -0.0420952 -0.747079 -4.10691 -3.18532 -0.313804 0.0281798 1.0937 Si
39 1 6.81437 1.43882 1.34623 0.892295 -7.83983 -3.95767 -0.346706 -1.25429 -0.561182 Si
40 1 8.0828 -0.0183205 2.7255 -4.57197 2.51097 2.76063 1.28376 0.804402 -0.428131 Si
20 1 0.0155867 5.36954 -0.0502938 0.955843 2.16769 0.683227 -0.0885939 1.18499 0.592378 Si
23 1 1.35726 6.83192 1.38527 -2.67429 -0.391472 -7.26651 0.109851 -0.571145 -0.164283 Si
24 1 2.72284 5.45247 2.845 2.33958 0.441357 -6.90714 -0.474894 1.0341 -0.900611 Si
1 1 4.01295 4.20403 1.43344 4.22343 -1.97931 3.63008 0.754342 -1.35618 -0.21375 Si
52 1 5.43209 5.47031 0.074843 -4.28372 -2.97088 5.45 -0.0708775 0.582194 -1.04698 Si
55 1 6.80336 6.90085 1.36931 -3.60446 -5.28041 5.08896 -0.000291071 -0.345122 -0.572749 Si
33 1 9.53729 3.99304 1.25786 3.70433 4.25841 5.13584 -0.163303 1.11783 1.52044 Si
56 1 8.10316 5.51476 2.66808 -6.16478 -0.360522 -0.335744 1.33904 -1.16452 0.0597958 Si
18 1 0.0377119 8.25966 2.75386 2.58698 5.16156 0.790923 -0.668523 -0.777906 -0.153774 Si
17 1 3.94343 9.51807 1.39681 -4.64299 -1.0356 -1.0753 2.25344 0.584564 0.50281 Si
50 1 5.48185 8.17899 2.78912 0.599551 -1.73127 -1.16412 -1.1125 0.523808 -0.0753472 Si
4 1 0.019531 -0.0763602 0.0331176 -5.94807 5.38246 3.34162 0.533388 0.345525 -1.27818 Si
49 1 9.51545 9.52533 1.31732 2.20435 0.426797 2.62047 -0.111421 0.0151152 1.2391 Si
14 1 2.72829 2.75756 5.47886 3.48116 -0.0297943 -9.86814 -0.378314 -0.0226667 -0.151692 Si
15 1 1.35717 1.34948 6.79422 -2.79164 4.83907 -0.969621 0.278216 0.851271 0.28669 Si
3 1 4.09185 1.47416 4.0827 0.75441 -0.295019 -1.80872 -0.332255 -0.99984 0.707053 Si
47 1 6.76162 1.36248 6.82588 3.30946 -0.516719 -0.984924 -0.314955 -0.685876 -0.0111895 Si
35 1 9.5491 1.36212 4.07884 -0.529842 2.20573 -0.119848 -0.491043 -0.661921 -0.269962 Si
46 1 8.1428 2.61681 5.48005 0.0314653 0.465434 3.4205 0.45271 1.30054 -0.582406 Si
5 1 1.36329 4.10764 4.09476 -5.37001 -6.01126 -0.791079 -0.424794 -0.92925 0.0798005 Si
31 1 1.35627 6.7834 6.77809 -2.69622 0.22985 0.221259 0.0551595 -0.91824 0.2288 Si
9 1 4.11048 4.04476 6.8399 -0.831988 -5.45606 -1.1014 -0.406891 0.760643 -0.204588 Si
19 1 4.16482 6.70504 4.16265 2.95566 -1.83837 -6.72097 -0.208059 1.07145 -0.66964 Si
37 1 6.84204 4.0412 4.05126 1.73094 -2.05875 3.82903 -0.13395 -0.323247 -0.0845073 Si
60 1 5.48303 5.34728 5.43565 7.11755 -3.82942 -1.69439 0.165036 -0.253059 0.339732 Si
63 1 6.81761 6.77302 6.69848 -0.151692 1.68728 -0.914757 -0.418915 0.728333 0.137744 Si
28 1 -0.0606014 5.43852 5.36902 -0.892597 5.96721 6.61287 -0.0428836 0.568396 0.71659 Si
41 1 9.50028 4.08368 6.79497 -2.608 -1.25395 2.6673 -0.122723 -0.423815 -0.174222 Si
51 1 9.43938 6.90227 4.08978 4.34872 1.82866 4.92599 0.74498 -0.369398 -0.779527 Si
21 1 1.42734 9.48392 4.17911 -9.34193 -1.08405 -4.63811 -0.537655 0.416214 0.133117 Si
30 1 2.77264 8.07083 5.46799 2.04535 0.672211 -0.796388 -0.00787731 0.302773 -0.0304612 Si
44 1 5.3647 0.0196663 5.43814 -1.54088 1.78699 2.85485 0.336362 0.77438 0.340198 Si
25 1 4.05324 9.52363 6.77427 0.317203 -2.5784 3.15523 0.409393 -0.138781 0.784294 Si
53 1 6.78278 9.62158 4.15677 -1.97784 -0.426273 -2.23572 -0.660259 -0.567782 -0.850101 Si
12 1 0.0236061 0.0328027 5.45765 9.66384 -4.29315 -0.688463 -0.231071 -0.840401 -0.198814 Si
57 1 9.523 9.54329 6.80222 1.17848 -4.65485 -0.604094 0.177694 0.234583 0.0174769 Si
62 1 8.11907 8.27457 5.42337 -0.139787 1.53968 -2.87795 0.349538 -0.700656 0.625519 Si
10 1 0.00308744 2.71266 8.1695 1.32326 5.75159 -0.153286 -0.0882214 0.109616 -0.163648 Si
16 1 2.77009 0.0978269 8.15862 3.19667 4.02949 -3.59593 -0.672679 -1.63523 -0.27204 Si
11 1 4.08351 1.36032 9.53838 2.09497 -3.96219 -1.29769 0.24338 0.960898 0.678596 Si
42 1 5.4306 2.73332 8.15998 3.72005 0.489721 3.91228 -0.348993 -0.942369 0.183248 Si
38 1 8.17377 2.71876 -0.0797482 4.73226 0.745571 -5.10403 -0.632917 -0.0809317 -0.353212 Si
43 1 9.53982 1.31611 9.51949 2.10368 -0.603149 5.66057 0.261973 -0.0878447 0.101858 Si
13 1 1.37128 4.09607 9.51436 3.80756 2.19712 1.00771 0.394637 -1.11275 0.299653 Si
32 1 2.75714 5.42416 8.22169 -2.38802 6.20493 1.78501 0.110231 0.942262 -0.648475 Si
27 1 4.09495 6.93398 9.54851 -3.85846 -2.35725 3.21073 0.7219 -2.23472 -0.306801 Si
45 1 6.72147 4.07558 9.45596 -1.38276 0.448727 5.65997 0.805661 0.775703 1.20507 Si
59 1 9.55172 6.71316 9.41911 2.69091 -4.47536 -2.00577 -0.0913515 0.493968 0.545552 Si
64 1 8.06898 5.45636 8.08074 1.25281 2.19251 1.08072 0.840234 -0.701702 0.519025 Si
22 1 2.75711 8.17361 -0.0230796 -1.5249 -2.57455 -0.668525 -1.397 -0.0407333 0.6534 Si
29 1 1.42552 9.45406 9.44712 -3.83892 -3.69688 -1.6726 -0.299618 1.37533 0.652335 Si
58 1 5.49063 8.12099 8.11517 0.754364 -0.215885 0.332713 -0.0545017 0.998555 -0.166417 Si
61 1 6.86952 9.50808 9.50377 -2.40885 0.0769515 2.22521 -0.498575 -0.60484 0.108927 Si
54 1 8.26272 8.12733 -0.0324824 0.0179438 3.7802 0.815533 -0.614533 -0.14189 -0.51877 Si
48 1 8.14116 0.00120036 8.15981 2.47257 2.69664 0.485145 0.444313 0.130196 -0.212397 Si
26 1 0.0274832 8.15626 8.12257 -3.43073 5.87524 1.50939 -0.436725 -0.303568 -0.197861 Si
ITEM: TIMESTEP
17100
ITEM: NUMBER OF ATOMS
64
ITEM: BOX BOUNDS pp pp pp
0.0000000000000000e+00 1.0887404739999999e+01
0.0000000000000000e+00 1.0887404739999999e+01
0.0000000000000000e+00 1.0887404739999999e+01
ITEM: ATOMS id type xu yu zu vx vy vz fx fy fz element
2 1 0.0318844 2.75717 2.7621 0.39141 -4.51914 -0.309247 -0.0553379 0.169015 0.155579 Si
6 1 2.72394 2.73422 -0.0519418 0.665179 3.22769 4.22011 -0.425613 0.00942783 -0.496007 Si
7 1 1.31945 1.43364 1.35185 3.16006 0.563368 -4.36317 0.526894 -0.569404 -0.295553 Si
8 1 2.68705 -0.0298108 2.64085 2.59493 -2.65433 1.99063 1.28182 0.555639 -0.635881 Si
34 1 5.42703 2.69102 2.86869 1.33683 -1.85561 5.71138 -0.153088 -0.62863 -1.66133 Si
36 1 5.49777 0.0548228 -0.0479213 -2.37896 2.9213 0.103458 -0.161849 -0.193406 -0.232783 Si
39 1 6.82267 1.32054 1.41717 -4.15896 5.01745 5.55386 0.269365 0.158504 0.540413 Si
40 1 8.26047 -0.128647 2.73731 -0.277378 -0.0106086 3.62509 -1.82294 1.5296 0.942036 Si
20 1 -0.0249516 5.50581 0.0309152 0.923773 0.0207126 2.03039 0.0178775 -0.359709 -0.348452 Si
23 1 1.35011 6.80476 1.37777 -4.2822 -1.16339 7.66748 0.0319354 -0.206581 0.0228404 Si
24 1 2.76083 5.36295 2.60712 -0.0744543 0.733517 1.60167 -0.0753255 0.469109 0.955853 Si
1 1 4.14727 3.99993 1.29089 -2.94159 4.42983 -6.39112 -0.202027 -0.24466 0.930291 Si
52 1 5.43527 5.38606 -0.0168654 -0.212668 -1.62525 -3.03507 0.11132 0.0457027 -0.372187 Si
55 1 6.69317 6.73979 1.366 -3.1835 0.583547 -1.79372 1.19629 -0.354186 1.21527 Si
33 1 9.55425 4.09185 1.39006 -1.03391 -2.00505 -4.01475 -0.179493 -0.222017 -0.159715 Si
56 1 8.19174 5.3511 2.80993 -0.905232 -0.455083 4.97351 -1.06985 1.18598 -0.711326 Si
18 1 -0.0203543 8.15142 2.73731 4.79446 -3.47036 -3.43899 0.335548 0.380264 0.150354 Si
17 1 4.21561 9.49506 1.26516 0.360682 1.92313 3.89673 -2.32192 0.0295392 0.0770127 Si
50 1 5.36249 8.12216 2.75118 -0.609583 5.34501 -2.80512 0.94521 0.000931995 -0.608975 Si
4 1 -0.0516792 0.061746 -0.00043965 4.64614 -3.14723 0.495134 -0.193935 0.661327 0.534579 Si
49 1 9.56139 9.56033 1.40051 3.25212 -1.49487 -0.879337 0.0417386 -1.43632 -1.28923 Si
14 1 2.78661 2.65611 5.44643 1.62416 -3.46907 6.30273 0.446265 1.34935 -0.157271 Si
15 1 1.4525 1.38092 6.7069 -3.03411 -4.03335 -0.774573 -1.80589 -1.16864 1.37115 Si
3 1 4.03599 1.28067 4.13194 0.99313 -0.361351 -0.428425 0.620174 -0.462345 -0.848747 Si
47 1 6.78156 1.35521 6.82045 0.977751 -2.36796 -4.73771 1.32158 -0.182771 -0.354264 Si
35 1 9.50753 1.40275 4.06945 1.52761 1.83905 3.96888 -0.273546 0.0944934 0.683465 Si
46 1 8.17185 2.8419 5.55804 -3.66921 2.08556 -2.67136 0.250505 -1.01632 -0.587761 Si
5 1 1.47145 4.05795 4.13642 7.40486 1.65671 2.87904 -0.588164 0.296985 -0.627994 Si
31 1 1.39401 6.83919 6.88847 -0.566547 3.30499 1.22209 -0.025114 -0.0938089 -1.38677 Si
9 1 4.13402 4.11161 6.74223 -5.4688 1.76879 1.30572 -0.154536 -0.779832 0.262008 Si
19 1 4.01706 6.8153 4.05455 1.57553 1.62586 3.82286 -0.779406 -0.408958 0.112163 Si
37 1 6.73816 4.0673 4.14971 0.667953 0.143749 -0.361872 0.870516 0.451647 0.285549 Si
60 1 5.42029 5.51494 5.40792 -0.783011 -0.773822 0.613324 0.00320568 -0.157831 0.12974 Si
63 1 6.76406 6.79702 6.83356 -0.62912 -1.38498 3.63058 0.0772155 -0.572623 0.866111 Si
28 1 0.080379 5.45364 5.48556 0.151595 -2.72153 -3.80854 0.0136199 0.816157 -0.655106 Si
41 1 9.63191 4.19051 6.87041 0.966234 0.340973 -1.16092 -0.841823 -0.892907 0.0518136 Si
51 1 9.47998 6.84651 4.12876 -1.98984 -1.04586 -4.31457 0.570953 -0.802829 0.610839 Si
21 1 1.37142 9.6038 4.0096 2.89103 -1.24131 -1.14186 -1.11908 -1.00203 0.245199 Si
30 1 2.62308 8.22514 5.39363 -2.85271 1.06115 1.39727 1.19148 -0.293849 0.54589 Si
44 1 5.51741 -0.024299 5.43023 -1.09795 -2.79427 -2.36716 -0.226563 -0.112337 -0.48276 Si
25 1 4.12754 9.55837 6.74361 1.65824 -0.497679 -5.72337 -1.00706 -0.739141 -0.262057 Si
53 1 6.8154 9.38037 4.09198 0.108222 -2.07959 4.30776 0.289212 0.903225 0.144556 Si
12 1 -0.023498 -0.0101418 5.39484 -7.77796 4.8142 0.812899 0.611386 0.988757 -0.000291144 Si
57 1 9.53135 9.58138 6.79084 -1.23167 2.47922 3.80158 -0.171275 -0.532398 0.749949 Si
62 1 8.12584 8.13175 5.60409 2.70906 1.95571 2.70801 0.585354 0.424127 -1.4828 Si
10 1 -0.0202179 2.66427 8.15949 -5.59289 -3.42607 -0.725934 1.40003 0.965807 -1.03088 Si
16 1 2.7051 -0.0783635 8.10761 2.63712 2.63749 2.22375 0.40636 1.45782 0.278939 Si
11 1 4.10904 1.38887 9.44204 -3.03419 1.41706 4.24206 -0.862167 -0.948911 0.448208 Si
42 1 5.46039 2.66871 8.10661 1.25573 2.29564 -4.64245 -0.198647 1.59887 0.252973 Si
38 1 8.15384 2.71785 0.029111 -1.89223 0.807577 3.22171 0.094731 0.309907 -0.0873553 Si
43 1 9.53463 1.42484 9.489 0.644043 -4.63624 -5.50397 -0.802872 -0.666878 1.15145 Si
13 1 1.29467 4.13606 9.47043 -2.05167 -0.338752 -1.69454 0.675794 -0.352464 0.451588 Si
32 1 2.76316 5.43055 8.09892 2.23381 -0.74949 -1.27947 -0.200733 -0.316152 0.709232 Si
27 1 4.12108 6.72527 9.49164 7.67767 -0.138884 -2.36286 -0.815013 0.851041 0.058505 Si
45 1 6.79476 4.08441 9.50073 -4.04612 2.42125 -3.68433 0.296648 -0.697999 0.124584 Si
59 1 9.52739 6.93899 9.61323 -0.139409 -2.83153 -2.25031 -0.446569 -1.38707 -0.346449 Si
64 1 8.2149 5.46456 8.23766 -0.911376 -1.12531 -4.55222 -0.284961 0.837131 -0.132293 Si
22 1 2.63103 8.10451 -0.0762043 5.09757 0.735779 3.47272 1.25003 1.02782 0.182909 Si
29 1 1.26222 9.65481 9.55358 -1.30696 0.599009 -3.0836 0.640223 -2.06156 -0.90723 Si
58 1 5.38509 8.18893 8.12344 -1.06026 -2.07275 0.579764 0.381356 -0.543009 0.35992 Si
61 1 6.77268 9.50459 9.47848 -1.04853 3.38361 -2.54893 0.509321 0.0945641 0.667583 Si
54 1 8.08216 8.1416 0.0886977 3.46635 -0.165215 -2.14541 0.206869 1.12435 -0.17739 Si
48 1 8.18084 0.0302617 8.2131 -0.995498 -0.583983 -3.11448 -0.277819 -0.22951 -0.711727 Si
26 1 -0.0267313 8.13281 8.14247 2.84521 -0.899009 -0.272785 0.0717944 1.84998 0.782032 Si
ITEM: TIMESTEP
17200
ITEM: NUMBER OF ATOMS
64
ITEM: BOX BOUNDS pp pp pp
0.0000000000000000e+00 1.0887404739999999e+01
0.0000000000000000e+00 1.0887404739999999e+01
0.0000000000000000e+00 1.0887404739999999e+01
ITEM: ATOMS id type xu yu zu vx vy vz fx fy fz element
2 1 -0.0325905 2.69378 2.67053 0.84203 -0.94466 2.55107 -0.0475728 -0.216571 -0.0112797 Si
6 1 2.72855 2.69705 0.0332739 -3.29127 -0.854377 -0.416017 0.228028 0.628325 0.900722 Si
7 1 1.36768 1.31133 1.34398 4.34024 0.588638 3.16053 -0.367333 0.637233 0.208106 Si
8 1 2.70541 0.0596043 2.76582 -2.46611 0.919626 0.25579 -0.500276 -0.666179 1.01859 Si
34 1 5.38436 2.80305 2.66402 -3.46159 1.32673 2.71855 0.787688 -0.46919 0.92994 Si
36 1 5.40588 -0.0675651 0.0759934 3.27419 -4.19897 3.64302 0.577388 1.00484 -0.659583 Si
39 1 6.77864 1.42837 1.31228 0.97963 -0.382779 -2.54021 -0.0992607 -0.173224 -0.0813078 Si
40 1 8.15338 0.0306303 2.60699 2.78213 -4.12984 -1.86427 0.911816 -0.269427 -0.372572 Si
20 1 -0.0114906 5.43704 0.0203842 2.28982 0.829863 -3.17084 0.521502 0.0287428 -0.357883 Si
23 1 1.31691 6.78406 1.41092 4.47307 4.93837 -2.00149 0.660122 0.478531 -0.867506 Si
24 1 2.67822 5.51293 2.7731 0.965837 -1.15702 -2.76778 0.574145 -0.511417 -0.235502 Si
1 1 4.09486 4.17868 1.37989 -0.61493 -4.48001 2.59685 -0.960833 0.126592 -0.734997 Si
52 1 5.4751 5.50396 -0.0329157 2.22022 0.173365 2.80965 0.0760915 -0.214236 1.08873 Si
55 1 6.90135 6.82798 1.31044 2.28817 -0.0332888 -1.32161 -0.826985 1.11365 -0.791722 Si
33 1 9.5254 4.10591 1.31412 -1.16917 3.051 0.0287514 -0.0954551 -1.0135 -0.130327 Si
56 1 8.16613 5.47039 2.57692 3.13325 -0.622725 -1.73845 0.928979 -0.11554 1.57776 Si
18 1 0.00032556 8.19342 2.66422 -2.83711 -0.568158 5.80843 0.655236 -0.235414 0.45241 Si
17 1 4.08595 9.58595 1.51728 1.14581 -0.207705 -4.05414 0.326043 -1.2663 -0.579031 Si
50 1 5.58835 8.18764 2.75495 -3.62059 -1.24744 5.25401 -1.11665 -0.0302941 -0.225611 Si
4 1 -0.0369294 0.00247457 0.0160186 1.46217 2.55744 -1.16771 1.42925 -0.486686 -0.180905 Si
49 1 9.62129 9.47884 1.26335 1.31281 1.01345 2.40011 -1.64363 0.961001 1.17057 Si
14 1 2.64345 2.81722 5.48138 -1.40456 -0.00194901 0.691797 -0.219069 -1.03189 -0.454554 Si
15 1 1.32192 1.40437 6.89972 5.78151 0.827057 -3.22199 0.950015 -0.843043 -1.32202 Si
3 1 4.04798 1.44227 4.1201 -1.57059 1.64401 -0.491502 -0.15895 0.433435 -0.263695 Si
47 1 6.83621 1.36384 6.81735 1.48439 2.91295 0.669007 -1.18816 0.365444 0.161916 Si
35 1 9.5215 1.27969 4.05005 -6.26724 0.126184 1.40253 0.954236 -0.371241 -0.227805 Si
46 1 8.13328 2.60897 5.28669 2.50042 -3.20093 2.75835 -0.761296 0.856913 0.619732 Si
5 1 1.29197 4.08317 4.00583 -1.81905 3.02243 -1.94897 0.135758 0.0915783 0.835014 Si
31 1 1.37732 6.76294 6.72657 3.25645 -1.94791 3.04747 -0.461118 -0.207917 1.31745 Si
9 1 4.02429 4.09583 6.8015 7.21764 5.42729 -1.38144 0.118562 0.176473 0.610271 Si
19 1 4.09779 6.85576 4.09532 -3.70747 -1.90525 -0.319003 0.966872 -0.601648 0.308281 Si
37 1 6.81654 4.16848 4.00828 1.04183 -5.99537 0.269641 -0.250652 -0.880547 0.139387 Si
60 1 5.44195 5.39583 5.51458 -0.68571 0.10028 -0.78485 0.102368 1.12227 -1.02508 Si
63 1 6.82474 6.83161 6.81291 -0.48931 -1.24247 -2.59761 0.184074 -0.305748 -0.708365 Si
28 1 -0.061032 5.39184 5.44294 -2.62715 0.344619 0.202122 -0.130261 -0.442495 -0.132991 Si
41 1 9.38058 3.91399 6.76277 -5.13872 0.0694809 -0.777949 1.25234 1.19301 0.334292 Si
51 1 9.63147 6.79282 3.96981 -2.25204 4.25608 -2.72856 -1.67395 -0.317597 0.406181 Si
21 1 1.34369 9.43133 4.12778 4.1372 2.72751 1.57265 0.883179 1.00962 0.0233063 Si
30 1 2.79899 8.13481 5.52893 0.637183 -2.69807 -1.98341 -0.66051 0.499119 -0.866367 Si
44 1 5.41828 0.0435059 5.40531 1.6293 3.27845 1.02026 -0.0867834 0.0524825 1.12002 Si
25 1 4.08688 9.53018 6.87427 1.841 2.80877 2.02605 0.443565 0.49349 -0.077876 Si
53 1 6.82334 9.68943 4.02807 -2.36232 4.18877 -0.512784 0.303554 -1.25169 0.415175 Si
12 1 0.0321885 -0.0657536 5.53869 -0.183409 -4.71429 0.695167 -0.632121 0.375963 -0.514577 Si
57 1 9.49783 9.45556 6.86577 2.40627 3.48537 -2.01378 -0.0939656 0.0685597 -1.25289 Si
62 1 8.16713 8.1594 5.30219 -1.34673 0.920883 3.96336 0.244619 0.242513 0.821469 Si
10 1 0.0166714 2.68645 8.18157 5.93326 -1.56203 2.57322 -1.45384 0.551657 1.03655 Si
16 1 2.67144 0.01354 8.23396 -5.60405 -4.03515 -2.77232 0.331472 -0.248924 0.214628 Si
11 1 4.06578 1.36765 9.61512 -1.12459 2.89312 0.71694 0.200445 -0.556869 -0.605151 Si
42 1 5.34781 2.80703 8.22865 -1.89442 -1.73534 2.85287 1.45648 -0.916499 -0.231564 Si
38 1 8.21908 2.69876 -0.0774558 -2.36633 0.0270727 -5.66824 -0.481818 0.360251 0.844367 Si
43 1 9.53763 1.25457 9.56728 -2.52016 3.55 -2.6584 -0.00717459 1.16211 -1.3329 Si
13 1 1.37702 4.03758 9.60801 1.76577 0.285008 1.25611 -0.421191 0.392564 -0.82668 Si
32 1 2.70612 5.42356 8.19834 1.89388 -4.98284 1.66345 -0.341529 0.113562 -0.169397 Si
27 1 4.11872 6.77015 9.50964 -4.80663 1.88179 0.755729 -0.520613 0.829298 0.223064 Si
45 1 6.83354 4.14471 9.59164 3.53021 3.41955 -2.66335 -0.517122 -0.861009 -0.974855 Si
59 1 9.56272 6.74509 9.47803 -0.61944 5.14534 -0.519522 -0.341183 0.43981 0.316633 Si
64 1 8.13804 5.42914 8.16844 -1.6154 -0.836078 5.49822 0.387126 -0.296492 -0.599024 Si
22 1 2.7963 8.15087 0.0940966 -5.7405 -3.02553 -2.20961 -0.644582 0.0188677 -0.337695 Si
29 1 1.30801 9.47672 9.58591 -0.376954 2.35445 3.91372 0.782606 0.0560749 -0.0102554 Si
58 1 5.50029 8.14324 8.19649 0.639087 1.24815 -2.99126 -0.427712 0.563581 -0.105494 Si
61 1 6.83637 9.56351 9.51773 1.68718 -2.45255 -4.12315 -0.695352 -0.38452 0.475893 Si
54 1 8.24513 8.2275 -0.0806707 -2.6873 -7.01449 -1.18023 -0.232695 -1.20203 -0.0627576 Si
48 1 8.17695 -0.0359672 8.1701 2.9383 -3.03728 0.266986 -0.0259567 0.47652 -0.166154 Si
26 1 -0.00533954 8.13061 8.15207 -5.15939 -3.12862 -4.45191 0.712055 -0.535942 -0.0740907 Si
ITEM: TIMESTEP
17300
ITEM: NUMBER OF ATOMS
64
ITEM: BOX BOUNDS pp pp pp
0.0000000000000000e+00 1.0887404739999999e+01
0.0000000000000000e+00 1.0887404739999999e+01
0.0000000000000000e+00 1.0887404739999999e+01
ITEM: ATOMS id type xu yu zu vx vy vz fx fy fz element
2 1 0.0323423 2.75785 2.69118 0.598465 -3.09772 -2.0131 -0.000939389 0.0356368 0.649137 Si
6 1 2.69695 2.69507 0.0169189 -0.149297 1.5601 -2.17457 0.334895 -0.517824 -1.03519 Si
7 1 1.30234 1.35809 1.30206 -1.38426 4.1126 -0.929792 0.558901 0.093409 0.897007 Si
8 1 2.70088 0.0124285 2.686 -2.87507 -0.114577 -2.5138 -0.0362649 -0.127596 -0.521067 Si
34 1 5.54628 2.6441 2.69125 -0.121637 0.441118 -2.78153 -0.672904 0.558574 0.166576 Si
36 1 5.49652 0.00884474 -0.135139 -2.08678 0.10099 -0.499731 -0.79194 -0.628305 1.82102 Si
39 1 6.88378 1.25231 1.34407 3.43577 3.95901 3.0703 -0.622884 0.756282 -0.353661 Si
40 1 8.14195 0.0211391 2.83193 -0.967397 6.34838 0.0308331 -0.0188711 -0.365317 0.128037 Si
20 1 -0.0128946 5.4232 -0.0381248 -2.06441 0.899218 -0.291158 -0.200947 -0.30289 0.318772 Si
23 1 1.30772 6.77455 1.3367 0.451997 -3.66109 -2.07179 0.674922 0.212757 -0.0789279 Si
24 1 2.72577 5.42081 2.71818 1.79484 2.04991 -1.02049 -0.505465 -0.176649 -0.125317 Si
1 1 4.01246 4.01002 1.36302 1.19778 0.83838 0.503175 1.32346 -0.00595202 0.610825 Si
52 1 5.4146 5.36751 0.0283226 -2.72549 -4.31054 -3.2375 -0.229076 0.631857 -0.308927 Si
55 1 6.77682 6.78486 1.40002 1.45354 3.28117 1.78916 -0.318841 -0.752785 -0.100765 Si
33 1 9.48232 4.10391 1.42201 2.47933 -1.84044 -1.03752 0.386798 0.608559 -0.175955 Si
56 1 8.13847 5.48634 2.84664 -7.26804 0.192164 1.36436 -0.0461101 -0.65225 -1.08441 Si
18 1 -0.0265369 8.15414 2.67295 2.11682 0.612048 -4.77041 -0.741519 -0.29261 0.309833 Si
17 1 4.02489 9.50812 1.28991 -4.32223 -1.75776 2.21318 0.832832 0.940757 -0.133635 Si
50 1 5.3463 8.10665 2.64922 1.9188 -7.10143 -2.20723 0.405112 0.358125 0.709177 Si
4 1 -0.0415251 0.00974098 0.0266691 -3.52223 -1.5151 2.25581 -0.370423 -0.869774 -0.275058 Si
49 1 9.39983 9.54678 1.46646 -3.71646 -3.5562 -6.00285 1.26865 0.0488868 -1.01442 Si
14 1 2.83136 2.67681 5.35032 4.06708 0.315443 -3.65696 -0.732384 -0.152946 1.05935 Si
15 1 1.37882 1.41773 6.73601 -7.83388 1.77383 1.01528 0.0757468 0.487813 0.55995 Si
3 1 4.12677 1.30392 4.04661 0.0804615 -4.10026 -0.179893 0.508375 -0.304282 -0.281462 Si
47 1 6.84695 1.31269 6.81602 -0.856114 -1.41557 2.9043 -0.297586 0.0302202 -0.120302 Si
35 1 9.55658 1.42375 4.08809 8.26191 -5.20189 -1.90491 -0.568833 0.516528 0.234922 Si
46 1 8.15054 2.77783 5.52565 -2.40502 -1.33157 -0.358618 1.61801 -0.436604 0.199107 Si
5 1 1.44858 4.04217 4.15161 3.61417 -3.0406 -3.95209 -0.893067 0.741559 -1.19012 Si
31 1 1.40904 6.88443 6.86909 -2.08839 3.12546 -2.97353 -0.575499 0.580072 -0.918852 Si
9 1 4.01958 4.03119 6.80459 -2.64697 -3.17598 -1.3821 1.53322 0.384379 -0.436769 Si
19 1 4.09056 6.7188 4.08206 2.62166 -0.362036 -4.4026 -0.58311 0.992053 -0.707417 Si
37 1 6.85026 4.05101 4.15652 -6.15675 11.3647 0.462177 -1.03466 0.155838 -0.848284 Si
60 1 5.40663 5.41667 5.40499 0.254205 -1.48892 -0.0645858 0.376397 -0.661768 1.27775 Si
63 1 6.76257 6.77125 6.82487 3.15649 1.61941 -0.00272675 0.180175 0.680711 -0.457881 Si
28 1 0.104227 5.55187 5.42961 -0.540953 -0.356247 2.53417 -0.377612 -0.814028 0.615842 Si
41 1 9.60061 4.2103 6.87051 0.40688 -0.0884981 5.03302 -0.503524 -0.352914 -0.668471 Si
51 1 9.50573 6.81209 4.11323 3.37591 1.96018 4.65411 0.865769 0.705406 0.0344097 Si
21 1 1.32345 9.50586 3.97478 -7.79512 5.31167 -0.443615 0.13897 0.742856 0.755293 Si
30 1 2.71188 8.17954 5.3288 1.76216 3.69456 -1.94162 -0.144525 -0.638098 0.659722 Si
44 1 5.3982 -0.0723093 5.50215 0.070242 1.39037 0.557983 0.940031 0.0444521 -0.868223 Si
25 1 4.04872 9.43042 6.77894 -2.35368 1.77646 -0.18761 0.122173 0.616971 0.112511 Si
53 1 6.77507 9.42305 4.06424 6.82595 -3.28517 -1.0249 -0.821003 0.876567 0.161098 Si
12 1 0.0392582 0.0871257 5.39175 0.65809 -2.14624 -1.84458 -0.248873 -1.1904 0.0635911 Si
57 1 9.51807 9.59788 6.78631 -1.32525 -1.46647 -1.3751 0.522769 0.126642 -0.0814096 Si
62 1 8.17152 8.19687 5.44756 2.31671 -6.5711 -1.7494 -0.341017 -0.751269 0.668635 Si
10 1 -0.0053249 2.77997 8.22474 -0.138061 3.41138 -1.62314 0.970715 -0.22453 -0.957162 Si
16 1 2.78079 0.053716 8.04921 0.652882 -3.90283 2.83253 -0.926878 -0.760082 0.374735 Si
11 1 4.08073 1.32776 9.47112 3.21055 3.54376 -3.97832 0.641024 1.46072 -0.202385 Si
42 1 5.5608 2.75853 8.12083 4.21561 -0.472365 -3.31856 -1.72204 -0.955929 0.323864 Si
38 1 8.18497 2.72982 0.0489952 0.839983 -2.91662 2.71708 0.127339 -0.526287 0.0145833 Si
43 1 9.55902 1.40837 9.54891 1.4778 -0.0777666 5.56636 -0.354259 -0.0824728 0.325133 Si
13 1 1.45867 4.09974 9.50183 -0.360275 1.24385 2.99292 -1.02283 0.0763834 0.404452 Si
32 1 2.72547 5.45549 8.09991 -4.22684 0.828081 3.44786 0.276328 -0.00848314 0.650116 Si
27 1 4.04555 6.80551 9.49553 -0.089974 -2.78077 0.93313 0.449791 -0.258692 0.667819 Si
45 1 6.81634 4.01785 9.57463 2.63691 -3.44419 2.28962 0.359557 1.14709 -0.166193 Si
59 1 9.45119 6.82603 9.59978 1.12821 -0.113359 2.03597 0.867131 0.631025 -0.408022 Si
64 1 8.14562 5.49341 8.2159 1.99888 0.984706 2.44512 -0.210451 -0.656506 0.149619 Si
22 1 2.66568 8.20122 -0.036722 -0.190001 0.643305 0.725501 -0.145957 -0.903996 -0.172325 Si
29 1 1.38454 9.59006 9.47503 0.0563555 -4.27243 0.280183 -0.185967 0.73934 0.320164 Si
58 1 5.44296 8.18835 8.19709 0.507507 -2.30105 2.35027 -0.00778414 -0.676618 -0.215407 Si
61 1 6.84377 9.46585 9.5824 4.43939 0.497871 4.25696 0.0759388 0.681488 -1.27635 Si
54 1 8.10143 8.16187 0.0915182 0.815816 6.49552 0.408134 0.483735 -0.217726 0.141172 Si
48 1 8.20736 0.0274775 8.22231 -5.19075 2.28327 -1.13415 -0.30704 -0.494682 0.0435403 Si
26 1 -0.0264844 8.25884 8.20973 0.502183 4.60792 7.381 -0.357684 -0.902698 -0.243395 Si
ITEM: TIMESTEP
17400
ITEM: NUMBER OF ATOMS
64
ITEM: BOX BOUNDS pp pp pp
0.0000000000000000e+00 1.0887404739999999e+01
0.0000000000000000e+00 1.0887404739999999e+01
0.0000000000000000e+00 1.0887404739999999e+01
ITEM: ATOMS id type xu yu zu vx vy vz fx fy fz element
2 1 0.0273974 2.67668 2.76953 -2.62077 3.59002 -1.39666 -0.467716 0.247228 -0.889806 Si
6 1 2.66181 2.8037 -0.0331489 0.162238 1.22557 5.62125 0.245536 -0.366733 0.783468 Si
7 1 1.42172 1.35294 1.44163 -3.72769 -7.93961 -1.03106 -0.395144 0.0746094 -1.20343 Si
8 1 2.73914 -0.00103554 2.79431 1.30926 1.04231 6.47983 0.709442 -0.433634 -0.153526 Si
34 1 5.40866 2.78608 2.785 -0.52242 -1.92892 -3.20387 -0.889391 -0.89462 -1.13124 Si
36 1 5.48417 0.051533 0.0741362 2.47202 3.78063 -3.47224 -0.910341 -0.145347 -1.10233 Si
39 1 6.77421 1.40293 1.38619 -2.27651 -1.00078 -0.480407 0.398641 -0.0618431 0.929517 Si
40 1 8.24174 -0.0458181 2.61716 1.01423 -4.19057 -2.10469 -1.30524 0.427045 1.06828 Si
20 1 0.0679144 5.43969 -0.0246529 0.777178 -0.746838 -1.74904 -0.967157 0.329846 0.796967 Si
23 1 1.44238 6.82135 1.42228 -1.75276 -1.45852 0.144874 -0.944592 0.161325 -0.18366 Si
24 1 2.75389 5.4831 2.82222 0.206549 -0.394674 2.55983 -0.0698609 -0.330525 -0.478079 Si
1 1 4.06987 4.15648 1.37133 -1.0688 4.51904 3.43824 0.42067 0.271161 -0.435665 Si
52 1 5.52046 5.57536 -0.0231231 1.19794 3.94219 3.63715 -0.642815 -1.6233 -0.325048 Si
55 1 6.88044 6.85875 1.33925 -0.547186 -0.249694 -5.5293 -0.00499192 0.357475 0.446856 Si
33 1 9.52904 3.99454 1.29928 0.974905 -0.683947 -0.845939 0.626481 0.64361 0.471491 Si
56 1 8.19589 5.42526 2.67053 5.82614 2.24678 -4.91092 -0.669466 -0.51429 -0.0918721 Si
18 1 -0.0285075 8.19027 2.81729 0.0688363 4.60137 -1.57786 0.995742 -0.122387 -0.615145 Si
17 1 4.18399 9.50545 1.40024 -1.83141 -0.396859 3.45312 -1.17694 0.507952 -0.0470841 Si
50 1 5.49743 8.18932 2.77344 0.475296 4.62507 -0.131617 0.0149763 -0.764994 -0.261978 Si
4 1 0.0832524 -0.0186419 -0.040043 2.33779 -1.26603 -0.16499 -0.676795 1.03296 0.15911 Si
49 1 9.60548 9.52837 1.30164 2.57245 1.98085 3.84678 0.109052 -0.530428 0.0306507 Si
14 1 2.62901 2.73511 5.60375 -2.85616 0.669571 1.82183 0.783473 0.411768 -1.49433 Si
15 1 1.37643 1.25228 6.83019 0.352355 -5.19807 0.526855 -0.982264 0.399902 0.476461 Si
3 1 4.01595 1.43801 4.15831 4.25553 5.15941 -2.67229 0.179247 -0.0504215 -0.0117517 Si
47 1 6.67702 1.37786 6.82267 -3.34547 0.246806 2.46985 1.64355 0.374926 -0.586581 Si
35 1 9.5293 1.31923 4.04978 1.33652 1.66812 0.762428 -0.391462 0.148086 -0.0739048 Si
46 1 8.17585 2.7187 5.39469 -2.20231 -2.46651 -1.71321 -1.29339 -0.305673 0.0165326 Si
5 1 1.34321 4.06343 4.07483 -3.65335 1.64496 1.61474 0.529938 -0.0675667 0.610044 Si
31 1 1.34985 6.70999 6.78354 -0.0406212 -1.67107 2.50086 0.374183 -0.319325 -0.298392 Si
9 1 4.15234 4.10417 6.785 6.0187 -0.687659 3.83606 -1.58626 0.0911752 0.216882 Si
19 1 4.09698 6.85759 4.14488 1.67368 -4.72072 6.66586 -0.0491328 0.219209 -0.306987 Si
37 1 6.69492 4.12026 4.04327 0.629092 -7.97512 -0.181396 1.94939 0.621704 0.9492 Si
60 1 5.41686 5.50846 5.46465 -2.52213 3.51664 2.30781 0.358656 -0.538544 -0.606508 Si
63 1 6.78191 6.81414 6.76532 -3.3479 -4.57808 -1.8735 0.335511 0.272184 0.990328 Si
28 1 -0.0382525 5.3869 5.38086 2.76902 -0.72997 -4.59591 0.387791 0.635507 0.0863306 Si
41 1 9.58492 4.02025 6.72218 1.28882 -0.2043 -2.05045 -0.589478 -0.0308117 0.515477 Si
51 1 9.46382 6.76909 4.0729 -1.70994 -0.740636 -1.92562 0.601935 0.149338 0.179011 Si
21 1 1.4146 9.54659 4.20969 3.22066 -5.64134 -0.0866011 -0.743472 -0.415862 -1.07651 Si
30 1 2.72182 8.14903 5.52339 0.942072 -2.73485 -4.42138 0.165939 0.0239715 -0.041368 Si
44 1 5.4396 0.0561534 5.43656 -1.98463 -1.32512 -0.529438 -0.535688 -0.285052 -0.467644 Si
25 1 4.11359 9.56974 6.76777 3.42136 -3.03928 -1.83502 -0.496996 0.0189581 0.192348 Si
53 1 6.79096 9.5362 4.12112 -5.92718 3.21156 3.51085 1.35116 0.471875 -0.26986 Si
12 1 -0.0497539 -0.00665429 5.42154 0.768806 4.16001 2.1886 0.604789 -0.134847 0.716986 Si
57 1 9.55677 9.49378 6.80619 1.29589 -0.260111 1.23557 -0.417841 0.093764 0.784677 Si
62 1 8.19362 8.13745 5.48077 -3.51945 9.13669 -0.726751 -0.549211 0.413378 -0.638458 Si
10 1 -0.00883718 2.68105 8.1535 -2.27074 -0.874367 3.4972 -0.724711 -0.953814 -0.350589 Si
16 1 2.75548 -0.0427045 8.18999 -1.09088 10.1619 -1.56748 0.206049 0.281615 0.125629 Si
11 1 4.05191 1.41862 9.55156 -1.37478 -2.29255 0.244657 -0.163066 -0.951838 0.485544 Si
42 1 5.32155 2.69493 8.12496 -2.79751 6.34288 -0.137881 1.14761 0.491178 0.694322 Si
38 1 8.08931 2.69071 -0.00578888 -0.503227 2.9364 -1.13087 0.0951032 0.442949 -0.401106 Si
43 1 9.38982 1.34609 9.50771 1.45888 -3.40855 -2.79054 1.60631 -0.393818 0.174846 Si
13 1 1.26201 4.0677 9.4525 -0.330857 -2.4635 0.0929714 1.27314 0.224717 0.359303 Si
32 1 2.73707 5.39303 8.1667 5.05818 -4.072 -2.29062 -0.0725802 0.213868 -0.160372 Si
27 1 4.07496 6.83655 9.49011 -0.377969 4.51374 1.77981 0.613196 -0.14144 -0.440553 Si
45 1 6.78759 4.03482 9.43183 -6.82722 -1.52486 -1.0361 -0.327472 0.710425 0.534088 Si
59 1 9.50676 6.79352 9.52349 -1.76475 -4.01438 0.245472 0.416889 -0.874459 -0.551865 Si
64 1 8.19534 5.38775 8.05984 -3.43375 3.89404 -4.48402 -0.194751 0.328764 0.535362 Si
22 1 2.78755 8.14342 -0.0165024 1.46796 1.90292 1.59734 -0.10003 0.556538 0.974338 Si
29 1 1.41372 9.48665 9.53317 -1.67593 -1.62304 0.750647 -0.266929 -0.654177 -0.581874 Si
58 1 5.42643 8.26145 8.12236 3.54649 -1.4468 -1.69016 0.202445 -1.25389 0.184514 Si
61 1 6.75498 9.56865 9.50578 1.31353 -3.0256 1.41136 0.174226 -0.262668 0.827666 Si
54 1 8.20736 8.20489 -0.0632907 3.65058 -4.34737 0.597451 -0.384974 0.3072 0.22651 Si
48 1 8.0481 -0.00591332 8.15366 6.45505 -1.09277 -2.94543 0.933577 -0.0586753 -0.822009 Si
26 1 0.054514 8.03205 8.13742 -2.41369 1.69558 -1.55603 -0.464486 1.52478 0.556792 Si
ITEM: TIMESTEP
17500
ITEM: NUMBER OF ATOMS
64
ITEM: BOX BOUNDS pp pp pp
0.0000000000000000e+00 1.0887404739999999e+01
0.0000000000000000e+00 1.0887404739999999e+01
0.0000000000000000e+00 1.0887404739999999e+01
ITEM: ATOMS id type xu yu zu vx vy vz fx fy fz element
2 1 -0.0503976 2.80764 2.73959 4.82746 2.57927 1.07533 0.0761068 -0.811042 0.370231 Si
6 1 2.76673 2.60668 -0.086118 3.08317 -0.0704395 -4.43188 -0.187905 0.737889 0.746246 Si
7 1 1.27976 1.43449 1.38002 2.02983 3.14137 2.2614 0.772122 -0.897634 -0.183551 Si
8 1 2.73783 -0.0384945 2.66181 -0.216477 1.2203 -2.32801 -0.844813 0.984851 0.464003 Si
34 1 5.47236 2.61535 2.67217 0.496241 2.18212 7.25955 0.54235 1.04388 1.3767 Si
36 1 5.44926 -0.0709587 0.0112215 -2.41998 0.377661 3.54792 0.741825 0.332963 -0.524233 Si
39 1 6.81285 1.36149 1.31115 1.883 -5.58465 3.50569 0.143827 -0.237711 -0.583733 Si
40 1 8.07646 0.0430435 2.71065 1.35404 -3.47342 2.47885 1.47769 -0.397032 -0.844197 Si
20 1 -0.0798157 5.42062 0.0428446 -1.16383 4.0513 3.78935 1.48729 0.767563 -1.04466 Si
23 1 1.31463 6.85189 1.30855 -1.20817 -0.154815 6.49327 0.449874 -1.07082 0.512898 Si
24 1 2.6813 5.41398 2.71295 -0.776731 0.636094 -0.90531 0.0793452 0.252595 -0.94418 Si
1 1 4.11657 3.95936 1.37623 -1.31023 -5.06302 -4.25689 -1.21373 0.417279 -0.22459 Si
52 1 5.42328 5.35384 0.039417 1.69055 -2.21078 -3.39324 0.26157 1.29079 0.355924 Si
55 1 6.78614 6.84555 1.42151 -2.74079 -4.05824 1.37174 -0.57888 -1.13021 -0.796143 Si
33 1 9.54833 4.13976 1.41079 -1.25758 -0.006236 -0.421608 -0.946964 -0.783808 -0.53113 Si
56 1 8.16496 5.44481 2.67842 -1.62397 -4.52742 2.84493 0.244922 0.674194 1.21624 Si
18 1 0.0166744 8.14935 2.71444 0.0508427 -2.58499 0.416037 -0.546691 0.679573 -0.136993 Si
17 1 4.02546 9.53755 1.27862 5.73182 -0.718177 -2.23394 0.6867 -1.03409 1.06326 Si
50 1 5.38936 8.1361 2.75623 -1.27791 0.467475 3.11446 0.143889 1.44173 -0.809051 Si
4 1 -0.118186 0.0367425 0.0466172 -2.79338 0.929108 -4.05075 1.38365 -0.431463 0.469256 Si
49 1 9.43852 9.4764 1.32118 -1.48057 1.00469 -0.744137 0.273018 0.740275 1.36525 Si
14 1 2.7676 2.83117 5.36841 2.70202 -0.038673 3.02324 -0.462867 -0.963533 0.361683 Si
15 1 1.3459 1.4436 6.80147 5.53178 4.32535 -1.84134 1.99835 -1.29785 -1.34476 Si
3 1 4.13896 1.28189 4.06942 -3.9784 -3.16278 4.33065 -0.828607 0.698869 -0.0458409 Si
47 1 6.85128 1.39507 6.81363 -0.0682009 -1.82807 -1.9627 -0.406702 -0.992367 0.783921 Si
35 1 9.49399 1.34334 4.04905 -5.11829 -2.04961 -0.790165 0.739936 -0.0245412 0.754548 Si
46 1 8.21494 2.68877 5.51738 3.98441 4.28228 4.73443 0.0866423 1.00874 -0.949505 Si
5 1 1.25351 4.17023 4.08139 6.86113 -3.60454 1.36491 1.13843 -0.719441 0.159041 Si
31 1 1.37801 6.76832 6.72553 2.89571 1.81773 0.977996 0.14499 1.0662 1.67187 Si
9 1 4.09645 4.14167 6.83308 -2.79054 -1.46227 -4.30189 0.154594 -1.2495 0.0489207 Si
19 1 4.04721 6.79088 4.03889 -3.02251 0.260269 -1.61448 0.198811 -0.703475 0.700656 Si
37 1 6.86193 4.102 4.10182 -6.47505 1.05232 2.17305 -0.584226 -1.19511 -0.312321 Si
60 1 5.41548 5.41285 5.43539 -1.08817 2.69956 1.34647 0.371716 0.756052 -0.426182 Si
63 1 6.75663 6.82511 6.77579 -0.666185 1.9898 1.76859 0.588587 -0.987139 0.141428 Si
28 1 -0.0170995 5.45109 5.49809 4.29071 1.0416 0.768736 -0.317963 -0.170761 -0.282911 Si
41 1 9.53411 4.11798 6.86986 2.08257 -0.791176 1.94734 -0.143276 -0.233624 0.2452 Si
51 1 9.60848 6.77193 4.08897 -2.38887 2.71493 -0.826266 -1.41872 0.271774 -0.22158 Si
21 1 1.36951 9.52435 4.07499 0.299372 1.50231 0.746671 0.652484 -0.462452 -0.0185759 Si
30 1 2.79098 8.15137 5.44889 -4.13151 2.37437 0.200998 -0.895801 0.438251 -0.268254 Si
44 1 5.46977 -0.0126959 5.47411 5.17183 2.37315 -2.88939 0.0652783 -0.140459 0.378995 Si
25 1 4.02962 9.55365 6.88573 -2.00682 -1.12558 -0.916697 1.05433 -0.701565 -0.630863 Si
53 1 6.82879 9.58371 4.02432 1.64849 -4.10089 -2.01432 -1.08676 -1.34692 1.07463 Si
12 1 0.056196 -0.0374594 5.47136 -1.84806 -1.68086 -2.0504 -0.592573 1.28446 -0.855005 Si
57 1 9.52745 9.56795 6.7577 -1.36899 0.498631 -3.23016 -0.363327 -0.942548 0.0997727 Si
62 1 8.13362 8.13314 5.42079 1.3619 -2.12431 7.00825 0.716564 0.683133 -0.438863 Si
10 1 0.115164 2.71343 8.10458 1.50251 -4.09894 -2.16339 -1.26598 1.66936 1.37399 Si
16 1 2.66839 -0.0124613 8.20616 0.163286 -5.30534 -0.602319 -0.00397875 1.01685 -0.340928 Si
11 1 4.19452 1.27037 9.47835 -0.1255 2.47436 -2.21402 -1.27512 -0.185579 0.48095 Si
42 1 5.44989 2.69459 8.21492 -0.160235 -2.29098 -2.87345 0.496151 0.848486 -1.07961 Si
38 1 8.24603 2.74567 0.0135057 3.16748 1.96924 0.566327 -0.280463 0.0605581 -0.420596 Si
43 1 9.68234 1.40548 9.51856 -2.42282 -0.61677 0.400996 -1.94517 0.163731 -0.588889 Si
13 1 1.39797 4.10448 9.54101 -1.73709 1.82989 -3.0808 -0.283226 -0.434045 0.150772 Si
32 1 2.74288 5.43882 8.1749 3.41442 3.61557 -5.31549 -0.466743 0.562577 -0.175886 Si
27 1 4.10377 6.77119 9.52988 2.77652 -9.70843 -2.92163 -0.596221 0.0570609 0.772597 Si
45 1 6.79216 4.10569 9.54729 1.94823 3.72223 -1.74668 0.610073 -0.706145 0.243002 Si
59 1 9.57315 6.87667 9.5443 -3.77365 3.92113 4.43337 -0.723831 -0.433504 0.215852 Si
64 1 8.1475 5.51415 8.25231 -1.36223 -1.2919 2.97162 0.0898084 -0.0652478 -0.973961 Si
22 1 2.65667 8.20506 -0.0258206 -3.71023 -2.30999 -5.39953 0.42989 -0.533507 -0.712646 Si
29 1 1.28375 9.60464 9.56842 -1.02675 9.20537 0.391341 -0.158199 -0.415975 -0.0599507 Si
58 1 5.44098 8.07973 8.16376 -2.4193 1.22066 -2.14491 -0.398639 1.37227 0.143237 Si
61 1 6.81494 9.45443 9.52939 -1.82963 0.110262 -4.81858 -0.131064 0.515144 -0.46458 Si
54 1 8.11463 8.13695 0.0179952 1.16452 3.43414 -0.343218 0.294947 -0.274124 -0.338541 Si
48 1 8.23952 -0.023175 8.18734 -1.95782 3.73336 2.62403 -0.507556 0.765421 0.305598 Si
26 1 -0.022267 8.23654 8.14611 1.63265 -2.71459 -1.10996 0.860221 -0.629299 -0.473964 Si
ITEM: TIMESTEP
17600
ITEM: NUMBER OF ATOMS
64
ITEM: BOX BOUNDS pp pp pp
0.0000000000000000e+00 1.0887404739999999e+01
0.0000000000000000e+00 1.0887404739999999e+01
0.0000000000000000e+00 1.0887404739999999e+01
ITEM: ATOMS id type xu yu zu vx vy vz fx fy fz element
2 1 0.00380861 2.72053 2.69546 -0.919457 -5.50981 1.29704 1.27986 -0.0693242 -0.585694 Si
6 1 2.74096 2.73592 0.0132581 -3.8538 -2.07666 -0.670694 0.0264133 1.02404 -0.163831 Si
7 1 1.38178 1.32128 1.23761 -3.33145 -0.353099 -3.08068 -0.379627 0.368289 1.45538 Si
8 1 2.68329 -0.0468095 2.65975 -1.48774 0.154003 2.23388 0.199204 0.567324 0.33941 Si
34 1 5.45719 2.7617 2.7149 -4.11708 1.4996 -3.51044 -0.270285 0.566847 -0.427668 Si
36 1 5.38411 0.0748906 -0.0161179 4.44257 -4.95988 -3.0001 0.00299935 -0.230422 0.869786 Si
39 1 6.78723 1.32863 1.3845 3.55801 8.99352 -7.05171 -0.293371 0.206854 0.252015 Si
40 1 8.19189 0.0116894 2.72668 0.320172 -1.55219 -3.0707 -0.0114078 0.530337 0.646967 Si
20 1 -0.0601113 5.39779 0.0564089 2.12157 -4.00694 -1.7058 0.393112 -0.0483132 -0.729678 Si
23 1 1.35235 6.70467 1.33874 0.0216435 2.52898 -3.2394 -0.122211 1.36062 0.202725 Si
24 1 2.69458 5.43952 2.73063 1.28796 -1.42959 1.46732 0.740874 0.710618 0.665673 Si
1 1 4.09675 4.25289 1.34767 0.616902 6.9277 2.37245 0.154904 -1.97465 -0.0939038 Si
52 1 5.4429 5.51198 -0.0712563 0.207072 0.295113 2.21041 0.301047 -0.410546 -0.125647 Si
55 1 6.82586 6.77627 1.30122 2.45917 6.23241 2.8278 0.087863 0.044484 0.962143 Si
33 1 9.511 4.06231 1.38919 -0.963695 -0.974863 -1.77943 -0.030964 -0.331894 0.127527 Si
56 1 8.23493 5.44859 2.73372 -1.73484 3.81903 -2.89428 -0.669132 0.556154 -0.577891 Si
18 1 -0.0489966 8.15457 2.64955 -1.43946 4.55832 -0.735715 0.504229 -0.596974 0.50803 Si
17 1 4.14834 9.53795 1.39757 -4.78166 2.41497 1.38094 -0.681222 0.237775 -0.890872 Si
50 1 5.49366 8.19128 2.65242 7.80216 -3.04203 3.8664 0.180061 -1.01896 0.971084 Si
4 1 0.0704839 -0.0986547 -0.029682 -5.9065 2.44378 8.84546 -0.945606 0.756456 -0.620946 Si
49 1 9.52356 9.58744 1.40862 4.98296 -2.51493 -1.28569 0.0740383 -0.817539 -1.17708 Si
14 1 2.69133 2.62305 5.40985 -0.311582 2.90969 -1.49876 0.319892 0.738459 0.776638 Si
15 1 1.37256 1.34815 6.86412 -0.644223 2.22383 -2.05832 -1.27511 0.834567 0.100355 Si
3 1 4.04157 1.38785 4.01147 -5.08734 5.73845 4.69986 0.751611 -1.37947 0.229865 Si
47 1 6.82367 1.3351 6.78992 2.0204 1.71645 0.760024 -0.724095 0.188731 -0.869809 Si
35 1 9.60091 1.42335 4.06011 -1.99434 -0.410149 -4.66657 -1.26567 -0.599671 0.142611 Si
46 1 8.12807 2.74794 5.35093 -3.76806 -5.21565 -4.09962 0.94446 -0.281878 1.16806 Si
5 1 1.43329 4.03357 4.07736 0.92947 -0.802045 -1.29053 -1.02728 -0.0104938 -0.216633 Si
31 1 1.35205 6.87731 6.78916 0.129883 -2.73498 -4.43965 -0.596289 -1.12518 -0.171256 Si
9 1 3.99747 4.04311 6.81876 -5.36121 2.20474 -3.04696 0.323106 0.42464 -0.258592 Si
19 1 4.10399 6.85071 4.11228 0.140392 3.19869 -2.54219 0.201034 -0.722591 -0.656758 Si
37 1 6.86031 4.14194 4.03984 7.67342 5.50593 -0.0904218 -1.01345 -0.310965 0.166442 Si
60 1 5.4704 5.40481 5.48693 1.51889 -8.20548 0.303842 -0.278845 0.56504 0.00824034 Si
63 1 6.87447 6.78975 6.87302 1.26081 1.38874 -4.35553 -0.937876 0.127674 -0.501355 Si
28 1 0.0452244 5.39839 5.42293 -4.15438 -0.815901 3.25237 0.0705124 0.801808 0.0695075 Si
41 1 9.53728 4.10871 6.78055 -9.28805 0.690068 1.44181 -0.643157 -0.588622 -0.817623 Si
51 1 9.52927 6.81643 4.09989 2.8428 2.77217 -3.92721 0.782383 -0.411571 -0.277339 Si
21 1 1.29153 9.50679 4.02016 -0.416192 -3.64856 0.726764 0.0630618 0.325584 0.652321 Si
30 1 2.66102 8.14329 5.41373 5.47521 -3.28309 6.49699 0.572452 1.03817 -0.223484 Si
44 1 5.4511 -0.112018 5.38459 -4.17434 -1.40667 0.419097 0.154061 1.49827 -0.24174 Si
25 1 4.0892 9.50011 6.75948 -3.61892 5.35699 3.20306 -0.591755 0.0182774 0.869609 Si
53 1 6.88552 9.45932 4.04786 4.86327 4.41354 -1.67404 -0.706471 0.665058 -0.298798 Si
12 1 -0.0252102 0.0620981 5.46713 6.16539 -1.63494 2.26956 0.0755674 -1.27933 0.278844 Si
57 1 9.45461 9.51516 6.8898 -1.61174 -0.354616 5.77521 0.778107 0.268464 -0.569687 Si
62 1 8.16169 8.13613 5.40628 -4.43394 -4.25063 -8.72083 0.396343 0.0260161 1.33596 Si
10 1 -0.15724 2.76882 8.21819 3.09615 -3.08854 0.744815 2.05033 -0.688264 -0.570226 Si
16 1 2.74336 0.0629649 8.20257 0.343203 1.11315 0.0273071 0.171147 -1.49627 -1.1474 Si
11 1 4.01948 1.37628 9.52538 3.08971 -2.2326 1.09453 1.2375 1.01189 -0.116969 Si
42 1 5.46096 2.72806 8.13599 -3.186 1.33696 4.59822 -0.349984 -0.291916 0.593149 Si
38 1 8.1619 2.65556 0.0906085 -0.676062 -5.55357 -5.94467 0.0199719 0.547305 -0.32761 Si
43 1 9.48974 1.37456 9.56687 0.682628 -0.751525 3.84307 0.339762 -0.965914 0.534224 Si
13 1 1.31046 4.08247 9.54731 1.60404 2.3883 4.21389 -0.00292303 0.0731537 -0.0594213 Si
32 1 2.63412 5.51209 8.16034 -2.63637 -2.0364 4.76443 0.717931 -0.62607 0.267661 Si
27 1 4.06162 6.8807 9.50795 0.177759 4.84652 0.0698418 -0.0735642 -1.09482 -0.149715 Si
45 1 6.85648 4.0273 9.58442 1.13797 -1.67277 2.40191 -0.432874 0.452845 -0.681742 Si
59 1 9.51243 6.75437 9.5615 7.52777 -2.782 -8.86066 0.351938 0.855481 -0.0950557 Si
64 1 8.21909 5.39598 8.1552 0.91195 -0.913304 1.10869 -0.492779 0.0626578 0.832012 Si
22 1 2.79396 8.13636 0.0575162 2.10249 -3.21551 3.19059 -0.845699 0.425722 -0.00925088 Si
29 1 1.46007 9.48471 9.47883 -3.11761 -4.92179 -1.0681 0.181468 0.126631 1.16637 Si
58 1 5.44791 8.17929 8.22576 2.15414 -0.684622 2.64291 0.609634 0.650488 -0.732997 Si
61 1 6.76053 9.6204 9.63211 0.962296 2.81294 0.257077 0.250222 -1.11549 -0.799398 Si
54 1 8.15234 8.17781 0.045967 -1.92709 2.83397 1.01343 0.471112 0.5139 -0.532693 Si
48 1 8.0991 0.0481182 8.23251 -1.01982 -2.73397 4.91063 0.500513 -0.483961 -0.0987562 Si
26 1 0.0741149 8.16594 8.22128 1.33272 -3.54922 -0.422951 -1.61707 -0.199533 -0.37509 Si
ITEM: TIMESTEP
17700
ITEM: NUMBER OF ATOMS
64
ITEM: BOX BOUNDS pp pp pp
0.0000000000000000e+00 1.0887404739999999e+01
0.0000000000000000e+00 1.0887404739999999e+01
0.0000000000000000e+00 1.0887404739999999e+01
ITEM: ATOMS id type xu yu zu vx vy vz fx fy fz element
2 1 -0.0254036 2.74689 2.7044 -1.56923 2.87815 -0.989435 -1.20431 0.147119 1.00149 Si
6 1 2.70597 2.73016 0.113447 -0.428643 -1.10326 3.2448 -0.531395 -1.53978 -0.691455 Si
7 1 1.32805 1.33255 1.55347 -0.942685 -0.227317 -5.22281 0.426293 0.109284 -2.09767 Si
8 1 2.78886 0.0693715 2.85518 -2.77303 -1.83842 -3.36414 0.451332 -1.13623 -0.914636 Si
34 1 5.48946 2.71593 2.70836 5.29465 -5.72907 2.72771 -0.441212 -1.0994 -0.387491 Si
36 1 5.47701 -0.02226 -0.0775153 2.37687 1.93256 -2.52699 0.00474844 -0.294607 0.408871 Si
39 1 6.82865 1.27457 1.27548 0.416037 -6.52895 3.60413 0.273547 1.3401 0.494313 Si
40 1 8.1421 -0.0589408 2.73575 0.0150283 1.05874 -1.85817 -0.339649 0.629425 0.0224982 Si
20 1 0.112648 5.46875 -0.0947088 -3.15378 0.407788 1.94743 -0.625304 -0.310238 1.15655 Si
23 1 1.40813 6.89376 1.38644 -3.68546 -1.89245 1.7294 -0.279961 -1.04555 -0.53201 Si
24 1 2.69715 5.44668 2.74587 -3.23175 0.0909366 -2.01047 0.0259461 -0.442531 -0.0219501 Si
1 1 4.0592 4.03365 1.37782 -0.568908 -0.683309 -3.90338 0.657572 1.26625 0.605954 Si
52 1 5.4133 5.49562 0.0497741 0.988603 -3.14701 -0.912778 -0.111524 -0.780769 -0.11662 Si
55 1 6.75927 6.76418 1.46464 -1.51622 -1.27788 -3.09344 0.868766 1.26819 -1.46998 Si
33 1 9.49883 4.08584 1.27726 -1.61128 1.44783 1.60318 0.832878 0.88191 0.251184 Si
56 1 8.12765 5.42828 2.73434 3.41485 -1.22115 3.91844 0.331524 -1.11645 -0.250759 Si
18 1 0.0295372 8.1115 2.80508 -1.6381 -4.56966 -2.97547 -0.175871 0.829897 -0.29653 Si
17 1 4.13623 9.56555 1.30324 7.17197 0.0881439 -0.860908 -0.592008 0.445069 1.16218 Si
50 1 5.45139 8.20958 2.72088 -7.82521 -1.75979 -4.74768 -0.819113 -0.211325 -0.0487292 Si
4 1 -0.017139 0.074642 -0.0518349 2.00766 -2.98077 -2.10655 0.669594 -0.719985 1.26934 Si
49 1 9.59672 9.55929 1.42212 -3.73894 2.95277 1.09815 -0.164915 -0.733296 -0.756809 Si
14 1 2.61754 2.76536 5.52115 1.56293 -4.50247 0.649075 1.74488 0.366488 -1.14249 Si
15 1 1.45883 1.37257 6.78833 1.85315 2.38094 0.401251 -2.01319 -1.02792 0.47153 Si
3 1 4.09489 1.45492 4.19414 4.14595 -1.77021 -2.90435 -0.289436 0.516758 -0.530253 Si
47 1 6.80483 1.40577 6.83613 -0.713707 -0.647584 0.529157 0.189001 -0.2399 0.526708 Si
35 1 9.42026 1.38413 4.10114 6.09872 4.3474 0.98862 1.34771 -0.376976 -0.728181 Si
46 1 8.17813 2.74152 5.4636 -1.00989 2.42001 -1.18304 -1.18704 -1.08708 -0.403449 Si
5 1 1.29452 4.07089 4.14298 -0.623387 1.6792 3.83131 0.129918 0.793341 -0.746965 Si
31 1 1.35944 6.73692 6.90558 3.18044 2.1346 4.65695 0.712601 -0.0584649 -1.52171 Si
9 1 4.1183 4.0376 6.77191 1.58891 0.139387 4.3096 0.350727 1.01031 0.153645 Si
19 1 4.09767 6.80586 4.05466 3.75395 -0.0794252 4.2632 -0.79105 0.922801 0.215028 Si
37 1 6.82439 3.97795 4.07781 -1.09665 1.19403 -1.40714 -0.0220748 1.64719 -0.0269698 Si
60 1 5.48889 5.51574 5.33657 -4.96237 1.80563 -2.40757 -0.163527 -1.66984 1.04055 Si
63 1 6.80637 6.83579 6.75698 -4.3034 -1.41881 5.44565 -0.154613 0.563776 -0.249786 Si
28 1 -0.0183159 5.51774 5.44839 2.48908 1.41873 -5.68812 -0.224354 -0.84584 0.0197618 Si
41 1 9.51465 4.02209 6.67895 11.733 2.92435 -1.89873 1.11724 1.19025 1.8022 Si
51 1 9.44282 6.76973 4.07232 2.05648 -1.70505 -0.403975 0.515199 0.746231 0.253128 Si
21 1 1.48359 9.46841 4.12392 -4.45059 0.453346 -7.00534 -1.39179 0.845795 -0.227142 Si
30 1 2.69707 8.15579 5.53168 -2.3724 0.365463 -4.71111 0.963668 -1.20578 0.010955 Si
44 1 5.38972 0.094215 5.51492 -0.764007 -7.67165 3.18684 0.00185768 -0.902714 0.464969 Si
25 1 4.06811 9.48984 6.87935 8.38577 -5.66817 -4.03513 0.312741 0.748572 -1.4691 Si
53 1 6.66206 9.59695 4.10799 -5.13446 -0.615508 -2.82532 1.00646 0.119338 0.0176125 Si
12 1 0.0294317 0.0236614 5.38666 -3.32467 4.10628 -0.600456 0.256522 -0.234068 0.303106 Si
57 1 9.58623 9.42569 6.70572 -0.510425 2.24237 -3.36697 -0.122742 1.2769 0.605661 Si
62 1 8.12364 8.24663 5.3692 5.11777 1.31154 3.58979 -0.332918 -0.924447 0.0584765 Si
10 1 0.0353896 2.69355 8.13376 -5.96264 2.31141 5.19979 -0.720163 -0.180581 0.00519336 Si
16 1 2.74549 -0.0231206 8.11029 -1.00546 1.57795 -0.0414194 -0.321649 0.126078 1.50532 Si
11 1 4.05308 1.28628 9.59711 -4.46138 1.77794 -0.206774 -0.627597 0.935424 -0.371365 Si
42 1 5.39632 2.69286 8.26829 4.34765 2.72296 -5.13769 0.328358 0.240331 -0.696223 Si
38 1 8.14899 2.79654 -0.102637 0.93282 -1.57901 4.00225 -0.498022 -1.0569 0.658313 Si
43 1 9.43935 1.32195 9.50205 2.78614 3.2762 -0.205185 1.11643 1.06751 -0.545023 Si
13 1 1.43492 4.02946 9.49515 3.2044 -1.27863 -4.35538 -0.179577 0.0924092 0.191182 Si
32 1 2.78402 5.41534 8.17183 -2.18531 -2.8877 -2.82343 0.150671 -0.301542 0.162151 Si
27 1 4.04899 6.82224 9.57713 -0.713054 0.597707 -3.69499 0.681623 0.457622 -0.756391 Si
45 1 6.77737 4.16776 9.49752 0.442678 -1.01103 2.02371 -0.503104 -0.193797 0.119213 Si
59 1 9.54204 6.71388 9.44681 -6.64229 5.64221 9.46968 -0.612191 0.540009 0.236589 Si
64 1 8.12285 5.41105 8.04085 -0.823105 0.127459 3.02108 0.705841 -0.0541177 0.315183 Si
22 1 2.73034 8.23954 -0.00469374 -1.98443 0.497341 3.01869 0.267841 -0.46481 0.523595 Si
29 1 1.38834 9.51639 9.54365 -1.18429 4.93456 1.07988 -1.14791 0.289636 -1.30707 Si
58 1 5.45215 8.21504 8.14512 -1.01818 1.1608 -0.807048 -0.275312 -1.70593 0.519654 Si
61 1 6.78737 9.53127 9.44571 0.18048 -1.23581 4.58157 1.00578 -0.244628 0.759939 Si
54 1 8.20318 8.17785 -0.0266696 -0.347677 -3.85482 2.01877 -0.33618 -0.592429 0.519924 Si
48 1 8.2037 -0.0540791 8.12881 1.77859 0.115715 3.34232 -0.283388 -0.163157 -0.994602 Si
26 1 0.0027836 8.05217 8.09768 0.952516 4.36244 0.79899 0.0358122 1.54707 1.46939 Si
ITEM: TIMESTEP
17800
ITEM: NUMBER OF ATOMS
64
ITEM: BOX BOUNDS pp pp pp
0.0000000000000000e+00 1.0887404739999999e+01
0.0000000000000000e+00 1.0887404739999999e+01
0.0000000000000000e+00 1.0887404739999999e+01
ITEM: ATOMS id type xu yu zu vx vy vz fx fy fz element
2 1 0.0528108 2.72538 2.78706 1.04643 0.00576687 -2.54369 0.308718 -0.571179 -0.715211 Si
6 1 2.74573 2.69339 -0.221837 -1.78469 2.33497 -3.01837 0.101345 0.946246 1.49576 Si
7 1 1.43374 1.42794 1.21983 1.16144 -0.461133 6.94452 -0.389996 -0.0823292 1.24861 Si
8 1 2.75106 -0.0451977 2.54994 3.29346 1.6898 1.38181 -1.57809 0.64709 1.85317 Si
34 1 5.43053 2.74501 2.77187 2.54336 2.08346 -2.3259 -0.130125 -0.463966 0.410914 Si
36 1 5.36621 -0.0442031 0.149334 -2.65849 0.318777 3.919 0.514125 0.312352 -1.44431 Si
39 1 6.73054 1.40034 1.41449 -2.22738 0.18161 -2.12047 0.430836 -0.505802 0.184926 Si
40 1 8.12938 0.101512 2.79861 2.39686 -0.576574 -1.25355 0.32755 -1.83505 -0.985935 Si
20 1 -0.0431377 5.48878 0.108729 3.14692 -1.84821 -3.81588 -0.332401 -0.717133 -1.02432 Si
23 1 1.31733 6.79726 1.38102 2.67122 1.87306 4.59737 0.720209 0.63501 -0.137991 Si
24 1 2.72838 5.45771 2.66505 0.303682 2.56595 7.4156 0.142857 -0.740764 0.186839 Si
1 1 4.09998 3.97034 1.31275 -2.15264 -3.10705 3.54012 -0.700903 0.96267 -0.32497 Si
52 1 5.49016 5.3402 -0.0464799 0.408066 9.01939 -1.47742 -0.301343 0.33065 0.8748 Si
55 1 6.79003 6.77934 1.35016 5.9629 0.0249605 2.23973 -0.257137 -0.228762 0.291379 Si
33 1 9.5359 4.10293 1.52817 -0.559243 -1.77752 -0.826723 -0.318946 -0.41011 -1.10036 Si
56 1 8.13769 5.42563 2.82469 0.817766 2.57549 -1.61259 -0.0482489 0.70783 -0.38823 Si
18 1 -0.0252051 8.15871 2.72915 -3.21972 -0.213601 2.55028 -0.0289203 0.0139992 0.0883405 Si
17 1 4.01086 9.42467 1.36996 -0.276798 -0.0267785 1.19862 0.329783 -0.367854 -1.04454 Si
50 1 5.40862 8.18474 2.70668 4.21857 0.61162 -0.499894 0.716732 -0.845289 0.204252 Si
4 1 0.0417543 0.0459169 -0.00464347 -0.0953458 0.553195 -4.12835 -0.876147 -0.691448 -0.0202172 Si
49 1 9.49472 9.46485 1.33029 0.730578 -1.17158 -1.48637 -0.394067 1.72305 0.391961 Si
14 1 2.83239 2.69704 5.36389 -4.30417 6.93106 4.63879 -1.67197 -0.753768 0.833751 Si
15 1 1.28835 1.33871 6.81326 -3.80657 -2.17248 3.4792 2.30859 0.451766 -0.698894 Si
3 1 4.1027 1.21941 4.03872 4.04318 -1.50825 -0.316176 0.119703 0.843417 -0.608588 Si
47 1 6.85206 1.29115 6.66173 -4.74096 -1.64141 -0.188987 -0.274287 1.49903 0.797264 Si
35 1 9.53442 1.3716 4.11773 -1.66903 -4.85866 1.54779 0.439793 0.440179 0.167172 Si
46 1 8.23233 2.77765 5.4552 3.16325 -1.59485 -0.107471 -0.0772914 -0.140573 0.438724 Si
5 1 1.39357 4.09475 4.10522 -3.19679 2.42729 -1.4334 0.417373 0.147673 -0.0931874 Si
31 1 1.31064 6.8378 6.68458 -1.34993 -3.77857 -3.65838 0.370232 1.39961 1.71234 Si
9 1 4.01299 4.10417 6.79507 3.81857 1.03321 -1.23798 0.836388 -0.552724 0.550946 Si
19 1 4.038 6.85028 4.04916 -0.627282 -4.12432 0.66327 1.00576 -1.0746 0.650747 Si
37 1 6.78892 4.09356 4.17089 -5.70612 -2.33692 -0.670635 -0.0213004 -0.312447 -0.288387 Si
60 1 5.44422 5.40652 5.53382 -1.61795 3.22933 3.2836 -0.569425 1.4583 -0.937542 Si
63 1 6.78696 6.83455 6.87272 -2.26518 -0.325114 -2.48835 0.413749 -0.807114 0.0170859 Si
28 1 0.00619689 5.43228 5.47754 0.295004 -0.334188 0.866085 0.0787805 -0.754931 -0.389022 Si
41 1 9.56752 4.13006 6.91449 0.252341 -3.26658 -1.52394 -0.394602 -0.148899 -1.16465 Si
51 1 9.6001 6.74962 4.11512 -0.771415 -4.88524 -0.252872 -0.713588 0.233232 -0.204374 Si
21 1 1.2628 9.58886 4.08651 6.72257 -1.56505 7.51605 1.62222 -0.38815 -0.515835 Si
30 1 2.77026 8.21319 5.43894 0.130198 0.114847 1.57251 -1.44684 0.245978 -0.854344 Si
44 1 5.5044 -0.0550788 5.37879 0.659058 8.59715 -1.03028 -0.106228 -0.638579 -0.127357 Si
25 1 4.10392 9.55886 6.75004 -3.96401 0.0223419 2.59089 -0.0491161 0.0180978 0.497789 Si
53 1 6.88223 9.39905 4.10742 -2.85442 1.94814 3.37355 -0.071536 0.716668 -0.219593 Si
12 1 -0.0424001 0.00495178 5.50265 -1.26387 -0.437246 0.448368 -0.338009 0.160173 -0.429953 Si
57 1 9.51499 9.61421 6.90797 3.40385 1.29081 0.334018 -0.561437 -0.914703 -1.09758 Si
62 1 8.25913 8.05835 5.51489 -1.63974 0.448731 -2.37566 -0.161819 1.1523 0.210836 Si
10 1 0.0543899 2.74894 8.11955 4.14391 0.551106 -2.21577 -0.577836 0.0473718 1.08845 Si
16 1 2.74755 -0.019317 8.16473 2.66198 -3.70934 -3.47667 -0.0465593 0.705542 -0.430509 Si
11 1 4.17191 1.35137 9.50406 2.08746 0.970818 0.371072 0.101255 -0.734749 -0.700768 Si
42 1 5.52298 2.72158 8.09352 -7.77313 -0.45195 1.33688 -0.484816 -0.373926 -0.278529 Si
38 1 8.15608 2.70543 0.100253 -1.14509 2.38828 2.47333 0.864728 0.238383 -0.303433 Si
43 1 9.58364 1.41104 9.51752 -4.17633 -2.37604 -1.02814 -0.913072 -0.0254455 0.134664 Si
13 1 1.31375 4.1383 9.51133 -2.50713 -2.6397 -0.58701 0.380435 0.722641 -0.294531 Si
32 1 2.68908 5.548 8.0948 5.85365 -2.58886 -3.77124 -0.64612 -1.19985 0.213468 Si
27 1 4.16504 6.6797 9.46254 0.00794298 -1.1249 -1.49531 -1.03662 1.19477 0.685937 Si
45 1 6.84055 4.01578 9.54977 -0.566455 -2.59034 -1.08434 0.646175 0.15947 -0.513291 Si
59 1 9.53296 6.87947 9.55271 -0.44834 -1.58685 1.18324 -0.116451 0.0903548 0.562061 Si
64 1 8.21491 5.47075 8.24753 0.463891 -1.20335 -6.98488 -0.828995 0.0389556 -0.0949922 Si
22 1 2.69641 8.0924 -0.0768312 2.609 3.63682 -4.1233 0.0577567 -0.125438 -0.102542 Si
29 1 1.33004 9.57263 9.48385 4.47043 0.499156 1.35166 1.03057 -0.193151 0.970247 Si
58 1 5.3615 8.17559 8.14847 -1.32899 4.34152 -0.246056 0.480033 -0.0662388 -0.14998 Si
61 1 6.67786 9.53011 9.49861 -0.000397263 -2.44079 -1.59395 0.239983 1.12339 0.16964 Si
54 1 8.02673 8.21547 -0.0500807 0.685653 5.26074 -0.309325 1.03687 -0.686567 0.339561 Si
48 1 8.10726 0.0683184 8.1457 -1.42866 -0.159699 -2.35488 0.204673 -0.379573 1.27136 Si
26 1 -0.0190379 8.28495 8.19816 -2.04695 -4.64626 -1.15316 0.217014 -1.63509 -0.859029 Si
ITEM: TIMESTEP
17900
ITEM: NUMBER OF ATOMS
64
ITEM: BOX BOUNDS pp pp pp
0.0000000000000000e+00 1.0887404739999999e+01
0.0000000000000000e+00 1.0887404739999999e+01
0.0000000000000000e+00 1.0887404739999999e+01
ITEM: ATOMS id type xu yu zu vx vy vz fx fy fz element
2 1 -0.0660426 2.67696 2.70513 -0.405981 4.76269 4.1098 0.0929324 0.878244 -0.29871 Si
6 1 2.68353 2.74424 0.191495 2.07454 -3.1613 -6.03197 0.47497 -0.452494 -1.35533 Si
7 1 1.3517 1.31687 1.44561 -1.42643 0.0818259 -0.496523 -0.343104 0.0628615 0.0410376 Si
8 1 2.70069 0.00456251 2.80019 -1.38649 -0.13012 0.754694 0.703091 0.30021 -0.722351 Si
34 1 5.43113 2.7132 2.65929 -1.05617 2.73202 -1.28393 0.339081 1.4934 0.202919 Si
36 1 5.52364 0.0152594 -0.0758727 3.52181 0.558233 -2.67586 -0.505991 0.286539 0.801687 Si
39 1 6.78495 1.46535 1.31355 3.85371 -2.58559 -0.830285 0.613321 -1.17721 -0.72477 Si
40 1 8.14673 0.0195893 2.61766 -4.07013 4.3349 -0.295545 0.329934 0.659258 0.681273 Si
20 1 0.00841466 5.35795 -0.0697711 -1.59578 -0.629171 1.45615 0.45322 0.97882 0.350446 Si
23 1 1.4111 6.7923 1.27571 3.43061 -1.5019 -6.37708 -0.626641 -0.341777 0.983959 Si
24 1 2.71129 5.42938 2.72836 3.73399 -0.189036 -1.01245 -0.190757 1.18177 0.318362 Si
1 1 4.07613 4.1851 1.39556 -0.290173 -2.06988 2.37177 0.49417 -0.866438 -0.0701472 Si
52 1 5.44034 5.56098 0.0706827 -0.417022 -4.27805 4.41573 -0.242059 -0.0983052 -1.1662 Si
55 1 6.84577 6.88425 1.36081 0.407523 3.79896 1.54583 -0.360025 -0.454782 0.236533 Si
33 1 9.51002 4.06127 1.23187 0.588377 -0.460633 5.24826 0.336361 -0.305527 0.901098 Si
56 1 8.25227 5.51331 2.58372 -3.7613 -1.5198 -2.02483 -0.343277 -0.640067 0.494556 Si
18 1 0.0665792 8.14543 2.74255 2.67016 7.12435 1.00786 -0.100459 0.0155907 -0.839348 Si
17 1 4.08482 9.6546 1.33996 -4.70689 -2.15811 -3.16962 0.95447 -0.189384 1.0257 Si
50 1 5.45492 8.20842 2.70419 -1.6528 0.0803883 2.92981 -0.16597 0.73592 0.414779 Si
4 1 0.0271791 -0.0465783 0.0650536 -1.58241 2.57579 3.73615 0.0957437 0.175757 -1.17607 Si
49 1 9.54246 9.48639 1.34022 -5.75314 -3.31766 0.657459 0.146609 -0.378252 0.631692 Si
14 1 2.63664 2.75091 5.47657 4.96018 -0.439454 -5.47014 0.603393 0.570676 -0.508105 Si
15 1 1.30113 1.30473 6.81134 -0.0586782 -1.97503 0.95873 -0.112305 0.779994 0.356076 Si
3 1 4.09586 1.43114 4.01456 -5.67498 -0.38136 4.95783 -0.814893 -0.443208 1.80247 Si
47 1 6.76629 1.39318 6.90499 1.88262 0.160051 1.25886 0.164149 -1.36854 -0.555403 Si
35 1 9.53932 1.34794 4.10153 -2.72016 0.889649 -5.40052 -0.984937 -0.568121 -0.524055 Si
46 1 8.10632 2.64601 5.44691 -0.846195 3.58228 3.11215 0.0837044 0.411153 -0.608611 Si
5 1 1.23187 4.16215 4.02105 -2.21342 -3.26485 1.04573 0.768711 -1.41881 0.533909 Si
31 1 1.34862 6.71697 6.84485 0.460348 -4.13505 -1.45152 0.263808 -0.806901 -0.676523 Si
9 1 4.12376 4.14183 6.87872 -4.16863 0.24803 -0.311358 -1.12554 -0.408961 -0.784788 Si
19 1 4.14021 6.77763 4.10453 -2.1265 3.71036 -1.17155 -0.651534 0.44201 -0.628342 Si
37 1 6.93324 4.08078 3.93587 3.59314 3.01719 4.04083 -0.866081 -0.319324 0.477966 Si
60 1 5.49146 5.37506 5.33958 1.24714 -1.37054 -2.12648 0.415838 -0.0705468 0.794279 Si
63 1 6.80398 6.75914 6.76186 0.0879949 0.672454 -3.38172 0.393879 0.465229 -0.440309 Si
28 1 -0.143521 5.41648 5.38929 -0.603626 1.18573 0.981594 1.12267 0.629066 0.828255 Si
41 1 9.44035 4.04067 6.72615 -0.386483 1.71259 2.70973 0.120963 0.0385354 0.976618 Si
51 1 9.52543 6.82078 4.03266 -1.29655 -2.71432 4.31348 -0.300606 0.539671 0.0547546 Si
21 1 1.41279 9.50652 4.09249 -4.17498 2.26704 -0.13054 -0.248502 -0.551474 0.977638 Si
30 1 2.76654 8.11218 5.52466 5.15582 0.147929 1.08242 -0.12962 0.242498 -0.287681 Si
44 1 5.36084 0.00648337 5.50384 -0.473682 -2.78433 2.71512 0.692971 1.53899 -0.424295 Si
25 1 4.10459 9.55807 6.87562 -3.35344 0.490292 2.64353 -0.771269 -0.621462 0.587846 Si
53 1 6.77006 9.68962 4.08263 7.0107 -4.15328 -2.62739 0.215266 -1.46774 -0.159993 Si
12 1 -0.0227903 -0.0377856 5.4194 6.20636 -1.73843 -3.2928 0.463258 -0.182893 -0.0289819 Si
57 1 9.53612 9.46966 6.74281 -1.54399 -3.25855 -0.476136 0.545927 0.386075 0.714908 Si
62 1 8.18317 8.23684 5.40085 0.925481 -3.5773 -1.37421 -1.1755 -0.950877 -0.546703 Si
10 1 -0.0651255 2.74623 8.17974 1.51751 0.686596 -2.15339 0.596488 -0.400937 -0.86213 Si
16 1 2.65522 0.0305033 8.25896 1.119 4.72621 4.0788 0.235641 -0.983621 -0.681756 Si
11 1 4.00437 1.33884 9.60524 2.28009 -4.50513 -1.85849 0.425606 1.09444 0.145991 Si
42 1 5.38931 2.72173 8.20461 4.54399 -3.88509 -1.02811 -0.14503 0.0668269 0.752816 Si
38 1 8.17071 2.72739 -0.106346 2.74193 -2.20607 -1.70368 -0.586075 0.206832 0.0911374 Si
43 1 9.5501 1.33859 9.50502 1.9056 2.33194 1.40941 0.101943 -0.719849 0.4622 Si
13 1 1.3681 3.99487 9.57411 1.08913 2.33192 -2.64761 -0.384017 -0.537665 0.352355 Si
32 1 2.68903 5.38666 8.36385 -5.00742 6.43692 3.08824 0.989054 1.44772 -1.41359 Si
27 1 4.02982 7.01133 9.60446 -3.78744 -0.363265 2.03409 0.910048 -2.347 -0.357476 Si
45 1 6.76204 4.14646 9.49719 0.147457 -4.23597 -2.43251 -0.308963 -0.224923 0.728559 Si
59 1 9.57566 6.72858 9.46156 1.12258 -1.31349 -2.82661 0.142565 0.113353 -0.0736681 Si
64 1 8.15142 5.42556 8.15493 2.8121 2.67923 0.348469 0.0706223 -0.0562645 -0.724977 Si
22 1 2.78078 8.26144 0.117008 0.00967505 -2.05834 -1.27127 -0.903777 -0.20813 -0.568108 Si
29 1 1.38297 9.40662 9.56194 0.973535 -2.11151 -2.26665 -0.599577 1.20587 -0.0273245 Si
58 1 5.51342 8.13398 8.17946 0.657903 0.0903784 -0.831725 -0.21058 0.874323 0.00720152 Si
61 1 6.91088 9.49794 9.56174 -2.06364 -0.571498 2.44162 -0.0850143 -0.92306 -0.210463 Si
54 1 8.2726 8.03062 0.00641103 -3.80859 1.64622 -1.22472 -0.219505 1.48425 -0.709729 Si
48 1 8.23097 -0.0889186 8.16653 -2.70238 3.3423 -0.246651 -0.405241 0.978001 -0.350016 Si
26 1 0.0351599 8.11309 8.09219 2.38452 4.63961 0.449742 -0.45356 0.200652 0.776925 Si
ITEM: TIMESTEP
18000
ITEM: NUMBER OF ATOMS
64
ITEM: BOX BOUNDS pp pp pp
0.0000000000000000e+00 1.0887404739999999e+01
0.0000000000000000e+00 1.0887404739999999e+01
0.0000000000000000e+00 1.0887404739999999e+01
ITEM: ATOMS id type xu yu zu vx vy vz fx fy fz element
2 1 0.0478883 2.74974 2.67507 -1.12445 -2.33159 0.676552 0.0880255 0.218026 1.00638 Si
6 1 2.76552 2.75077 -0.0436509 0.968229 0.973308 3.0008 -0.701946 0.0923064 -0.19489 Si
7 1 1.41341 1.44295 1.35249 -0.279508 2.5243 -3.55229 -0.372281 -1.17963 -1.0542 Si
8 1 2.6969 -0.0375647 2.65546 0.583851 -4.69285 -3.70898 0.696136 0.465349 -0.568702 Si
34 1 5.45481 2.69655 2.81041 3.12959 -5.01295 2.1237 -0.495256 -0.731125 -1.2681 Si
36 1 5.36298 0.0369735 0.0131588 -2.70995 0.694412 -1.23552 0.577212 -0.250106 -0.307422 Si
39 1 6.81992 1.27036 1.42381 -3.9799 1.70165 1.18042 -0.534643 0.29985 0.746168 Si
40 1 8.24131 -0.0393388 2.81973 1.00525 -2.88215 -0.258285 -1.08359 0.371113 -0.0215584 Si
20 1 -0.0274081 5.51337 -0.000347942 -2.79997 -0.376989 3.547 -0.365844 -0.263152 0.401923 Si
23 1 1.37416 6.80891 1.35918 -4.44411 -0.906298 2.49877 -0.599003 -0.0829407 0.0459154 Si
24 1 2.7318 5.405 2.65644 -4.92596 -2.0997 -1.00082 0.114285 -0.141292 0.137412 Si
1 1 4.09663 4.00923 1.34201 -0.0113598 5.35805 -5.6327 0.395758 0.246735 0.51195 Si
52 1 5.39214 5.34657 -0.0672599 -0.0280733 3.20188 -3.64022 0.707299 0.108297 0.451645 Si
55 1 6.77486 6.67759 1.33823 -4.18576 -2.48676 0.326755 -0.156102 0.051472 0.165754 Si
33 1 9.52837 4.11769 1.4336 -0.562508 -1.13096 -3.828 -0.187261 0.182131 -0.352195 Si
56 1 8.09518 5.37286 2.85111 6.05588 -1.68931 1.34248 0.388109 0.725579 -1.02156 Si
18 1 -0.0547332 8.13436 2.71804 0.305865 -5.05144 -2.01798 -0.185606 0.767535 0.0192939 Si
17 1 4.08689 9.44615 1.34101 5.90075 0.778177 -1.32231 -0.798482 0.0754442 -0.564091 Si
50 1 5.39415 8.03798 2.66551 -0.156206 1.36805 -1.32904 0.631661 0.495007 0.237018 Si
4 1 0.0387519 0.0064779 -0.088315 2.86119 -5.25562 -0.836787 -0.651759 1.07117 1.17634 Si
49 1 9.46027 9.59477 1.36036 1.41166 3.94003 -1.29102 1.24565 -1.03143 -0.649244 Si
14 1 2.76985 2.61473 5.40025 -6.96836 -1.60001 3.82903 0.664079 0.652628 0.339838 Si
15 1 1.41272 1.38228 6.81312 4.27077 2.59609 -1.54917 -0.703496 -0.588433 0.490473 Si
3 1 4.08426 1.23053 4.03772 0.996121 0.861482 -7.02246 0.343781 0.572402 0.312475 Si
47 1 6.86067 1.38414 6.74095 1.24808 2.00499 -0.53751 0.198816 0.131322 0.412393 Si
35 1 9.58671 1.42003 4.09109 2.49795 3.32529 1.44171 -0.305472 0.0938391 0.160045 Si
46 1 8.19295 2.81101 5.44795 1.90057 -0.44299 -1.36933 0.450953 0.0275659 -0.0126784 Si
5 1 1.4769 4.04051 4.08593 1.44984 2.48285 -1.03304 -1.0564 0.391318 -0.0194384 Si
31 1 1.36563 6.93584 6.84685 -1.17042 6.23166 -0.76926 -0.355997 -0.219271 -0.223916 Si
9 1 4.14814 4.02327 6.79435 -0.0843709 -0.839754 1.98291 -0.0756018 0.18752 -0.120303 Si
19 1 4.00842 6.78689 4.03311 0.70738 0.195181 0.652429 -0.18427 0.315232 0.616424 Si
37 1 6.68982 4.09403 4.13868 4.64297 -0.778858 -4.56856 0.860626 -0.0605851 0.687798 Si
60 1 5.45686 5.55715 5.47108 4.09022 -0.602088 -2.08188 -0.593013 -0.642554 0.306019 Si
63 1 6.90335 6.82349 6.86203 1.14388 -1.00945 4.66062 -1.6801 -0.377832 0.777955 Si
28 1 0.110159 5.46043 5.50738 -0.407703 -2.47168 -1.53207 -0.249007 0.641211 -1.25781 Si
41 1 9.63574 4.16971 6.82434 0.878196 0.109847 -1.68522 -0.737552 -0.879465 -0.414428 Si
51 1 9.43191 6.81507 4.16102 -0.388915 2.77805 -1.48412 1.5737 -0.963443 -0.221199 Si
21 1 1.31004 9.6632 3.99267 3.11678 -4.50812 -2.43194 -1.35128 -1.06685 -0.196685 Si
30 1 2.55739 8.27635 5.27579 -5.54404 -2.91847 1.05738 1.89961 -0.921533 1.34804 Si
44 1 5.54769 0.0247308 5.43277 2.68018 -4.27076 -5.07522 -0.718862 -1.46557 -0.678728 Si
25 1 4.0903 9.50532 6.72479 0.628904 0.498806 -4.39488 0.282477 -0.431753 -0.695807 Si
53 1 6.82442 9.36927 4.05929 -1.46894 0.928344 -1.27671 -0.39573 0.960803 0.189245 Si
12 1 -0.00344706 0.0201494 5.45852 -3.37248 7.93328 1.45328 0.449434 0.8997 -0.121153 Si
57 1 9.52431 9.58619 6.77796 -4.71312 0.264045 2.10252 -0.365684 -0.791114 0.894942 Si
62 1 8.1432 8.11775 5.52263 -2.06309 3.40208 2.53619 0.667063 1.28556 -0.425281 Si
10 1 -0.0126592 2.78435 8.19355 -4.09789 1.90773 -0.0774287 0.647381 -0.638419 -0.208447 Si
16 1 2.78367 -0.107447 8.10303 -1.04907 1.71858 4.222 -0.12822 1.99104 0.366437 Si
11 1 4.09233 1.44666 9.44892 -2.82879 -2.73671 0.965756 -0.481527 -1.89929 0.477592 Si
42 1 5.5455 2.63814 8.18754 -2.67629 -1.60003 1.2876 0.0436877 1.52005 -0.816337 Si
38 1 8.12661 2.69849 0.154896 0.408074 0.449262 4.96141 0.730327 0.290079 -0.950805 Si
43 1 9.45322 1.43347 9.50501 -0.184013 0.728586 -0.473631 0.477566 -0.477254 0.584461 Si
13 1 1.34204 4.13965 9.54216 -2.0143 -1.18222 1.76683 0.26578 -0.0182445 -0.156784 Si
32 1 2.70547 5.43704 8.08986 -0.127462 -2.05932 1.22885 0.0919918 -0.290042 0.211361 Si
27 1 4.02675 6.71419 9.52401 3.39986 4.07582 0.127571 0.36413 0.537093 -0.613674 Si
45 1 6.89064 4.04337 9.5454 -0.0478045 3.49618 3.60285 -0.315358 -0.0143493 -0.207579 Si
59 1 9.43286 6.92111 9.61988 -0.248016 0.697453 1.50107 0.585399 -1.34008 -0.569995 Si
64 1 8.26398 5.43656 8.16358 0.302601 -0.410905 1.50932 -0.568272 0.490336 1.00863 Si
22 1 2.66986 8.09974 -0.0769474 0.10397 2.36181 1.11906 0.920319 0.411157 1.0298 Si
29 1 1.44133 9.56038 9.52992 -1.11821 0.176026 -0.963643 -1.01509 -0.692578 -0.569987 Si
58 1 5.39078 8.16982 8.20529 1.10886 -4.39978 2.12239 0.461292 -0.516633 -0.447455 Si
61 1 6.77321 9.55698 9.53361 -1.13091 3.99019 1.02963 -0.615098 0.235566 0.0425801 Si
54 1 8.05769 8.18537 0.039342 2.72453 -2.45977 2.41439 -0.0200732 0.458132 0.645078 Si
48 1 8.12132 0.0320531 8.14449 0.841764 -2.4434 5.77593 0.469115 -0.14957 0.0951055 Si
26 1 -0.0790375 8.20396 8.27745 5.54818 -3.1026 -0.0671655 0.756217 0.861982 -0.96604 Si
ITEM: TIMESTEP
18100
ITEM: NUMBER OF ATOMS
64
ITEM: BOX BOUNDS pp pp pp
0.0000000000000000e+00 1.0887404739999999e+01
0.0000000000000000e+00 1.0887404739999999e+01
0.0000000000000000e+00 1.0887404739999999e+01
ITEM: ATOMS id type xu yu zu vx vy vz fx fy fz element
2 1 -0.0546593 2.69956 2.76099 -2.68065 2.01741 -3.53712 0.0705955 -0.700685 -0.696294 Si
6 1 2.75282 2.65638 -0.00490503 2.48625 -3.44523 3.41583 -0.354288 0.572576 1.23006 Si
7 1 1.37864 1.27458 1.4165 -0.883212 0.572864 3.27846 -0.133757 1.24694 0.0114898 Si
8 1 2.78234 0.0707575 2.856 2.6997 2.86994 0.739003 -0.786444 -0.691358 0.155729 Si
34 1 5.39942 2.8039 2.62277 -2.79143 2.88914 -0.0405985 0.952941 -0.85851 1.4444 Si
36 1 5.4018 -0.0547508 0.0064763 -2.80127 -1.13795 2.93878 0.525781 -0.108687 0.122754 Si
39 1 6.76374 1.41854 1.29382 -0.669157 -3.63729 -4.25702 0.336388 -0.0107251 -0.307293 Si
40 1 8.06116 0.0288122 2.73815 -0.193539 -2.29438 3.11709 1.2826 -0.406653 -0.980763 Si
20 1 0.0513492 5.43109 -0.00941223 2.85612 -0.661686 -0.727758 0.441548 -0.0342592 0.111803 Si
23 1 1.39992 6.82928 1.37747 0.989812 4.03118 -1.39163 -0.0378851 0.00873508 -0.209296 Si
24 1 2.73261 5.48963 2.77761 -0.190789 0.267273 0.770476 -0.275516 -0.285163 -0.159074 Si
1 1 4.07034 4.13266 1.38917 3.96946 -2.91088 1.93841 -0.864001 0.284748 -1.00149 Si
52 1 5.44343 5.50314 0.0553137 -0.302786 -3.2484 0.622179 0.197603 -0.32616 0.15287 Si
55 1 6.85186 6.86819 1.33998 -0.385022 -2.22202 -0.388872 -0.177096 0.590212 0.0786458 Si
33 1 9.57309 4.12129 1.34749 1.65901 3.75592 1.64195 -0.579798 -0.683614 -0.379396 Si
56 1 8.14256 5.43693 2.64823 -0.945224 -0.557169 -0.920867 0.666685 0.122025 1.30617 Si
18 1 0.100589 8.2214 2.7651 -1.23579 -5.47572 0.459073 0.00976404 -1.2044 0.191559 Si
17 1 3.99472 9.55438 1.45152 5.50376 3.65771 -0.335237 1.45883 0.00539665 -0.100805 Si
50 1 5.53728 8.28397 2.79361 0.216765 2.40451 -1.2777 -0.922397 -0.813783 -0.683761 Si
4 1 0.00367703 -0.000203663 0.0140845 0.248498 1.83936 -3.98888 0.284762 -0.809388 -0.0102764 Si
49 1 9.62617 9.46098 1.39371 4.73445 2.68578 5.00375 -1.66345 1.34656 -0.0833664 Si
14 1 2.66995 2.79494 5.42415 -1.06484 -1.47864 -0.602892 -0.784756 -0.709865 0.291788 Si
15 1 1.29393 1.33605 6.7993 0.794401 0.615757 2.8933 1.28306 0.241845 -1.6652 Si
3 1 4.10961 1.50747 4.14135 2.42387 1.77994 4.39027 -0.271785 -0.0397757 -0.980395 Si
47 1 6.7628 1.36933 6.84493 2.72617 2.66055 -5.0474 -0.633678 0.18867 -0.339264 Si
35 1 9.47764 1.28675 4.12386 -4.9926 3.26283 0.786038 0.828956 -0.218722 -0.312669 Si
46 1 8.13354 2.61717 5.43699 -0.166266 -2.37618 -2.44478 -0.54748 -0.118915 0.0688472 Si
5 1 1.26353 4.09211 4.04908 -3.07093 0.774577 1.33261 0.863641 0.276118 0.301127 Si
31 1 1.33898 6.76654 6.76636 -0.997318 -3.14165 1.50122 0.306327 -0.228743 0.31238 Si
9 1 4.06406 4.06846 6.74246 0.943422 1.86974 -4.15859 -0.266848 0.589309 1.11055 Si
19 1 4.14828 6.82723 4.102 -0.036414 2.49433 -2.11714 0.898717 -0.527388 -0.267741 Si
37 1 6.84295 3.99445 4.10209 -1.90934 -2.84915 -0.00668803 -0.555361 1.07589 -0.880919 Si
60 1 5.46934 5.39429 5.47887 -2.77359 3.02435 2.49996 0.177041 0.221783 -1.15021 Si
63 1 6.79091 6.84477 6.73186 1.6967 2.2671 -0.313154 0.261401 -0.305423 -0.175648 Si
28 1 -0.0807544 5.38139 5.44832 1.94842 -0.330876 3.47916 -0.119325 -0.312959 0.738209 Si
41 1 9.33797 3.96396 6.81196 -2.18027 -0.28547 -5.34335 1.89855 0.96482 0.286799 Si
51 1 9.60277 6.79633 4.073 1.69568 -1.19279 -1.48243 -1.45176 0.460308 -0.575739 Si
21 1 1.46408 9.43605 4.19983 -0.290235 1.15557 -1.32141 0.66189 0.739395 -0.469554 Si
30 1 2.87127 8.06557 5.52489 0.52173 0.0403493 1.42913 -1.55041 0.543006 -0.1721 Si
44 1 5.36996 0.0865413 5.42967 -1.51558 2.18379 3.8052 0.0516846 -0.244965 1.48612 Si
25 1 4.04385 9.54251 6.84192 2.2491 -0.648406 6.54375 0.506889 0.824617 0.572777 Si
53 1 6.77262 9.65617 4.18908 -3.04732 2.73723 -1.86796 0.0896316 -0.291392 -0.834528 Si
12 1 0.0470477 -0.103793 5.45613 -1.28677 -5.57711 4.76663 -0.907337 0.276579 0.14194 Si
57 1 9.55466 9.43056 6.83405 6.85167 -1.31056 -2.25437 -0.705653 0.980794 -1.27145 Si
62 1 8.12817 8.22778 5.38682 -1.66465 -2.26775 -4.95247 1.06279 -0.899075 0.34322 Si
10 1 0.0672574 2.64786 8.08465 0.547286 -4.41774 -0.245147 -1.9173 1.4067 1.55571 Si
16 1 2.62002 0.130661 8.2008 -2.88329 -4.77475 -4.21444 0.988105 -1.97261 -0.191606 Si
11 1 4.08036 1.31952 9.57164 0.305166 1.91762 3.22231 0.0916749 0.50586 -0.628439 Si
42 1 5.36423 2.76993 8.1933 -0.725948 0.857926 7.79838 0.32826 -0.670279 -0.162276 Si
38 1 8.17368 2.82137 -0.123792 -2.17306 0.751261 -2.17569 0.0461476 -0.747389 0.697813 Si
43 1 9.55421 1.28831 9.49871 1.25746 -0.807911 -2.11618 -0.424852 0.943586 -0.537237 Si
13 1 1.41137 4.04048 9.54163 -1.13527 0.300994 0.702727 -0.0585905 0.0495489 -0.778822 Si
32 1 2.77286 5.4854 8.17117 0.429048 -0.254129 -2.55692 -0.391927 -0.702388 -0.00637634 Si
27 1 4.15872 6.80161 9.5659 -0.874814 0.219005 1.57919 -0.655149 0.73961 -0.510706 Si
45 1 6.70973 4.18253 9.48816 -0.0392924 5.02253 -1.21458 0.162153 -0.523133 0.43432 Si
59 1 9.59788 6.65299 9.41081 2.76692 -0.111404 -3.54905 -0.925988 1.27732 0.803364 Si
64 1 8.03912 5.47017 8.11883 -1.18729 -3.71482 -2.7957 0.866825 -0.448442 -0.303802 Si
22 1 2.75845 8.19881 0.0117227 1.99916 -0.794 2.62166 -0.522746 -0.24048 -0.434871 Si
29 1 1.31573 9.50294 9.47371 1.51135 3.46092 3.20424 0.408155 0.273349 0.722631 Si
58 1 5.49749 8.1199 8.11696 -1.07614 3.63072 -0.35689 -0.83697 0.929249 0.580392 Si
61 1 6.83663 9.52021 9.46251 -4.06157 0.704537 -2.05824 -0.197832 0.0746329 0.320355 Si
54 1 8.25705 8.17261 -0.0899536 -0.774401 -2.26741 -1.91549 0.297447 -0.705798 0.123722 Si
48 1 8.1646 -0.0185328 8.05507 2.84988 -2.47528 -3.65663 0.36859 -0.153514 1.17147 Si
26 1 -0.0220786 8.12741 8.12282 -5.87519 -2.05601 -0.847541 0.844954 -0.765547 0.392353 Si
ITEM: TIMESTEP
18200
ITEM: NUMBER OF ATOMS
64
ITEM: BOX BOUNDS pp pp pp
0.0000000000000000e+00 1.0887404739999999e+01
0.0000000000000000e+00 1.0887404739999999e+01
0.0000000000000000e+00 1.0887404739999999e+01
ITEM: ATOMS id type xu yu zu vx vy vz fx fy fz element
2 1 0.0761744 2.75221 2.71698 3.72343 -4.93301 4.94468 -0.277031 -0.0829001 0.26197 Si
6 1 2.72124 2.7871 0.0254836 -2.28852 1.31843 -5.77845 -0.215078 -0.931049 -1.44417 Si
7 1 1.33067 1.39543 1.28484 4.17188 -0.969626 -1.86288 0.731585 -0.112124 0.901733 Si
8 1 2.68769 -0.0289521 2.62778 1.25372 1.08233 -2.47953 -0.228216 0.102972 0.1741 Si
34 1 5.38226 2.70263 2.8283 0.527592 2.12633 -2.21794 0.321605 0.421981 -0.67645 Si
36 1 5.48048 0.0594238 -0.00623944 -3.19343 -3.6016 1.4475 -0.150529 -0.391249 0.703177 Si
39 1 6.79754 1.35471 1.49342 0.98776 1.1692 1.74181 0.342416 0.480375 -1.15179 Si
40 1 8.22865 -0.0246096 2.73565 -3.4554 8.03563 3.36569 -0.733762 0.0486643 0.540697 Si
20 1 -0.0982168 5.51357 0.0470952 0.301343 2.32035 -1.55861 0.424571 -1.49348 -1.13041 Si
23 1 1.26678 6.71034 1.37219 2.63541 -2.32579 0.449611 1.34589 1.10712 -0.212987 Si
24 1 2.74809 5.41284 2.62571 1.25557 0.310842 -3.99197 -0.12735 -0.0965265 1.19402 Si
1 1 4.0974 4.06649 1.30359 -2.73537 -0.576942 1.51235 0.47244 -0.455226 1.18461 Si
52 1 5.48782 5.30702 -0.0329327 -2.75787 -0.247482 0.320648 -0.591491 1.1039 0.117904 Si
55 1 6.64831 6.76882 1.35757 -0.0631002 -0.614853 3.19464 1.65334 -0.00235057 0.0215017 Si
33 1 9.5423 4.04458 1.34586 -2.22349 1.36471 2.66458 -0.306776 0.609116 0.611344 Si
56 1 8.17145 5.45627 2.71474 -6.45007 -0.0334141 7.44907 -0.792712 -0.22675 -0.350049 Si
18 1 -0.00806946 8.1481 2.62772 -0.821352 2.47082 0.837919 -0.827075 0.227426 0.550096 Si
17 1 4.10585 9.51174 1.29536 -9.30071 -5.64469 1.54067 -0.805399 0.498093 -0.180706 Si
50 1 5.34084 8.17559 2.7018 -0.29677 -1.7807 -1.94822 0.814247 -0.496133 0.215794 Si
4 1 0.00369578 -0.00901087 0.0416106 1.1229 1.43558 1.28996 -0.190894 -0.34467 -0.617211 Si
49 1 9.49019 9.52824 1.34818 -2.87347 -2.92321 -2.48791 0.39828 -0.38065 -0.402333 Si
14 1 2.78244 2.61543 5.49213 5.73777 -1.08714 -4.07552 0.425411 0.57271 -0.137931 Si
15 1 1.40646 1.32153 6.75646 -2.82938 -0.323803 -0.401099 -0.784088 0.400799 1.7557 Si
3 1 4.04487 1.25212 4.07828 -0.4528 -2.72474 0.0532287 0.407956 -0.196085 0.153593 Si
47 1 6.83724 1.30456 6.71287 -0.38126 -3.91443 2.49882 0.444453 0.298452 0.536289 Si
35 1 9.51857 1.43818 4.06007 6.6203 -4.2565 2.06037 -0.272812 0.591979 0.0474034 Si
46 1 8.16912 2.83126 5.48379 1.86422 5.64606 2.723 0.716828 -0.560264 -0.00208627 Si
5 1 1.51949 4.00521 4.14312 1.78953 -2.14951 1.06745 -1.06725 1.12756 -0.767794 Si
31 1 1.34362 6.86868 6.85049 -3.45778 3.27565 -0.156594 0.219554 0.113774 -0.704231 Si
9 1 4.03768 4.0649 6.87808 -3.22531 -4.2835 -0.298396 0.713047 0.357215 -1.15528 Si
19 1 4.04586 6.80283 4.06776 2.12201 -0.0668095 -2.60915 -0.870783 0.396388 0.0614638 Si
37 1 6.79279 4.11792 4.13374 0.599158 2.50595 3.6594 -0.00225122 -0.0767487 -0.791796 Si
60 1 5.41652 5.46126 5.41151 5.10894 -6.08385 -0.710246 -0.469964 -0.359526 1.17912 Si
63 1 6.8048 6.71046 6.86986 1.10795 2.76776 -0.0336456 0.23832 1.14154 -0.591286 Si
28 1 0.0683191 5.52798 5.38567 -5.49195 2.32913 -1.35273 -0.131317 -0.62741 0.138625 Si
41 1 9.61507 4.18332 6.86535 -0.809618 0.738326 5.98442 -0.892702 0.117999 -1.07406 Si
51 1 9.49119 6.87313 4.02217 0.787663 -1.88377 5.739 0.736483 -0.371429 0.71388 Si
21 1 1.22434 9.55659 3.99164 -3.24857 4.27473 3.02854 0.637283 0.611125 0.615905 Si
30 1 2.61699 8.25251 5.41272 4.23572 2.92678 2.87261 0.87598 -0.37354 0.0568007 Si
44 1 5.50824 -0.114566 5.38188 -5.03052 -0.158634 -0.567995 -0.170499 0.388086 -0.216644 Si
25 1 4.12184 9.54336 6.80899 -0.983198 1.4814 -3.62429 -0.477001 -0.699824 -0.419286 Si
53 1 6.8774 9.37903 4.03645 2.81244 -6.44671 4.27048 -0.109537 0.826226 0.321127 Si
12 1 -0.070809 0.129706 5.43108 -0.179575 2.24931 -4.84028 0.398722 -1.57815 -0.241219 Si
57 1 9.50829 9.58577 6.82657 -2.43893 -0.719431 1.03765 1.12911 0.473412 -0.00358267 Si
62 1 8.24523 8.17729 5.56183 4.63042 -0.979703 1.71455 -1.31561 -1.13779 -0.867103 Si
10 1 -0.0735245 2.73351 8.17054 1.83645 4.75341 -4.15865 1.80111 -0.762914 -0.133291 Si
16 1 2.80327 -0.00439818 8.19524 5.09804 1.06917 -0.41677 -1.05247 -0.143289 -0.189375 Si
11 1 4.12585 1.36725 9.52536 1.62952 -3.49971 -2.50701 0.0819032 1.23166 -0.105471 Si
42 1 5.54048 2.72782 8.07668 5.37706 -1.72664 -7.06376 -0.817888 -0.669735 0.822233 Si
38 1 8.18957 2.71843 -0.0126732 -0.469864 -0.925941 0.45302 -0.567775 -0.781111 0.720172 Si
43 1 9.5676 1.3293 9.56706 -1.72501 2.48128 2.49089 -0.361102 0.485554 -0.0775679 Si
13 1 1.298 4.10734 9.53432 4.36759 1.86459 0.459457 0.0324231 0.473823 0.267636 Si
32 1 2.70036 5.49095 8.17589 -2.38114 4.84525 0.609057 -0.0129823 -0.332831 0.574983 Si
27 1 4.16 6.75646 9.56141 1.63608 -4.20518 -1.22628 -1.25257 0.256844 0.145043 Si
45 1 6.83115 4.05473 9.51193 4.75105 -3.05416 0.543264 0.723706 -0.396822 -0.372994 Si
59 1 9.5102 6.84051 9.54162 0.172728 -2.94876 -2.14055 0.589098 0.827087 -0.232737 Si
64 1 8.21296 5.46949 8.25074 0.943518 -1.34362 0.756389 -0.321426 -0.584817 -0.552692 Si
22 1 2.64752 8.13799 0.0171405 -1.95625 0.119814 -2.51872 0.729728 -0.739042 -0.185883 Si
29 1 1.33617 9.51582 9.53592 3.61355 -3.14976 -6.59199 0.83255 0.902386 0.218154 Si
58 1 5.42861 8.1347 8.17096 -3.96398 0.475512 -2.00671 0.366918 0.0643246 -0.0193521 Si
61 1 6.7523 9.53001 9.54508 0.722179 1.54158 -1.15986 1.10488 -0.00508752 -0.464126 Si
54 1 8.14108 8.12848 0.00687069 -4.19158 5.0574 -0.741031 -1.00905 0.357608 0.36326 Si
48 1 8.22673 0.0274248 8.19453 -6.14194 3.36123 -2.04389 -1.42636 -0.29766 0.0894138 Si
26 1 0.0223041 8.26053 8.16153 2.2747 4.18509 0.789965 -1.07809 -0.908991 0.214141 Si
ITEM: TIMESTEP
18300
ITEM: NUMBER OF ATOMS
64
ITEM: BOX BOUNDS pp pp pp
0.0000000000000000e+00 1.0887404739999999e+01
0.0000000000000000e+00 1.0887404739999999e+01
0.0000000000000000e+00 1.0887404739999999e+01
ITEM: ATOMS id type xu yu zu vx vy vz fx fy fz element
2 1 -0.0152638 2.63081 2.69809 -1.01814 2.88156 -2.4112 -0.327544 1.24395 0.161019 Si
6 1 2.70665 2.74168 0.0719463 -3.19679 5.46747 4.3649 -0.141754 0.208826 -0.262984 Si
7 1 1.374 1.34781 1.40731 2.68855 -3.33304 3.02727 -0.176215 -0.153398 -0.933638 Si
8 1 2.71205 0.00232619 2.70489 -2.08842 0.028429 4.34805 0.798559 -0.392432 0.0680934 Si
34 1 5.44663 2.74016 2.69779 -1.50171 -2.06806 1.38705 -0.132359 -0.571377 -1.01711 Si
36 1 5.47485 -0.0440103 -0.00835533 7.46313 5.12128 -3.70967 -0.692535 0.59644 -0.590412 Si
39 1 6.84855 1.37999 1.26258 -2.70876 5.71093 3.02523 -0.765539 -1.04006 1.83305 Si
40 1 8.24227 -0.0754717 2.66351 1.30537 -1.87733 -4.45427 -1.33915 1.26647 0.226674 Si
20 1 0.105051 5.47019 -0.0376614 3.06172 -0.477807 -2.69543 -1.66787 0.427929 1.31338 Si
23 1 1.38271 6.88246 1.38018 3.13558 0.108698 -3.29009 -0.602103 -0.715094 -0.0361862 Si
24 1 2.67756 5.44502 2.674 -0.0778236 -0.397638 -0.271175 0.2745 0.27851 -0.108413 Si
1 1 4.08782 4.15003 1.36296 -0.0128903 -2.29366 -1.26504 0.17534 -0.40059 -0.2005 Si
52 1 5.42356 5.54955 0.00333557 4.91294 3.66339 2.45257 0.057664 -0.504068 -0.0900397 Si
55 1 6.86564 6.77837 1.3897 3.24903 1.31413 -1.14358 -0.149579 0.384033 -0.33186 Si
33 1 9.5018 4.03947 1.2872 -0.77554 -5.03499 -1.98582 0.895384 0.644535 0.536353 Si
56 1 8.22 5.47768 2.73436 5.35803 6.40701 -6.14895 0.0334249 -0.905369 -0.43969 Si
18 1 -0.0394006 8.16989 2.75531 4.77384 -0.396287 3.86538 0.997538 0.32291 0.168106 Si
17 1 4.12774 9.47595 1.38444 -2.10234 2.39711 -2.05853 -0.221322 0.299599 -0.160749 Si
50 1 5.51527 8.11128 2.71779 -0.393865 4.7084 -1.24477 -0.914011 0.123176 0.490451 Si
4 1 -0.0101792 0.0308166 0.00584115 4.15132 1.17941 0.872001 -0.0545816 0.588709 0.0401292 Si
49 1 9.61464 9.54411 1.36908 -0.197096 -3.8935 -0.0594202 -0.31257 -0.572521 -0.280793 Si
14 1 2.71948 2.80264 5.39472 -6.838 -0.830567 2.20253 -0.122569 -0.124303 -0.333278 Si
15 1 1.41843 1.40244 6.75928 -1.15009 -7.92261 -2.71576 -1.11981 0.0445497 0.0894679 Si
3 1 4.02946 1.41728 4.0396 1.44336 -1.02449 -7.05109 0.484112 -0.150243 0.223527 Si
47 1 6.77863 1.39806 6.92349 -0.732718 0.34768 -2.08797 0.117101 -0.107823 -0.274091 Si
35 1 9.55033 1.26693 4.06716 -5.96222 2.72083 4.68812 0.20312 -0.142259 0.161145 Si
46 1 8.18962 2.61765 5.40407 -2.61809 -3.30723 -1.07013 -0.790712 0.674988 0.310644 Si
5 1 1.32837 4.137 3.99218 -2.64407 2.52272 0.268152 -0.76617 -0.765687 0.943037 Si
31 1 1.37974 6.74275 6.85214 0.364057 -7.25925 0.708079 0.028379 -0.218489 -0.508694 Si
9 1 4.17258 4.06022 6.72558 3.67459 3.30443 8.29221 -0.821407 0.00414362 1.17416 Si
19 1 4.07676 6.69021 4.03199 -1.93679 -2.08434 3.46091 0.641194 1.02249 0.518177 Si
37 1 6.84156 4.02667 3.97331 4.1905 -5.42691 -3.83169 0.430014 0.480197 1.52164 Si
60 1 5.50481 5.40709 5.4325 1.99294 4.35913 -5.24633 0.618922 0.228345 -0.701403 Si
63 1 6.87039 6.80302 6.81917 -0.283498 -6.33484 1.17613 -1.02751 0.0247596 0.104929 Si
28 1 -0.0752032 5.41304 5.48677 -1.14391 0.53557 -3.49598 0.465772 0.763354 -0.816723 Si
41 1 9.43482 4.0776 6.80191 1.96588 -2.22516 -2.79597 0.944853 -0.981085 0.487187 Si
51 1 9.45533 6.89077 4.11812 -5.86106 -1.97201 -4.96421 0.854303 -1.03056 0.190937 Si
21 1 1.41892 9.53168 4.07524 5.86477 -2.14715 -1.86967 -0.623006 -0.655885 0.32131 Si
30 1 2.76416 8.11549 5.4338 -3.50749 1.11639 -3.94158 -0.278538 -0.307799 -0.190939 Si
44 1 5.41955 0.108396 5.46098 1.15188 1.01882 0.227989 -0.103646 -0.0391184 -0.203068 Si
25 1 4.09427 9.54353 6.73974 1.68426 1.8546 3.79891 -0.0530675 -0.11219 0.242231 Si
53 1 6.73291 9.61755 4.06208 -1.26257 3.52697 3.00561 0.688172 -0.514173 0.0741397 Si
12 1 0.0250131 -0.059688 5.47745 -0.990204 2.31324 0.19499 0.46327 0.760724 -0.430992 Si
57 1 9.54007 9.52593 6.81432 -0.318313 -0.645228 0.0891164 -0.730103 -0.528601 0.447502 Si
62 1 8.09497 8.20865 5.42035 2.74454 3.8325 1.99229 0.194105 0.837877 0.469334 Si
10 1 0.040406 2.73458 8.2197 -2.54083 3.21548 3.07441 -0.990684 -0.140218 -0.84009 Si
16 1 2.6246 -0.0761322 8.06418 -3.23837 2.91629 0.81668 1.03986 0.843207 1.17194 Si
11 1 3.98158 1.39616 9.52446 -3.86528 1.55405 3.71256 0.168694 -1.57556 0.264428 Si
42 1 5.3775 2.77642 8.29775 -2.92033 2.88844 1.42634 0.634518 -0.207712 -1.19298 Si
38 1 8.09099 2.72097 -0.0300911 -1.57484 2.35023 -3.82387 0.982036 0.563166 -0.249164 Si
43 1 9.44706 1.37675 9.54497 -0.924362 -3.37163 -2.8314 1.29523 0.183897 0.134185 Si
13 1 1.3504 4.10665 9.57906 -2.48231 -5.51316 0.0346336 0.972579 -1.0413 -0.469679 Si
32 1 2.75524 5.33184 8.18818 -0.231865 -4.80531 6.78457 0.0916381 0.815213 -0.518137 Si
27 1 3.98014 6.85688 9.53053 -3.22471 9.74176 5.93946 1.52859 -0.48967 -0.922595 Si
45 1 6.79748 4.11919 9.57633 -6.46121 -0.452276 -1.44716 -0.7099 0.488657 -0.0587726 Si
59 1 9.54078 6.82491 9.56146 -3.24641 0.384826 1.53171 -0.401922 -0.924332 0.42353 Si
64 1 8.17319 5.43018 8.21744 0.21604 5.54297 -1.41313 -0.0493229 0.413776 -0.0125659 Si
22 1 2.7215 8.15535 0.0094429 0.48114 2.57944 -1.0738 -0.632505 1.46387 0.052232 Si
29 1 1.27478 9.55257 9.54232 -0.894031 -7.36178 5.71875 0.562983 -1.17747 -0.484754 Si
58 1 5.45077 8.22796 8.14579 3.98494 -0.251814 1.50615 -0.090442 -0.879032 0.190433 Si
61 1 6.87841 9.50994 9.52303 1.3164 -4.86308 1.35328 -0.828138 -0.622974 0.989953 Si
54 1 8.22116 8.17212 0.0877167 3.06531 -9.12372 -2.32672 -0.103924 0.0969136 -0.753476 Si
48 1 8.16318 -0.0203665 8.26103 6.90961 -2.88506 -1.50881 0.322692 0.340521 -1.69422 Si
26 1 -0.0487705 8.05836 8.17378 -0.222799 1.9657 -1.11284 0.775955 1.55566 -0.235348 Si
ITEM: TIMESTEP
18400
ITEM: NUMBER OF ATOMS
64
ITEM: BOX BOUNDS pp pp pp
0.0000000000000000e+00 1.0887404739999999e+01
0.0000000000000000e+00 1.0887404739999999e+01
0.0000000000000000e+00 1.0887404739999999e+01
ITEM: ATOMS id type xu yu zu vx vy vz fx fy fz element
2 1 0.0175037 2.75123 2.74585 0.286481 0.194166 -1.93202 -0.477818 0.108267 -0.706432 Si
6 1 2.70172 2.6868 -0.0186728 6.07184 -2.44553 -1.62384 1.00336 0.419026 0.177148 Si
7 1 1.35085 1.37088 1.32798 2.31509 5.30892 -0.58352 -0.327081 -0.384297 0.832708 Si
8 1 2.70644 0.0739065 2.84757 -0.139614 -2.06163 -4.23089 -0.351371 0.359959 -0.72127 Si
34 1 5.42227 2.68436 2.73552 -0.128885 1.19613 4.78087 0.2803 0.687056 1.01011 Si
36 1 5.43483 0.0187998 0.0488928 -5.50402 -0.878165 5.36719 0.225961 -0.141254 -0.46325 Si
39 1 6.82657 1.38882 1.41344 -3.14685 -1.99999 1.04267 -0.626363 0.205054 -1.06598 Si
40 1 8.08664 0.0756195 2.75971 2.53039 -0.0403196 2.62101 1.66814 -1.27112 -0.433203 Si
20 1 -0.0181199 5.40144 -0.0268066 -2.68285 1.62725 1.70032 0.741011 0.779897 -0.376277 Si
23 1 1.40724 6.80409 1.35009 -5.55575 1.44459 0.874647 -0.433792 -1.06766 0.239112 Si
24 1 2.76126 5.48007 2.82462 -0.34291 -0.295356 -3.15982 -0.275698 -0.160718 -0.812856 Si
1 1 4.05828 4.03553 1.43268 1.9789 -1.83445 -2.20108 -0.214124 0.299483 -0.666465 Si
52 1 5.47218 5.31964 -0.0106097 -3.92197 -1.55667 -2.40239 -0.195281 0.936323 0.0408675 Si
55 1 6.85533 6.86494 1.2388 -1.60651 -4.57476 -3.5265 -1.41845 -1.13677 1.0537 Si
33 1 9.47621 4.19114 1.39948 0.537434 3.97181 0.588822 0.135067 -1.79086 -0.223753 Si
56 1 8.04224 5.45446 2.74002 -1.33357 -5.15093 1.89734 0.939016 0.829299 0.154779 Si
18 1 0.0535369 8.13612 2.6944 0.376003 -1.48796 -1.09289 -0.531647 0.590966 -0.375552 Si
17 1 3.97735 9.60321 1.4621 1.48883 -1.00008 1.77957 1.60735 -0.803228 -0.204775 Si
50 1 5.47983 8.1271 2.74799 -0.985877 -4.49665 -1.49243 0.264405 1.66731 -1.05069 Si
4 1 -0.0474308 -0.0231513 -0.00321998 2.39493 -2.0808 -4.03499 0.688555 -0.146069 0.242076 Si
49 1 9.45459 9.48891 1.32271 -1.88778 -0.573938 -2.82455 0.275423 0.663718 1.13576 Si
14 1 2.75248 2.68861 5.47643 6.55627 -0.118487 -2.69125 -0.858746 0.129173 0.373043 Si
15 1 1.27677 1.3793 6.84259 -3.22312 5.01693 4.99158 1.83319 -1.6432 -0.785506 Si
3 1 4.1515 1.34841 4.19661 -0.384103 -4.51914 -1.71517 -0.604497 0.142062 -0.793413 Si
47 1 6.78817 1.38651 6.7451 0.207208 0.911066 -0.0861339 -0.0596718 -0.634525 0.209032 Si
35 1 9.55059 1.34838 4.07596 5.71258 -2.69965 -0.796604 -0.342812 0.226147 0.516788 Si
46 1 8.06057 2.72644 5.40129 1.52809 1.96473 1.51253 1.12742 0.373848 -0.480271 Si
5 1 1.38434 4.055 4.11836 0.630623 0.197686 -2.49278 0.855351 -0.22381 -0.351959 Si
31 1 1.3909 6.85505 6.75158 -0.75129 5.034 0.425613 -0.378154 -0.0850609 0.811033 Si
9 1 3.99918 4.11067 6.8367 2.72989 -1.79716 -5.21848 0.901571 -0.77788 -0.491418 Si
19 1 4.10061 6.9286 4.10017 -1.57395 -1.84965 -2.00318 -0.380073 -1.28735 0.383508 Si
37 1 6.65384 4.20246 4.17396 -5.03277 0.347427 -3.54701 0.252059 -1.17939 -0.808101 Si
60 1 5.29662 5.51038 5.53833 -0.898949 1.12087 3.49577 0.378612 0.418162 -0.674414 Si
63 1 6.74384 6.89196 6.72745 0.878186 3.98855 2.04682 0.846186 -1.46995 0.821056 Si
28 1 0.0886575 5.40129 5.41335 -0.303152 -1.43344 3.3427 -0.518499 -0.123536 1.20056 Si
41 1 9.52409 4.02162 6.75912 0.223022 0.372981 0.823109 0.025876 0.402052 0.409439 Si
51 1 9.69023 6.69706 4.03971 2.02518 2.97003 1.30705 -1.87501 0.498691 -0.391269 Si
21 1 1.33918 9.54887 4.07694 -5.83195 6.36237 -0.223697 0.502583 -0.645778 -0.0725486 Si
30 1 2.75197 8.235 5.42805 -3.64538 3.92382 -3.30469 -0.464083 0.196431 0.257786 Si
44 1 5.42766 -0.0374042 5.50147 6.18941 5.69757 -1.96777 0.634761 -0.364796 0.0122717 Si
25 1 4.09132 9.49849 6.8756 1.26031 -3.29243 -5.00635 -0.0531919 0.245517 0.0384093 Si
53 1 6.85669 9.54797 4.11425 -0.264323 -1.32372 -2.58996 -0.865866 -0.58288 -0.10805 Si
12 1 0.0124447 -0.0937727 5.44824 -1.25325 -6.66679 0.800906 -0.581155 1.49314 0.0937169 Si
57 1 9.49606 9.48784 6.73847 2.35021 3.05094 -4.45545 0.122601 -0.391353 0.15966 Si
62 1 8.2135 8.07175 5.35287 -1.31256 -2.47066 3.84867 0.40385 0.430646 -0.00360173 Si
10 1 0.0233485 2.64716 8.17876 3.54528 -2.1777 -1.14549 -0.632778 1.75381 0.0112301 Si
16 1 2.75 0.00235486 8.23802 -3.39292 -4.95385 3.60547 -0.301253 0.55016 -0.783879 Si
11 1 4.15303 1.43946 9.47313 -0.460232 4.28383 0.369203 -0.0420762 -0.606663 0.62551 Si
42 1 5.501 2.77014 8.06063 4.92632 -5.3997 1.32362 -0.739054 -0.0105363 0.617224 Si
38 1 8.19452 2.68555 -0.0261647 -0.0842815 0.566417 7.89547 0.167245 0.647314 0.35914 Si
43 1 9.57107 1.3332 9.49038 3.61518 1.263 -4.28371 -1.12665 -0.554873 -0.117206 Si
13 1 1.4563 4.04079 9.4633 -4.70163 1.84322 3.12741 -1.58847 0.239035 0.623261 Si
32 1 2.72885 5.4312 8.12946 0.803806 3.69313 0.929497 -0.755434 0.834003 0.0595913 Si
27 1 4.12094 6.71304 9.45739 0.912544 -7.60727 -0.384736 -0.309407 0.508355 1.71928 Si
45 1 6.84353 4.05196 9.45996 2.32083 3.32884 0.368556 -0.285048 -0.578513 0.796567 Si
59 1 9.47596 6.83456 9.50843 0.457381 5.14142 5.38428 0.445853 -0.729039 -0.257046 Si
64 1 8.10127 5.4156 8.1446 3.20978 -1.51254 2.46018 0.872331 1.06479 -1.18156 Si
22 1 2.7461 8.15215 0.0680636 1.02563 -3.19941 -0.775247 0.913865 -0.281074 -1.007 Si
29 1 1.43414 9.52319 9.59838 -2.08721 6.75983 0.290019 -0.965732 0.00918819 -0.216078 Si
58 1 5.46719 8.11321 8.19328 0.208733 -2.72339 -0.782188 -0.0699427 0.906454 -0.0730312 Si
61 1 6.85902 9.51826 9.49527 1.51629 -0.13446 -0.315918 -1.41706 1.10836 -0.316273 Si
54 1 8.12938 8.20764 -0.0818122 -1.25038 1.19059 1.30119 0.980751 -0.372456 0.341167 Si
48 1 8.15515 -0.0112923 8.03567 -4.67819 2.82631 0.411385 0.300169 0.384208 1.09658 Si
26 1 -0.0240108 8.23472 8.19539 -2.44643 -1.24175 2.17725 0.673411 -0.663272 -0.408979 Si
ITEM: TIMESTEP
18500
ITEM: NUMBER OF ATOMS
64
ITEM: BOX BOUNDS pp pp pp
0.0000000000000000e+00 1.0887404739999999e+01
0.0000000000000000e+00 1.0887404739999999e+01
0.0000000000000000e+00 1.0887404739999999e+01
ITEM: ATOMS id type xu yu zu vx vy vz fx fy fz element
2 1 0.035319 2.70334 2.72228 -1.36811 -3.83414 1.82762 0.435045 -0.446251 0.386003 Si
6 1 2.68545 2.73049 -0.0463942 -0.435177 -1.10214 2.75824 0.537839 -0.298454 0.161461 Si
7 1 1.37507 1.28674 1.33282 -2.2325 -2.72949 -0.311975 -0.0309392 0.811934 0.264835 Si
8 1 2.69156 -0.076384 2.7091 1.19691 1.26983 7.87607 0.850937 0.178775 -0.357534 Si
34 1 5.48383 2.6937 2.67194 -5.42197 2.38606 -5.97386 -0.287255 0.866573 -0.100626 Si
36 1 5.45203 -0.0423701 -0.0737304 -2.12529 -3.00367 -5.4519 -0.330101 0.318436 1.0637 Si
39 1 6.79788 1.33234 1.35384 0.78535 -0.365496 -3.72681 0.422676 -0.672994 -0.364944 Si
40 1 8.18027 -0.0514145 2.71585 -2.51937 -1.12569 2.21898 -0.592809 0.858857 0.843794 Si
20 1 -0.0128834 5.43438 0.0128889 0.0147356 -4.81713 -1.6521 0.0757324 -0.132528 0.0711488 Si
23 1 1.28505 6.77443 1.42312 2.45825 0.615667 -2.86829 0.249485 1.22091 -0.526111 Si
24 1 2.68954 5.42587 2.7325 5.17876 -1.64873 0.235345 0.707782 0.00142599 -0.226369 Si
1 1 4.08654 4.10634 1.31296 1.67732 4.87609 4.50765 -0.175066 -0.153905 0.341945 Si
52 1 5.42408 5.54995 -0.00389953 -2.85806 -1.61867 4.2875 0.160846 -0.809103 0.261711 Si
55 1 6.81845 6.81503 1.41529 -0.763864 1.13164 0.254375 -0.124888 -0.305547 0.115119 Si
33 1 9.59826 4.03138 1.38611 3.08764 6.81137 -1.25068 -0.68451 0.753276 0.00231913 Si
56 1 8.23249 5.44578 2.75127 -3.69581 0.383679 -0.366735 -0.688385 -0.498549 -0.092155 Si
18 1 -0.086848 8.27645 2.75736 -0.587056 4.01046 -0.0232172 0.834563 -1.54491 0.055825 Si
17 1 4.0757 9.44875 1.30005 -4.70518 4.32022 0.7363 -0.64302 0.531077 -0.294114 Si
50 1 5.38799 8.14692 2.72029 4.38771 -1.58746 4.61263 0.172957 -0.691591 0.866647 Si
4 1 -0.00860426 -0.0196375 0.0120367 -6.43453 -1.04095 7.64265 -0.0329745 0.0947281 -0.757711 Si
49 1 9.52543 9.55034 1.37948 6.24762 2.203 2.95936 -0.177702 0.108356 -0.530749 Si
14 1 2.75327 2.75662 5.42612 -2.32169 -4.97108 -0.127103 0.443917 -0.247695 -0.265573 Si
15 1 1.38087 1.38066 6.74317 -0.655338 0.821399 -6.43281 -0.314014 1.35753 0.775766 Si
3 1 4.09675 1.38531 3.97493 0.709567 6.47144 3.29881 -0.552994 -0.499616 0.851989 Si
47 1 6.76688 1.27498 6.85995 -0.0635437 1.13779 1.59777 0.463207 0.792809 -0.712964 Si
35 1 9.53679 1.37353 4.11971 -0.451939 0.233218 1.46871 -0.410643 0.0702207 -0.794148 Si
46 1 8.21494 2.68598 5.56958 -2.86329 -4.35042 0.235311 0.0326125 0.453095 -0.0160882 Si
5 1 1.37929 4.10887 4.09415 -0.469388 -1.77653 -2.23599 -0.622119 -0.293975 0.0482039 Si
31 1 1.37549 6.80379 6.78428 -1.14937 4.33304 -0.26539 -0.325151 0.0337131 0.303043 Si
9 1 4.1765 4.05918 6.80817 -0.679237 0.0264508 -1.22837 -1.44539 0.16818 -0.599732 Si
19 1 4.09686 6.6698 4.17295 3.8626 3.52053 -2.0648 0.086723 0.721244 -1.61289 Si
37 1 6.85584 4.00251 4.10174 -0.0300019 1.76457 5.613 0.546597 0.0277146 -0.277219 Si
60 1 5.4999 5.33547 5.43415 3.36838 -3.20786 1.54233 0.165317 0.274888 0.207098 Si
63 1 6.75884 6.71849 6.83006 1.91221 -1.17182 -5.57554 0.323026 1.34434 -0.43656 Si
28 1 -0.00610361 5.51098 5.42386 -0.211151 -2.63313 4.01715 -0.0621788 0.0184082 -0.296022 Si
41 1 9.66199 4.15939 6.89623 -9.06179 -0.320046 1.0968 -2.13933 0.193354 -1.19551 Si
51 1 9.42328 6.91996 4.11308 2.81369 2.48778 0.0765732 1.04315 -0.404812 0.370428 Si
21 1 1.37941 9.47862 4.10303 2.19683 -1.17855 0.67539 -0.548801 0.67458 0.0218706 Si
30 1 2.70379 8.05964 5.38411 2.81137 -4.35927 1.25206 0.526238 0.77774 0.591955 Si
44 1 5.4411 0.0146558 5.38885 -5.20263 -0.677238 2.36268 -0.179521 0.251631 -0.179466 Si
25 1 4.10757 9.50197 6.66757 -2.51744 4.98805 3.2047 -0.67351 -0.109239 0.974259 Si
53 1 6.76146 9.49924 4.11221 -0.0573472 2.96595 2.71608 0.540604 0.0516142 -0.549471 Si
12 1 0.0371447 0.0835526 5.41019 6.15494 -1.86555 1.66753 -0.102914 -1.40158 0.400228 Si
57 1 9.53436 9.66197 6.87884 0.0456804 -1.97099 3.15322 0.421895 -0.546987 -0.513727 Si
62 1 8.15193 8.24754 5.56396 -3.54394 -0.35766 -3.6305 -0.657659 -0.406417 -0.029934 Si
10 1 -0.0134859 2.80569 8.19791 0.06259 -0.778098 -2.27474 1.18272 -1.74365 -0.102295 Si
16 1 2.76677 0.0781647 8.06098 3.32604 5.47258 -3.25945 0.0406366 -1.21658 0.205218 Si
11 1 4.12426 1.36523 9.49326 3.18635 -3.06028 -4.30442 -0.825127 0.0834919 0.0483663 Si
42 1 5.4136 2.68998 8.09881 -3.55241 0.978365 -0.606239 0.809502 -0.177127 1.22165 Si
38 1 8.18387 2.72403 0.0536188 3.3277 -0.790613 -5.3796 -0.517758 0.0650186 -0.231976 Si
43 1 9.53658 1.41095 9.56468 -1.60252 0.643125 1.97095 0.140203 -0.0375174 0.102764 Si
13 1 1.34949 4.12456 9.49723 5.15252 2.11892 1.78344 0.449152 0.239016 0.26646 Si
32 1 2.75142 5.43481 8.10143 1.25131 -2.51446 -0.947212 0.290874 0.185807 0.586606 Si
27 1 4.09655 6.85873 9.49716 1.06636 2.74208 -0.235705 -0.873765 -0.8176 -0.339858 Si
45 1 6.69342 4.02467 9.58678 -2.30348 3.74701 -1.8076 1.30733 0.883824 -0.780417 Si
59 1 9.49406 6.80564 9.60518 4.51121 -5.31394 -8.41385 0.361946 0.581572 -0.707345 Si
64 1 8.15295 5.49406 8.17321 -2.22731 -0.601054 -1.40839 -0.0797721 -1.47337 1.21243 Si
22 1 2.63975 8.14507 -0.120985 0.74813 -0.377773 3.32424 -0.231126 0.128614 1.20064 Si
29 1 1.31949 9.57842 9.40108 1.27486 -4.74861 -3.63484 0.884431 0.443916 0.791889 Si
58 1 5.41626 8.15471 8.15393 0.303552 -2.16471 2.66752 0.37789 0.423982 -0.759534 Si
61 1 6.78615 9.48997 9.53176 -0.0186776 4.61682 -2.33448 0.740591 -0.243879 -0.133406 Si
54 1 8.1623 8.16819 0.094015 1.67843 0.413065 0.374671 -0.212489 0.240633 -0.765251 Si
48 1 8.156 0.0580183 8.25218 1.0006 -3.98923 -5.2473 -0.099944 -0.557532 0.147124 Si
26 1 0.0131324 8.1813 8.15903 -3.6698 -1.43771 -0.975777 -0.984566 -0.499886 -0.212788 Si
ITEM: TIMESTEP
18600
ITEM: NUMBER OF ATOMS
64
ITEM: BOX BOUNDS pp pp pp
0.0000000000000000e+00 1.0887404739999999e+01
0.0000000000000000e+00 1.0887404739999999e+01
0.0000000000000000e+00 1.0887404739999999e+01
ITEM: ATOMS id type xu yu zu vx vy vz fx fy fz element
2 1 -0.0577052 2.78986 2.66129 0.322698 1.27827 -0.98942 0.0696189 -0.622965 1.1414 Si
6 1 2.71648 2.78124 0.0286487 0.355705 2.09158 1.07816 -0.93755 -0.760486 0.19179 Si
7 1 1.28039 1.39805 1.4434 3.25057 -0.234353 -1.64227 0.890862 0.0772972 -1.31346 Si
8 1 2.69953 0.0421437 2.73415 -2.822 -1.05766 -0.892771 0.261801 -0.567181 0.0800233 Si
34 1 5.39875 2.76687 2.80285 1.08304 -1.36789 5.32904 0.111714 -1.14519 -0.701596 Si
36 1 5.54974 0.116089 -0.0175775 0.823645 2.01706 -0.542137 -0.63151 -0.933746 0.173552 Si
39 1 6.85795 1.35759 1.37112 2.78533 0.742453 6.04011 -0.159978 1.30107 0.454578 Si
40 1 8.26199 -0.091524 2.57109 2.3597 -2.82819 0.430397 -1.31972 1.02328 1.32009 Si
20 1 0.00995965 5.44928 0.00871891 -0.295987 8.59859 1.155 -0.0634313 -0.317939 0.418315 Si
23 1 1.39003 6.8177 1.35158 -2.09841 -3.65903 5.2276 0.625684 -0.463081 0.0880588 Si
24 1 2.78766 5.45294 2.724 -4.09707 1.7435 -1.14984 -1.32333 -0.112503 0.202205 Si
1 1 4.07895 4.1081 1.3637 -2.94109 0.325387 -7.16203 0.546136 -0.177607 0.236371 Si
52 1 5.4661 5.45784 0.0442879 2.842 -5.43495 -4.50812 0.248825 -0.547935 -0.783519 Si
55 1 6.80041 6.82771 1.36603 -1.52523 2.80898 -0.509716 0.589437 0.70099 -0.794157 Si
33 1 9.50251 4.01681 1.26511 -0.569688 -5.41602 -0.574549 0.311331 1.09833 -0.204303 Si
56 1 8.18728 5.41704 2.56036 1.47016 -2.82028 1.81921 -0.148632 0.00463921 1.15029 Si
18 1 0.0634418 8.15554 2.68952 1.72808 -2.0257 -3.2918 -0.537473 -0.444566 0.324343 Si
17 1 4.19818 9.63455 1.3299 4.76796 -3.35804 1.74803 -0.613041 -0.210168 0.693063 Si
50 1 5.4792 8.19821 2.73031 -5.14773 3.36717 -2.31416 -0.128252 0.359694 -0.305721 Si
4 1 -0.0809671 0.0386094 0.0557309 4.17981 -1.36089 -4.77828 1.17097 -0.665944 0.434141 Si
49 1 9.5768 9.47334 1.35513 -3.55117 -0.720994 0.65939 0.54625 -0.318093 -0.592382 Si
14 1 2.67054 2.75972 5.54452 -0.635243 -0.871905 4.37425 0.0356174 -0.723515 -0.338974 Si
15 1 1.37863 1.29845 6.85596 6.35734 -3.04082 -0.00434462 -0.698873 -0.294902 -0.712541 Si
3 1 3.99773 1.35194 4.20174 -3.10133 0.580297 1.21362 0.738564 0.554218 -0.547218 Si
47 1 6.7975 1.4333 6.8343 0.6052 -1.50637 -1.6515 0.13624 -0.535617 -0.0484234 Si
35 1 9.46288 1.34853 3.95432 -2.12903 2.08123 1.11496 0.451433 0.306115 1.0034 Si
46 1 8.11096 2.77871 5.38425 -0.439027 2.92179 -1.39414 -0.220857 -1.08264 -0.705488 Si
5 1 1.36707 4.02448 4.08875 10.1683 -3.52547 3.95034 -0.0876458 1.11472 -0.362016 Si
31 1 1.40393 6.70564 6.86164 3.26404 0.215779 4.78045 0.00613702 0.733839 -1.11013 Si
9 1 4.04143 4.12918 6.80681 -2.68146 -2.51585 0.151152 0.509449 0.392373 0.462893 Si
19 1 4.06059 6.87449 4.04544 -1.64332 -1.39484 3.40905 -0.650036 1.0577 0.237264 Si
37 1 6.7891 4.1703 4.02442 0.901107 -0.467494 0.657861 -0.246862 0.466265 0.420658 Si
60 1 5.34731 5.58095 5.37428 -3.98402 1.42685 -1.77835 1.04819 -1.62042 0.837597 Si
63 1 6.79117 6.81293 6.77726 2.13125 -2.04556 6.61393 0.199936 0.124006 -0.0100137 Si
28 1 0.00169045 5.43554 5.43598 1.42629 2.89997 -4.37726 0.110714 -0.651681 -0.125536 Si
41 1 9.47642 4.01026 6.7187 6.12946 1.97083 0.996314 1.25669 0.471588 0.977315 Si
51 1 9.55608 6.72933 3.98307 -5.80925 3.97033 -3.76592 -0.178523 0.596497 0.251291 Si
21 1 1.35205 9.4894 4.07637 -1.72841 0.201466 -2.55952 0.155264 0.799809 -0.120024 Si
30 1 2.68509 8.23671 5.5045 -2.73445 2.20418 -1.31136 0.345556 -1.38103 -0.089907 Si
44 1 5.47335 0.0158262 5.48396 1.21222 -4.25064 -2.6227 -0.356049 -0.585143 0.134717 Si
25 1 4.04273 9.51323 6.91954 2.62815 -1.44602 -4.30836 0.52568 0.966733 -0.888723 Si
53 1 6.88102 9.55796 4.02522 2.19564 -3.17051 -1.05928 -0.427611 0.0752599 0.542474 Si
12 1 -0.0484575 -0.0407306 5.38739 -4.94913 5.05171 -1.00423 0.221588 0.562517 0.329199 Si
57 1 9.54846 9.41379 6.77164 -2.03461 1.25264 -2.38772 -0.411697 0.833601 0.467867 Si
62 1 8.17107 8.12485 5.38108 5.15683 2.96035 5.50899 0.26235 -0.33994 -0.289139 Si
10 1 -0.0272317 2.6031 8.15825 -4.49071 -1.5689 1.56347 -0.661184 0.79088 -0.0137844 Si
16 1 2.6742 -0.0232425 8.27671 -1.45822 0.386758 1.24659 0.113948 -0.340111 0.383008 Si
11 1 4.0615 1.34928 9.60753 -2.28085 5.06839 2.70936 -0.207791 0.572612 -0.510527 Si
42 1 5.37941 2.71482 8.20513 3.4163 0.586325 -1.82195 0.0797018 0.459359 -0.429376 Si
38 1 8.16129 2.73217 -0.0738279 -3.72535 2.64951 -1.52813 -0.177306 -1.00616 -0.106442 Si
43 1 9.49444 1.23135 9.53116 -0.643446 -3.80376 -0.0727381 -0.0334765 1.76069 -0.108906 Si
13 1 1.25935 4.06616 9.53405 0.745553 -0.133611 -2.88835 0.884798 -0.418021 -0.178018 Si
32 1 2.71252 5.44629 8.27117 -2.00102 -0.118352 -1.91767 -0.0800721 -0.94381 -0.420404 Si
27 1 4.06639 6.76583 9.59061 2.59825 -2.41332 1.28409 1.19514 1.11296 -0.572504 Si
45 1 6.83553 4.09345 9.45179 -0.276573 -1.13038 1.34357 -0.707283 0.32576 0.680129 Si
59 1 9.59371 6.75353 9.53144 -5.95123 -1.15717 2.51742 -0.915785 0.497146 -0.38733 Si
64 1 8.21647 5.43491 8.11228 -1.63499 2.29653 0.390799 -0.30399 0.115226 -0.0997939 Si
22 1 2.81634 8.18381 0.0598808 -4.05585 -2.64171 0.558493 -0.46152 0.19871 0.177907 Si
29 1 1.31231 9.48998 9.69299 -0.620282 4.38746 -1.96801 0.0240663 -0.154884 -1.43786 Si
58 1 5.49639 8.21674 8.16659 0.977082 -0.224366 -3.32223 -0.543946 -1.06089 1.07093 Si
61 1 6.84017 9.57297 9.56587 -0.100958 -0.295985 1.19512 -0.231919 -0.28625 -0.396491 Si
54 1 8.23182 8.22071 -0.0349042 2.54893 -1.76991 -2.06393 -0.459155 -1.35038 0.248692 Si
48 1 8.15327 -0.0171389 8.19135 2.02468 1.44354 1.23425 0.183772 -0.591355 -1.55897 Si
26 1 0.0444751 8.04985 8.12881 1.70185 2.24802 1.86178 0.067033 1.20028 1.13012 Si
ITEM: TIMESTEP
18700
ITEM: NUMBER OF ATOMS
64
ITEM: BOX BOUNDS pp pp pp
0.0000000000000000e+00 1.0887404739999999e+01
0.0000000000000000e+00 1.0887404739999999e+01
0.0000000000000000e+00 1.0887404739999999e+01
ITEM: ATOMS id type xu yu zu vx vy vz fx fy fz element
2 1 0.0219399 2.71949 2.77278 2.04926 -0.596388 1.43189 0.0085798 -0.0857717 -1.15256 Si
6 1 2.80022 2.61984 -0.093732 -2.482 0.0809503 -3.35619 -0.0703312 1.21111 0.609415 Si
7 1 1.36614 1.38826 1.22868 -1.77698 -0.0391781 0.533402 -0.0769248 -0.481393 1.57582 Si
8 1 2.73787 -0.0416653 2.62979 1.94477 2.19736 -5.39226 -1.10537 0.583048 1.00891 Si
34 1 5.52707 2.71673 2.66978 0.214877 0.611115 -1.59516 -0.814905 -0.202312 0.699345 Si
36 1 5.33955 -0.126824 0.0536159 3.08187 0.220439 3.28512 0.843605 0.54544 -0.620932 Si
39 1 6.79795 1.28285 1.30882 1.67445 0.611074 -3.66377 -0.519701 0.206328 0.334958 Si
40 1 8.10041 0.102343 2.80902 0.790299 0.321317 -2.92494 0.793331 -1.46191 -1.08664 Si
20 1 -0.048013 5.42307 0.0738204 3.70212 1.22474 -0.359036 0.280415 0.558495 -1.24957 Si
23 1 1.27101 6.80773 1.38831 -2.06636 4.1228 2.3891 0.190838 0.456793 -0.62775 Si
24 1 2.6195 5.49554 2.7195 -0.520007 1.09173 -1.63208 1.00261 -0.705638 -0.306628 Si
1 1 4.04804 4.05327 1.38542 -0.577865 -2.56917 4.09374 0.0814898 0.245516 -0.598233 Si
52 1 5.43113 5.38131 -0.0837995 2.97321 5.34276 1.36462 -0.423634 0.405046 1.20191 Si
55 1 6.79944 6.73816 1.34647 1.30854 -3.56602 1.12377 -0.393229 0.0802949 0.648888 Si
33 1 9.50549 4.14703 1.4622 -1.31907 -1.85394 -2.88465 -0.0029802 -1.21265 0.26065 Si
56 1 8.16094 5.44405 2.87107 1.06987 6.75233 -4.28191 -0.0299942 0.638257 -0.974052 Si
18 1 -0.0813838 8.19674 2.66885 -0.551251 -0.0147396 -0.0992696 0.332342 0.195284 0.742665 Si
17 1 4.02864 9.40816 1.41177 -3.70493 -1.08666 -1.5254 0.233859 -0.25307 -0.550653 Si
50 1 5.42483 8.10894 2.779 4.50464 -0.629204 2.05427 0.0290437 -0.467421 -1.17492 Si
4 1 -0.0137319 -0.00745121 -0.0227687 -2.34231 4.1725 1.94622 -0.101494 0.464367 -0.539104 Si
49 1 9.47248 9.5922 1.35317 3.77978 -3.52516 -1.05195 -0.577314 0.339896 0.467004 Si
14 1 2.79379 2.75891 5.33337 0.962152 8.40256 -2.03816 -0.703585 0.0132031 0.313989 Si
15 1 1.4418 1.50078 6.76346 -2.53966 0.999475 -0.772489 0.229069 -0.888998 0.425762 Si
3 1 4.08313 1.33671 4.05593 1.32437 -2.73515 -1.24726 0.830969 -0.0902675 -1.03589 Si
47 1 6.88598 1.32358 6.78394 -1.91968 0.606958 2.39594 -1.02446 0.936366 0.0751123 Si
35 1 9.5664 1.33914 4.10508 0.376029 -5.66283 -1.68061 0.654025 0.0102461 0.233515 Si
46 1 8.24015 2.6824 5.4082 3.20004 -2.93617 0.714061 -0.32903 0.450418 1.11335 Si
5 1 1.35334 4.11036 4.06868 -4.09767 2.79724 -2.5501 0.121723 -0.192735 0.313405 Si
31 1 1.38674 6.8945 6.70494 -1.82591 -2.86824 -1.6689 -0.771657 -0.484339 1.35521 Si
9 1 4.03673 4.04356 6.78759 4.08773 -0.224941 0.0615857 1.26914 -0.18797 0.15785 Si
19 1 4.03007 6.7839 4.07285 -0.942015 -6.36544 -4.7588 1.56715 -1.65949 0.407564 Si
37 1 6.83247 4.0523 4.15338 -0.568868 -4.97602 -2.95529 -0.0370387 -0.58328 -0.513207 Si
60 1 5.50452 5.3439 5.52762 -1.1899 0.892174 1.95177 -1.28172 1.29257 -0.915904 Si
63 1 6.80513 6.80962 6.81445 -2.53561 -1.10105 -1.59541 -0.272299 -0.387916 0.758704 Si
28 1 0.0479408 5.42525 5.49173 -1.09519 0.896539 -3.29893 -1.06622 0.349986 -0.176982 Si
41 1 9.47088 4.09766 6.887 -5.4165 -2.0793 2.45693 0.842691 0.110732 -0.686902 Si
51 1 9.55746 6.86069 4.13454 3.91988 -0.157455 0.8356 -0.124279 -0.695681 0.126636 Si
21 1 1.3424 9.4787 4.08864 -0.0642831 -4.59088 2.5596 0.326289 0.623444 -0.377206 Si
30 1 2.78242 8.09706 5.38477 1.64167 1.26958 -0.949687 -0.835483 1.64135 0.0568426 Si
44 1 5.49139 -0.00763034 5.39925 2.78012 4.31975 -2.69403 -0.440208 -0.243244 0.345724 Si
25 1 4.06059 9.50897 6.74435 -1.61564 -1.20939 3.18608 0.915051 -0.0555043 0.038989 Si
53 1 6.78625 9.4863 4.01922 -1.76727 1.55485 1.21735 -0.0531578 0.533136 0.684292 Si
12 1 0.0785712 0.0438859 5.53629 -0.761059 -0.546316 0.20677 -0.744033 -0.56031 -0.580117 Si
57 1 9.44162 9.59815 6.87107 4.14439 -0.745134 2.26469 0.52783 -0.580966 -1.12471 Si
62 1 8.07702 8.14682 5.40964 -4.6377 2.29588 -2.6209 1.19804 0.886035 0.8377 Si
10 1 0.0857198 2.80131 8.16385 8.61297 -1.93071 0.745765 -0.350858 0.134719 0.458797 Si
16 1 2.77894 0.011189 8.10408 -3.40076 -0.773638 -2.43698 -0.823293 0.302893 -0.570664 Si
11 1 4.12301 1.27226 9.47079 -1.4347 -1.06528 -0.722536 0.696562 0.311778 0.235349 Si
42 1 5.48996 2.75831 8.20112 -3.76284 6.64446 3.43526 0.123123 -0.831298 -0.637676 Si
38 1 8.22422 2.6593 0.103203 -3.2898 1.43761 -2.04093 -0.382398 1.33344 -0.130758 Si
43 1 9.56248 1.48477 9.55547 0.00732244 -0.0851702 2.55867 0.34951 -1.31701 -0.60082 Si
13 1 1.4697 4.12378 9.5666 -3.76143 -1.82899 5.56304 -0.686641 0.347974 -0.502436 Si
32 1 2.72804 5.46958 8.01132 6.60604 -3.97283 0.209514 -0.673667 -0.0979864 0.990676 Si
27 1 4.08556 6.73654 9.4009 -2.20241 -1.39848 0.537844 -0.760436 0.552147 1.47486 Si
45 1 6.87757 4.06341 9.61008 2.77329 -1.08444 0.0329379 -0.12923 -0.743767 -0.224496 Si
59 1 9.49223 6.90627 9.56153 3.11584 2.44638 4.05391 0.473587 -0.641128 0.414347 Si
64 1 8.14441 5.46264 8.26934 -2.37575 0.488938 6.29477 0.20164 0.528388 -0.644787 Si
22 1 2.65047 8.14498 -0.0219385 -1.6408 2.43805 -3.23775 0.379881 -0.598387 -0.715515 Si
29 1 1.36478 9.59459 9.44214 -5.13732 -0.492137 5.93383 0.27619 -0.240838 0.923169 Si
58 1 5.4056 8.15982 8.18665 0.188382 3.21018 -2.30401 0.245365 0.129735 -1.29388 Si
61 1 6.7472 9.5083 9.50783 5.32682 -5.95496 -0.770355 -0.0419382 0.490299 0.505134 Si
54 1 8.07731 8.22238 0.0346556 -0.412099 1.54807 0.901924 0.473066 -0.335921 -0.0698643 Si
48 1 8.14191 0.0508112 8.22968 1.48581 0.590874 4.58888 0.308921 0.119839 0.619753 Si
26 1 -0.00806214 8.25176 8.17227 -3.91089 -0.923272 -1.81911 -0.158407 -0.741372 -0.733434 Si
ITEM: TIMESTEP
18800
ITEM: NUMBER OF ATOMS
64
ITEM: BOX BOUNDS pp pp pp
0.0000000000000000e+00 1.0887404739999999e+01
0.0000000000000000e+00 1.0887404739999999e+01
0.0000000000000000e+00 1.0887404739999999e+01
ITEM: ATOMS id type xu yu zu vx vy vz fx fy fz element
2 1 -0.022748 2.70634 2.75023 1.50413 0.413855 -0.452976 -0.0879495 0.6123 -0.192949 Si
6 1 2.64067 2.73148 0.103972 1.8537 1.5389 3.41581 0.699658 -0.0655313 -1.00271 Si
7 1 1.3044 1.31029 1.42693 -4.17672 -0.543026 -1.31243 0.341857 0.121062 -0.0637543 Si
8 1 2.74015 0.0426239 2.82252 -5.00516 1.56759 6.47256 0.669473 -0.0691355 -1.03131 Si
34 1 5.48172 2.64596 2.6993 -1.68451 1.49469 -2.91579 -0.334682 2.10656 0.0621781 Si
36 1 5.5162 0.0971028 -0.115795 1.27997 1.75746 -1.57898 -0.747682 0.264644 0.949433 Si
39 1 6.82045 1.40726 1.33484 1.08762 0.0955103 3.17522 0.591955 -1.03676 -0.213698 Si
40 1 8.12829 -0.0347424 2.75575 -0.135792 4.96093 -1.5743 0.334731 1.41596 -0.365549 Si
20 1 0.0607592 5.41899 -0.0748649 -2.02714 -3.80917 -0.441338 -0.124589 -0.215972 0.517929 Si
23 1 1.4721 6.77206 1.34098 3.09771 -3.64585 -2.87949 -0.752358 -0.577448 0.711799 Si
24 1 2.75952 5.40819 2.85007 2.27132 2.32506 2.42628 0.492279 0.953105 -0.939319 Si
1 1 4.09109 4.13744 1.36996 1.27352 1.17937 2.59101 0.261159 -0.752556 0.441434 Si
52 1 5.4794 5.50252 0.00705372 -0.236038 -3.91344 -1.52783 -0.519567 0.612721 -0.218735 Si
55 1 6.82046 6.93426 1.3992 0.78382 4.69484 -4.29948 0.298221 -1.65117 -0.41228 Si
33 1 9.51691 4.05128 1.30399 0.420877 1.64879 0.650114 0.354768 0.375788 0.0296888 Si
56 1 8.18418 5.44689 2.69833 -1.25691 1.8201 1.75512 -0.327767 0.00322131 -0.145634 Si
18 1 0.0577147 8.05035 2.7701 -0.522884 3.43912 -3.14376 0.110962 1.10353 -1.09221 Si
17 1 4.18097 9.65744 1.30295 0.515009 -0.575069 3.68091 -0.735669 0.0939134 0.894539 Si
50 1 5.46726 8.25355 2.69285 1.11576 -4.19448 1.46105 -0.355287 0.290556 0.734418 Si
4 1 0.0168882 -0.0337851 -0.0224128 -2.08516 -1.62673 2.1983 -0.0850903 -0.156058 0.350302 Si
49 1 9.54958 9.53505 1.42898 -2.43459 -0.541958 -1.36249 0.339218 -1.03851 -0.426784 Si
14 1 2.61141 2.71281 5.56878 5.15671 -2.53499 0.261994 1.1692 0.0325727 -1.16094 Si
15 1 1.29386 1.30502 6.8582 -4.16504 0.142297 -0.151379 -0.60531 0.271754 -0.139609 Si
3 1 4.14117 1.45647 4.13206 -2.02029 -0.886816 6.6988 -1.39699 -1.12382 1.00855 Si
47 1 6.72843 1.39555 6.79934 -5.20322 -1.75651 3.48752 0.522918 -1.65207 0.333894 Si
35 1 9.46287 1.43664 4.10801 4.07352 -3.4894 -3.55791 0.0502061 -1.26849 -0.403942 Si
46 1 8.09183 2.71248 5.44765 -4.30219 -0.0752969 -1.98742 0.168889 0.613156 -0.0928427 Si
5 1 1.36981 4.07684 4.12113 -1.40631 -1.83727 0.0936737 -0.247672 -0.814101 -0.23169 Si
31 1 1.34902 6.76114 6.85108 0.010493 -3.57289 -0.443678 0.54291 -0.446091 -0.633596 Si
9 1 4.076 4.11233 6.75679 -2.41505 1.09378 0.49323 -0.863921 -0.204909 0.688155 Si
19 1 4.16785 6.85918 4.13692 1.70022 4.07364 2.2425 -1.3375 0.503033 -1.06891 Si
37 1 6.79402 4.10126 4.08509 -7.89234 11.0949 2.70978 -0.400943 0.0248841 -0.400965 Si
60 1 5.36266 5.476 5.42146 -2.59851 -1.40105 2.16611 1.84109 -0.452549 0.472615 Si
63 1 6.75587 6.82296 6.81343 -2.21036 0.542166 -4.93337 0.82926 -0.264005 -1.21674 Si
28 1 0.0419563 5.43355 5.39484 1.66758 -2.87685 1.90958 0.0492768 0.42539 0.483342 Si
41 1 9.56604 4.0848 6.66193 4.055 0.386749 -1.00916 -0.952737 -0.540564 1.39721 Si
51 1 9.56965 6.74925 4.06722 2.49175 -2.17036 1.14637 -0.605751 0.228896 0.267442 Si
21 1 1.39155 9.49705 4.07925 -5.18853 5.68878 -2.22762 -0.0202245 -0.251189 0.985414 Si
30 1 2.75785 8.12835 5.54943 5.01161 2.71056 -0.983887 -0.481424 0.252078 -0.890982 Si
44 1 5.3322 -0.104275 5.51731 -4.47582 -0.251125 6.04338 1.17833 2.2948 -0.766618 Si
25 1 4.09833 9.49205 6.85808 3.44699 3.32395 0.632622 -0.987508 -0.207059 0.635549 Si
53 1 6.75616 9.60729 4.12236 4.23946 -1.34489 -4.11976 0.436708 -1.31989 0.145221 Si
12 1 -0.0360586 0.0146514 5.40475 4.41373 -3.92445 0.454463 0.416567 -0.167987 -0.243734 Si
57 1 9.57374 9.46907 6.71671 -3.61905 -1.47748 -2.83007 0.47752 0.135686 1.24599 Si
62 1 8.21995 8.18501 5.41362 3.69369 -6.24046 -3.06172 -1.27238 -0.840156 -0.397606 Si
10 1 -0.11951 2.66854 8.18404 -5.19483 1.4725 1.60376 0.876995 0.55883 -0.772486 Si
16 1 2.70138 0.010343 8.14885 4.16039 -3.07406 1.91993 0.681413 -0.239841 0.341048 Si
11 1 4.04742 1.41033 9.5035 4.86785 2.27973 -4.64541 -0.546076 0.146644 0.351628 Si
42 1 5.37401 2.73999 8.1154 3.91144 -0.452981 -5.36517 0.0376074 0.146119 0.260458 Si
38 1 8.11438 2.74464 -0.079845 4.56761 -7.42641 0.096283 0.446559 -0.258834 0.400542 Si
43 1 9.4876 1.30367 9.53679 0.815119 2.56 1.58363 -0.205565 -0.0951384 0.0595583 Si
13 1 1.37884 4.03348 9.43316 1.87818 0.963209 -4.13934 -0.840287 -0.728372 1.25129 Si
32 1 2.70347 5.39253 8.19222 -3.85538 0.469859 -0.732678 1.18825 1.36159 -0.247063 Si
27 1 4.06071 6.96851 9.54008 0.977696 -1.20637 -3.01255 0.318682 -2.23843 -0.127641 Si
45 1 6.73336 4.0647 9.47351 -3.5431 -4.30792 -1.74749 0.204118 0.577015 -0.0451192 Si
59 1 9.5278 6.69274 9.43357 -1.08743 1.96559 -1.54391 -0.0896551 0.716993 0.550339 Si
64 1 8.114 5.38692 8.07018 2.50941 -0.454122 -2.33678 0.398413 -0.168417 0.0263035 Si
22 1 2.76896 8.22442 0.0893609 1.82085 -1.29734 5.08847 0.081479 0.604313 -0.546037 Si
29 1 1.44168 9.50786 9.51302 2.81385 -3.35929 1.30625 -0.832389 -0.17192 0.420016 Si
58 1 5.48897 8.17051 8.14996 -0.511308 0.799669 2.89612 -0.418656 0.670699 0.752863 Si
61 1 6.78667 9.56732 9.52727 -3.07453 0.343553 1.23113 1.33224 -1.20968 -0.376319 Si
54 1 8.21768 8.12015 -0.00897063 -0.83019 1.32226 2.12815 0.118765 0.999529 -0.484297 Si
48 1 8.2203 -0.0899419 8.12738 -1.78441 2.15194 -5.69247 -0.928809 0.963743 -0.461928 Si
26 1 0.0575051 8.10457 8.16745 1.45619 3.94665 1.99052 -0.757225 0.745587 0.0448408 Si
ITEM: TIMESTEP
18900
ITEM: NUMBER OF ATOMS
64
ITEM: BOX BOUNDS pp pp pp
0.0000000000000000e+00 1.0887404739999999e+01
0.0000000000000000e+00 1.0887404739999999e+01
0.0000000000000000e+00 1.0887404739999999e+01
ITEM: ATOMS id type xu yu zu vx vy vz fx fy fz element
2 1 0.0238646 2.72873 2.70107 -1.97613 -0.587856 1.10407 0.481988 0.0849183 0.371377 Si
6 1 2.6973 2.73686 -0.0897965 -2.19228 -2.08563 -1.08959 -0.00444811 0.4625 0.747375 Si
7 1 1.39512 1.41618 1.36491 2.21459 -2.57643 0.381076 0.0300334 -0.647922 -0.817049 Si
8 1 2.75084 -0.0590521 2.60169 1.83956 -3.74283 1.37358 -0.743978 0.377176 1.29294 Si
34 1 5.4591 2.74009 2.76879 4.08384 -8.60501 1.65979 -0.580854 -0.814668 -1.03379 Si
36 1 5.44237 -0.0442108 0.16617 -0.0945842 -3.11113 -3.9149 -0.047074 0.00279073 -1.64321 Si
39 1 6.84253 1.337 1.37176 0.410121 0.706329 -2.48468 -1.0736 0.350658 1.12811 Si
40 1 8.20907 0.0125812 2.64835 2.35233 -9.40183 0.415062 -0.446158 -0.755706 1.1012 Si
20 1 -0.00951838 5.48103 0.0626188 0.947332 -1.01021 -1.07321 -0.660736 -0.109198 -0.148222 Si
23 1 1.31532 6.86119 1.37257 -2.31702 1.45692 2.31447 0.284324 0.0366043 -0.197301 Si
24 1 2.67267 5.44343 2.65485 -0.799479 -4.16088 4.25089 -0.291153 -0.199072 0.622567 Si
1 1 4.05545 4.08176 1.35641 -1.57065 4.64855 -2.52614 0.0576508 -0.569965 -0.117325 Si
52 1 5.43535 5.43428 0.0426046 -4.19919 5.28512 0.203854 0.472719 -0.590976 -0.79347 Si
55 1 6.80722 6.74668 1.38747 1.97613 -0.789126 1.70856 0.0032812 0.795168 -0.616473 Si
33 1 9.55301 4.01508 1.36465 -2.10276 0.399721 1.30634 -0.61034 0.95115 0.157194 Si
56 1 8.13948 5.40577 2.72029 3.4126 -4.31628 1.59992 0.72324 -0.103846 -0.306074 Si
18 1 -0.0775027 8.18973 2.74007 -4.0575 0.532561 4.63791 0.0146753 0.375153 0.0367727 Si
17 1 4.05174 9.40548 1.3399 -0.0476085 2.37976 -0.847107 -0.227281 -0.149277 -0.513322 Si
50 1 5.3795 8.075 2.69383 -2.97459 -1.38025 -1.35918 0.948512 0.381595 0.251785 Si
4 1 0.0556803 0.0224012 -0.0434085 -1.70707 -3.28909 -1.05254 -0.584866 0.732622 0.494778 Si
49 1 9.50479 9.57327 1.27373 -3.6414 5.75798 0.353367 0.499649 -0.581795 0.156458 Si
14 1 2.75751 2.73774 5.41899 -3.30904 2.70389 3.06112 -0.0996072 -0.0588545 0.566833 Si
15 1 1.39921 1.33582 6.80883 4.57898 4.84207 -0.428367 0.141187 0.0684233 0.221803 Si
3 1 4.05597 1.29733 4.04772 3.63757 2.8885 -7.92182 0.416531 0.518839 -0.0772159 Si
47 1 6.81344 1.35309 6.77054 0.998748 2.07325 1.82427 0.648608 0.968327 0.195089 Si
35 1 9.60302 1.33791 3.99263 -0.550032 4.47638 1.42163 -1.3912 0.97834 0.857646 Si
46 1 8.27649 2.80235 5.4932 1.09173 -2.69885 6.20374 -0.397391 -0.616833 -0.967434 Si
5 1 1.31652 4.11085 4.11348 3.43485 2.4166 0.282264 0.389138 0.057581 -0.448066 Si
31 1 1.2981 6.77543 6.7932 3.75832 5.82815 -0.657082 0.673413 0.862905 0.204623 Si
9 1 4.14986 4.07291 6.88854 4.52009 -1.2691 -1.17193 -0.439524 -0.0237814 -0.977547 Si
19 1 4.04872 6.74963 4.01663 0.288037 -6.16655 5.4098 -0.574888 0.385356 1.30373 Si
37 1 6.78023 4.11012 4.04209 3.52248 -3.66221 -1.64831 0.872423 -0.461515 1.49608 Si
60 1 5.46902 5.45597 5.44378 -1.88393 -0.670282 0.41292 -0.454642 -0.0386854 0.0395096 Si
63 1 6.83295 6.82678 6.79743 -2.07061 0.453924 2.79799 -0.686759 -0.435119 1.00667 Si
28 1 -0.0712458 5.49424 5.43007 0.626537 1.58448 -0.0481944 1.10183 -0.0668334 -0.401859 Si
41 1 9.70337 4.15234 6.85646 4.59011 3.62406 -0.890729 -1.86732 -0.630932 -0.729107 Si
51 1 9.43349 6.79179 4.10707 -3.6901 3.25403 -0.270015 0.608866 0.0302549 -0.799512 Si
21 1 1.31536 9.60207 4.10164 6.69088 -4.491 -0.590085 0.0257551 -0.451864 -0.990161 Si
30 1 2.6482 8.2131 5.42611 -4.6106 -5.23498 -0.0339796 0.854019 -0.713376 0.105072 Si
44 1 5.49681 0.037264 5.42669 0.705416 -2.5562 0.12569 -0.394165 -1.16242 -0.612287 Si
25 1 4.1023 9.56706 6.79896 -0.936646 -3.52167 -9.08712 -0.141191 -0.487891 -1.43542 Si
53 1 6.82742 9.43276 4.05164 -5.28491 5.20422 3.90374 -0.0998007 0.854695 -0.14355 Si
12 1 -0.0641568 0.0387836 5.42908 0.804104 3.49962 -0.858909 1.24266 0.124807 0.481136 Si
57 1 9.58051 9.58873 6.84821 -3.27811 6.1857 -0.280869 -1.58629 -0.499645 0.212896 Si
62 1 8.18299 8.11309 5.48525 -2.55156 5.51841 4.60214 0.213771 1.58455 0.103209 Si
10 1 0.0170428 2.76676 8.16268 0.41036 1.10649 1.67251 0.534559 -1.1741 0.19425 Si
16 1 2.82151 -0.0980234 8.19201 -0.429387 3.68846 -3.44914 -1.06791 1.90173 0.225273 Si
11 1 4.12968 1.33905 9.59117 -2.05312 2.22102 -2.62416 -0.0792751 -0.771633 -0.157426 Si
42 1 5.47354 2.64895 8.19843 -4.24682 -3.77098 -2.78334 0.378165 0.505307 0.143913 Si
38 1 8.14081 2.66099 0.0811476 -0.262816 2.85491 3.70123 0.849978 0.736163 -0.985175 Si
43 1 9.51995 1.42384 9.53094 -1.92637 -1.31887 -3.67973 0.156212 -0.450122 0.11346 Si
13 1 1.24836 4.14019 9.52924 4.9879 1.43608 -3.63657 1.65841 0.151539 -0.107737 Si
32 1 2.74124 5.47151 8.16764 3.68112 -4.8601 -1.46779 -0.936625 -0.790913 -0.11986 Si
27 1 4.07721 6.75163 9.5272 -3.45513 3.06768 -2.19789 0.462475 0.562881 -0.285224 Si
45 1 6.87668 4.03232 9.54877 -2.21026 -0.402534 3.4311 -0.685975 0.445569 -0.00747616 Si
59 1 9.52812 6.86943 9.60256 -4.67525 -0.199906 2.5171 -0.0853612 -1.06251 -1.03781 Si
64 1 8.25 5.40078 8.13238 -2.05052 -0.399343 -3.25165 -0.524722 1.07245 1.07252 Si
22 1 2.67636 8.11319 -0.132363 -1.4376 -2.52545 -5.40906 0.191174 0.117667 1.67152 Si
29 1 1.37001 9.54881 9.53097 0.323232 6.63352 -5.57204 0.0737033 -0.367176 -0.736029 Si
58 1 5.3473 8.2234 8.14788 1.3985 -5.88994 -0.545901 1.4607 -1.2295 0.43153 Si
61 1 6.76205 9.5235 9.55492 5.65315 2.86697 -1.10782 -0.720407 0.515397 -0.197019 Si
54 1 8.11817 8.18706 -0.0444801 1.69657 1.59493 4.68338 -0.107682 -0.321204 1.19315 Si
48 1 8.08789 0.0667967 8.23167 1.20732 -2.49372 6.96927 1.03567 -0.762444 -0.534042 Si
26 1 0.00195531 8.17675 8.20781 2.75058 -4.00207 -0.368924 0.105902 0.106654 -0.264285 Si
ITEM: TIMESTEP
19000
ITEM: NUMBER OF ATOMS
64
ITEM: BOX BOUNDS pp pp pp
0.0000000000000000e+00 1.0887404739999999e+01
0.0000000000000000e+00 1.0887404739999999e+01
0.0000000000000000e+00 1.0887404739999999e+01
ITEM: ATOMS id type xu yu zu vx vy vz fx fy fz element
2 1 -0.0414245 2.77765 2.71507 -1.20124 4.71993 -3.57608 -0.485491 -1.03786 0.00249905 Si
6 1 2.7677 2.68521 -0.0331819 -0.520813 -0.881496 -3.75068 -0.24578 -0.895587 0.49364 Si
7 1 1.35288 1.35098 1.38082 -1.68873 3.93924 -1.2909 -0.148966 0.85138 -0.152768 Si
8 1 2.71715 0.0210778 2.71571 0.0478065 0.746082 -1.11349 -0.0114622 -0.359798 -0.189771 Si
34 1 5.4688 2.70284 2.63194 -2.82146 7.07104 3.57815 0.432051 -0.317019 2.04379 Si
36 1 5.43521 -0.0223963 -0.0699479 0.871373 2.55466 3.38092 0.259729 -0.566837 0.675769 Si
39 1 6.75715 1.38401 1.30868 3.1541 -3.63586 -0.136692 0.775234 -0.203639 -0.954087 Si
40 1 8.08683 0.0727327 2.7032 -0.441011 -0.619471 -3.62368 1.07067 -0.927824 -0.441218 Si
20 1 -0.0267375 5.36471 0.0180713 -1.19475 -3.30596 4.7638 0.97813 1.042 0.0141446 Si
23 1 1.45163 6.81949 1.30279 -0.893604 3.47382 2.61789 -1.2481 -0.178086 0.328536 Si
24 1 2.7352 5.44421 2.69132 0.872531 1.88406 1.70203 0.0599629 -0.327309 -0.0248534 Si
1 1 4.10206 3.96087 1.37703 -0.00171623 -3.50395 -1.18801 -0.419438 2.09719 -0.840381 Si
52 1 5.42756 5.48424 0.0165392 4.61706 -3.7686 1.39805 0.0580731 -0.949549 0.757847 Si
55 1 6.83749 6.80469 1.37378 3.71593 1.663 -0.966486 -0.971191 0.304958 0.32613 Si
33 1 9.46492 4.15515 1.42201 3.51353 -0.631689 -1.09137 1.03354 -0.97727 -0.824921 Si
56 1 8.22706 5.51458 2.69755 -3.15403 -1.70452 -5.54534 -1.00666 -0.53503 1.10876 Si
18 1 0.0472705 8.17915 2.73501 3.2401 0.143451 -3.28783 0.525499 -1.23244 0.228852 Si
17 1 3.99395 9.55853 1.31148 2.01069 3.64789 -2.60573 2.08881 0.723126 1.03165 Si
50 1 5.4967 8.26754 2.71248 2.09054 1.6756 3.51642 -0.971039 -0.784626 -0.251679 Si
4 1 -0.0615064 0.026671 0.0662366 -2.44659 0.687743 -0.081302 0.406186 -0.959755 -0.1687 Si
49 1 9.5168 9.43019 1.40281 4.22188 -2.77706 0.184795 -0.56223 1.8382 0.253426 Si
14 1 2.73515 2.77054 5.33207 -1.80421 -2.54565 0.46519 -0.812495 -0.498899 0.614211 Si
15 1 1.30528 1.37604 6.81205 -0.217399 -0.594836 2.45194 0.970748 0.367578 -1.60089 Si
3 1 4.11861 1.29551 4.03382 -4.09679 2.29125 7.01657 -0.261484 1.65353 -0.271585 Si
47 1 6.84342 1.33101 6.87137 5.37234 1.62969 -5.8332 -1.01137 0.833396 -0.942331 Si
35 1 9.45691 1.34929 4.10005 -5.86677 1.08354 -4.81848 1.59341 -0.222501 -0.289314 Si
46 1 8.1744 2.6907 5.44588 -2.28222 1.39957 -2.1676 -0.753051 -0.73658 0.488143 Si
5 1 1.24368 4.15993 4.01926 -1.55082 -1.67811 2.98584 1.63608 -0.732674 0.288863 Si
31 1 1.36308 6.7456 6.75161 4.30613 -5.68588 -0.980406 -0.00214766 0.820673 0.119994 Si
9 1 4.03208 4.14497 6.78413 -5.59417 4.83723 2.36672 0.418387 -0.335451 0.196473 Si
19 1 4.05629 6.83405 4.06193 -3.29536 8.37734 -1.28905 1.91254 -0.638023 -0.812661 Si
37 1 6.92837 4.02332 4.06447 -0.202516 2.05004 0.454476 -1.3669 0.870708 -0.83715 Si
60 1 5.48323 5.42312 5.39765 -2.14363 3.17816 -0.905859 -0.303029 -0.0687166 -0.222091 Si
63 1 6.78822 6.78549 6.79459 1.69684 1.90923 -2.88791 0.128114 0.531038 -0.145037 Si
28 1 -0.0521945 5.35527 5.4723 5.41787 -0.732705 -1.5897 -0.154959 0.0622541 0.817336 Si
41 1 9.37524 4.0211 6.83338 -1.71684 -5.79041 -2.2272 1.70781 1.01193 0.687003 Si
51 1 9.60074 6.70853 4.11188 1.44789 -3.07504 -5.2138 -0.463416 1.85801 -0.327254 Si
21 1 1.48642 9.48435 4.07833 1.22399 -4.28504 0.493865 -0.825509 0.199669 0.2372 Si
30 1 2.83997 8.13128 5.4301 -2.95711 -1.72585 -1.42501 -1.68553 0.186943 0.873942 Si
44 1 5.41983 0.041907 5.42619 2.88182 0.810604 -1.11648 0.512 -1.03179 1.29812 Si
25 1 4.00768 9.54004 6.86879 -3.25866 -0.869706 7.88415 0.898565 0.477276 0.0651461 Si
53 1 6.85095 9.5836 4.08906 6.95838 -1.24588 -4.34088 -0.785512 0.0859539 0.131962 Si
12 1 0.0491984 -0.0723481 5.44099 -3.45056 -3.46015 0.335339 -1.05456 0.15606 -0.0503473 Si
57 1 9.46561 9.46967 6.84556 4.41321 -2.60444 4.18399 0.820566 0.59578 -1.38023 Si
62 1 8.15409 8.15943 5.39502 -1.41933 -5.90485 -3.2166 0.379442 -0.707741 0.428482 Si
10 1 0.0681106 2.74289 8.12962 0.470624 -8.11087 1.91956 -1.41837 0.427483 0.74267 Si
16 1 2.55627 0.0584816 8.21352 -0.17242 -0.716452 3.9387 0.968988 -1.41993 -0.210447 Si
11 1 4.071 1.24812 9.498 0.775124 0.0282836 6.8283 -0.0894599 1.66462 -0.316866 Si
42 1 5.42163 2.75866 8.18951 -1.52204 0.95066 3.68662 -0.123831 -0.454884 -0.309865 Si
38 1 8.23972 2.77089 0.0105973 0.961095 -1.09864 -2.06898 -1.2558 -0.190896 -0.112846 Si
43 1 9.57438 1.39211 9.53917 1.09806 -3.01341 0.136216 -0.0920272 0.0589942 -0.500828 Si
13 1 1.41356 4.04845 9.56521 -6.19967 0.090489 -0.274485 -0.558128 0.34956 -0.416112 Si
32 1 2.68769 5.50133 8.22546 -1.27751 4.54841 -1.29502 0.398557 -0.521358 -0.325997 Si
27 1 4.07942 6.8222 9.59095 2.62634 -3.61231 -1.33278 -0.164646 0.307046 -0.443681 Si
45 1 6.79494 4.13 9.54811 2.42927 3.7323 -4.93989 0.256608 -0.105954 0.15767 Si
59 1 9.59359 6.81448 9.53682 1.83158 2.73232 3.02084 -0.503697 0.478264 0.486505 Si
64 1 8.15478 5.54229 8.22914 -3.35172 -1.78453 1.21066 -0.118079 -1.08478 -0.575788 Si
22 1 2.76283 8.25057 0.0122212 3.06891 -0.35289 -0.185579 -0.787807 -1.38708 -0.741818 Si
29 1 1.3087 9.48351 9.5942 -1.71181 0.844153 8.54785 -0.471687 1.01815 -0.451971 Si
58 1 5.45262 8.12512 8.20903 -0.503413 5.23413 2.37677 -0.520402 0.398051 -0.690567 Si
61 1 6.83746 9.47489 9.50662 -1.35372 -0.0358776 1.52278 0.0500985 0.734863 0.0927781 Si
54 1 8.12807 8.15416 0.0582212 0.872201 1.87089 -6.25588 1.0548 -0.373719 -1.13626 Si
48 1 8.21334 0.00984354 8.1455 -4.50655 1.83152 0.535512 -0.169926 -0.339151 1.3023 Si
26 1 0.00625238 8.1848 8.10555 -1.38804 -1.88419 -0.881553 0.429579 -0.901931 0.666467 Si
ITEM: TIMESTEP
19100
ITEM: NUMBER OF ATOMS
64
ITEM: BOX BOUNDS pp pp pp
0.0000000000000000e+00 1.0887404739999999e+01
0.0000000000000000e+00 1.0887404739999999e+01
0.0000000000000000e+00 1.0887404739999999e+01
ITEM: ATOMS id type xu yu zu vx vy vz fx fy fz element
2 1 0.0163019 2.72597 2.71591 1.6193 -3.87298 3.84637 0.284861 -0.415755 0.0478039 Si
6 1 2.74563 2.77194 0.0835191 0.737574 0.282107 -1.77229 -0.149789 0.213558 -0.5488 Si
7 1 1.41771 1.33852 1.3457 -3.81206 -1.56472 -0.766226 -0.522632 -0.0372382 0.404815 Si
8 1 2.7395 -0.0105379 2.77132 -1.95265 -0.694788 -5.03082 -0.448895 -0.0327009 -0.201207 Si
34 1 5.39536 2.75983 2.84746 4.72031 1.57449 -4.23014 -0.211823 0.359676 -1.81256 Si
36 1 5.39982 0.0728377 0.0138387 -0.0922041 -3.76265 -3.34119 0.304231 -0.0254405 0.298346 Si
39 1 6.72688 1.3603 1.45963 -3.55821 -1.05949 -2.8396 0.941926 0.545703 -0.320103 Si
40 1 8.20231 -0.0025658 2.77927 0.98492 4.90538 0.000676244 -0.670291 0.418281 0.0185974 Si
20 1 -0.029179 5.45249 -0.0513719 -0.222601 2.38526 -1.24225 -0.152155 -1.03478 -0.294132 Si
23 1 1.32677 6.71913 1.33243 -1.9225 -4.19577 -1.18513 0.687725 0.924348 0.680151 Si
24 1 2.74143 5.45062 2.78535 -2.72142 2.53126 -4.17937 -0.156264 -0.0102406 0.0110575 Si
1 1 4.12787 4.20198 1.34627 -0.79447 -0.902274 2.83875 -0.118581 -1.0616 0.893499 Si
52 1 5.44234 5.45737 -0.0964048 -2.4543 3.02684 -1.5339 -0.00331648 0.20835 0.281036 Si
55 1 6.76731 6.76206 1.31979 -5.63647 0.159506 2.94997 0.675283 0.431004 0.299262 Si
33 1 9.52303 4.06367 1.37086 -1.89692 0.485167 0.978484 0.327687 0.110547 -0.519109 Si
56 1 8.168 5.37173 2.73332 1.95704 0.653308 4.60291 -0.254685 1.2671 -0.49318 Si
18 1 0.00913682 8.13682 2.72672 -4.83393 3.78017 -3.33104 -0.700464 0.334831 -1.03427 Si
17 1 4.19202 9.59541 1.46059 3.42045 -6.48588 0.679472 -1.61465 -0.406762 -1.09983 Si
50 1 5.40073 8.15032 2.71823 -1.33731 1.48557 -2.05538 1.08499 -0.550053 0.550541 Si
4 1 0.126065 -0.0498248 -0.0988326 -1.97841 3.50413 3.1888 -0.964163 0.295061 0.397305 Si
49 1 9.49589 9.57537 1.33278 -0.32492 -1.27342 0.224128 1.1641 -0.704117 -0.229245 Si
14 1 2.65727 2.60918 5.51459 2.82664 6.19301 -2.88113 1.10243 0.70614 0.0452311 Si
15 1 1.37139 1.34346 6.902 1.78339 3.24547 -1.89083 -0.673887 -0.394806 0.543165 Si
3 1 4.03621 1.3892 4.0917 0.421591 -2.34165 0.278248 0.291228 -0.827407 0.964403 Si
47 1 6.81198 1.35529 6.70673 -2.38342 -3.22257 7.94902 0.0919228 -0.243328 0.836047 Si
35 1 9.52743 1.44416 4.14515 4.47248 -3.80968 0.172159 -0.00629981 -0.651869 -0.576495 Si
46 1 8.04491 2.7743 5.3732 3.18853 3.4465 -3.01918 1.44816 -0.0318727 0.53114 Si
5 1 1.43097 3.96759 4.14496 -1.68172 -0.858011 -1.53603 -0.904287 1.56819 -0.484048 Si
31 1 1.376 6.87415 6.81009 -3.32595 2.13589 0.763523 -0.434672 -0.860267 0.558849 Si
9 1 4.03918 4.02643 6.82493 -0.228751 -3.42737 -2.68662 0.592297 0.77215 -0.224801 Si
19 1 4.07941 6.85925 4.17841 1.16653 -3.28162 0.213687 -0.804852 0.0735473 -0.544327 Si
37 1 6.75552 4.13248 4.07003 2.45439 -0.505171 2.80197 0.0384834 0.0976963 0.162431 Si
60 1 5.48015 5.49331 5.4361 4.59912 -5.83437 -3.53977 -0.893114 -0.579771 1.13416 Si
63 1 6.83747 6.80319 6.84616 -4.23791 -1.54702 0.407324 0.21316 -0.0658659 -0.848993 Si
28 1 0.067678 5.50798 5.45695 -4.54251 1.28505 1.88209 -0.271908 -0.636951 -0.961351 Si
41 1 9.576 4.05667 6.6906 -2.84366 0.860891 4.04156 -0.942588 0.418409 -0.526299 Si
51 1 9.4971 6.83735 4.06334 2.27909 1.51796 1.65911 0.465023 -0.905995 0.226921 Si
21 1 1.27954 9.52738 4.08417 -3.10386 -1.2039 2.89218 0.600824 0.544689 0.125769 Si
30 1 2.60438 8.22434 5.49586 6.7434 -0.591366 3.47954 1.58961 0.0887333 -0.86874 Si
44 1 5.47258 -0.00308987 5.42577 -3.04875 0.207028 -0.120322 -0.831243 0.015326 -0.549576 Si
25 1 4.15239 9.47627 6.76139 0.574488 0.295946 -3.01355 -0.359942 0.498035 0.667958 Si
53 1 6.77583 9.48903 4.09293 -1.05828 -4.37855 -2.96751 0.575851 0.133465 -0.340941 Si
12 1 0.0125126 0.0462662 5.49124 3.1029 5.34226 -4.25431 -0.546438 -0.24677 -0.183975 Si
57 1 9.4756 9.49991 6.74304 -3.10847 -0.818066 0.344916 1.50219 0.403219 1.05476 Si
62 1 8.18056 8.16859 5.44507 -1.86211 2.26771 -1.40761 -0.94812 -0.532624 -0.342839 Si
10 1 -0.134912 2.76725 8.14023 2.77137 5.42753 -2.95848 1.67747 -1.18936 0.278418 Si
16 1 2.84417 -0.0168455 8.20776 0.76322 1.62574 0.136242 -0.355149 0.0448021 -0.941064 Si
11 1 4.03321 1.42848 9.57504 5.52824 -8.39771 -1.26136 0.990601 -0.123486 -0.249558 Si
42 1 5.49706 2.64794 8.13468 2.31191 -0.965249 -0.999701 -0.837534 0.67095 0.389704 Si
38 1 8.15042 2.72255 0.00375458 2.25524 -1.75172 0.290203 -0.109665 -1.01176 0.241439 Si
43 1 9.49343 1.2885 9.4485 2.14733 3.73707 5.1064 0.125453 0.45698 0.99886 Si
13 1 1.37255 4.00888 9.48776 3.22425 1.59212 4.18963 -0.697409 0.895334 0.56711 Si
32 1 2.67287 5.48908 8.18403 -4.68395 2.37621 -1.16005 0.491657 -0.750324 -0.477363 Si
27 1 4.06323 6.83325 9.49421 2.97947 -1.45052 -0.450725 0.155112 -0.0882688 0.401555 Si
45 1 6.80259 4.06338 9.51858 1.1138 -4.379 5.2763 0.516012 -0.0187465 -0.965103 Si
59 1 9.45637 6.7521 9.43792 5.51681 -3.06647 -2.56142 1.04333 0.778264 0.166022 Si
64 1 8.21608 5.36148 8.03491 4.83426 2.03194 2.41677 -0.757903 -0.0427461 1.06848 Si
22 1 2.78368 8.15906 0.0832299 -4.09248 1.97571 2.13787 0.114626 0.134488 0.0390669 Si
29 1 1.51907 9.46595 9.46561 -2.92444 -0.979312 -4.47598 -0.442387 0.180527 0.989771 Si
58 1 5.49058 8.13534 8.18265 -0.459424 1.27672 -0.524834 -0.379774 0.595782 -0.00134087 Si
61 1 6.74777 9.59947 9.55084 -3.77741 -0.600282 1.4181 0.4033 -0.484079 -0.42566 Si
54 1 8.15523 8.18067 -0.0637902 -4.62525 4.31705 5.4143 -0.406036 -0.194237 0.50853 Si
48 1 8.13494 -0.0354325 8.09477 -0.402494 3.10178 3.44592 -0.357071 0.149816 0.0294855 Si
26 1 0.0719715 8.19008 8.17589 5.43115 -1.81119 -2.80991 -1.57157 -0.175781 -0.346787 Si
ITEM: TIMESTEP
19200
ITEM: NUMBER OF ATOMS
64
ITEM: BOX BOUNDS pp pp pp
0.0000000000000000e+00 1.0887404739999999e+01
0.0000000000000000e+00 1.0887404739999999e+01
0.0000000000000000e+00 1.0887404739999999e+01
ITEM: ATOMS id type xu yu zu vx vy vz fx fy fz element
2 1 -0.0209749 2.67094 2.71432 -1.31294 3.50901 0.677527 0.15525 1.28768 0.347438 Si
6 1 2.71474 2.66193 -0.0149269 0.248413 1.64191 2.66366 -0.273094 0.434804 -0.281326 Si
7 1 1.35054 1.37401 1.40271 0.832814 -2.29926 0.198116 0.359759 -0.600135 -0.567997 Si
8 1 2.77797 -0.00474564 2.68054 2.49917 0.838361 0.676886 0.0377774 0.284002 -0.147974 Si
34 1 5.49869 2.6932 2.67372 0.564703 -3.71936 1.68378 0.178415 -0.712848 -0.248871 Si
36 1 5.39444 -0.105683 -0.0682303 2.05925 6.22719 -0.260871 0.533713 1.01684 0.0589068 Si
39 1 6.82196 1.30971 1.22656 0.15485 -3.06847 1.78251 -0.154225 -0.512561 1.39494 Si
40 1 8.1509 -0.0539955 2.79404 0.174928 0.949612 0.78781 -0.263869 0.879658 -0.574449 Si
20 1 0.0778947 5.45242 -0.00415194 2.17496 2.18946 -1.37946 -1.0189 1.1118 0.909606 Si
23 1 1.32662 6.91434 1.3839 3.35674 -3.04426 -2.23385 0.820437 -1.35716 -0.471212 Si
24 1 2.72208 5.3828 2.63391 2.51609 -0.296404 4.54811 -0.25122 0.865343 0.139973 Si
1 1 4.09086 3.98467 1.3435 1.28733 2.15055 0.477497 -0.431877 0.110326 0.163153 Si
52 1 5.37156 5.43545 0.105375 2.65588 -0.36907 0.502131 0.486712 0.376528 -1.05542 Si
55 1 6.76396 6.74625 1.45944 1.07353 -2.17056 2.90324 0.537126 0.425876 -1.06879 Si
33 1 9.5781 4.12928 1.3556 -0.751939 -3.37813 1.17225 -0.984254 -0.0479615 0.682567 Si
56 1 8.07578 5.43317 2.8322 0.564279 3.49663 -1.39343 1.54814 -0.520466 -0.761408 Si
18 1 -0.00866572 8.15554 2.79685 3.77385 -6.17323 4.30178 -0.0971748 0.512298 0.310223 Si
17 1 4.01725 9.48544 1.2299 4.36157 4.55711 -0.540849 0.629261 -0.282029 1.37501 Si
50 1 5.43892 8.14469 2.6841 -1.38733 1.46187 -0.481169 -0.879875 0.867186 -0.0810386 Si
4 1 -0.0431643 0.0347436 0.0452856 2.2816 -0.622171 -3.65938 0.398714 0.459716 -0.481663 Si
49 1 9.59726 9.55488 1.42888 -2.99621 4.07243 1.30812 -1.30132 -0.821952 -0.169455 Si
14 1 2.76376 2.70843 5.36219 -4.92682 -2.11598 5.07588 -0.22906 1.05592 -0.0877732 Si
15 1 1.37214 1.39881 6.69374 0.278318 -4.02519 1.44453 0.098809 0.188896 0.494441 Si
3 1 4.14202 1.3781 4.04876 2.07245 -0.29984 -2.77377 -0.171886 -0.566178 -0.212566 Si
47 1 6.8543 1.40755 6.82926 -0.731049 3.44126 -6.6438 -0.391451 -0.615188 0.60281 Si
35 1 9.55216 1.3738 4.11803 -4.86171 4.84732 3.52653 -0.483375 -0.537442 -0.195862 Si
46 1 8.29158 2.73102 5.54181 -1.34981 -2.69514 -1.46485 -0.935684 -0.254731 -0.739502 Si
5 1 1.32147 4.15098 4.04989 -0.319937 0.19285 1.6806 0.0984283 -0.962181 0.391501 Si
31 1 1.30691 6.84791 6.86479 -0.236643 -2.09399 -0.381294 0.912855 -0.862616 -0.625615 Si
9 1 4.18376 4.06103 6.72969 2.37555 0.47039 2.63377 -0.895735 -0.420779 0.973142 Si
19 1 4.11659 6.74596 3.98204 2.20967 -1.72041 1.14491 -0.210096 -0.382377 1.03591 Si
37 1 6.8518 3.93751 4.10308 -2.19533 0.366524 0.0729465 0.0163672 0.631445 0.52024 Si
60 1 5.54353 5.39991 5.4248 -3.80064 6.08266 0.808095 -0.173939 0.601165 -0.580215 Si
63 1 6.85429 6.83405 6.81108 -0.909151 -3.63482 3.45305 -1.06432 -0.317448 0.407685 Si
28 1 -0.0318417 5.46559 5.523 4.51478 0.645929 0.134345 0.0868505 0.355194 -0.757896 Si
41 1 9.5078 4.15093 6.86764 3.54209 -0.0201899 -7.00744 0.952298 -0.673435 0.686843 Si
51 1 9.44613 6.826 4.16475 0.340989 -4.08656 3.05578 0.501008 -0.233133 -0.199263 Si
21 1 1.43891 9.56528 4.04947 -0.97362 -0.542281 -2.47575 -0.668118 -0.584171 0.468733 Si
30 1 2.71232 8.09275 5.40658 -1.61765 2.22381 1.29751 0.208738 0.2882 -0.11996 Si
44 1 5.40576 0.024461 5.50593 0.112898 -6.16793 4.13052 0.268883 0.357676 -0.158295 Si
25 1 4.02478 9.51332 6.77997 2.17139 -1.08132 2.90224 0.400477 -0.489542 -0.457977 Si
53 1 6.68396 9.52852 4.1323 -4.79825 4.22361 0.795185 0.811458 -0.156323 -0.223549 Si
12 1 0.0216274 0.00974136 5.42152 -1.50406 2.21916 3.87738 0.570653 -0.111322 -0.352604 Si
57 1 9.64368 9.56109 6.83311 1.74899 -1.41442 -2.40395 -2.23156 -0.0595863 -0.429742 Si
62 1 8.1177 8.2099 5.48432 3.11424 0.177364 -1.38179 0.764321 0.85968 0.113188 Si
10 1 0.10543 2.74614 8.17747 -6.46452 1.9929 1.14228 -1.18087 0.268599 -0.461977 Si
16 1 2.7005 0.0193252 8.01431 2.5686 -1.76684 -4.89054 -0.508014 0.124816 1.53097 Si
11 1 4.08559 1.30136 9.50207 -5.17103 2.12871 -2.29085 -0.89519 -0.23427 -0.120716 Si
42 1 5.43783 2.69642 8.26648 -4.01996 4.96316 -1.58243 0.567461 0.660383 -1.28987 Si
38 1 8.15461 2.77813 -0.000560394 -3.01168 0.103349 -0.46527 0.361518 0.332617 -0.45635 Si
43 1 9.5381 1.42774 9.5191 -3.24379 -3.52389 -1.32792 0.0270028 -0.183022 0.294549 Si
13 1 1.33705 4.15689 9.56342 -0.173313 -2.72169 -3.91257 1.80553 -1.33239 -0.659211 Si
32 1 2.7527 5.41434 8.13058 2.71783 -4.60545 -1.37004 -0.01895 0.358252 0.0342088 Si
27 1 4.07107 6.81624 9.53998 -7.87943 6.40521 -2.42307 0.213064 -0.564875 -0.39548 Si
45 1 6.76627 4.17705 9.54227 -1.71405 -2.73321 -2.56532 -0.317438 -0.90064 0.867591 Si
59 1 9.58681 6.79992 9.5383 -5.11753 -0.0422186 0.0939054 -1.44839 -0.635575 0.697892 Si
64 1 8.12775 5.45386 8.2096 0.154526 -0.242402 -4.60658 0.68643 0.825989 -0.0386283 Si
22 1 2.67817 8.16846 -0.0958875 3.6959 1.21992 2.86708 -1.1215 0.561576 -0.0823318 Si
29 1 1.2386 9.60584 9.45039 4.34252 -2.99451 0.707783 0.966525 -0.613716 0.0383109 Si
58 1 5.41023 8.19848 8.15347 1.05364 2.84484 -3.24381 0.133639 -0.623411 -0.278546 Si
61 1 6.78454 9.53065 9.47266 -3.26605 1.49547 1.31261 0.519343 -1.02854 0.939947 Si
54 1 8.16874 8.13111 0.0479095 3.45157 -2.77822 -3.65753 -0.0351512 0.420713 0.00598323 Si
48 1 8.17504 -0.00977378 8.22497 4.50163 -4.09661 -0.721291 0.652627 0.552768 -1.0305 Si
26 1 -0.0935578 8.11349 8.1595 -0.813115 3.40543 1.69852 1.32696 1.12206 0.378259 Si
ITEM: TIMESTEP
19300
ITEM: NUMBER OF ATOMS
64
ITEM: BOX BOUNDS pp pp pp
0.0000000000000000e+00 1.0887404739999999e+01
0.0000000000000000e+00 1.0887404739999999e+01
0.0000000000000000e+00 1.0887404739999999e+01
ITEM: ATOMS id type xu yu zu vx vy vz fx fy fz element
2 1 0.00873784 2.68327 2.7312 -0.876626 -1.9456 0.372544 -0.0790773 0.477126 -0.797232 Si
6 1 2.70272 2.76269 -0.00942965 0.685064 -4.21188 -0.548169 0.381882 0.0408089 0.109526 Si
7 1 1.40919 1.38713 1.31138 2.77352 4.86758 0.566475 -0.657233 -0.0978491 0.691091 Si
8 1 2.67486 0.02789 2.73349 3.05029 -3.04531 -0.811148 -0.105534 0.296861 0.514618 Si
34 1 5.33593 2.82149 2.72912 4.53153 -2.03037 -2.07898 0.558239 -0.254902 0.96394 Si
36 1 5.43115 0.0436564 0.174036 -3.83229 -3.80043 7.53079 0.343868 -0.181718 -1.21849 Si
39 1 6.76813 1.4648 1.46538 3.08864 2.7905 -2.56492 -0.0557102 0.154331 -0.915842 Si
40 1 8.16306 0.0865093 2.665 -4.08901 2.81727 2.09967 0.806752 -1.37384 -0.240563 Si
20 1 -0.0567234 5.49 0.0384295 0.273164 -1.96374 0.649061 0.966278 -0.874977 -0.819818 Si
23 1 1.42235 6.74569 1.33591 -0.106616 5.84172 2.44177 -1.10662 0.379717 0.223781 Si
24 1 2.73001 5.49426 2.69084 -4.75912 -0.289739 2.06244 0.301939 -0.459091 1.24431 Si
1 1 4.03159 4.1258 1.33195 -5.01047 -2.03559 -0.430534 0.409343 0.118012 -0.120843 Si
52 1 5.56881 5.33962 0.00421989 -2.49263 1.29458 -0.638691 -0.559799 0.915602 0.136478 Si
55 1 6.84855 6.91002 1.23741 4.27223 3.49039 -3.15263 -0.563044 -1.49225 1.42082 Si
33 1 9.50219 4.11813 1.3498 -0.993267 1.57274 -2.51562 0.550475 -1.73918 -0.438078 Si
56 1 8.1949 5.43607 2.61801 -0.884465 -3.75262 4.23869 -1.1223 1.24126 0.5009 Si
18 1 0.0739687 8.13337 2.64427 -0.528517 -2.16552 -0.253608 -0.0523907 0.516191 0.294309 Si
17 1 4.06197 9.57143 1.48791 -7.63679 -3.52147 -1.34552 -0.113345 -0.287268 -0.827339 Si
50 1 5.48727 8.238 2.70445 0.867243 -1.77358 -0.0891559 0.809082 -0.341248 0.100185 Si
4 1 0.0611778 0.00439208 -0.00483261 5.72361 -3.12675 -5.11122 -0.515374 -0.586233 0.295054 Si
49 1 9.52123 9.4619 1.29117 -3.22498 -0.243057 -1.36053 0.1164 0.920346 0.273617 Si
14 1 2.67492 2.68622 5.51811 2.65133 2.73844 -2.68533 -0.349903 -0.189895 0.121732 Si
15 1 1.28712 1.22626 6.87743 -1.94296 0.851101 2.95273 0.748814 -0.0782352 -0.663724 Si
3 1 4.03838 1.34953 4.11032 0.0897444 1.60911 1.27713 -0.0334357 0.637148 -0.329744 Si
47 1 6.76381 1.36943 6.70813 1.65873 -0.245216 1.26932 0.100404 0.0410186 -0.0492764 Si
35 1 9.52336 1.32187 4.04489 3.57799 -4.73967 -2.72922 -0.0493022 0.500063 0.388464 Si
46 1 8.11742 2.74811 5.31594 4.36518 2.54401 2.77796 0.154357 -0.439064 0.796848 Si
5 1 1.37068 4.05092 4.06881 -1.9245 6.24247 -0.487593 0.361193 -0.0164897 -0.118869 Si
31 1 1.31903 6.76641 6.77767 -1.03387 0.125678 -0.794398 -0.0135026 0.541608 -0.136874 Si
9 1 3.95565 4.15744 6.87703 -0.754427 1.98414 -1.90669 0.909318 -0.765464 -0.327255 Si
19 1 4.07678 6.95848 4.05511 -3.14638 1.78727 -1.79929 0.12571 -1.23137 0.355641 Si
37 1 6.78801 4.20227 4.07633 0.616779 -0.807816 -2.75397 -0.616931 -0.444266 -0.679889 Si
60 1 5.3686 5.476 5.47563 -0.315934 -3.82359 3.96691 -0.128195 0.60209 -0.318899 Si
63 1 6.7971 6.82813 6.78951 3.72481 6.15282 -2.62244 0.56962 -0.609898 0.186038 Si
28 1 -0.0677208 5.34101 5.36572 -3.668 -2.96738 -1.58873 0.763026 0.387067 0.999352 Si
41 1 9.45486 4.01672 6.80119 0.361214 1.28503 -0.200102 0.434695 -0.0210532 -0.394234 Si
51 1 9.63537 6.72404 3.93881 -2.76479 -2.21983 0.684979 -0.867267 0.453685 0.672817 Si
21 1 1.30885 9.58388 4.11038 4.76749 4.23654 2.70048 0.617827 -1.16112 -0.482367 Si
30 1 2.7672 8.26555 5.5013 1.16225 -2.59284 -1.07171 -0.990432 -0.176272 0.0749313 Si
44 1 5.41979 -0.0467232 5.36292 0.566373 3.35983 -0.591909 0.964325 -0.042311 0.271486 Si
25 1 4.11319 9.63004 6.90562 -4.10494 0.858694 -0.51674 -0.415535 -0.554468 -0.263021 Si
53 1 6.99165 9.49886 4.04076 2.02301 0.152378 -0.274923 -1.29176 0.145354 0.621505 Si
12 1 -0.111334 -0.0991689 5.44077 -3.56821 -2.13574 -0.102512 0.493976 1.06911 0.433837 Si
57 1 9.49891 9.46026 6.82344 1.9682 2.08 -0.350918 0.319071 -0.0616332 0.10679 Si
62 1 8.30261 8.06288 5.4395 -2.31052 -2.15894 0.357929 -0.659358 -0.0880788 -0.90462 Si
10 1 -0.04732 2.60734 8.13302 3.68958 -2.22308 -0.156889 0.173557 1.32403 0.57303 Si
16 1 2.71179 -0.0197513 8.37354 -1.35551 -4.74166 5.01807 0.418207 0.583853 -1.23882 Si
11 1 4.12112 1.42103 9.6187 0.0251978 0.939389 1.70907 0.17712 -0.365782 -0.247676 Si
42 1 5.4577 2.74766 8.13885 2.62132 -5.61686 3.17608 -0.508327 0.080274 -0.05287 Si
38 1 8.15582 2.68484 -0.0460926 -2.03417 -1.60809 5.67828 0.218425 0.436935 0.649955 Si
43 1 9.54526 1.30523 9.53471 0.598155 4.91132 -4.17512 -0.692208 -0.374647 -0.443292 Si
13 1 1.3329 4.04869 9.53798 -1.69456 0.93764 0.137183 -1.25619 0.241983 -0.115835 Si
32 1 2.64816 5.48923 8.26232 2.31479 1.78258 -0.494292 0.411571 0.170765 -0.178643 Si
27 1 4.22493 6.74009 9.57108 2.70634 -2.49733 -0.443683 -1.52164 0.640274 0.370455 Si
45 1 6.87732 4.08871 9.46044 3.72274 2.79513 -0.279387 -0.30513 -0.837991 0.348359 Si
59 1 9.55299 6.78229 9.47822 -0.260504 1.72285 0.280792 0.0318305 0.31525 0.48246 Si
64 1 8.2117 5.44826 8.19346 -0.909681 -3.77045 -0.399458 -0.58405 0.182124 -1.40461 Si
22 1 2.74113 8.128 0.130437 -0.747666 2.70389 -3.70821 1.691 0.00286293 -1.23218 Si
29 1 1.41519 9.45227 9.6335 2.40993 5.4621 -1.71171 -0.597267 -0.072195 -0.0898274 Si
58 1 5.44832 8.16248 8.15402 -1.9775 -1.74703 1.40137 0.327678 0.366934 0.524081 Si
61 1 6.79292 9.53338 9.56392 3.4478 -1.57351 -0.851639 -0.423506 0.879265 -0.563923 Si
54 1 8.17043 8.13142 -0.117331 -0.906862 -2.24847 -1.74444 0.779583 0.741156 0.123661 Si
48 1 8.14837 -0.00889568 8.06364 -4.57148 2.66013 -1.26584 -0.393566 0.134765 1.21332 Si
26 1 0.0032961 8.1805 8.20788 0.0930074 -0.97412 3.25813 0.592357 -0.319085 -0.468752 Si
ITEM: TIMESTEP
19400
ITEM: NUMBER OF ATOMS
64
ITEM: BOX BOUNDS pp pp pp
0.0000000000000000e+00 1.0887404739999999e+01
0.0000000000000000e+00 1.0887404739999999e+01
0.0000000000000000e+00 1.0887404739999999e+01
ITEM: ATOMS id type xu yu zu vx vy vz fx fy fz element
2 1 0.0211457 2.72624 2.75753 1.61097 0.753308 1.4534 -0.15345 -0.547425 0.0223789 Si
6 1 2.75771 2.68589 0.0298759 -2.92691 -0.181677 -4.26455 0.175153 -0.343688 0.227464 Si
7 1 1.43102 1.31827 1.41667 -0.871279 -1.50101 1.18242 -1.1599 0.723972 -0.680951 Si
8 1 2.71307 -0.0555666 2.67966 -3.27552 1.10819 -0.126175 0.510307 -0.616969 0.274763 Si
34 1 5.49387 2.61168 2.70055 -4.7735 0.854106 -2.0287 -0.250453 1.07036 -0.228499 Si
36 1 5.46217 -0.0206428 -0.144061 2.68313 -1.72197 -2.75477 -0.228553 -0.385219 0.946655 Si
39 1 6.81877 1.32875 1.34182 -2.85255 0.988836 0.229399 -0.000105707 -0.641448 -0.614107 Si
40 1 8.13092 -0.00545699 2.79239 -1.45163 -1.65054 -2.32659 -0.0439814 0.0880125 -0.0854908 Si
20 1 0.00390836 5.47979 -0.065092 -2.85887 -3.08924 1.42697 -0.301645 -0.809627 0.921137 Si
23 1 1.32874 6.77355 1.37003 6.6589 -0.120914 -7.92403 -0.342432 1.28696 -0.221998 Si
24 1 2.67962 5.40989 2.67966 4.52616 -3.25842 -4.92584 0.647728 -0.331934 -0.361206 Si
1 1 4.1247 4.05378 1.37725 5.37434 -1.54068 1.71873 -0.10099 -0.00670005 -0.143283 Si
52 1 5.37489 5.51537 -0.0224817 1.34876 -1.45361 4.35795 -0.158905 -0.560182 0.431774 Si
55 1 6.74438 6.70309 1.46842 -2.62629 -0.716625 1.17443 -0.265135 1.33254 -1.0861 Si
33 1 9.53442 4.03947 1.35985 0.612242 3.59682 3.11718 0.160706 1.59646 0.333163 Si
56 1 8.18385 5.54231 2.76965 1.00098 0.570331 -4.50276 0.533842 -2.01234 0.389405 Si
18 1 -0.0507911 8.1865 2.80117 -2.96366 4.5385 3.64611 -0.0645982 -0.217926 -0.868104 Si
17 1 4.04803 9.4753 1.30061 -0.744218 1.06688 -4.86601 0.43189 0.706711 -0.486707 Si
50 1 5.36583 8.13064 2.71891 -0.547895 2.32264 -0.533043 -0.191433 -0.480209 0.752519 Si
4 1 0.0204874 0.00949614 0.0129818 -4.00777 1.76421 6.52093 -0.339768 -0.0468566 -0.178309 Si
49 1 9.45175 9.52724 1.3809 3.19307 -0.684753 0.467925 0.889547 0.148424 0.285502 Si
14 1 2.78953 2.79588 5.33603 -3.67358 -5.59157 -2.34586 0.639365 -0.762841 0.0989457 Si
15 1 1.45501 1.44108 6.70256 0.247846 0.712965 -2.74755 -0.818021 1.14368 0.837901 Si
3 1 4.0909 1.29517 3.96419 1.91283 -0.584294 -4.02475 -0.0537817 0.385534 1.35199 Si
47 1 6.82935 1.31091 6.91701 0.327495 0.181158 -0.52805 0.0459888 0.0507307 -0.111021 Si
35 1 9.51124 1.364 4.18035 -2.66806 6.66906 -1.22911 0.501487 0.0428603 -1.37385 Si
46 1 8.21571 2.62883 5.57105 -0.332711 -0.595293 2.22143 -0.356042 1.43624 0.0441091 Si
5 1 1.37892 4.13875 4.05695 -4.43914 -2.76138 -1.33661 -0.975377 -0.0107816 0.491438 Si
31 1 1.39316 6.84301 6.78281 -4.28201 1.39207 -1.52691 -0.177786 -0.381052 0.752044 Si
9 1 4.24585 3.98807 6.78762 0.88428 1.53858 0.723934 -1.47505 1.5325 -0.96092 Si
19 1 4.06451 6.58852 4.10203 2.85683 3.67946 -1.60817 0.166012 2.14593 -0.436043 Si
37 1 6.8881 3.95516 4.05455 2.72874 0.079008 1.85583 0.379682 0.398758 0.331038 Si
60 1 5.56277 5.37543 5.39101 3.7639 1.14296 -4.41594 -0.111113 -0.8215 0.568805 Si
63 1 6.83527 6.69492 6.8545 -1.24519 -1.56916 -3.15658 -0.574034 1.71557 -1.17239 Si
28 1 -0.0340494 5.53743 5.4372 -1.82794 -1.64843 1.65818 0.095959 -0.306373 0.0143787 Si
41 1 9.54784 4.1669 6.87797 -0.776564 2.22961 4.20773 -0.539401 0.136311 -0.938083 Si
51 1 9.39416 6.96625 4.20911 2.93711 0.451612 -0.0400169 0.963659 -0.867293 -0.764002 Si
21 1 1.37117 9.51634 4.07726 -1.61306 0.876549 -1.51522 -0.222692 0.543478 0.0317358 Si
30 1 2.73089 8.14452 5.36872 -0.633387 -1.18376 -0.687109 0.526769 -0.554886 0.173151 Si
44 1 5.46741 0.0425717 5.46097 -0.679755 -1.86324 -2.24903 -0.855384 0.309802 0.134377 Si
25 1 4.10607 9.49512 6.71938 0.525808 4.46609 3.40772 -0.0433827 0.0340666 0.441712 Si
53 1 6.67574 9.55861 4.12127 4.61942 -2.33635 0.742603 0.644318 -0.400551 -0.984381 Si
12 1 0.0861103 0.111249 5.42996 4.48989 -3.36454 -3.16496 -0.298838 -1.23887 -0.139953 Si
57 1 9.53896 9.62316 6.73297 -1.4527 -2.64179 1.77655 0.507918 -0.106737 0.346432 Si
62 1 8.05197 8.30413 5.4962 2.79115 -1.63646 0.80738 -0.210406 -0.754743 0.78079 Si
10 1 0.0579002 2.89311 8.15337 0.586252 0.805803 -2.09367 0.373132 -2.21931 0.284429 Si
16 1 2.68544 0.00181902 8.02268 -3.12214 2.71904 2.84485 0.457937 -0.437627 0.326957 Si
11 1 3.99726 1.33378 9.43648 3.624 -2.4983 -1.78776 0.758568 0.116289 0.254687 Si
42 1 5.4405 2.73814 8.1814 0.978742 -2.4512 0.0555938 0.757598 -1.37163 0.908782 Si
38 1 8.12067 2.77686 0.0245041 3.73993 -0.425873 -1.76973 0.318007 -0.813904 0.174184 Si
43 1 9.53426 1.45983 9.55861 -0.140366 3.13239 5.35888 0.855479 0.021656 -0.232968 Si
13 1 1.44219 4.05533 9.60571 0.122009 2.51114 1.09734 -0.23056 0.944377 -0.699065 Si
32 1 2.79874 5.35765 8.1493 -6.30293 2.13705 6.36661 -0.42014 0.682237 -0.287956 Si
27 1 3.95053 6.9038 9.54506 -1.22778 5.57525 6.77343 1.21217 -1.14546 -0.830298 Si
45 1 6.74822 4.07336 9.59907 0.440993 -0.312101 -0.123477 0.151669 1.07871 -0.8925 Si
59 1 9.45471 6.84777 9.57612 5.16879 -0.700762 -3.68961 1.12891 0.174613 -0.718966 Si
64 1 8.15212 5.4986 8.2211 3.2061 1.91104 3.35305 0.0983116 -1.48945 0.87193 Si
22 1 2.61188 8.24475 -0.0784554 -2.70177 -3.90091 -3.23526 -0.323054 -0.660384 1.13407 Si
29 1 1.3206 9.53718 9.39579 2.23847 -6.43679 2.52965 -0.0496487 1.25674 0.826981 Si
58 1 5.44022 8.09897 8.13265 -1.11075 -2.24816 2.54879 -0.210242 0.348987 0.126738 Si
61 1 6.88618 9.41441 9.49042 -3.07894 2.81712 0.749052 -0.417619 0.376357 0.200313 Si
54 1 8.13697 8.07419 0.108082 -4.92511 -0.45834 3.97192 -0.705238 0.475278 -0.00775119 Si
48 1 8.28322 -0.0222571 8.22645 0.144428 -1.20435 0.370805 -0.8382 0.285268 0.0154305 Si
26 1 -0.0493505 8.23844 8.14103 0.790455 -0.259288 -1.18892 -0.424755 -1.2455 -0.603209 Si
ITEM: TIMESTEP
19500
ITEM: NUMBER OF ATOMS
64
ITEM: BOX BOUNDS pp pp pp
0.0000000000000000e+00 1.0887404739999999e+01
0.0000000000000000e+00 1.0887404739999999e+01
0.0000000000000000e+00 1.0887404739999999e+01
ITEM: ATOMS id type xu yu zu vx vy vz fx fy fz element
2 1 0.00170715 2.73495 2.66296 -3.48303 2.11168 -4.88711 0.0789327 -0.0624964 1.01516 Si
6 1 2.73761 2.83384 0.0404891 4.92327 3.89902 6.47397 -1.03319 -0.98524 -0.975578 Si
7 1 1.31111 1.39892 1.35625 2.75102 -0.349488 1.88697 1.23954 -0.412116 -0.43625 Si
8 1 2.69926 0.0911551 2.84984 1.95142 -1.97258 0.265708 0.198308 -0.235768 -1.5683 Si
34 1 5.34662 2.77799 2.79208 -0.550675 1.40774 6.46813 0.478809 -0.953716 -0.25841 Si
36 1 5.41989 0.160448 0.0195725 -4.08378 3.11367 -2.32264 -0.265432 -1.30832 0.161409 Si
39 1 6.82001 1.37929 1.41932 -4.87849 1.0966 4.9987 -0.161032 0.732624 0.446524 Si
40 1 8.24879 -0.0378924 2.72091 2.94005 -0.530015 0.0262171 -0.936448 0.351772 0.407653 Si
20 1 0.0209272 5.42612 -0.0362943 -0.861436 3.21929 -0.381717 -0.426549 0.208421 0.716095 Si
23 1 1.39854 6.81282 1.33426 -7.67953 -2.53852 4.79275 0.937635 -0.794106 0.282076 Si
24 1 2.81949 5.44239 2.80261 -2.71147 2.61648 0.242848 -1.41994 0.17075 -0.408187 Si
1 1 4.08872 4.12713 1.37029 3.75292 3.10196 -6.85835 0.437483 0.290528 0.14827 Si
52 1 5.47369 5.42593 -0.0308789 -4.06229 1.07921 -6.69301 0.214051 -0.415764 -0.208362 Si
55 1 6.83428 6.82429 1.25352 -3.07619 -4.46886 3.62445 0.676119 -0.11166 0.432864 Si
33 1 9.52748 4.05942 1.34018 3.07035 -6.52916 -0.225151 -0.491816 0.564802 -0.288242 Si
56 1 8.12454 5.43127 2.71406 0.574417 -1.92203 1.53547 0.0799875 -0.0377638 -0.19319 Si
18 1 0.0895296 8.15629 2.7064 5.53772 -3.78727 -2.59622 -1.01731 -0.451415 0.529158 Si
17 1 4.09984 9.55592 1.43132 7.19737 0.793268 4.82653 0.874618 0.583903 0.565635 Si
50 1 5.57433 8.09623 2.75314 -2.62284 1.70152 -1.8899 -0.888557 1.3316 -0.760488 Si
4 1 0.0357152 -0.0389207 -0.0521013 4.56092 -2.36806 -4.0602 -0.480613 0.208015 0.833031 Si
49 1 9.57626 9.51898 1.41031 0.439704 0.186937 -1.99979 0.363376 -0.279114 -1.20557 Si
14 1 2.70636 2.59517 5.5224 0.357593 -1.42987 0.725487 -0.976469 0.696907 0.789525 Si
15 1 1.28102 1.26608 6.89351 0.864542 -2.01725 1.81457 0.658749 -0.0576049 -0.61727 Si
3 1 4.05883 1.37073 4.23859 -2.48418 -0.87479 -0.127186 0.565218 -0.0676658 -1.60931 Si
47 1 6.70472 1.44184 6.74931 -0.496447 -0.577679 -1.39894 1.296 -0.2529 -0.387338 Si
35 1 9.6278 1.30499 4.04739 1.78874 -1.50675 4.08904 -1.41115 1.02888 0.875002 Si
46 1 8.04842 2.81362 5.36506 -5.50903 1.90296 -2.43475 0.665873 -1.47477 -0.801904 Si
5 1 1.42196 3.95579 4.13497 2.1366 -2.84066 2.88397 0.04929 0.901298 -0.715279 Si
31 1 1.33344 6.80823 6.89237 2.60697 -1.70495 0.461333 0.628042 0.576038 -1.49805 Si
9 1 4.03826 4.05411 6.76279 -1.88768 -3.29948 1.91602 0.211676 0.361813 0.925152 Si
19 1 4.1092 6.90638 4.08987 0.952885 -2.58126 3.04836 -0.85142 0.138063 0.204645 Si
37 1 6.6118 4.20444 4.11677 1.46278 1.32327 -4.97108 0.813607 0.317613 -0.0815884 Si
60 1 5.31673 5.61469 5.53523 3.63983 1.25441 -3.35154 0.741279 -1.09571 -0.363394 Si
63 1 6.8545 6.87396 6.75965 2.90747 -2.19216 6.56809 -0.581737 -0.658536 1.02761 Si
28 1 0.0934763 5.37866 5.47084 -2.11137 4.37402 2.64851 -0.300212 -0.0728883 -0.0759734 Si
41 1 9.49959 4.01957 6.68278 2.9236 -2.85179 -3.21529 0.607502 0.028891 1.1913 Si
51 1 9.5915 6.69074 4.10094 -4.42743 2.69081 0.720192 0.138288 0.831852 -0.711942 Si
21 1 1.31134 9.60741 4.06073 -0.529004 -1.71177 -0.067477 0.145171 -0.549568 0.198021 Si
30 1 2.65314 8.28439 5.39024 -3.97192 3.9132 3.56743 0.320704 -1.29388 1.07163 Si
44 1 5.4459 0.0356027 5.47526 -0.177479 3.58761 -1.02408 -0.004109 -1.33473 -0.255741 Si
25 1 4.08618 9.516 6.82204 3.26502 -1.42479 -3.91175 0.0535389 0.411307 -0.445484 Si
53 1 6.86254 9.49295 4.12247 -4.25996 0.212694 1.13699 -0.120049 0.803662 -0.267295 Si
12 1 -0.0322877 -0.0990833 5.50586 -2.25618 4.246 5.22731 -0.114884 0.690955 -0.173711 Si
57 1 9.51009 9.39428 6.79932 -0.499936 -0.00357313 -3.06143 -0.559673 1.03941 0.329499 Si
62 1 8.19913 8.09891 5.40271 -0.0711009 0.885283 -0.0613766 0.649952 0.0102867 -0.339725 Si
10 1 -0.0775009 2.61636 8.17993 -5.90152 3.05545 -3.36755 -0.460397 0.815962 -0.77414 Si
16 1 2.75941 -0.0144499 8.18076 1.51029 -0.881308 -0.0992688 -0.433899 -0.21375 0.737631 Si
11 1 4.0802 1.46188 9.47764 -2.49532 -0.691456 5.34338 -0.396612 -0.18421 0.747198 Si
42 1 5.47967 2.72162 8.13509 0.597247 -1.80726 0.486399 -1.34369 0.864731 -0.322844 Si
38 1 8.11634 2.73742 -0.0359438 -2.66366 4.25439 0.385837 0.724425 -0.800849 -0.303708 Si
43 1 9.46554 1.22512 9.44099 2.83689 -4.97662 -5.06354 -0.543274 0.765647 1.00547 Si
13 1 1.24486 4.05449 9.46827 -2.35918 -5.16395 0.0509389 1.5155 -0.00579381 0.232076 Si
32 1 2.71238 5.45316 8.15955 0.489347 3.46407 0.299938 -0.23479 -0.970656 0.27287 Si
27 1 4.12151 6.73517 9.51367 1.78068 -2.63808 0.349322 0.458929 0.942461 -0.436401 Si
45 1 6.81002 4.07287 9.41259 -4.73571 3.03227 3.15757 0.0697738 0.348942 1.02797 Si
59 1 9.53908 6.75333 9.50746 -1.91042 -2.40661 1.04996 -0.629195 0.133843 -0.16658 Si
64 1 8.17814 5.39 8.06756 -0.100816 0.233222 -8.81439 0.258362 0.731429 0.0797147 Si
22 1 2.89003 8.13518 0.040055 6.8181 4.88238 4.12645 -0.98963 -0.199279 0.096701 Si
29 1 1.45224 9.45859 9.63231 -2.57967 0.178049 -2.81722 -0.0461402 0.120247 -1.2966 Si
58 1 5.49365 8.21424 8.1633 2.5422 -1.51487 -1.32838 -0.423232 -0.769302 0.314059 Si
61 1 6.76142 9.61339 9.54736 -1.6999 1.22465 0.0435152 0.114521 0.308652 -0.250055 Si
54 1 8.21289 8.25384 -0.0763694 5.09049 0.604024 -3.39253 -0.0657825 -0.629562 0.52405 Si
48 1 8.03817 0.0123848 8.01812 0.940412 -1.29992 -2.40649 0.812486 -0.813552 0.479131 Si
26 1 -0.0127019 8.14671 8.21569 3.9268 1.21666 -2.41398 0.529487 0.181375 0.529774 Si
ITEM: TIMESTEP
19600
ITEM: NUMBER OF ATOMS
64
ITEM: BOX BOUNDS pp pp pp
0.0000000000000000e+00 1.0887404739999999e+01
0.0000000000000000e+00 1.0887404739999999e+01
0.0000000000000000e+00 1.0887404739999999e+01
ITEM: ATOMS id type xu yu zu vx vy vz fx fy fz element
2 1 -0.0180145 2.70798 2.72242 -0.28033 -0.411776 1.5014 -0.237337 0.135417 -0.686409 Si
6 1 2.71911 2.58657 -0.0331661 0.981879 -1.94226 -1.67597 0.275575 1.35585 0.912007 Si
7 1 1.34077 1.29784 1.35969 2.0724 -2.08478 -2.46265 0.0756351 0.302819 0.519629 Si
8 1 2.77371 0.011205 2.73301 3.95719 2.91803 -2.46107 -0.880145 -0.0674829 0.621195 Si
34 1 5.45945 2.70867 2.62944 -0.15826 1.99754 -1.08345 0.227459 0.14089 0.334149 Si
36 1 5.42092 -0.218809 0.0393142 -3.54288 -2.07867 0.717836 0.737313 1.71808 -1.15072 Si
39 1 6.79738 1.32805 1.2594 -0.834727 -4.22952 -5.42352 0.222621 -0.104046 0.155941 Si
40 1 8.10873 -0.0194842 2.69309 -0.451301 0.700524 6.03117 0.696035 0.209806 -0.269218 Si
20 1 0.00238425 5.43081 0.0752629 3.75525 0.431924 -2.55551 0.583991 0.829839 -1.79133 Si
23 1 1.25351 6.83208 1.39961 -0.849876 3.48625 0.0121874 -0.155386 0.661926 -0.251778 Si
24 1 2.63936 5.49785 2.65067 2.77939 -2.41558 -3.05966 0.799388 -0.405773 0.82075 Si
1 1 4.04451 4.08058 1.35684 -2.92921 -7.01546 5.58877 -0.715562 -0.610604 -0.185045 Si
52 1 5.40359 5.41335 0.0549719 0.711162 1.2824 2.25551 -0.00906514 0.396907 0.0643481 Si
55 1 6.78875 6.78414 1.30498 0.780361 -5.66707 -3.46947 0.0665021 0.370656 1.42955 Si
33 1 9.55833 4.20091 1.36133 -4.96079 8.55789 3.72006 -0.0790591 -2.28029 0.706855 Si
56 1 8.17706 5.39748 2.70856 -0.813729 1.87009 3.72133 -0.694184 1.3458 0.257635 Si
18 1 -0.100372 8.28979 2.69349 -2.36061 0.902003 1.53318 1.87121 -0.892476 0.367413 Si
17 1 4.00455 9.49066 1.39708 -8.02797 1.95597 -0.584248 -0.651903 -1.19731 -0.823694 Si
50 1 5.40766 8.20879 2.73572 3.41358 1.5025 -0.764916 0.465192 -0.929991 -0.362333 Si
4 1 -0.0782778 -0.00990012 0.0678753 1.72755 5.15947 -0.195196 1.05929 0.722012 -1.32065 Si
49 1 9.54363 9.52331 1.30842 2.16865 -2.85997 7.04254 -1.76013 0.681643 0.96536 Si
14 1 2.73915 2.79962 5.39087 3.37552 -1.07077 -2.55726 0.0151908 0.507118 -0.477966 Si
15 1 1.3871 1.47767 6.70025 -1.87772 -0.112772 0.830845 0.279082 -1.19963 0.541183 Si
3 1 4.12153 1.4384 4.05474 2.72195 -3.05989 -0.366959 -0.32837 -0.290489 -0.100081 Si
47 1 6.84541 1.26644 6.87589 5.35856 0.218373 -1.71772 -0.496304 1.26628 -0.356702 Si
35 1 9.52249 1.32712 4.07332 0.113437 0.37302 4.73302 0.466118 -0.621727 -0.189651 Si
46 1 8.26874 2.61651 5.52584 4.6192 2.61687 -0.706737 -0.931413 1.09112 0.175327 Si
5 1 1.28223 4.13275 4.00993 -0.464086 2.52596 0.30405 0.661455 -0.154305 0.752955 Si
31 1 1.34757 6.82565 6.7462 -0.692998 2.6915 3.54112 -0.481398 -1.04093 0.986098 Si
9 1 4.09601 4.07596 6.84214 1.58304 0.565322 -2.99619 0.0370721 -0.121018 -0.318362 Si
19 1 4.09051 6.78401 4.06729 -4.14598 0.136584 -1.80116 0.841622 -1.46927 -0.0710135 Si
37 1 6.85167 3.98529 4.06713 1.52729 -9.78363 3.00905 0.695709 -0.537087 0.193298 Si
60 1 5.54398 5.30578 5.45891 0.159242 0.577441 6.02685 -1.32861 1.20013 -0.704382 Si
63 1 6.76721 6.80456 6.76098 1.33119 1.7772 -0.709045 0.542542 -0.273583 0.751491 Si
28 1 -0.0888503 5.4417 5.4254 2.25945 0.127828 0.134148 0.0448914 0.620385 -0.0275839 Si
41 1 9.52631 4.10832 6.97231 -9.03455 -0.364934 -0.999535 -0.203998 -0.157077 -1.3568 Si
51 1 9.50965 6.92263 3.98342 0.936753 -4.8511 1.36538 -0.890338 -1.20251 1.45796 Si
21 1 1.41063 9.44477 4.11094 2.82268 0.259975 -1.96776 0.360892 0.440682 -0.503658 Si
30 1 2.78189 8.02265 5.45648 1.15101 1.4156 -4.26488 -0.291147 1.91222 -0.171883 Si
44 1 5.4372 0.0632504 5.41211 1.01653 0.530291 0.901514 -0.162727 -0.468884 0.674804 Si
25 1 4.05489 9.54699 6.78687 -3.86847 -5.32416 1.9609 0.143772 -0.154133 0.517269 Si
53 1 6.75718 9.57061 4.08239 -3.70746 -0.826828 4.18487 0.293845 -0.400302 0.183746 Si
12 1 0.0849569 -0.0278605 5.41472 1.00576 0.420903 1.24511 -0.635046 0.55728 0.170793 Si
57 1 9.52823 9.6182 6.83129 1.51497 -1.39904 2.5669 0.395831 -0.859633 -0.71511 Si
62 1 8.1443 8.21739 5.47985 -3.09889 2.75073 -0.339714 0.153504 0.205565 -0.608998 Si
10 1 0.129369 2.75527 8.14915 8.73695 -1.75022 1.62487 -0.52375 0.441073 1.0516 Si
16 1 2.68127 0.10026 8.18727 0.223576 4.92098 -6.95096 0.331432 -0.369614 -0.997741 Si
11 1 4.14571 1.33034 9.5621 -4.47338 -2.44435 -2.99369 0.052681 -0.919846 -0.00681626 Si
42 1 5.44407 2.72567 8.20776 0.988602 4.1379 3.40822 0.636429 -0.283741 -0.0744909 Si
38 1 8.29541 2.75774 0.0100511 -0.539348 2.16771 -2.20238 -1.73716 0.547388 -0.0217411 Si
43 1 9.60849 1.43438 9.55546 -1.33366 0.341221 -2.55947 0.159714 -0.504026 -0.642374 Si
13 1 1.46829 4.12217 9.5824 1.57155 0.0126816 2.49908 -0.818356 -0.393164 -0.174671 Si
32 1 2.75352 5.46984 8.16538 3.08881 -1.04089 -4.60918 -0.0929422 0.260212 -0.193149 Si
27 1 4.15635 6.7578 9.55504 -1.64 -3.35925 -2.21233 -1.70041 0.454399 0.200862 Si
45 1 6.7358 4.14917 9.60957 4.22805 2.99676 -2.35437 1.09204 -1.51037 -0.257109 Si
59 1 9.54461 6.79807 9.51616 0.318363 -0.278027 -1.27072 0.101498 -0.0136304 0.726932 Si
64 1 8.08802 5.47769 8.25865 -2.12769 -0.330757 5.98012 0.141362 0.176511 -0.704825 Si
22 1 2.54901 8.10306 -0.0739515 0.840038 -0.558636 -2.05095 1.35187 0.945682 0.225212 Si
29 1 1.24111 9.62795 9.45779 -0.697577 2.29621 1.33102 0.592339 -0.726748 0.748154 Si
58 1 5.42637 8.10376 8.19514 -0.817331 2.85656 -1.94461 0.337798 1.08804 -0.9219 Si
61 1 6.90067 9.46816 9.47086 0.524461 -2.63581 -2.62078 -0.758865 -0.295841 0.799185 Si
54 1 8.21879 8.15322 0.0383156 -4.80888 -1.74165 0.13893 -0.382754 -0.431286 -1.02953 Si
48 1 8.23732 0.0199952 8.21438 1.28469 1.34678 -1.42892 0.0339542 0.28071 0.522831 Si
26 1 -0.0335956 8.18248 8.13854 -7.11137 0.808788 -2.54899 0.1035 0.020376 -0.366834 Si
ITEM: TIMESTEP
19700
ITEM: NUMBER OF ATOMS
64
ITEM: BOX BOUNDS pp pp pp
0.0000000000000000e+00 1.0887404739999999e+01
0.0000000000000000e+00 1.0887404739999999e+01
0.0000000000000000e+00 1.0887404739999999e+01
ITEM: ATOMS id type xu yu zu vx vy vz fx fy fz element
2 1 0.0454677 2.71773 2.71282 4.80364 -7.04969 -0.0604072 0.0723986 0.116568 0.634864 Si
6 1 2.67647 2.83455 -0.0066627 -3.23776 0.883437 1.59828 0.287264 -0.849744 -0.627474 Si
7 1 1.38237 1.38375 1.31007 1.75559 1.3133 2.15861 -0.529873 -0.122207 0.25968 Si
8 1 2.63638 -0.0473113 2.68098 -4.4921 0.38894 2.90163 1.044 0.514733 -0.636742 Si
34 1 5.38717 2.70156 2.80073 -1.28415 4.5831 -2.5018 0.475425 0.992424 -0.385589 Si
36 1 5.51013 0.135121 -0.0883313 0.1806 -1.85554 2.72032 -0.456343 -0.172976 1.61514 Si
39 1 6.82192 1.41925 1.48958 1.94149 4.63985 3.32091 0.196649 -0.935304 -1.00895 Si
40 1 8.25203 -0.0925457 2.72711 -0.986181 4.61003 0.210963 -0.763823 1.67436 -0.0151637 Si
20 1 -0.0539369 5.46378 0.00560049 -0.0979381 1.91364 -1.22573 0.452897 -0.304257 0.247709 Si
23 1 1.37737 6.74248 1.39406 4.04742 -3.34586 -1.62633 0.599502 -0.532894 -0.44466 Si
24 1 2.7934 5.36681 2.72764 -0.778167 2.37806 -2.46392 -0.0492126 0.685943 -0.539181 Si
1 1 4.13452 4.08509 1.28653 -1.86704 3.57975 -4.33985 0.178249 -0.175099 0.922045 Si
52 1 5.52528 5.41417 -0.0432412 3.9299 -4.69566 2.28805 -0.434294 1.08116 0.360156 Si
55 1 6.81678 6.84775 1.42938 2.66904 6.46116 -0.691843 -0.53122 -0.701265 -1.18598 Si
33 1 9.54292 4.01599 1.34602 0.470486 -0.221598 -5.25004 -0.317368 0.869854 0.00883298 Si
56 1 8.18461 5.4767 2.67177 -3.51782 0.692446 0.454483 0.66437 -0.491418 0.351511 Si
18 1 0.0463217 8.07831 2.67317 2.85538 0.456369 1.39944 -0.74902 1.07515 -0.0532861 Si
17 1 4.13551 9.60048 1.28644 0.409688 0.0313954 3.20837 0.083208 -0.0616536 0.628309 Si
50 1 5.42805 8.16711 2.71756 1.11028 -1.13684 -1.41038 -0.0522785 0.622884 0.281897 Si
4 1 -0.0593876 0.00266736 0.0402426 0.536951 -0.328688 0.5982 1.20077 -0.273003 -0.239744 Si
49 1 9.54125 9.50502 1.35448 -1.39145 -2.1597 -6.73964 0.458436 -0.778486 0.210391 Si
14 1 2.73148 2.65149 5.51279 -2.48158 -2.17987 2.73724 0.403334 0.0416921 -0.571148 Si
15 1 1.37408 1.33016 6.82705 -2.55967 -1.92163 -1.95787 -0.895392 -0.203331 0.33001 Si
3 1 4.01164 1.29342 4.05111 -3.92142 2.6561 0.918883 0.200012 -0.270752 0.660928 Si
47 1 6.80936 1.37882 6.7426 -3.70058 -0.705034 -0.827587 -0.533532 -1.49787 0.783191 Si
35 1 9.42018 1.45754 4.07943 -1.39887 -1.71388 -0.307652 1.23062 -0.846645 -0.157362 Si
46 1 8.07941 2.75533 5.45189 -1.08037 -2.37845 -1.77817 1.03196 0.848745 -0.150412 Si
5 1 1.52376 4.03823 4.11122 0.515485 -3.63635 -2.63289 -1.77845 -0.0327862 -0.135627 Si
31 1 1.43769 6.8216 6.82402 -2.96336 -1.01195 0.441779 -0.821949 0.0656571 -0.012253 Si
9 1 4.01719 4.1202 6.7798 -4.62801 -0.938026 2.65454 0.753371 -0.439892 0.0791326 Si
19 1 4.03938 6.80763 4.08455 3.65971 3.57102 -2.8158 -0.401948 1.03505 -0.367296 Si
37 1 6.85356 4.16505 4.07136 -2.95896 7.99785 -1.40041 -1.49044 -0.350282 -0.0166815 Si
60 1 5.35033 5.49057 5.38984 3.74836 -2.9037 -3.08729 1.41574 -0.465036 1.06866 Si
63 1 6.79301 6.76381 6.8847 0.373191 1.83096 -2.62561 -0.0188161 0.252957 -1.4344 Si
28 1 0.102733 5.49153 5.41261 -3.42466 -1.65248 -1.68363 -0.357903 -0.670999 -0.075243 Si
41 1 9.55207 4.09645 6.77289 2.06693 -0.448661 3.3953 -0.0677535 -0.0676479 0.449816 Si
51 1 9.55521 6.82689 4.03112 -1.4687 3.38053 -4.02191 0.0842982 -0.572354 0.743946 Si
21 1 1.29979 9.51749 3.99274 -3.59598 5.29734 0.781432 -0.506379 0.235832 1.38114 Si
30 1 2.66457 8.24019 5.44804 0.8127 2.78326 3.16443 0.681845 -0.409074 -0.576856 Si
44 1 5.45007 -0.0986758 5.36897 -4.04174 0.366947 0.603648 0.557034 1.31076 -0.0378641 Si
25 1 4.11772 9.53815 6.76868 1.07501 5.83837 2.39451 -0.274557 -0.662283 0.540194 Si
53 1 6.91495 9.48838 4.04947 6.71846 -2.21849 -2.70269 -1.02041 -0.677255 0.425637 Si
12 1 -0.0769281 0.0554254 5.4468 0.417425 -6.26117 -4.54937 0.519161 -0.182512 -0.724111 Si
57 1 9.50321 9.57619 6.82941 -1.40748 -0.918399 -3.69043 0.670179 -0.934048 0.148816 Si
62 1 8.21732 8.14449 5.48676 7.8423 -4.81803 0.852853 -0.460774 -0.307494 -0.033814 Si
10 1 -0.0820479 2.60918 8.22726 -4.54075 -0.111487 -0.491238 0.842802 1.20226 -1.00269 Si
16 1 2.73321 -0.0406688 8.15235 2.25156 -4.67354 6.41306 0.148295 0.31297 0.641708 Si
11 1 4.06545 1.42717 9.52127 1.83879 5.58171 2.07261 -0.363874 0.204527 -0.675817 Si
42 1 5.44396 2.74033 8.08683 2.24687 -1.68893 -1.44903 -0.29288 0.138902 0.367851 Si
38 1 8.11695 2.73306 -0.0113919 2.92553 -3.32474 -1.61547 0.725802 -0.87894 0.513966 Si
43 1 9.50169 1.27875 9.56949 -1.96682 2.39627 4.58897 -0.860486 0.681063 0.337432 Si
13 1 1.28383 4.12181 9.49215 2.19958 0.81615 -0.432492 -0.369699 -0.572841 0.298497 Si
32 1 2.69254 5.4093 8.18068 -5.39968 -0.998667 5.88619 0.356736 0.701218 0.0463296 Si
27 1 4.07134 6.81518 9.51689 3.31614 2.5803 1.53099 0.322241 -0.666234 0.348097 Si
45 1 6.82888 4.04668 9.50186 -1.34088 -0.533639 -1.20679 -0.325657 0.182655 -0.532022 Si
59 1 9.48736 6.84704 9.60263 -1.68957 -1.35228 -1.7122 0.0496336 -0.0656902 -0.659009 Si
64 1 8.17417 5.45693 8.21367 2.90887 -0.279696 1.84349 0.557299 -0.436786 -0.246755 Si
22 1 2.76698 8.13584 0.0820289 -4.87569 -3.43818 2.99757 -0.47161 0.225403 -0.76323 Si
29 1 1.36568 9.51263 9.58755 5.16512 -3.80917 -1.40253 -0.034627 -0.17051 -0.139146 Si
58 1 5.45941 8.14862 8.17648 0.202605 1.41182 1.84926 -0.421712 0.643097 0.0674407 Si
61 1 6.77242 9.55828 9.55722 -0.0659446 -0.231449 1.62285 0.355695 -0.729552 -0.28713 Si
54 1 8.12226 8.19202 0.0551872 3.9981 -1.97027 -2.73715 0.00943423 0.267576 -0.295558 Si
48 1 8.16847 -0.0463838 8.22405 -2.39297 -0.323839 -2.26897 -0.805532 0.903149 -0.911367 Si
26 1 0.00834839 8.13276 8.17729 0.563111 -1.20451 6.09829 -0.170855 0.622533 0.189231 Si
ITEM: TIMESTEP
19800
ITEM: NUMBER OF ATOMS
64
ITEM: BOX BOUNDS pp pp pp
0.0000000000000000e+00 1.0887404739999999e+01
0.0000000000000000e+00 1.0887404739999999e+01
0.0000000000000000e+00 1.0887404739999999e+01
ITEM: ATOMS id type xu yu zu vx vy vz fx fy fz element
2 1 -0.0392156 2.69108 2.76146 -3.32687 1.0993 0.905289 0.508405 0.445205 -0.7922 Si
6 1 2.74062 2.70034 0.062291 -1.52803 0.720678 -0.0417416 0.0207275 0.276248 -0.0261805 Si
7 1 1.36796 1.344 1.3953 1.55996 0.35181 0.382726 -0.019172 0.17166 0.205447 Si
8 1 2.74346 0.0240086 2.79219 -0.981591 -5.01206 -0.423591 0.0243467 -0.32158 0.276738 Si
34 1 5.46616 2.78156 2.75922 -0.950757 -7.3948 1.28531 -0.583345 -1.47954 -0.968483 Si
36 1 5.49259 -0.0606711 0.017504 3.25751 1.98788 -4.18831 -0.70367 -0.126329 -0.563269 Si
39 1 6.85245 1.33366 1.25941 -1.03917 4.66827 -1.03427 -1.29107 0.714159 1.49887 Si
40 1 8.16662 0.0384849 2.65654 2.45521 -6.58759 -0.127186 -0.261076 -0.839283 1.00553 Si
20 1 0.101122 5.45174 -0.0504925 -0.112068 1.49186 -1.8955 -1.35671 -0.424276 0.740251 Si
23 1 1.33813 6.84395 1.36846 -3.75759 2.4272 0.0897913 0.296188 0.501133 -0.275247 Si
24 1 2.65449 5.51996 2.75342 0.829796 -5.24063 -0.200948 -0.14277 -0.458081 0.388461 Si
1 1 4.02287 4.15656 1.47586 2.65211 -0.384159 0.633474 0.564732 -0.346967 -1.09341 Si
52 1 5.37768 5.52397 0.0140075 -1.79704 2.2012 1.41762 0.337409 -1.30325 -0.31131 Si
55 1 6.82781 6.80265 1.30812 -2.87856 0.412402 2.09241 0.0925519 0.379216 0.565963 Si
33 1 9.48179 4.04472 1.30127 3.65684 -2.96017 0.938726 0.322344 0.326724 0.200662 Si
56 1 8.13389 5.45249 2.76127 1.59114 1.51587 -3.07193 0.462865 -0.167265 -0.900465 Si
18 1 -0.00517528 8.22103 2.74853 0.0071425 -2.12863 0.9034 0.0374801 -0.529103 0.490719 Si
17 1 4.14608 9.49157 1.489 -1.98951 -0.842096 -3.13779 -0.486303 0.277093 -1.01858 Si
50 1 5.48017 8.09246 2.78911 -2.51717 -1.31792 -0.72995 -0.0702871 0.110558 -0.482725 Si
4 1 0.0372024 0.0228076 -0.0174286 1.11773 -1.26112 2.91348 -1.02979 -0.0586606 0.153269 Si
49 1 9.52006 9.53096 1.38918 -0.989859 1.36805 0.523109 0.244288 0.160623 -1.14815 Si
14 1 2.74841 2.83123 5.42747 1.95636 2.95336 -1.00199 -0.657197 -0.376945 0.494111 Si
15 1 1.41972 1.41355 6.75452 1.48915 -1.56043 -2.64532 -0.332644 -0.0919164 0.54941 Si
3 1 4.0517 1.43022 4.19437 2.77304 -1.98197 -5.86359 0.915106 -0.222708 -1.16779 Si
47 1 6.76321 1.39104 6.90502 -2.01702 3.00765 2.7331 0.399694 0.861622 -0.966169 Si
35 1 9.64125 1.22143 4.06774 3.34106 1.43725 -0.266674 -2.02748 1.44887 -0.0346161 Si
46 1 8.11423 2.67614 5.35178 0.906826 -2.34058 5.2161 0.622009 -0.880488 0.612521 Si
5 1 1.31208 4.10788 4.10669 1.19306 4.65205 -1.00511 -0.0992927 0.21653 -0.459133 Si
31 1 1.41659 6.7396 6.80353 -0.46598 2.70605 -2.38385 -0.477767 0.220523 -0.575491 Si
9 1 4.12665 4.04771 6.82379 9.25495 0.380608 0.227056 -0.453451 0.527221 -0.0805301 Si
19 1 4.09167 6.75684 4.10842 0.220957 -6.63534 0.451605 0.262081 -0.0953444 0.306254 Si
37 1 6.76191 4.08888 4.07423 3.04605 -3.00962 -2.37092 0.789005 0.206403 0.307705 Si
60 1 5.45916 5.37401 5.48523 -3.24642 -0.747847 0.653165 -0.258869 0.852924 -0.403772 Si
63 1 6.79426 6.84543 6.73469 0.283703 -2.853 2.42622 -0.321248 -0.465382 0.999552 Si
28 1 -0.0711323 5.44211 5.45381 -3.39338 0.773673 -1.51346 0.462565 0.146356 0.167107 Si
41 1 9.48311 4.01369 6.74965 2.43415 5.53201 0.651756 0.0702525 0.282452 0.0316211 Si
51 1 9.47849 6.8466 4.12483 -1.765 3.95118 1.71907 0.371867 -0.250331 -0.921798 Si
21 1 1.39968 9.50296 4.18053 0.607635 0.805591 -1.80993 0.10228 0.16664 -1.04997 Si
30 1 2.78761 8.13874 5.4582 -0.406256 0.672529 -3.00322 -0.350672 -0.357593 0.336698 Si
44 1 5.42724 0.0969625 5.57294 1.3272 -4.08826 -0.329355 -0.422946 -0.906582 -0.950197 Si
25 1 4.10645 9.49023 6.82225 2.24342 2.6767 -4.96753 -0.4031 1.10604 -0.768544 Si
53 1 6.69546 9.59623 4.08651 -4.66586 2.37082 2.45671 0.828388 0.635558 -0.169724 Si
12 1 0.0445449 -0.0124723 5.45407 -2.2649 5.34613 0.759673 0.342979 -0.510124 0.944504 Si
57 1 9.53396 9.47012 6.76635 4.86393 6.09597 -0.769073 -0.874911 0.71801 0.116797 Si
62 1 8.0576 8.181 5.35119 -4.17259 3.19583 2.97612 0.804899 0.792353 0.791634 Si
10 1 0.0290584 2.78372 8.16069 3.40012 -0.0257957 2.24582 -0.301695 -1.04009 -0.613248 Si
16 1 2.75613 -0.024681 8.11268 -3.76539 1.19518 -3.48761 -0.925928 0.138583 0.434617 Si
11 1 4.04165 1.33083 9.52108 0.862416 1.07938 -1.71901 0.69257 -0.263708 0.740904 Si
42 1 5.38503 2.73536 8.20383 -2.82475 -1.37665 -1.61183 0.4895 -0.335248 0.488266 Si
38 1 8.10629 2.64184 -0.0973606 -7.12641 2.34472 1.86898 1.00681 1.23186 0.515805 Si
43 1 9.50881 1.39308 9.46924 3.73498 0.773006 -2.57943 0.935797 -0.48987 0.17801 Si
13 1 1.39607 4.03214 9.53392 -3.16448 0.848379 3.64248 0.674011 0.52839 -0.0271971 Si
32 1 2.75568 5.39637 8.1346 5.51442 -6.15322 1.86297 -0.304904 -0.360855 0.388281 Si
27 1 4.04603 6.80136 9.45128 -1.39502 2.70632 3.44252 0.56042 0.891592 0.320905 Si
45 1 6.80172 4.06728 9.52428 -1.73548 -0.801153 2.40135 -0.849788 0.924193 -0.024571 Si
59 1 9.558 6.79175 9.51543 1.21467 3.16833 3.35893 0.0151617 -0.628931 -0.733746 Si
64 1 8.16668 5.4112 8.09905 -0.917231 3.23389 -0.370564 -0.165971 0.524136 0.444891 Si
22 1 2.75424 8.19865 -0.0125483 -0.817893 1.04075 -1.11704 -0.224725 -0.0784904 0.414017 Si
29 1 1.32322 9.52232 9.5053 -6.03788 2.26576 -1.80262 0.750599 -0.0931906 -0.430439 Si
58 1 5.43868 8.26399 8.12678 0.518108 -6.60046 -1.68383 0.760403 -2.00206 0.730626 Si
61 1 6.88623 9.48591 9.50444 4.08734 -1.4075 -1.04891 -1.0494 0.873712 -0.0407587 Si
54 1 8.20578 8.16109 -0.0721086 -2.15959 -6.52019 3.15666 0.321307 -0.221975 1.17341 Si
48 1 8.11782 0.0561976 8.16655 4.85888 -4.48681 3.32568 1.32636 -1.28942 -0.408696 Si
26 1 0.019598 8.10149 8.1082 -3.05011 0.260398 0.540776 0.0307819 0.359001 0.392868 Si
ITEM: TIMESTEP
19900
ITEM: NUMBER OF ATOMS
64
ITEM: BOX BOUNDS pp pp pp
0.0000000000000000e+00 1.0887404739999999e+01
0.0000000000000000e+00 1.0887404739999999e+01
0.0000000000000000e+00 1.0887404739999999e+01
ITEM: ATOMS id type xu yu zu vx vy vz fx fy fz element
2 1 0.0550432 2.78299 2.71036 -0.41443 4.1139 -0.734143 -1.52865 -0.311481 0.248269 Si
6 1 2.72768 2.71812 -0.117554 6.31106 0.0676638 0.222611 0.0130162 -0.812528 0.636497 Si
7 1 1.26498 1.38387 1.31433 -0.591919 1.66719 -1.92256 1.05383 0.109786 -0.561649 Si
8 1 2.68994 0.0482607 2.66862 1.03714 4.00718 2.43913 -0.024232 -0.505449 -0.00116442 Si
34 1 5.51967 2.62161 2.61277 -5.81866 5.26578 2.5672 -0.834769 0.908468 2.20303 Si
36 1 5.38617 0.00292362 -0.0122903 -3.98184 2.42885 4.73741 0.324592 -0.352884 -0.0634251 Si
39 1 6.79744 1.2835 1.37486 1.1335 -6.48281 4.37179 0.956944 0.272892 -1.27446 Si
40 1 8.12162 0.0707356 2.80071 -2.1479 2.46582 -1.37714 0.947301 -1.20542 -0.723617 Si
20 1 -0.0451606 5.44496 -0.0018333 -3.33022 -2.53059 4.13568 0.778976 0.357247 -0.100587 Si
23 1 1.37008 6.76083 1.37077 0.345574 -0.935883 0.515839 -0.659839 0.322612 -0.0977748 Si
24 1 2.74337 5.45008 2.73688 0.639627 3.13697 1.35706 0.298644 -0.791496 -0.428525 Si
1 1 4.07882 3.95061 1.36085 0.497441 0.402937 1.14616 -0.0568658 1.24649 -0.345984 Si
52 1 5.46832 5.36021 -0.0188241 1.52615 -2.29796 -2.9769 -0.511565 0.194047 0.328643 Si
55 1 6.79062 6.79612 1.36759 2.05823 -2.98211 -5.60232 -0.133891 -0.206815 -0.218679 Si
33 1 9.51303 4.18568 1.42218 0.305892 2.94267 0.909923 0.47537 -0.486243 0.437865 Si
56 1 8.14029 5.50837 2.7861 1.27368 -0.665763 -2.56252 -0.442078 -1.07828 0.587383 Si
18 1 -0.0399394 8.15908 2.69832 1.62951 2.11532 -2.72329 0.530294 -0.515011 -0.0707666 Si
17 1 3.99568 9.49772 1.30112 2.7934 1.55344 4.42295 0.49174 0.122919 0.468562 Si
50 1 5.44976 8.16044 2.68617 1.74316 -1.77583 4.76353 -0.611059 0.250301 0.0160015 Si
4 1 -0.114793 0.0135907 -0.0228136 0.879465 -2.23994 -3.36705 1.58629 -0.91292 0.618032 Si
49 1 9.4811 9.50957 1.34897 0.525145 -1.6594 2.75999 -0.226324 1.2377 1.21209 Si
14 1 2.74859 2.71865 5.47139 1.3235 -3.61896 0.747816 -0.0802167 -0.962576 -0.967862 Si
15 1 1.28071 1.37476 6.84321 0.20549 1.56954 2.5521 1.33859 -0.134651 -0.922913 Si
3 1 4.19936 1.24862 4.05572 -0.112938 -1.86594 5.69985 -1.40935 1.4645 -0.0998405 Si
47 1 6.81811 1.31892 6.77668 -0.951973 -1.97564 -1.15611 0.365359 0.377645 0.0308313 Si
35 1 9.49898 1.42174 4.11985 4.33082 -4.35494 0.579116 1.53802 -0.400477 -0.650812 Si
46 1 8.26885 2.72903 5.50636 -2.12336 -0.914851 -2.58846 -1.61261 0.55217 0.221099 Si
5 1 1.36634 4.0875 4.06682 -0.349726 -3.09622 2.7068 1.50308 -0.414997 0.238941 Si
31 1 1.29396 6.87311 6.80183 3.80878 -1.3762 1.75656 1.08909 0.361257 0.203886 Si
9 1 4.09547 4.09346 6.77062 -1.80521 -0.484816 0.135863 -0.285186 -0.0917412 -0.0301475 Si
19 1 4.08422 6.81876 4.07756 -0.474072 3.54055 1.96886 -0.0872852 0.347096 -0.489018 Si
37 1 6.71559 4.04974 4.19566 -7.16009 3.86325 2.08262 1.05134 0.166552 -1.0997 Si
60 1 5.35316 5.50842 5.47617 -3.88112 4.1533 5.13343 0.571401 -0.815517 -0.470399 Si
63 1 6.70822 6.77915 6.82317 0.53979 0.406356 -2.62281 1.77333 0.716598 0.110084 Si
28 1 0.134613 5.40458 5.44402 4.79292 -4.65395 -0.223916 -1.08941 -0.128306 0.892714 Si
41 1 9.58806 4.11871 6.85406 -3.15048 -5.09842 -1.37781 -0.0840763 0.502815 0.218441 Si
51 1 9.67289 6.67965 4.1183 3.99987 -2.0573 1.19692 -1.38429 1.68992 -0.0652141 Si
21 1 1.33444 9.52781 4.01574 -1.59539 0.105267 2.32341 0.341112 0.253912 -0.026282 Si
30 1 2.73131 8.20721 5.36704 0.947828 0.339843 -5.35282 -0.883329 -0.534458 0.58218 Si
44 1 5.45755 -0.07921 5.43617 2.41036 6.56166 -2.23717 0.492045 -0.379698 0.352568 Si
25 1 4.04173 9.48593 6.79495 0.198206 -2.39034 3.28558 0.526193 0.304337 -0.00797632 Si
53 1 6.84174 9.4822 4.05575 2.11649 0.61762 -0.424574 -0.127166 -0.171061 0.600084 Si
12 1 0.0306291 -0.0174456 5.42373 -1.41929 -5.71657 4.81331 -0.955765 0.380666 0.148824 Si
57 1 9.49862 9.56711 6.83468 -2.34159 -5.08285 0.362399 0.619323 0.0377535 -0.577572 Si
62 1 8.24284 8.1476 5.46459 -1.08858 -0.707011 0.672092 -0.64241 -0.943489 -0.196024 Si
10 1 0.0430182 2.73751 8.19537 -0.213981 -2.58826 -2.78486 -0.748234 0.27016 0.737263 Si
16 1 2.72646 0.0254569 8.1123 -0.195719 1.03066 1.41721 -0.0355143 -0.162169 0.490281 Si
11 1 4.18549 1.36919 9.41164 -3.80445 1.17364 -3.40299 -1.07603 0.3198 0.266884 Si
42 1 5.48944 2.78679 8.07072 0.0167975 4.68918 -0.0546716 0.11415 -1.05402 0.112161 Si
38 1 8.28523 2.72888 0.132619 2.01239 0.0728938 -0.590955 -1.84195 -0.331294 -0.852134 Si
43 1 9.53515 1.37746 9.5944 -1.41916 -2.71769 -3.16757 -0.271702 0.747362 -1.25685 Si
13 1 1.41249 4.15029 9.49611 -1.81615 -1.35307 -2.87879 -0.761537 -0.322855 0.0989819 Si
32 1 2.73003 5.4134 8.06847 0.834982 1.81859 -4.45605 -0.282479 1.17211 0.412489 Si
27 1 4.08586 6.75142 9.48557 1.88756 -5.47472 -3.1023 -0.33262 -0.125344 0.496401 Si
45 1 6.81851 3.98895 9.52269 1.09225 4.08028 -6.7048 1.18257 0.724585 0.663863 Si
59 1 9.50303 6.87481 9.58995 -2.15647 0.748211 2.69284 -0.119836 0.433896 0.341835 Si
64 1 8.17557 5.51839 8.26172 -3.44395 -1.61342 1.75803 -0.46814 -0.982782 -1.00483 Si
22 1 2.65263 8.11838 -0.0336822 3.63438 0.437337 -0.59483 0.86828 -0.406558 -0.0395107 Si
29 1 1.40107 9.55573 9.55467 2.82029 -0.280166 4.72189 -0.945277 0.705774 -0.354677 Si
58 1 5.42427 8.15138 8.18563 -0.114838 3.21492 -3.09886 -0.493783 0.0974756 -0.333985 Si
61 1 6.74032 9.51226 9.53246 0.99066 -0.537137 0.139304 0.71725 0.710235 -0.072864 Si
54 1 8.10099 8.23861 0.072061 2.38238 2.82166 -3.15866 -0.1186 -1.02052 -0.931642 Si
48 1 8.20223 0.0189678 8.18315 -4.91103 4.93287 -7.14423 -1.07152 0.0392192 0.650004 Si
26 1 -0.0641792 8.27415 8.23017 -2.2302 3.18337 -2.7061 0.689473 -0.837255 -0.289296 Si
ITEM: TIMESTEP
20000
ITEM: NUMBER OF ATOMS
64
ITEM: BOX BOUNDS pp pp pp
0.0000000000000000e+00 1.0887404739999999e+01
0.0000000000000000e+00 1.0887404739999999e+01
0.0000000000000000e+00 1.0887404739999999e+01
ITEM: ATOMS id type xu yu zu vx vy vz fx fy fz element
2 1 -0.0787378 2.7044 2.72766 2.64437 -1.91661 -1.55597 1.61489 -1.21626 -0.0703002 Si
6 1 2.64823 2.72873 0.0779116 -2.66768 0.72523 -0.414589 0.344168 0.801499 -0.030344 Si
7 1 1.39263 1.28419 1.40583 -4.94407 -3.10614 4.3414 -0.48743 0.222653 0.590277 Si
8 1 2.79392 -0.0921268 2.76062 0.620911 3.96548 2.87214 -0.682218 0.911413 0.327948 Si
34 1 5.42056 2.77493 2.70436 3.0021 -1.36491 -4.41378 -0.124672 0.729855 -0.626931 Si
36 1 5.53289 0.0781092 0.0510363 0.00728113 -4.37053 -8.48374 -0.549356 -0.490289 0.0072299 Si
39 1 6.84999 1.43887 1.37505 0.743781 2.20755 -4.73979 -0.446065 -0.448448 0.337862 Si
40 1 8.20656 -0.0577411 2.5843 3.55296 -3.42172 2.00215 -1.19739 0.910667 0.943272 Si
20 1 0.0174446 5.42796 0.0484629 3.291 1.09114 -3.46773 -0.210405 -0.596189 -0.840066 Si
23 1 1.34333 6.77981 1.36699 0.194249 -2.9518 1.21425 0.859897 0.356264 0.373409 Si
24 1 2.72359 5.47336 2.7988 -0.774081 2.12834 0.267672 -0.301871 0.141866 -0.754935 Si
1 1 4.06448 4.24422 1.32147 -2.02491 0.844191 1.38323 0.118088 -1.24339 0.492786 Si
52 1 5.4898 5.57696 0.0101806 -2.34084 1.89064 -1.12906 -0.160663 -0.0779532 -0.0559396 Si
55 1 6.90167 6.93063 1.35002 -1.54166 -0.265622 1.15999 -0.514767 -0.882791 0.337842 Si
33 1 9.61513 3.94782 1.29608 -2.8555 0.204431 -3.45825 -0.985081 0.924533 -0.7464 Si
56 1 8.28256 5.36053 2.5509 -1.36493 1.17836 2.10797 -0.804753 1.32154 0.588295 Si
18 1 0.0354629 8.16297 2.69805 -4.6694 5.84497 -2.89532 -0.616603 0.457615 -0.101094 Si
17 1 4.17513 9.54723 1.37592 -2.91615 -2.93625 1.04035 -0.620112 0.369104 -0.594533 Si
50 1 5.40459 8.22672 2.74307 3.13197 1.55201 -1.07107 1.33198 -0.915454 0.359846 Si
4 1 0.0981138 -0.0653569 -0.0176122 -6.87572 1.11174 3.40418 -1.31179 1.0875 -0.00751605 Si
49 1 9.54284 9.5491 1.31837 -0.754507 -0.791409 -0.769071 1.36781 -1.24932 -0.559725 Si
14 1 2.62693 2.80261 5.48622 -1.22411 4.44008 -0.537724 0.00656043 -0.421259 0.525839 Si
15 1 1.34576 1.28609 6.85434 1.59005 3.17376 -3.24105 -0.210692 0.815127 0.159835 Si
3 1 3.97271 1.53205 4.06372 -1.68197 2.47094 3.91491 0.998534 -1.66466 0.507991 Si
47 1 6.75023 1.35647 6.83598 -0.435943 -3.99715 6.88273 0.400725 -0.548426 -0.134714 Si
35 1 9.4422 1.30647 3.97406 -4.69598 -1.9043 -0.880752 0.0269476 0.544491 1.50673 Si
46 1 8.07535 2.72043 5.45117 1.35632 -1.02942 0.645955 1.00881 0.030271 -0.810883 Si
5 1 1.31764 4.0717 4.03788 4.08678 -4.69045 -2.99949 -0.594494 0.516205 0.509945 Si
31 1 1.39169 6.68688 6.75796 -1.38681 2.71793 0.521984 -0.695898 0.317537 1.17489 Si
9 1 4.04066 4.12754 6.86065 -3.71005 -4.76232 -3.45717 0.340338 -0.394827 -0.246216 Si
19 1 4.10018 6.80044 4.13039 -1.06872 -2.60133 0.238907 -0.0599281 0.373963 -0.274521 Si
37 1 6.8609 4.14717 3.95361 0.600764 -2.6782 1.18199 -0.479896 -0.55727 0.987321 Si
60 1 5.44312 5.41659 5.40914 4.61474 -0.892609 -3.06361 0.465734 -0.00152691 0.399286 Si
63 1 6.81454 6.79352 6.78925 0.511657 -1.47399 -1.25696 -0.138669 -0.0135077 -0.41768 Si
28 1 -0.0753311 5.48533 5.37743 1.49973 4.37752 1.31675 0.442631 -0.18786 -0.641002 Si
41 1 9.5969 4.06461 6.76178 -4.0898 0.164259 6.93573 -1.36593 -0.463439 -0.653187 Si
51 1 9.43851 6.88453 3.97011 -3.55012 3.10608 -2.48695 0.87209 -1.0598 0.386687 Si
21 1 1.37555 9.44932 4.1326 2.04261 -4.44731 1.02903 0.200809 0.278724 0.230872 Si
30 1 2.72894 8.05525 5.54768 0.112895 -2.34013 3.40752 0.469814 1.42357 -0.920815 Si
44 1 5.42353 0.0297347 5.41446 -2.65236 3.91754 1.13133 -0.473274 0.894854 -0.510992 Si
25 1 4.0974 9.57271 6.80322 -4.7612 0.400794 -1.88993 -0.145009 -0.769805 0.910141 Si
53 1 6.82659 9.59181 4.04498 2.10367 -2.05661 0.608992 -0.0603276 -0.458947 0.252778 Si
12 1 -0.0469051 0.0127298 5.41856 7.76506 3.40204 -4.63263 0.460708 -0.260465 -0.304599 Si
57 1 9.55286 9.54449 6.81647 -4.59713 0.271343 -0.173941 0.372628 -1.06479 0.262679 Si
62 1 8.17894 8.18617 5.44132 -2.01418 3.79799 -3.79623 -0.527009 0.423201 -0.134489 Si
10 1 -0.126881 2.6755 8.18763 3.48683 2.71416 -1.22666 1.63259 -0.213175 -0.554137 Si
16 1 2.73644 -0.0171195 8.3155 -0.130353 3.71721 -2.56039 0.478717 0.496701 -1.6016 Si
11 1 4.03369 1.3836 9.68494 5.42942 -1.9762 -0.751067 0.495517 -0.228591 -0.762719 Si
42 1 5.37032 2.64321 8.18281 2.48371 -1.28249 0.457981 -0.244169 1.092 0.654326 Si
38 1 8.09583 2.73674 -0.0366195 5.71384 4.62961 -0.695722 1.23014 -0.359062 -0.190895 Si
43 1 9.48974 1.31199 9.51397 -1.36509 -0.740604 4.37144 -0.0457889 -0.26204 1.07142 Si
13 1 1.27676 4.02588 9.51853 6.38157 1.12798 3.65177 0.594191 0.394456 0.311581 Si
32 1 2.7299 5.4821 8.26774 -1.46845 0.586105 0.351187 -0.492421 -0.756093 -0.33849 Si
27 1 4.06711 6.89589 9.56516 -0.202457 -1.408 1.93445 0.355876 -0.276681 0.0859088 Si
45 1 6.73242 4.0821 9.55545 -2.72238 -3.97353 6.1042 0.180907 0.349318 -1.25591 Si
59 1 9.51809 6.68718 9.5102 0.507241 -6.71359 -5.53323 0.694226 0.310228 -0.722233 Si
64 1 8.16859 5.36261 8.04186 1.2955 2.00892 -0.594932 -0.370482 0.107879 1.50973 Si
22 1 2.72599 8.21096 0.0621572 -6.34164 -0.837547 -0.335399 -0.0946873 -0.0204417 -0.122055 Si
29 1 1.37739 9.51497 9.50661 0.457096 -1.33442 -4.23544 0.389244 -0.946377 0.873113 Si
58 1 5.49436 8.15394 8.19861 3.03222 -2.28102 5.27697 -0.17417 0.978407 -0.227577 Si
61 1 6.86587 9.56355 9.59317 2.3267 0.128715 -0.835068 -0.40927 -0.701914 -0.525467 Si
54 1 8.28053 8.13877 -0.0658274 1.7022 7.06327 4.82381 -0.518809 0.700461 0.308798 Si
48 1 8.16988 -0.0460263 8.16931 3.05179 -0.252829 2.03941 -0.347834 0.63206 -0.356505 Si
26 1 0.102221 8.09553 8.19569 2.48718 -2.16129 0.962351 -1.29265 -0.162914 -0.894172 Si
