ITEM: TIMESTEP
10000
ITEM: NUMBER OF ATOMS
64
ITEM: BOX BOUNDS pp pp pp
0.0000000000000000e+00 1.0887404739999999e+01
0.0000000000000000e+00 1.0887404739999999e+01
0.0000000000000000e+00 1.0887404739999999e+01
ITEM: ATOMS id type xu yu zu vx vy vz fx fy fz element
4 1 0.0822173 0.100819 0.0388677 0.997481 -2.90427 -3.03788 -0.955096 -1.24283 -0.203459 Si
7 1 1.42915 1.39792 1.33782 -3.38055 1.5592 -0.122207 0.550487 0.0752261 0.77183 Si
34 1 5.44118 2.75687 2.69803 1.38533 0.380931 -1.22253 0.606582 -0.511207 0.279409 Si
39 1 6.81999 1.37204 1.39547 2.05831 6.64483 -3.86771 -0.146546 -0.349066 -0.0970665 Si
2 1 -0.0381602 2.66951 2.63008 -0.172811 -1.59459 -2.66652 0.500297 0.736129 0.274335 Si
40 1 8.19242 0.0667659 2.83073 -1.33802 4.12607 -3.35305 -0.405445 -1.43526 -1.29031 Si
23 1 1.39874 6.77951 1.32714 -5.24311 -1.05454 2.93861 -1.48464 0.307985 0.0041045 Si
24 1 2.65117 5.44827 2.69585 -2.22075 -2.16923 -0.688987 0.431116 -0.483398 0.898804 Si
1 1 4.14347 4.14945 1.44934 0.0698686 -2.32669 -1.08771 -1.19524 -0.1295 -1.54844 Si
55 1 6.76383 6.85599 1.41528 4.83041 -1.06598 -1.68902 0.628466 -0.46805 -0.882386 Si
33 1 9.52633 4.05314 1.27268 2.09755 -4.7922 1.83808 -0.0268499 -0.285118 0.400805 Si
56 1 8.28929 5.50661 2.60972 0.963832 -7.52354 -2.54267 -1.14845 -0.102106 0.880447 Si
8 1 2.72931 -0.0145101 2.79788 -5.13563 0.0506577 0.580768 -0.157687 -0.0459867 -1.505 Si
18 1 0.0663835 8.1776 2.78524 -2.01839 -7.30448 2.67474 -0.476282 -0.576863 -1.03631 Si
17 1 4.05226 9.56084 1.26836 0.311029 0.656745 -4.08161 -0.0403202 -0.0354133 1.05907 Si
50 1 5.35437 8.15645 2.6901 6.16747 1.15495 -1.87064 0.0331137 0.648163 0.339582 Si
49 1 9.59417 9.54221 1.38947 0.86512 -0.903596 -1.00674 0.154245 1.0364 0.895766 Si
54 1 8.24747 8.16457 0.112057 -1.5901 -0.582307 -1.33262 -0.90617 0.0482224 -0.488257 Si
12 1 0.0707704 0.0305092 5.49037 -1.10053 0.540544 -1.53916 -1.03594 -0.443217 -1.12937 Si
14 1 2.71591 2.75577 5.3729 -1.23534 0.616872 -6.45605 0.361979 -0.439875 0.532773 Si
15 1 1.36379 1.37754 6.76831 4.26368 2.74527 6.62256 0.948944 0.478344 0.501837 Si
3 1 4.12784 1.33714 4.03008 4.08771 -2.06128 -2.08643 -0.438548 0.738351 0.779776 Si
47 1 6.80329 1.39264 6.83978 1.2301 -3.90502 0.436612 0.120971 -1.23981 -1.20066 Si
35 1 9.58917 1.37407 4.06718 -0.483425 1.2209 -4.56095 0.22223 -0.213222 0.884964 Si
46 1 8.17715 2.67829 5.39071 5.04744 -0.651266 -4.73561 -0.915166 0.909 -0.347821 Si
5 1 1.25217 4.05892 4.05813 -2.89021 -1.92063 -0.422232 0.522375 0.102961 -0.653118 Si
31 1 1.31508 6.82507 6.81211 2.22063 4.18234 -7.0727 -0.700702 -0.610785 0.0879248 Si
9 1 4.10628 4.04027 6.87535 -3.41433 1.17662 1.6378 -0.841248 0.473689 -0.844121 Si
19 1 4.03282 6.78351 4.06728 -1.28219 -1.33538 1.21672 -0.194595 -0.0963653 0.358565 Si
37 1 6.82163 4.15947 3.95636 -1.00148 3.19129 0.415537 1.00848 -0.954609 0.551001 Si
60 1 5.41589 5.34512 5.37782 -1.75728 1.65991 2.82887 -0.0985323 0.811266 0.462036 Si
63 1 6.79898 6.69412 6.77233 5.04578 -4.4854 -1.5371 0.126035 0.251827 0.257602 Si
28 1 -0.101063 5.4181 5.38473 8.82009 2.65346 2.14908 1.01492 0.63059 0.955697 Si
41 1 9.43057 4.11442 6.73374 0.775472 -2.07126 -1.57569 0.330766 -0.472619 1.0192 Si
51 1 9.52903 6.84868 4.1102 1.31556 3.60526 3.925 -0.21968 0.209509 -0.594397 Si
21 1 1.34389 9.51758 4.11789 -7.37021 -1.73018 3.64898 0.855326 0.314932 0.630305 Si
30 1 2.69087 8.14182 5.49624 1.08767 -2.4382 -0.645521 0.467428 0.310485 -0.392806 Si
44 1 5.39658 -0.0467303 5.42354 -0.426578 2.99108 0.518724 0.546164 0.595961 1.01487 Si
25 1 4.09371 9.48497 6.87812 -3.20079 4.35747 -1.05229 -0.150494 0.0130733 -0.400683 Si
53 1 6.74344 9.49976 4.08147 0.283401 -5.58529 -2.11358 0.75439 -0.13528 0.110385 Si
57 1 9.55613 9.50847 6.73492 1.69811 7.98322 0.909283 0.381816 0.759647 1.38895 Si
62 1 8.17623 8.17997 5.51748 -0.486883 2.8662 -1.78999 -1.03675 -0.690407 -1.27847 Si
6 1 2.75208 2.79496 -0.02158 2.58982 0.6601 6.22852 0.488777 -0.0582695 0.682832 Si
16 1 2.70744 0.0158539 8.18571 1.03379 -3.69494 -4.73932 -0.00819481 -0.265923 0.371869 Si
36 1 5.47295 0.0171169 -0.0365607 -2.72373 -0.377549 -1.9463 0.470874 -0.351512 0.587784 Si
11 1 4.10051 1.35782 9.57095 -2.55978 3.7075 2.62135 -0.334268 0.291364 -0.759761 Si
42 1 5.46377 2.67984 8.17685 -5.55028 1.37825 3.53569 -0.232407 0.44023 0.781023 Si
38 1 8.16259 2.66258 -0.005093 0.417875 2.93872 4.18627 0.0968991 0.141675 -0.570354 Si
10 1 -0.0120116 2.7386 8.08064 -0.879782 -0.364039 5.49539 -0.596077 -0.0626061 0.216058 Si
43 1 9.55938 1.30402 9.48686 2.01586 -2.91068 -0.0189902 0.0570109 0.945349 0.0978134 Si
13 1 1.32691 4.0542 9.49724 -0.662277 2.81039 -6.47655 0.225863 0.457011 -0.256514 Si
32 1 2.6948 5.49743 8.19556 0.137581 -0.187553 6.19042 -0.0687553 -0.965845 -0.579601 Si
52 1 5.42102 5.49296 -0.00312599 1.51124 1.57803 5.28914 0.331261 -0.130002 0.386349 Si
27 1 4.04624 6.82003 9.52079 -4.14755 0.61422 -4.30268 0.10055 0.340587 0.420296 Si
45 1 6.78181 4.06864 9.56426 -2.41993 -1.71126 2.17057 -0.274543 -0.427501 0.332327 Si
20 1 -0.0356874 5.391 -0.0375535 0.572219 2.34522 1.83327 0.936112 0.624886 0.233575 Si
59 1 9.51534 6.80976 9.58917 5.23736 -0.830029 1.67708 0.0514957 0.0412562 -0.580139 Si
64 1 8.1279 5.40863 8.26808 1.88466 -5.49397 0.906007 0.429104 0.408426 -1.08604 Si
22 1 2.65504 8.19627 -0.0122274 2.1709 -3.1797 -3.14612 1.24297 -0.776866 0.233756 Si
29 1 1.34808 9.52566 9.62721 -2.57298 1.93783 4.4606 -0.200504 1.14244 -1.43326 Si
58 1 5.4993 8.0732 8.17118 -1.56796 -1.03114 0.62835 -0.0901969 0.633572 0.199277 Si
61 1 6.8747 9.47458 9.56876 -3.76143 4.57659 2.64049 -0.0995523 0.119129 -0.471436 Si
48 1 8.20215 -0.0220949 8.13094 -1.34286 1.04618 5.08832 -0.330784 -0.412625 0.0966896 Si
26 1 -0.0107207 8.22275 8.2281 0.743815 0.229319 -0.50564 -0.187412 -0.625554 -0.349907 Si
ITEM: TIMESTEP
10100
ITEM: NUMBER OF ATOMS
64
ITEM: BOX BOUNDS pp pp pp
0.0000000000000000e+00 1.0887404739999999e+01
0.0000000000000000e+00 1.0887404739999999e+01
0.0000000000000000e+00 1.0887404739999999e+01
ITEM: ATOMS id type xu yu zu vx vy vz fx fy fz element
4 1 -0.0410519 -0.0697394 -0.0534258 -0.475863 6.69677 3.58314 0.272261 0.0154736 -0.00317553 Si
7 1 1.27274 1.28023 1.40519 -1.57267 3.58111 -1.38852 0.173053 0.599018 -0.431555 Si
34 1 5.37037 2.69999 2.7579 0.629801 4.27565 1.0801 0.289612 0.318675 -0.177457 Si
39 1 6.64228 1.34542 1.36475 0.856436 -1.30036 1.5614 1.94053 0.404637 0.0853509 Si
2 1 -0.0139403 2.73985 2.82484 0.43656 -0.659434 0.266682 0.0962125 -0.323399 -1.00695 Si
40 1 8.16216 -0.016908 2.69039 2.85072 0.680821 3.51057 0.205288 0.576738 -0.139261 Si
23 1 1.37475 6.8637 1.39037 5.61725 -2.85826 -0.807239 0.122773 -0.710696 0.452485 Si
24 1 2.81576 5.47133 2.75008 -1.26228 0.121037 -2.78125 -0.0437296 0.496195 -0.290573 Si
1 1 4.09448 4.04508 1.323 4.63548 3.21581 2.38257 -0.179378 0.240482 0.114853 Si
55 1 6.77741 6.70142 1.32971 -6.49528 -4.44377 0.913048 -0.094547 0.31528 0.08658 Si
33 1 9.49624 4.13151 1.4628 -0.900188 1.18954 -1.24574 -0.218299 -0.188057 -0.272906 Si
56 1 8.08847 5.47805 2.84355 4.21363 3.63989 1.15154 0.487522 -0.900874 -0.564421 Si
8 1 2.73873 -0.0321884 2.68138 -1.49832 -1.99013 1.84598 -0.181502 0.00649777 0.668366 Si
18 1 -0.0221661 8.19837 2.71491 1.09916 4.4722 -2.60729 -0.235578 -0.707556 0.120852 Si
17 1 4.11482 9.42222 1.41468 -0.0206938 4.03853 -2.04345 -0.0684158 0.891891 -0.703756 Si
50 1 5.54821 8.14483 2.72059 -3.13958 -0.853079 -0.495628 0.186799 0.277553 0.200603 Si
49 1 9.47061 9.41736 1.27243 -2.18755 -2.57328 2.04134 -0.634838 0.344683 -0.0656335 Si
54 1 8.01126 8.05439 -0.133305 1.23021 2.59179 4.2669 1.3582 0.582983 0.92723 Si
12 1 -0.135327 -0.0628147 5.38324 4.11548 0.623703 3.2824 1.11655 -0.517621 0.688388 Si
14 1 2.78299 2.68783 5.5172 -1.25909 5.45962 2.25484 -1.09994 0.339221 -0.253509 Si
15 1 1.27923 1.21924 6.73778 -2.80361 -2.44058 -3.28345 0.665187 1.09346 0.712393 Si
3 1 4.04543 1.37874 4.0957 -1.15511 -1.46804 1.31945 0.166677 -0.894837 -0.24407 Si
47 1 6.71823 1.38976 6.79892 3.1899 0.593709 0.379076 0.70103 0.0476707 0.498364 Si
35 1 9.52996 1.38082 4.16068 0.167231 3.34311 -2.17241 -1.4348 0.13271 -0.981056 Si
46 1 8.15295 2.73056 5.55375 -1.39771 0.532184 0.856016 0.871752 -0.224704 0.0273423 Si
5 1 1.44215 4.06672 4.05378 -1.16977 -3.00435 -1.34854 0.0666136 0.0912768 1.21157 Si
31 1 1.45486 6.75971 6.79212 4.84591 1.48809 5.43447 -0.723062 1.44115 -0.967984 Si
9 1 4.13947 4.16462 6.7888 -1.26092 0.250774 2.40453 0.133963 -0.595883 -0.137166 Si
19 1 4.20646 6.90774 4.13376 -1.71727 2.64402 -1.37887 -0.754888 -0.999765 -0.49166 Si
37 1 6.80285 3.96004 4.14372 1.16532 2.47712 -3.86792 -0.258688 1.33282 -0.20856 Si
60 1 5.55085 5.50305 5.4659 0.308166 -7.1444 -2.52418 -0.61002 -0.513332 -0.433996 Si
63 1 6.79746 6.91824 6.78297 -4.28554 3.16853 0.366864 -0.162373 -0.122325 0.790991 Si
28 1 0.0364556 5.38144 5.49184 -3.92187 -2.39667 -2.96434 0.325362 0.221455 -0.480854 Si
41 1 9.60478 4.0674 6.93415 -1.30779 3.22259 -4.22865 -0.523262 -0.112998 -1.52987 Si
51 1 9.53761 6.79077 4.1318 -0.464032 -1.61112 -3.8694 0.367196 0.149148 0.0826431 Si
21 1 1.3406 9.52624 4.05331 1.6623 -4.64921 -4.54329 -0.352906 0.692638 -0.32496 Si
30 1 2.73909 8.27007 5.36907 -2.36005 -1.77813 4.17477 -0.0564456 -1.42482 0.743009 Si
44 1 5.50302 0.0343779 5.38151 -0.472587 -7.47618 -1.56863 -0.739438 0.0963944 0.00264046 Si
25 1 4.1082 9.58025 6.68538 -1.36176 -1.38885 1.24648 -0.111215 0.198868 1.18359 Si
53 1 6.88051 9.54009 4.12692 -1.30582 8.35507 -0.327353 -0.334124 -0.207661 -0.979494 Si
57 1 9.43246 9.54369 6.83867 -1.26207 -6.12373 -0.733182 0.862705 -0.268004 -0.290474 Si
62 1 8.17578 8.17036 5.45879 2.26745 0.892705 2.35717 0.313822 0.178101 -0.134291 Si
6 1 2.68815 2.6519 0.016771 -2.4076 -0.343935 -4.5834 0.111201 -0.138004 0.122289 Si
16 1 2.71479 -0.0433444 8.1599 0.15583 0.684263 1.95126 0.409505 0.377123 -1.64239 Si
36 1 5.39175 -0.0087284 0.00801179 3.54959 4.05179 -2.37715 -0.571557 -0.516482 -0.448565 Si
11 1 4.0596 1.33363 9.4401 -3.69196 -5.82706 2.68219 0.123548 0.539942 1.08263 Si
42 1 5.44287 2.79239 8.17489 3.00013 -3.4009 -0.997048 -0.272221 -0.429165 -0.315292 Si
38 1 8.12 2.76978 0.00413194 0.839071 -5.78244 -2.02679 -0.176587 -0.10748 0.941374 Si
10 1 0.0397114 2.67783 8.20708 -1.5225 0.764902 -0.999274 0.685808 0.0942752 0.567756 Si
43 1 9.48638 1.41544 9.57048 -5.71404 0.354351 0.192481 0.132614 -0.770002 -0.454008 Si
13 1 1.40517 4.14066 9.61984 1.65817 -3.18716 4.65153 -0.345525 -0.223095 -1.10774 Si
32 1 2.78737 5.47867 8.10515 -3.54705 4.90475 -3.39767 0.00307329 -0.43259 1.93953 Si
52 1 5.4631 5.37881 -0.093411 -3.805 -1.46203 -2.6496 0.254174 -0.441126 1.07673 Si
27 1 4.12437 6.78064 9.6114 4.4191 -3.97101 -0.0286108 -0.528674 0.68094 -1.67315 Si
45 1 6.88461 4.12845 9.42158 4.72355 4.41172 6.28698 -0.126333 0.119782 0.231395 Si
20 1 -0.0249089 5.50972 0.0725992 -0.351361 -5.35209 1.78106 -0.148293 -0.230389 -0.492319 Si
59 1 9.50413 6.80663 9.43775 -1.21145 1.42043 1.60377 0.789649 0.264118 0.542882 Si
64 1 8.20529 5.53124 8.03431 -0.474029 0.577253 2.37132 -0.494978 -0.475997 0.862624 Si
22 1 2.73505 8.13938 0.0163693 -5.36932 2.94487 2.22959 0.131022 0.248502 -0.125443 Si
29 1 1.44621 9.49918 9.44975 2.81173 -2.80253 -2.9166 -1.19556 -0.370119 1.27143 Si
58 1 5.39377 8.26521 8.19714 1.30179 2.00665 -3.6368 0.0523818 -0.770822 -0.552573 Si
61 1 6.79005 9.58088 9.50994 3.15146 -2.54134 -2.59005 -0.473597 0.136707 0.0398713 Si
48 1 8.1228 0.0479862 8.14604 3.71818 -0.70647 1.30919 -0.0754393 0.515928 0.518945 Si
26 1 0.0398742 8.18715 8.09794 4.53209 -0.13883 -1.35636 -0.18987 -0.444532 0.1304 Si
ITEM: TIMESTEP
10200
ITEM: NUMBER OF ATOMS
64
ITEM: BOX BOUNDS pp pp pp
0.0000000000000000e+00 1.0887404739999999e+01
0.0000000000000000e+00 1.0887404739999999e+01
0.0000000000000000e+00 1.0887404739999999e+01
ITEM: ATOMS id type xu yu zu vx vy vz fx fy fz element
4 1 0.0270218 0.0503625 -0.003427 -1.30498 -1.91872 -0.53791 0.253656 0.813861 0.815389 Si
7 1 1.49745 1.42541 1.40959 5.19601 -3.18417 0.911235 -1.22773 -0.485736 -1.05055 Si
34 1 5.47404 2.73768 2.69753 -0.29955 -1.00748 -4.45706 -0.201183 -0.303313 0.00307323 Si
39 1 6.91738 1.36444 1.38685 -0.591959 -4.56464 0.577131 -1.14606 -0.451615 -0.505534 Si
2 1 0.0273759 2.71353 2.68035 -3.72405 2.73377 1.74605 -0.134274 -0.0474457 1.05351 Si
40 1 8.14414 -0.0487076 2.81885 -0.479146 -1.11133 -1.22224 0.053852 0.203594 0.172205 Si
23 1 1.34645 6.86729 1.30769 -3.18574 3.8591 4.13023 0.884857 -0.801148 -0.263965 Si
24 1 2.66401 5.41898 2.64576 1.0082 -1.17048 2.51892 -0.458272 -0.341187 0.209901 Si
1 1 4.10345 4.10665 1.30322 -6.14094 -0.173489 -4.32903 0.145874 -0.0950233 1.16459 Si
55 1 6.8223 6.96064 1.35167 2.36387 -1.80008 0.786915 -0.356746 -0.399703 0.515967 Si
33 1 9.54386 4.03431 1.35242 -5.53805 -0.161866 0.2727 -0.0207644 1.24681 -0.811877 Si
56 1 8.03556 5.41622 2.62335 -3.63916 -0.67216 0.809504 1.64212 0.526437 0.559954 Si
8 1 2.77693 0.0701216 2.74746 3.0592 2.08199 -2.61426 0.0453687 -0.476793 0.218582 Si
18 1 0.123028 8.15141 2.72941 -0.049426 1.73767 3.10838 -0.71195 1.49214 0.375583 Si
17 1 4.03188 9.56973 1.36008 1.55281 -4.93761 2.84146 0.381024 -0.3917 0.216741 Si
50 1 5.37262 8.2124 2.73688 2.13216 -1.31177 2.82149 -0.760344 -1.11189 0.0857493 Si
49 1 9.62058 9.6219 1.46155 2.33632 3.89826 1.10391 -0.028688 -0.742215 -0.34864 Si
54 1 8.26166 8.25353 0.0662744 -4.20039 -3.36333 -4.3397 -0.143959 0.091643 -0.562622 Si
12 1 0.0690803 -0.0443179 5.42942 -6.32429 -1.00633 -1.63329 -0.0200891 1.7251 1.08845 Si
14 1 2.69075 2.71966 5.43332 1.1167 -6.35025 -0.153971 0.547706 0.313931 -0.463699 Si
15 1 1.45895 1.43602 6.87603 2.98751 -3.0204 -1.03728 -1.51811 -1.165 -1.01723 Si
3 1 4.12544 1.365 4.10929 -2.5209 2.81789 1.07455 -0.11384 0.739445 -0.0828622 Si
47 1 6.92171 1.28327 6.75758 -2.26384 0.166961 -2.54046 -1.18403 1.32047 0.321498 Si
35 1 9.54333 1.3602 4.11024 -3.35267 -1.96931 2.6458 0.441803 -0.17086 -0.354161 Si
46 1 8.17129 2.75729 5.39363 -5.17386 -1.21003 -2.75072 -0.490318 -1.05187 -0.122394 Si
5 1 1.28818 4.11207 4.1358 1.82625 5.32886 -2.06001 0.163735 0.111422 -0.663949 Si
31 1 1.24994 6.82669 6.84148 -4.85716 -4.70066 -2.5458 1.18531 -0.818036 0.566765 Si
9 1 4.08345 4.03664 6.75629 1.4089 3.10101 -4.49594 0.139982 0.0585915 0.444641 Si
19 1 3.95962 6.69563 4.07669 0.217435 -0.215108 6.18166 0.964578 1.49904 0.136944 Si
37 1 6.79245 4.08004 4.08635 4.7222 -4.7211 2.76939 -0.422836 0.249807 -0.325061 Si
60 1 5.43104 5.43243 5.44732 5.48078 6.03724 -3.87339 0.135822 0.0139635 -2.24601e-05 Si
63 1 6.89126 6.71097 6.85181 -5.10453 1.19026 -0.166355 -1.39241 0.972409 -1.06079 Si
28 1 -0.101438 5.53104 5.45594 1.42901 2.53369 3.3695 -0.395702 -0.758754 -0.255877 Si
41 1 9.35949 4.09276 6.76686 1.87499 -5.52032 5.10917 1.65107 0.57155 0.430859 Si
51 1 9.50681 6.8582 3.96078 2.20104 -0.668435 1.83484 -0.513599 -0.977398 0.146382 Si
21 1 1.44452 9.60493 4.12211 2.66979 -1.31698 3.25139 -0.0199162 -1.15986 -0.865997 Si
30 1 2.66093 8.15139 5.49647 3.00833 7.88476 1.42019 0.565392 -0.0699755 -0.0372212 Si
44 1 5.38688 0.0250891 5.53366 0.124457 -0.207399 5.38471 0.544415 -0.967094 -0.4707 Si
25 1 4.05201 9.51463 6.89047 3.16521 -3.07276 0.431063 0.389414 -0.648497 -0.521632 Si
53 1 6.69547 9.44361 4.15152 4.81529 -1.70997 0.772119 0.221218 1.53408 -0.0798397 Si
57 1 9.59617 9.48644 6.75949 -2.91628 1.5462 5.38073 -1.08428 -0.255325 -0.360588 Si
62 1 8.13314 8.13273 5.37508 -1.77549 -1.62827 0.567157 0.73415 -0.194803 1.13627 Si
6 1 2.80688 2.72521 -0.00653632 3.96366 4.01866 2.69419 -0.777077 0.355569 -1.05008 Si
16 1 2.76813 0.0395138 8.18804 2.98439 -2.56606 -3.91787 -0.544487 -0.297103 0.960881 Si
36 1 5.45344 -0.0776498 0.0145454 0.936896 -2.48517 2.59422 0.900866 1.2727 0.343551 Si
11 1 4.16541 1.34938 9.55269 1.18733 0.213384 -4.32466 -0.224773 -0.129085 -0.144612 Si
42 1 5.45972 2.69593 8.13362 0.416476 2.85934 3.68938 0.549664 -0.299912 -0.229845 Si
38 1 8.17805 2.75256 -0.0646494 -1.07526 4.24454 1.88899 0.260468 -0.823358 -0.147037 Si
10 1 -0.0760386 2.7391 8.081 3.43879 -3.6846 -1.83652 0.0858797 -0.016806 -0.185557 Si
43 1 9.54184 1.29924 9.41057 1.38404 2.39638 1.58717 -0.301396 0.84289 1.09162 Si
13 1 1.34172 4.03957 9.39714 1.5173 0.679706 2.13631 0.0119491 -0.431044 1.95341 Si
32 1 2.74553 5.33777 8.18977 0.456987 2.86538 -2.85897 -0.581713 1.36624 -1.59495 Si
52 1 5.50038 5.50355 0.114287 1.22823 0.229661 -4.30927 -1.04954 0.580544 -1.33597 Si
27 1 4.02891 6.75503 9.52171 3.11195 1.68585 3.78968 1.11336 -0.137868 0.670483 Si
45 1 6.68856 4.11196 9.58421 -1.99337 -3.98316 -2.10782 0.55735 -0.788044 -0.173568 Si
20 1 0.0532656 5.48217 -0.0688378 -1.9955 3.31417 0.245911 -0.68768 -1.0781 0.376552 Si
59 1 9.4562 6.75752 9.53712 2.99998 2.49384 -6.64925 0.00150621 0.31555 0.197989 Si
64 1 8.06542 5.3589 8.22803 -1.00015 3.05924 -3.62664 0.88364 0.25653 0.258599 Si
22 1 2.75359 8.18652 -0.0248968 5.84679 -5.50127 -2.34772 -0.845616 0.310894 -0.144196 Si
29 1 1.30068 9.56875 9.54944 -1.32648 2.16307 -4.92511 0.949142 -0.591868 -0.661034 Si
58 1 5.46144 8.07074 8.1841 -5.14348 3.70106 5.64939 0.154384 0.594197 0.046007 Si
61 1 6.84308 9.53307 9.51775 -2.96318 1.92491 -2.19566 -0.0854314 -0.837584 0.0050386 Si
48 1 8.19872 -0.0626223 8.10412 -2.11059 -0.224363 -5.31291 0.331445 -0.371421 0.085995 Si
26 1 -0.0878012 8.14281 8.21093 -3.11886 0.372242 -2.92563 0.551821 0.308039 0.238898 Si
ITEM: TIMESTEP
10300
ITEM: NUMBER OF ATOMS
64
ITEM: BOX BOUNDS pp pp pp
0.0000000000000000e+00 1.0887404739999999e+01
0.0000000000000000e+00 1.0887404739999999e+01
0.0000000000000000e+00 1.0887404739999999e+01
ITEM: ATOMS id type xu yu zu vx vy vz fx fy fz element
4 1 -0.00351616 -0.0695833 0.0526338 -1.40117 -3.50279 -2.07465 -0.860819 -1.09103 -1.36456 Si
7 1 1.31527 1.23618 1.26682 0.347155 1.50357 0.67853 0.606898 0.894437 1.87222 Si
34 1 5.41987 2.7678 2.80975 0.930448 0.467037 0.683971 0.444694 -0.395733 -0.970557 Si
39 1 6.75927 1.40707 1.28099 4.29786 7.18309 0.217261 -0.106606 0.324188 0.797317 Si
2 1 0.0696181 2.6359 2.70757 2.57111 -1.22856 -1.3387 -0.660591 0.883544 -0.585427 Si
40 1 8.20078 0.0528888 2.59773 -0.88875 3.42252 -2.07931 -0.664638 -0.345031 -0.100407 Si
23 1 1.32856 6.7552 1.43226 0.465267 -2.29243 -3.56115 -0.542474 0.677598 -0.491857 Si
24 1 2.72714 5.42739 2.67069 5.47878 1.0141 0.624457 0.526496 0.278522 1.39229 Si
1 1 4.08583 4.10399 1.38705 5.2589 -0.270381 -2.19218 -0.374836 -0.875246 -0.484697 Si
55 1 6.81252 6.65927 1.33048 0.517746 -0.927895 -1.44811 1.04056 0.782969 0.0822819 Si
33 1 9.58877 4.15291 1.33361 2.63849 -0.35564 1.1915 -0.488702 -1.89236 0.790354 Si
56 1 8.27052 5.4126 2.81673 -1.68954 -2.61577 2.15415 -1.28268 0.139569 -0.750667 Si
8 1 2.60991 -0.0998079 2.7109 -1.19997 -1.15173 0.711141 0.486172 1.2327 -0.644484 Si
18 1 -0.128667 8.1238 2.73524 -0.550017 -6.56313 -1.65866 0.662512 -1.18956 -0.190131 Si
17 1 4.02646 9.56956 1.4058 -3.03246 3.27088 -1.44863 0.506111 -0.569955 -0.815643 Si
50 1 5.50072 8.16345 2.56371 -3.43584 3.07128 -0.986074 0.477194 0.502459 0.886606 Si
49 1 9.48151 9.39916 1.36462 -3.38407 -1.21994 2.14123 -0.0365078 1.26278 -0.699454 Si
54 1 8.1922 8.08586 -0.0546917 3.23367 3.31067 -0.65032 -1.15698 -0.0849056 0.610799 Si
12 1 0.0136939 0.119741 5.48737 1.13293 -1.07948 -1.19631 -1.17429 -1.76429 -1.75275 Si
14 1 2.71559 2.65733 5.38828 -5.32761 1.67509 1.39849 0.49949 -0.308706 0.942321 Si
15 1 1.28502 1.41981 6.804 -1.94746 0.563626 1.90944 1.29581 0.275719 0.436696 Si
3 1 4.02384 1.27741 3.99708 3.89018 -3.68099 -0.353681 0.0430863 0.46729 0.330873 Si
47 1 6.78978 1.45889 6.83151 2.62014 -2.10825 0.338768 0.288059 -1.67452 -0.504007 Si
35 1 9.44727 1.39083 4.01385 1.70059 -2.46921 2.78987 1.33108 -0.333898 0.624752 Si
46 1 8.20947 2.71015 5.46194 4.8983 2.08673 2.4932 -0.652157 0.777743 -0.14702 Si
5 1 1.45357 4.00324 4.07511 -1.01237 -2.16456 5.45465 -0.776779 0.584776 -0.779019 Si
31 1 1.41043 6.90727 6.80948 -1.0484 10.2322 -1.69209 -0.603085 -1.23947 -0.428162 Si
9 1 4.02014 4.02719 6.83445 3.49466 -3.18926 1.42265 -0.272221 0.6518 0.0647745 Si
19 1 4.20236 6.84933 3.97147 -2.99259 -5.59199 -4.17601 -0.919728 -1.07067 0.808545 Si
37 1 6.80315 4.14427 4.17233 -1.93484 -0.645119 -0.00527876 0.685101 -1.21127 -0.520871 Si
60 1 5.42065 5.38297 5.49611 -3.07671 1.7671 1.69442 -0.269757 1.27972 -0.0800471 Si
63 1 6.86186 6.74805 6.8177 4.71985 4.25402 5.64212 0.35339 -0.0284776 0.286433 Si
28 1 0.0812114 5.3438 5.44751 1.08107 2.83888 -2.86101 0.625537 1.55611 -0.0625214 Si
41 1 9.61635 4.05833 6.75913 -1.47542 1.90219 -6.32772 -0.470205 -0.353052 0.742407 Si
51 1 9.52634 6.77613 4.18447 -1.93977 -1.22429 -2.29106 0.368505 0.343465 0.570659 Si
21 1 1.24646 9.47381 3.92882 -2.4012 6.21016 4.70333 0.144773 0.41602 2.95088 Si
30 1 2.74299 8.15495 5.34678 -0.658435 -4.6834 -2.73188 0.0931691 0.932038 -0.374047 Si
44 1 5.49184 0.0338494 5.31647 -1.09776 5.77153 0.211355 0.0223982 0.204633 1.06148 Si
25 1 4.09523 9.59643 6.73381 -0.850803 -0.0368327 1.44783 -0.0357142 -0.420323 -0.121921 Si
53 1 6.87037 9.58628 3.96095 -3.35414 -2.17766 0.468434 0.151964 -1.03548 0.65118 Si
57 1 9.53987 9.62114 6.89922 9.49669 -0.309028 -4.43778 0.444378 0.515411 0.0777152 Si
62 1 8.23513 8.26233 5.57003 2.14098 -0.100006 -3.90447 -1.02392 -0.600273 -1.53233 Si
6 1 2.59752 2.73709 0.0669041 -0.851277 -4.76433 1.58444 1.04028 0.294128 0.674624 Si
16 1 2.66541 0.0369362 8.13261 -0.956143 1.26979 0.0710046 0.403385 0.00684056 0.484826 Si
36 1 5.32425 0.0619186 -0.00812543 -2.71168 1.09108 -1.21292 0.385044 -0.517084 -0.0524316 Si
11 1 3.93851 1.47468 9.60914 0.233883 2.44653 2.36644 0.741234 -1.03375 -1.43527 Si
42 1 5.41888 2.7086 8.17609 1.00543 -2.77109 -1.36087 -0.445853 0.809444 0.882131 Si
38 1 8.16888 2.74054 -0.0547646 -2.24411 1.06922 -0.322292 0.171631 0.779694 0.979396 Si
10 1 0.00949697 2.76196 8.20576 -2.08853 1.99843 0.23076 -0.0877724 -0.299777 0.046783 Si
43 1 9.57557 1.39638 9.59576 -1.73997 -0.307787 -1.37586 -0.000481341 -0.566867 -0.354944 Si
13 1 1.3413 4.05918 9.60852 -3.77843 -0.229298 -1.74959 -0.00393791 1.26185 -1.05354 Si
32 1 2.69516 5.53819 8.23698 3.98131 -1.76631 8.75562 0.318536 -1.12408 -0.213989 Si
52 1 5.39705 5.42025 -0.0211278 1.33135 -1.95511 4.97102 0.725238 -0.419336 -0.0391648 Si
27 1 4.1414 6.84677 9.56658 0.665899 2.63985 -5.04356 -0.925271 0.411784 -0.166225 Si
45 1 6.83676 4.12746 9.49855 -3.52388 1.5516 3.29954 -0.588475 -0.64444 -0.0484967 Si
20 1 -0.00422339 5.45657 0.00356594 1.56201 -0.154781 -0.0440117 0.595254 0.432832 -0.0789443 Si
59 1 9.57194 6.80331 9.51812 2.01108 -4.11639 3.84175 0.399627 -0.125145 -0.143564 Si
64 1 8.32137 5.37264 8.20525 -3.70315 -2.42272 2.93182 -1.08522 0.742366 -1.0473 Si
22 1 2.6987 8.14536 0.111439 0.533857 2.51875 -4.26308 0.508054 -0.304566 -0.638807 Si
29 1 1.41461 9.46364 9.55567 -0.739689 -0.830311 2.49302 -0.492951 0.832292 0.0562264 Si
58 1 5.46118 8.15345 8.09377 -0.368361 -4.70437 -4.00507 -0.15892 0.380041 0.349614 Si
61 1 6.75676 9.49553 9.56367 -4.33904 -1.57417 -3.40996 -0.0366365 0.519602 -0.143786 Si
48 1 8.14321 0.0669786 8.27651 -1.90071 0.438772 1.05017 -0.241934 -0.0419349 -0.515344 Si
26 1 0.0142062 8.19274 8.1867 1.40463 -0.383667 0.229902 0.0544742 0.106861 -0.121792 Si
ITEM: TIMESTEP
10400
ITEM: NUMBER OF ATOMS
64
ITEM: BOX BOUNDS pp pp pp
0.0000000000000000e+00 1.0887404739999999e+01
0.0000000000000000e+00 1.0887404739999999e+01
0.0000000000000000e+00 1.0887404739999999e+01
ITEM: ATOMS id type xu yu zu vx vy vz fx fy fz element
4 1 0.00445689 0.072382 0.00378255 7.74914 1.51498 0.452184 0.742594 0.578733 -0.147501 Si
7 1 1.43839 1.43697 1.42931 -2.85555 -1.29528 -2.40033 -1.14048 0.0940251 -1.16186 Si
34 1 5.42715 2.67052 2.72144 -1.2495 0.499839 0.48293 -0.359654 0.576761 0.406954 Si
39 1 6.76778 1.25203 1.48509 -3.47191 -0.589684 -1.91059 0.963241 0.195052 -0.969131 Si
2 1 -0.0326105 2.75056 2.78777 -1.74954 -1.56873 0.128999 -0.0212923 -0.0565355 -0.249855 Si
40 1 8.20816 -0.0974928 2.81511 1.81461 2.89914 3.65808 -0.0251724 1.25338 -0.123816 Si
23 1 1.36997 6.81819 1.27857 3.02697 -0.758309 -0.696426 0.0891259 -0.233638 0.776461 Si
24 1 2.70908 5.47394 2.76773 -6.66765 -2.11407 -6.86749 0.167332 0.07682 -1.14862 Si
1 1 4.03661 4.02993 1.34308 -0.428995 1.18099 6.72909 0.85281 0.997059 0.361367 Si
55 1 6.70673 6.8801 1.35939 -2.25457 0.0131896 -0.692938 -0.223806 -0.598832 0.112788 Si
33 1 9.46409 4.08322 1.32114 1.14264 2.44906 -2.93648 0.557513 0.476634 0.51313 Si
56 1 8.1364 5.57461 2.68132 7.64064 0.678739 -4.29486 0.370613 -1.15072 -0.335559 Si
8 1 2.81253 0.108839 2.67044 -2.42778 -1.7478 3.22053 -0.680672 -1.3298 0.845169 Si
18 1 0.0680602 8.26787 2.62732 2.19772 5.92171 6.10762 0.268477 -0.334647 0.394014 Si
17 1 4.09194 9.52463 1.36608 -3.54232 -0.861878 -0.792891 0.0266298 0.0791453 0.212364 Si
50 1 5.36017 8.17537 2.81499 0.136997 -3.80899 -2.77512 0.51073 0.392486 -0.71506 Si
49 1 9.57127 9.63 1.30844 4.18302 0.0428065 -0.938117 -0.38458 -0.802009 0.904469 Si
54 1 8.17599 8.18235 0.1139 1.49484 -2.39961 1.48424 0.175948 0.214487 -1.06548 Si
12 1 0.0434181 -0.108893 5.4164 4.63881 4.78262 3.57333 -0.00345421 0.59239 0.628942 Si
14 1 2.76435 2.75116 5.51702 1.14231 -3.28909 -4.77612 -1.17399 0.703323 -0.871108 Si
15 1 1.34486 1.37262 6.74043 -4.98245 -4.72532 -2.58341 0.143196 -0.614384 0.719255 Si
3 1 3.99636 1.41649 4.13058 1.12616 3.31388 -4.42582 1.85178 -0.573792 0.184782 Si
47 1 6.79749 1.38291 6.76017 -0.765152 5.10059 3.24496 -0.097967 -0.442931 0.892603 Si
35 1 9.54145 1.32033 4.22036 1.62268 2.79851 -2.40395 -0.453285 0.478514 -0.960936 Si
46 1 8.08787 2.75674 5.49287 -0.379657 -5.1428 -2.34509 1.44563 -0.131559 -0.435917 Si
5 1 1.35095 4.16105 4.09848 -0.337508 0.876152 -4.23 -0.162463 -0.922002 0.844925 Si
31 1 1.25706 6.64614 6.81756 0.229799 -5.31893 2.53286 1.08299 1.79101 0.0635309 Si
9 1 4.16894 4.07075 6.78945 -2.53507 -1.69935 2.96824 0.443046 0.183532 0.205256 Si
19 1 4.06417 6.8134 4.14574 0.250821 6.21922 -1.75175 -0.357805 -0.18466 -0.551695 Si
37 1 6.86845 4.05601 4.0063 -0.627263 2.73412 -3.48135 -0.768294 0.732769 0.00179016 Si
60 1 5.47797 5.45927 5.34981 1.05555 -3.33334 0.920313 -0.170102 -0.967445 0.607056 Si
63 1 6.69937 6.83039 6.7651 0.652895 -6.11656 -3.04106 0.792904 -0.0549324 0.125321 Si
28 1 -0.12875 5.44919 5.43001 -4.569 -3.95511 -1.12675 0.46426 -0.926978 0.0649596 Si
41 1 9.4675 4.07864 6.90605 -0.805344 2.60948 0.190339 -0.198273 0.448319 -1.2684 Si
51 1 9.61474 6.84885 3.98562 -1.13097 -0.359465 2.49537 -0.780934 0.279772 -0.188766 Si
21 1 1.47257 9.55376 4.0756 0.798462 -0.960278 -6.435 -0.091075 0.0497084 -1.07627 Si
30 1 2.72493 8.16085 5.4661 -2.2131 0.132132 0.290904 -0.559238 -0.671268 1.16217 Si
44 1 5.42263 -0.00821706 5.50405 -0.474083 -3.11607 -2.03616 -0.618518 0.566768 -0.639967 Si
25 1 4.11716 9.4926 6.86809 -2.3279 1.21752 1.11419 -0.968317 0.484625 0.246749 Si
53 1 6.75805 9.54794 4.12793 0.806933 1.69005 -0.381429 -0.0263186 -0.78111 -0.100626 Si
57 1 9.51933 9.41604 6.7198 -4.4866 2.92387 -1.30996 -0.0826779 -0.256847 0.0122073 Si
62 1 8.10447 8.04798 5.3311 1.09525 0.701365 6.63831 0.46778 1.01716 0.70512 Si
6 1 2.79151 2.70027 -0.0554677 0.551504 5.11771 -1.21929 -0.40773 -0.633358 -0.114693 Si
16 1 2.66816 0.0255016 8.21936 -2.6686 -0.644392 0.342768 0.18707 -0.685576 -1.16482 Si
36 1 5.50531 -0.0905652 0.0209595 0.948931 1.05833 1.15347 -0.204352 0.528498 -0.43411 Si
11 1 4.1835 1.29122 9.45015 1.23238 2.16881 3.43606 -0.103644 0.558017 1.24869 Si
42 1 5.55549 2.75545 8.2054 1.6931 -0.930908 0.678039 -0.78202 -0.476144 -0.86637 Si
38 1 8.12424 2.66257 0.0254741 0.38319 0.815585 -1.03739 -0.220133 -0.183648 -0.183048 Si
10 1 0.000545669 2.70802 8.12225 0.937752 1.54855 -1.52543 0.167486 0.121196 0.517963 Si
43 1 9.53499 1.36473 9.46721 2.14456 0.468841 2.71751 -0.436395 -0.144176 0.262341 Si
13 1 1.34289 4.04174 9.55075 1.86417 -0.521378 1.11023 0.460682 -0.201732 -0.849577 Si
32 1 2.73857 5.34229 8.13096 -3.78792 3.22743 -1.98468 0.0685631 0.879498 0.85015 Si
52 1 5.42249 5.41834 -0.0792701 -2.74766 0.585721 -2.46477 0.12728 0.0552903 1.67442 Si
27 1 4.10827 6.81781 9.56085 -1.43821 0.565484 5.4433 -1.01678 -0.396876 -1.07516 Si
45 1 6.84802 4.12964 9.5144 2.59518 -0.171196 -1.43838 0.577583 -0.0637456 0.237321 Si
20 1 -0.00237489 5.44983 -0.0738165 -2.09379 -3.74867 -0.768962 -0.368493 -0.274283 0.926743 Si
59 1 9.51129 6.85066 9.5626 -3.68253 1.24809 -0.434706 -0.820677 -0.414859 0.290345 Si
64 1 8.14047 5.57029 8.12934 3.49204 -5.01706 2.92949 -0.137318 -0.611028 0.648163 Si
22 1 2.74574 8.19302 0.00500227 -4.12054 0.725411 3.07838 -0.475687 0.131059 -0.590292 Si
29 1 1.26218 9.51249 9.51988 4.48144 -1.94317 2.23437 0.978871 0.180428 0.516414 Si
58 1 5.47423 8.18046 8.24443 2.20769 -2.08277 0.491669 -0.287541 -0.357206 -0.5806 Si
61 1 6.88317 9.48629 9.52269 3.35153 -1.6669 3.52437 0.47952 0.666818 0.0419819 Si
48 1 8.21794 -0.0187874 8.03252 3.38198 -1.84958 -1.52586 -0.406301 -0.150509 0.904634 Si
26 1 -0.0607915 8.10604 8.21215 -1.25055 3.90678 3.66043 0.55179 0.243949 -1.24133 Si
ITEM: TIMESTEP
10500
ITEM: NUMBER OF ATOMS
64
ITEM: BOX BOUNDS pp pp pp
0.0000000000000000e+00 1.0887404739999999e+01
0.0000000000000000e+00 1.0887404739999999e+01
0.0000000000000000e+00 1.0887404739999999e+01
ITEM: ATOMS id type xu yu zu vx vy vz fx fy fz element
4 1 -0.00972462 -0.0859463 0.0163985 -3.4201 -2.32374 -1.83785 -0.264048 0.601834 0.288123 Si
7 1 1.4193 1.24467 1.33354 1.68215 2.01409 6.53306 -0.323979 0.6811 0.614792 Si
34 1 5.40363 2.72518 2.71236 -2.00353 -1.90154 -1.01982 0.482774 -0.0863737 -0.281909 Si
39 1 6.83585 1.40929 1.32278 -3.84275 2.3793 3.90356 -0.729837 0.126536 0.0397956 Si
2 1 0.0270787 2.72254 2.66634 -1.21123 0.245871 3.22606 0.205263 -0.673992 0.432766 Si
40 1 8.11634 -0.0270348 2.63281 -0.195684 -3.0877 0.282707 0.362713 -0.166007 0.658859 Si
23 1 1.35725 6.87426 1.43009 -0.225835 5.18073 -0.856594 0.630959 -0.497519 -0.33653 Si
24 1 2.79254 5.4643 2.76619 3.75448 0.62615 3.83203 -1.47945 -0.469329 -0.51562 Si
1 1 4.1048 4.14808 1.34471 0.181156 -3.20019 -4.23388 -0.244476 -0.64327 0.131128 Si
55 1 6.91899 6.85255 1.40156 0.401727 -1.92916 0.545656 -0.56154 -0.27813 -0.437771 Si
33 1 9.5451 4.12755 1.38841 -2.01074 -3.63259 2.5803 -0.288016 0.145544 -0.498812 Si
56 1 8.09877 5.38634 2.79923 -5.43836 2.5974 2.63001 0.604845 0.2289 0.406107 Si
8 1 2.76541 -0.11021 2.78058 4.00074 2.04845 -3.67966 -0.308555 0.810088 -0.319768 Si
18 1 -0.0915552 8.11311 2.78047 2.28133 -2.81866 -4.44327 0.115911 0.822 0.387816 Si
17 1 4.12777 9.46364 1.41572 0.872432 -2.02779 0.88482 -0.186793 0.390868 -0.715333 Si
50 1 5.51091 8.17572 2.7319 2.81472 2.34227 -1.65361 -0.313394 -1.18983 0.0148475 Si
49 1 9.45749 9.4475 1.33025 -0.265295 -1.04173 -4.83274 0.469664 0.0245817 -0.0921331 Si
54 1 8.15786 8.14817 -0.144391 -6.73594 -3.83273 1.07576 0.0332247 -0.00939944 1.19813 Si
12 1 -0.0953736 0.0585698 5.46475 -3.89114 -6.80826 -5.05673 0.864545 0.334615 0.563088 Si
14 1 2.72829 2.7025 5.39698 4.36468 -0.0133408 3.34142 0.884686 -0.144509 0.238014 Si
15 1 1.45594 1.3808 6.82858 1.82164 1.40163 -1.7787 -1.08059 -0.660691 -0.805207 Si
3 1 4.15771 1.30288 4.07305 -5.88704 -2.91834 -0.522442 -1.42122 0.813768 -0.476383 Si
47 1 6.74817 1.34707 6.8296 -1.35277 -0.673078 -2.65127 0.664529 0.818996 -0.51149 Si
35 1 9.47976 1.339 4.017 2.56324 -1.67883 4.82436 0.165809 0.455306 -0.207411 Si
46 1 8.21013 2.7067 5.4707 -0.346305 3.98635 3.66895 -1.01595 -0.572118 -0.207425 Si
5 1 1.35959 4.06426 4.1271 0.232443 0.678502 -3.55955 0.246544 0.240208 -1.1705 Si
31 1 1.41266 6.89765 6.73004 0.900699 -2.07968 -0.275908 -0.0215341 -0.940529 0.903118 Si
9 1 4.0769 4.10708 6.76253 0.434001 2.00325 1.0275 -1.05909 -0.146628 0.110789 Si
19 1 4.1302 6.75602 4.06281 1.68943 -0.386508 0.815505 0.205439 1.57435 0.681512 Si
37 1 6.70246 4.02166 4.181 2.03034 -4.52004 -0.44464 0.735869 0.377217 -0.330715 Si
60 1 5.42277 5.47801 5.52067 2.83076 1.40706 -0.10861 0.644891 -0.0175354 -0.486472 Si
63 1 6.85632 6.80039 6.85633 4.28097 1.76104 1.44014 -1.07518 0.395941 -0.507882 Si
28 1 0.0377797 5.4108 5.4877 1.75286 -0.378534 3.65942 -0.344182 0.69807 -0.103478 Si
41 1 9.56087 4.0364 6.79719 -1.77988 -2.07184 7.36169 0.123772 0.302201 0.520825 Si
51 1 9.4472 6.78992 4.21855 2.34055 2.72694 0.0290608 0.439854 -0.636581 -0.717124 Si
21 1 1.27051 9.58813 4.14314 -2.19894 0.713044 5.01338 -0.014546 -0.853951 -0.63972 Si
30 1 2.75252 8.24823 5.38575 -1.33396 5.50822 -3.09763 0.26569 -0.632181 -0.292527 Si
44 1 5.50464 0.0628219 5.38386 2.02906 2.37452 -0.165483 0.354932 -1.90935 0.445738 Si
25 1 4.14578 9.53054 6.75578 0.243712 4.41096 -3.74347 0.29533 0.129553 -0.0481569 Si
53 1 6.85742 9.43968 4.06309 1.14024 -0.662198 2.46867 -0.365118 1.83273 0.330702 Si
57 1 9.48049 9.58415 6.8575 -1.22859 -1.00051 -2.76988 -0.291966 0.223971 0.247975 Si
62 1 8.14089 8.20845 5.51989 -2.13974 -2.3632 -1.39313 0.394801 -0.40979 0.171774 Si
6 1 2.68591 2.75356 0.00175052 1.65709 -2.12544 2.37422 0.236657 0.154872 -0.250015 Si
16 1 2.74603 -0.0664297 8.11707 -1.85665 -0.38199 4.53725 0.399491 0.735591 0.782038 Si
36 1 5.40409 0.0295437 0.0384128 -2.36751 -4.4856 1.51359 0.016013 0.167209 -0.0798964 Si
11 1 4.06072 1.40224 9.50282 -3.02596 -4.78354 -9.96697 -0.424791 -0.667625 0.138178 Si
42 1 5.3403 2.7203 8.07069 1.79737 4.27626 1.44384 0.582788 -0.221651 0.570132 Si
38 1 8.17032 2.79054 -0.0434192 -0.467772 0.953233 2.32572 0.491875 -0.474101 -0.130826 Si
10 1 0.0867151 2.71428 8.15642 -1.82402 -1.51409 -1.53067 -0.944173 -0.29815 0.0777965 Si
43 1 9.56889 1.32791 9.52791 -2.48221 -0.372305 -1.66514 -0.391482 0.509582 0.0268894 Si
13 1 1.3358 4.13781 9.46897 -0.114642 2.78528 2.08659 0.133775 -0.0957613 1.4001 Si
32 1 2.73234 5.43737 8.18106 3.89273 -2.18225 -1.24833 -0.748199 0.249698 -1.73478 Si
52 1 5.54357 5.47345 0.0630623 0.00553146 -3.21266 -2.84951 -0.765761 0.165708 -1.60424 Si
27 1 4.00061 6.78256 9.46755 -1.56852 -1.82731 2.79765 2.09524 0.0438844 1.45763 Si
45 1 6.75017 4.02222 9.40019 1.74815 5.42296 -4.73626 0.0276328 0.79345 1.15691 Si
20 1 0.00753269 5.54479 0.0111203 1.45554 4.89775 1.8605 -0.110214 -0.74761 -0.122047 Si
59 1 9.47417 6.74927 9.44548 -0.103572 -1.3437 -2.81053 1.0231 0.708969 -0.185803 Si
64 1 8.1275 5.4033 8.1121 0.0236328 6.56669 -6.14835 0.755165 -0.762387 0.172746 Si
22 1 2.76493 8.16638 -0.0232884 2.77378 -0.79064 2.85017 -0.494666 -0.0307494 0.903855 Si
29 1 1.40286 9.56392 9.58894 -1.04676 -0.483955 -1.41711 -0.206088 -0.92322 -1.2104 Si
58 1 5.44682 8.14053 8.18119 1.06321 2.88217 2.25349 -0.0703167 0.387639 -0.0412453 Si
61 1 6.76162 9.57207 9.56774 1.21017 3.2004 -0.385325 -0.833546 -0.678706 -0.198999 Si
48 1 8.02818 0.0305555 8.23998 -0.53681 0.816011 -1.16986 1.60345 0.0854327 -0.518138 Si
26 1 0.0268608 8.20975 8.12904 0.631712 -1.35286 -1.13414 -0.178518 -0.192746 0.706572 Si
ITEM: TIMESTEP
10600
ITEM: NUMBER OF ATOMS
64
ITEM: BOX BOUNDS pp pp pp
0.0000000000000000e+00 1.0887404739999999e+01
0.0000000000000000e+00 1.0887404739999999e+01
0.0000000000000000e+00 1.0887404739999999e+01
ITEM: ATOMS id type xu yu zu vx vy vz fx fy fz element
4 1 -0.0814386 0.00468288 -0.0292604 2.02855 4.29348 2.47524 0.264348 -0.273041 0.399882 Si
7 1 1.23331 1.36575 1.35158 5.04232 -4.2177 -1.88312 1.29894 -0.380781 -0.535285 Si
34 1 5.4753 2.71411 2.78139 -2.72553 1.78191 5.63611 0.273356 0.0979507 -0.371808 Si
39 1 6.78926 1.33601 1.37208 1.20631 -3.50791 -2.02634 0.0813092 -0.0448709 0.0337575 Si
2 1 0.0487091 2.69652 2.74714 2.05534 -1.74835 -2.70859 -0.585644 0.650399 0.0158817 Si
40 1 8.15751 0.0302184 2.77513 -0.760973 -1.73036 2.87067 -0.0700923 -0.299042 -0.210714 Si
23 1 1.42873 6.68074 1.28023 -1.09851 1.2859 0.171165 -1.61639 1.28336 -0.0174175 Si
24 1 2.64968 5.37987 2.65658 0.117866 1.05875 -2.83103 1.63863 -0.0374834 1.40235 Si
1 1 4.10371 4.01897 1.43795 3.52375 5.71768 -2.14534 -0.370253 0.428185 -1.15361 Si
55 1 6.75783 6.89629 1.32955 -2.41139 3.65189 -1.58923 0.51586 -0.527745 0.670961 Si
33 1 9.58407 4.02198 1.37257 2.16446 2.46532 1.05284 -0.488403 -0.372962 -0.17599 Si
56 1 8.22169 5.46195 2.63309 -2.81505 0.91014 -1.51921 -1.07388 0.0214671 -0.122244 Si
8 1 2.67351 0.0634829 2.70344 0.510143 -4.517 3.30817 0.728928 0.214304 -0.337441 Si
18 1 0.0711014 8.17149 2.6616 1.18537 -0.616821 0.200413 -0.0819147 -1.29576 -0.374597 Si
17 1 4.00223 9.5809 1.26164 -0.913756 0.791291 0.184541 0.302561 0.322719 0.829971 Si
50 1 5.33562 8.20891 2.6674 -2.50315 4.00277 1.06094 0.491535 0.464303 0.00614256 Si
49 1 9.53034 9.52207 1.43731 0.292588 -2.0503 5.67627 0.338564 1.1965 -0.0434123 Si
54 1 8.21037 8.26085 0.10661 5.43707 -0.599784 -3.80609 -0.577315 -1.32628 -0.922212 Si
12 1 0.0968978 0.0162784 5.44614 0.00730656 3.53855 2.472 -1.05826 -1.10042 -1.2013 Si
14 1 2.72828 2.77211 5.53626 -1.16167 0.756626 -1.85526 -0.608332 -1.14531 -0.288761 Si
15 1 1.26944 1.35389 6.84424 3.22009 1.26115 0.909749 0.724054 1.7445 0.343849 Si
3 1 4.07335 1.44738 4.11366 6.96981 -0.271527 3.7126 -0.427846 -0.94534 0.140891 Si
47 1 6.86134 1.34149 6.81638 1.33917 -3.67958 -1.5254 -0.555253 -0.305535 -0.368473 Si
35 1 9.57387 1.4021 4.05867 -1.60464 2.71153 1.91286 -0.255628 -0.571582 1.15839 Si
46 1 8.19512 2.74685 5.47314 2.95384 1.23858 -0.646473 0.00435306 0.54761 -0.538459 Si
5 1 1.3941 4.02504 4.09808 -3.16112 -4.18873 6.84254 -0.491285 0.872805 0.226909 Si
31 1 1.40044 6.7342 6.91322 -3.30478 5.30722 -0.758345 -1.30459 0.686226 -1.12798 Si
9 1 4.06945 4.04597 6.87738 3.61169 -0.570735 -4.06351 0.78526 0.465828 -0.598305 Si
19 1 4.07702 6.80799 4.03137 -0.0897258 -4.11848 -0.917974 -0.181196 -1.49073 0.0643225 Si
37 1 6.82766 4.14697 4.05206 -2.28933 -1.91304 3.02942 0.328013 -0.396089 0.562527 Si
60 1 5.43394 5.42223 5.4995 -0.563361 -1.70282 2.52653 -0.109472 0.260329 -0.863914 Si
63 1 6.89775 6.78133 6.7388 0.962995 -4.2453 1.14906 -0.214867 -0.116356 0.563441 Si
28 1 0.00513159 5.49957 5.3905 -3.58319 -0.0943168 0.620124 0.475783 -0.189047 0.273241 Si
41 1 9.49949 4.24678 6.79894 -4.62345 0.511409 -4.20481 0.282853 -1.45916 -0.448345 Si
51 1 9.52624 6.80554 3.97647 -1.2134 3.03319 -0.848628 0.617774 0.656644 0.432846 Si
21 1 1.42698 9.47572 3.9812 1.13269 4.82072 -3.41033 -0.13667 0.243385 1.73786 Si
30 1 2.7066 8.01299 5.43781 -0.701451 0.228134 2.86691 -0.114481 1.79801 0.252829 Si
44 1 5.40692 -0.0205747 5.42242 -1.19659 4.58947 -1.84408 -0.260729 1.039 0.915531 Si
25 1 3.98517 9.56675 6.81136 2.00903 -3.13382 2.47752 0.461588 -0.724925 -0.268946 Si
53 1 6.70972 9.56161 4.0771 -3.63584 -5.26726 -0.0734955 0.720302 -0.692025 -0.616345 Si
57 1 9.5675 9.49147 6.76718 2.51921 -1.82003 2.78115 0.653957 -0.134638 0.0534454 Si
62 1 8.18062 8.18812 5.35361 -1.74575 2.57273 -1.51357 -0.0437785 -0.0778182 0.0139453 Si
6 1 2.68572 2.69893 0.00770349 1.73875 -1.86046 -1.19621 0.217664 0.119901 0.657488 Si
16 1 2.68584 0.115187 8.20283 1.28928 -1.41162 -4.24815 0.296805 -0.834335 0.0949751 Si
36 1 5.46129 -0.00108188 -0.063861 -2.28173 2.98561 -0.234016 0.3069 -0.514839 0.520069 Si
11 1 4.10878 1.39258 9.59182 4.86648 2.14621 8.29036 -0.303119 0.100058 -0.981295 Si
42 1 5.45499 2.70043 8.15635 -2.78747 -2.00218 -0.41464 0.679128 0.20053 1.00558 Si
38 1 8.19596 2.63601 0.00605965 -1.33442 0.297334 -7.77553 -0.453918 0.950157 0.619758 Si
10 1 -0.13446 2.80477 8.17563 -0.0333029 -0.156228 -1.52698 1.08166 -0.429275 -0.596936 Si
43 1 9.49931 1.36764 9.5 1.49055 -1.0458 -4.88235 0.175121 -0.227632 -0.0275355 Si
13 1 1.386 4.04187 9.48175 -1.38027 -3.26817 -5.75493 -0.385485 -0.354181 0.103913 Si
32 1 2.71875 5.37992 8.14422 1.33042 -0.484392 2.47281 0.847674 0.482133 1.4831 Si
52 1 5.40673 5.48998 0.0376768 5.87743 4.03929 7.26834 0.197336 -0.769612 0.193617 Si
27 1 4.09432 6.81997 9.53618 -1.92951 -0.521492 -3.02932 -0.646997 0.391221 -0.752647 Si
45 1 6.82724 4.09532 9.61841 -2.77592 -1.05537 0.881645 -0.529977 -0.565472 -0.606453 Si
20 1 0.0261167 5.30243 -0.0206991 -0.0138172 4.57896 -0.933596 0.0708204 1.01058 0.137215 Si
59 1 9.51547 6.78268 9.66498 -4.10988 -0.902908 -1.89134 0.229234 0.138435 -0.429825 Si
64 1 8.19258 5.421 8.2404 -3.85983 -2.60637 3.66557 -0.667771 1.28021 0.131404 Si
22 1 2.62594 8.22803 -0.0110174 1.33499 0.0953918 -3.30585 1.23131 -1.15103 -0.473742 Si
29 1 1.35992 9.57592 9.53241 -0.700119 0.318349 2.32569 -0.623799 0.443628 -0.14093 Si
58 1 5.50137 8.14372 8.05676 -1.5213 -5.65746 -0.840863 -0.69265 0.170287 0.79212 Si
61 1 6.85923 9.45309 9.51564 1.25936 0.340578 0.479638 -0.0953088 1.01967 -0.555058 Si
48 1 8.26146 -0.0295239 8.13523 -1.0932 -0.246268 -1.69469 -1.07373 -0.354383 0.194835 Si
26 1 0.0102175 8.14186 8.27731 -1.55344 -0.11758 -1.42158 -0.222594 -0.192646 -0.883055 Si
ITEM: TIMESTEP
10700
ITEM: NUMBER OF ATOMS
64
ITEM: BOX BOUNDS pp pp pp
0.0000000000000000e+00 1.0887404739999999e+01
0.0000000000000000e+00 1.0887404739999999e+01
0.0000000000000000e+00 1.0887404739999999e+01
ITEM: ATOMS id type xu yu zu vx vy vz fx fy fz element
4 1 0.108016 0.0223894 -0.0172142 -2.49884 -3.94445 0.654131 0.254369 -0.155426 -0.0661724 Si
7 1 1.36003 1.45592 1.33484 -1.6664 -2.37368 -2.55504 0.143823 -0.367718 0.575267 Si
34 1 5.44493 2.71482 2.6408 0.999561 0.884967 0.686328 -0.288594 0.223185 0.944358 Si
39 1 6.81274 1.3435 1.32664 0.29394 0.912391 -0.136189 0.613514 0.222168 0.311094 Si
2 1 -0.0566939 2.79352 2.71663 6.19169 -3.43195 1.72381 0.688549 -0.464783 -0.568979 Si
40 1 8.20997 -0.0421688 2.67551 1.97942 4.1759 -1.58607 0.225893 0.79731 -0.660115 Si
23 1 1.19675 6.93809 1.42997 0.443009 -2.24285 0.634345 1.54576 -1.70555 -0.275365 Si
24 1 2.67497 5.52982 2.74861 -5.19978 -1.14303 -2.18265 0.0762345 0.394544 -0.744994 Si
1 1 4.00622 4.09508 1.35743 -2.71174 -4.98476 -1.21856 0.600998 0.396131 0.193967 Si
55 1 6.8518 6.72753 1.35896 -1.04755 -1.01123 -0.817722 -0.803575 -0.510808 -0.707177 Si
33 1 9.53817 4.10018 1.30576 0.508796 2.48071 -3.31353 -0.0738932 0.986976 0.719227 Si
56 1 8.18256 5.44754 2.72545 0.213664 -1.7592 4.83302 0.700628 -0.25709 0.510343 Si
8 1 2.77179 0.0686118 2.66759 -1.54568 4.81041 -1.24229 -1.33527 -1.60975 0.340799 Si
18 1 -0.0955812 8.20298 2.75341 -1.49701 3.14648 1.81737 0.0326673 0.906241 0.482666 Si
17 1 4.21114 9.47922 1.46319 -0.786972 0.999127 0.764218 -0.994438 -0.484697 -0.221047 Si
50 1 5.62088 8.07838 2.76945 0.396952 -2.57888 -5.12805 -1.04354 0.694842 0.218498 Si
49 1 9.61851 9.58513 1.2449 1.54532 -3.82825 -0.655025 -1.29874 -1.02865 0.939228 Si
54 1 8.14764 8.0939 0.0218254 0.691726 1.79954 1.86634 0.72487 1.35235 -0.552354 Si
12 1 -0.063271 -0.000774149 5.41051 1.37641 1.98976 0.997916 0.533692 0.400526 0.842239 Si
14 1 2.72209 2.67301 5.33521 -1.48233 -2.58203 -0.111079 -0.49886 1.17246 0.280529 Si
15 1 1.41207 1.41557 6.78343 -6.66058 0.704644 -0.0518875 0.0449166 -2.12431 -0.282735 Si
3 1 4.05791 1.32492 4.04256 -7.19192 -1.97529 -2.51407 1.71724 0.209509 0.204425 Si
47 1 6.76387 1.39792 6.83085 1.5864 5.71876 1.3595 0.196678 -0.532296 0.0455997 Si
35 1 9.51733 1.37178 4.0142 -3.48848 -0.460697 -3.45362 -0.163724 -0.312889 0.138238 Si
46 1 8.11414 2.66813 5.35956 -1.91369 -1.37592 2.54877 0.482575 0.32425 0.999163 Si
5 1 1.34382 4.1293 4.01263 8.02124 0.0620663 -0.210236 0.369775 -0.836494 0.567519 Si
31 1 1.29032 6.73489 6.76415 -0.0600609 -1.90041 3.47594 0.657558 1.13837 0.174193 Si
9 1 3.98025 4.10312 6.73672 -3.02217 -4.54153 0.44249 0.726635 -0.566756 0.233156 Si
19 1 4.10131 6.84784 4.12437 4.7387 5.10948 -0.563169 -0.567571 0.343865 -0.541155 Si
37 1 6.78231 4.11484 4.08464 1.25407 3.7072 4.06625 -0.101091 -0.573319 -0.868065 Si
60 1 5.37217 5.42388 5.3887 2.54601 -1.90502 -1.15631 0.188137 -0.103976 0.76615 Si
63 1 6.68827 6.74951 6.80913 -1.24889 -0.51831 -0.838892 0.485767 0.486929 0.443791 Si
28 1 0.0217824 5.34811 5.44961 1.05457 -1.38976 -1.8581 -0.775558 0.0379117 -0.00848715 Si
41 1 9.62359 3.8807 6.82461 4.09816 -0.00774225 1.80502 -1.11042 1.17577 -0.471948 Si
51 1 9.56386 6.81772 4.16368 0.97556 -4.63441 -0.738811 -1.00089 -0.590482 -0.17397 Si
21 1 1.33141 9.48329 4.12298 -1.24993 -2.47188 -7.80458 0.338406 1.4212 -1.16684 Si
30 1 2.68954 8.2153 5.49282 -0.77302 -4.9416 -4.72195 0.292056 -1.09685 -0.0303293 Si
44 1 5.47536 -0.0704007 5.43961 0.604434 -3.87448 -3.94034 -0.036563 1.2726 -0.397311 Si
25 1 4.12669 9.52833 6.79561 1.44837 3.84652 -3.2125 -0.478467 -0.20989 0.853799 Si
53 1 6.90754 9.55671 4.07027 -0.210951 6.05779 -1.24521 -0.387771 -0.958314 0.493191 Si
57 1 9.42363 9.57654 6.84769 0.290592 1.59715 2.59574 0.646201 -0.00343389 -0.0656262 Si
62 1 8.1182 8.13599 5.52461 2.94938 2.16251 3.22814 0.124315 0.105116 -0.382534 Si
6 1 2.7366 2.74596 -0.0180566 -5.57597 1.28119 3.409 -0.0762446 -0.27269 -0.367174 Si
16 1 2.76463 -0.0261739 8.21323 0.399772 7.53131 -0.0811117 -0.851859 -0.255178 -1.33443 Si
36 1 5.44017 -0.0369576 0.0725006 -3.39662 -3.82341 -1.1064 -0.252669 0.710516 -0.652461 Si
11 1 4.07224 1.30327 9.5058 -3.57962 3.28158 2.11983 0.72094 0.885115 1.15831 Si
42 1 5.3927 2.77989 8.1807 1.10642 0.776115 -2.90337 -0.398872 -0.486928 -0.755142 Si
38 1 8.22272 2.75527 0.0230803 0.559779 0.85866 0.187517 -0.901249 -0.527351 -0.72277 Si
10 1 0.11538 2.61509 8.21705 -2.29346 3.06172 -2.14566 -0.450844 1.08712 0.537207 Si
43 1 9.61777 1.36694 9.62881 4.16039 1.47375 2.15243 -0.373646 0.221474 -0.633546 Si
13 1 1.37697 4.12621 9.5583 -0.0672227 -0.688541 5.19964 -0.232353 0.210994 -0.380521 Si
32 1 2.69761 5.48155 8.11567 -2.3792 2.25639 -0.376164 -0.411443 -0.505306 0.475468 Si
52 1 5.40486 5.36541 -0.0781437 -3.95094 0.719274 -8.67672 0.470828 0.593613 1.00652 Si
27 1 4.00158 6.76845 9.56648 6.98293 -1.82883 7.25512 0.631771 0.314898 -0.342556 Si
45 1 6.83409 4.07291 9.46248 -0.550912 1.98182 -0.426482 0.449121 0.174523 0.424008 Si
20 1 -0.0394964 5.55332 -0.00750727 0.101529 -0.882172 -4.92764 0.263973 -0.569906 -0.299002 Si
59 1 9.53051 6.87002 9.44352 4.72566 -1.16711 0.52176 -0.504692 -0.655476 0.548298 Si
64 1 8.22163 5.45163 8.09422 7.1065 -3.86486 1.2509 -0.138498 -0.844112 -0.160238 Si
22 1 2.7297 8.09707 0.116432 -1.79243 2.00693 5.77792 -0.0536917 1.25837 -0.291331 Si
29 1 1.37452 9.45152 9.52138 -0.0212427 -2.00927 0.888299 0.539756 0.110805 0.236431 Si
58 1 5.41379 8.19254 8.26833 1.55149 1.90851 0.038787 0.217214 -0.311397 -0.382874 Si
61 1 6.81794 9.60261 9.61414 -3.19256 -4.82746 2.39085 0.0195895 -1.27849 -0.25734 Si
48 1 8.17783 0.0834918 8.29617 2.70993 2.37334 0.692122 -0.341651 0.0889114 -0.824499 Si
26 1 -0.0244631 8.16668 8.10086 -2.55622 -0.707 6.51592 0.222229 0.481728 -0.0745896 Si
ITEM: TIMESTEP
10800
ITEM: NUMBER OF ATOMS
64
ITEM: BOX BOUNDS pp pp pp
0.0000000000000000e+00 1.0887404739999999e+01
0.0000000000000000e+00 1.0887404739999999e+01
0.0000000000000000e+00 1.0887404739999999e+01
ITEM: ATOMS id type xu yu zu vx vy vz fx fy fz element
4 1 -0.153449 0.0615455 0.0558266 2.41853 3.1574 4.69201 0.321005 -0.466835 -0.551975 Si
7 1 1.36139 1.33629 1.37435 2.2902 0.578562 0.319169 -0.367162 -0.106202 -0.00245818 Si
34 1 5.46087 2.69773 2.80682 0.749737 -0.861618 -1.30868 -0.388766 -0.0999966 -1.38452 Si
39 1 6.83792 1.31688 1.38685 -2.16896 -5.18505 2.96367 -1.06238 0.498321 0.0293367 Si
2 1 0.0104246 2.68564 2.77703 -3.84884 2.9018 2.71822 -0.482456 -0.1142 0.160392 Si
40 1 8.10247 -0.0641433 2.72215 0.243284 -11.5929 -2.16823 0.0881374 0.651822 1.20587 Si
23 1 1.4871 6.71312 1.33576 -2.80887 1.6291 -3.45901 0.400666 0.628241 0.0553922 Si
24 1 2.82931 5.37348 2.81061 4.42503 1.47528 3.2395 -1.19313 -0.342886 -0.769453 Si
1 1 4.1289 4.09724 1.27815 -2.87872 0.956171 2.57165 -0.298855 -1.24786 1.25603 Si
55 1 6.77075 6.82088 1.41748 3.7491 1.06297 -0.0210202 0.628043 1.17231 0.603559 Si
33 1 9.46822 4.04449 1.43465 1.31548 -0.237714 -0.141461 0.402917 -0.400551 -0.74827 Si
56 1 8.1408 5.41838 2.79222 -1.42327 3.99048 -3.57331 -0.0595049 0.365242 -0.845297 Si
8 1 2.65567 -0.110372 2.72013 2.6187 1.07106 -6.01176 1.18269 1.7271 0.470335 Si
18 1 0.0139101 8.08812 2.59316 -0.376489 1.32246 -5.5644 0.414206 0.750969 0.914013 Si
17 1 4.06778 9.56204 1.28621 -2.13723 0.879303 5.08053 0.187352 0.113729 -0.188228 Si
50 1 5.32981 8.25362 2.77173 -1.30666 0.369015 1.84649 0.50328 -1.38144 -1.13299 Si
49 1 9.40436 9.51625 1.41717 -0.208445 8.27804 -1.77986 1.21959 -0.39617 -1.05753 Si
54 1 8.12939 8.21053 -0.0469659 1.2014 -0.337608 3.60925 -0.379682 -0.588742 0.64153 Si
12 1 0.0103464 -0.0228559 5.51097 3.48134 -4.42472 -3.0383 0.337671 0.297014 -0.438672 Si
14 1 2.75966 2.86777 5.53561 2.94944 -0.888681 1.30984 0.339233 -1.33446 -0.406008 Si
15 1 1.42652 1.41326 6.8061 1.325 6.84355 -1.04525 -1.29616 0.1071 0.244274 Si
3 1 4.09435 1.37313 4.20347 -5.1784 1.44336 -0.889756 -1.5885 0.139446 -1.47244 Si
47 1 6.80955 1.29608 6.72332 -0.900099 1.22976 -1.9458 0.680709 1.68853 1.19131 Si
35 1 9.47994 1.30808 4.1467 0.59048 -1.55998 5.88223 0.246496 0.238875 -0.399962 Si
46 1 8.18994 2.81894 5.46838 -1.86766 3.84977 -0.727499 -0.275061 -1.35655 -0.0581152 Si
5 1 1.31745 4.0664 4.18651 -2.92121 3.43867 0.210307 0.739941 0.566013 -0.961881 Si
31 1 1.46973 6.90022 6.79704 -4.06646 -5.41845 0.0801977 0.25687 -1.72914 0.272834 Si
9 1 4.21609 4.1417 6.81086 -0.174918 0.974456 -1.51009 -0.691834 -0.29574 0.825708 Si
19 1 4.11461 6.75959 4.11539 -2.64064 -4.92111 -2.5715 0.217546 0.593741 -0.00468862 Si
37 1 6.81131 4.05478 4.09462 2.45792 -1.58776 -2.01157 -0.180126 0.601347 0.493127 Si
60 1 5.49738 5.47263 5.4498 -2.38755 1.07281 -3.03314 0.641476 0.182592 -0.0784761 Si
63 1 6.80717 6.93515 6.77135 1.69251 -0.849998 3.66708 0.379977 -0.756078 -0.264788 Si
28 1 0.0698975 5.54217 5.47792 -3.78933 -2.30103 2.45463 -0.750182 -0.00480604 -0.104241 Si
41 1 9.48464 4.21251 6.79628 0.394142 -3.42664 1.76046 0.738751 -0.163336 0.942075 Si
51 1 9.55506 6.80459 4.01543 3.99486 2.58384 -0.926455 0.379458 -0.324088 0.279301 Si
21 1 1.35245 9.48753 4.11176 3.63353 2.53274 4.00413 -0.420066 -0.988885 -0.107351 Si
30 1 2.8399 8.15917 5.46295 -0.225242 4.86606 -0.69208 -0.875002 0.420263 -0.804153 Si
44 1 5.44178 0.0589087 5.4621 1.67928 4.28075 4.93218 -0.271937 -1.86567 -0.246368 Si
25 1 4.08705 9.52887 6.81302 -0.722248 -1.53141 3.19242 0.213869 0.758127 -0.52777 Si
53 1 6.72502 9.49701 4.0677 0.790477 1.13586 -2.82389 0.161128 1.17787 0.321857 Si
57 1 9.59265 9.41679 6.79734 -0.897024 -1.00119 -4.05535 -1.14786 0.511771 -0.605771 Si
62 1 8.17829 8.17817 5.28582 -0.974887 -4.84693 -5.03748 0.298679 0.00698318 1.39567 Si
6 1 2.73022 2.62792 -0.0577458 -1.3414 0.465857 -3.55569 -0.286903 1.26298 0.565413 Si
16 1 2.64506 -0.0717361 8.0992 -3.99182 -2.51023 4.09303 0.735206 0.921973 1.01553 Si
36 1 5.48056 0.0736083 -0.078301 2.84766 -2.95977 5.33684 -0.432877 -0.792796 0.543912 Si
11 1 4.07405 1.36256 9.46388 0.472935 -1.81749 -5.32247 -0.380178 -0.963378 -0.513255 Si
42 1 5.47581 2.69282 8.18545 3.83754 2.8598 2.13628 0.609895 0.376971 -0.53931 Si
38 1 8.09388 2.65317 -0.0291008 -1.02354 -0.486599 0.865392 0.812648 0.870347 0.853068 Si
10 1 -0.0736421 2.72038 8.20599 4.20471 0.481266 0.714703 0.0191583 0.184614 -1.37447 Si
43 1 9.38233 1.34077 9.4383 -0.346881 -0.86322 0.00715508 0.579159 -0.349178 0.585314 Si
13 1 1.31601 4.04413 9.51116 0.273559 -2.82084 0.711369 0.674439 -0.0813463 0.55688 Si
32 1 2.75201 5.39353 8.18391 1.83685 -6.59782 1.066 -0.0579855 0.64596 -0.612069 Si
52 1 5.49863 5.50862 0.0767326 -1.91728 -2.91852 2.44583 -0.913931 0.0349319 -1.66274 Si
27 1 4.16868 6.8409 9.38315 -4.31811 2.95975 -2.24016 -0.352396 -1.12732 1.77636 Si
45 1 6.79308 4.10792 9.6095 1.42248 1.88092 -2.47201 -0.0445725 0.102113 -0.946151 Si
20 1 0.0504044 5.38969 0.077624 1.55428 0.119211 -0.832762 -0.80818 -0.157421 -0.318405 Si
59 1 9.58435 6.82534 9.60023 -3.25865 3.00927 1.60461 -0.0239333 -0.260717 -0.45119 Si
64 1 8.11221 5.55695 8.21357 0.11535 4.50034 -1.64915 0.306056 -0.335639 0.00651965 Si
22 1 2.79721 8.16509 -0.128762 1.7524 -1.97584 -0.272221 -1.116 0.0892593 0.403945 Si
29 1 1.22888 9.57095 9.50837 -0.865051 -2.68976 -2.05664 0.717396 -0.404847 0.577633 Si
58 1 5.42347 8.21783 8.11215 0.658555 0.143315 2.20556 0.598518 0.0736117 -0.35847 Si
61 1 6.7614 9.52761 9.44058 5.8373 1.81504 -2.15486 0.13524 0.135642 0.778941 Si
48 1 8.11595 -0.0963821 8.0792 -3.32267 -1.71027 0.113543 0.656595 0.188874 -0.334964 Si
26 1 0.0603431 8.10337 8.10844 -2.52552 -1.8349 -0.942435 -0.678383 0.351606 1.30632 Si
ITEM: TIMESTEP
10900
ITEM: NUMBER OF ATOMS
64
ITEM: BOX BOUNDS pp pp pp
0.0000000000000000e+00 1.0887404739999999e+01
0.0000000000000000e+00 1.0887404739999999e+01
0.0000000000000000e+00 1.0887404739999999e+01
ITEM: ATOMS id type xu yu zu vx vy vz fx fy fz element
4 1 0.0349859 -0.0742151 -0.0150211 0.533326 -5.19798 -1.55558 0.331536 0.730302 0.381793 Si
7 1 1.42114 1.34355 1.31447 3.48161 -2.49586 0.726662 -0.0594797 -0.380091 0.109459 Si
34 1 5.5017 2.80044 2.6567 -3.01991 -2.66824 3.01848 -0.171211 -0.55342 1.01759 Si
39 1 6.87031 1.40549 1.35874 1.98511 2.9434 1.5138 -0.876734 -0.102254 -0.373377 Si
2 1 0.0559728 2.73528 2.55254 1.85477 -1.67931 -3.23501 -0.601569 0.476437 1.24162 Si
40 1 8.17767 0.119091 2.70397 1.77481 5.65006 -1.28354 -0.259481 -1.923 -0.402499 Si
23 1 1.30672 6.80004 1.40584 1.69883 0.948097 3.7357 -1.26359 0.697456 -0.728977 Si
24 1 2.63118 5.46404 2.71144 2.22564 0.747012 0.852752 1.26099 0.331672 0.450293 Si
1 1 4.05922 4.13235 1.43594 1.1896 1.17679 -1.05782 0.510611 0.854559 -0.916028 Si
55 1 6.83326 6.87321 1.36646 -0.405884 4.15856 1.24846 0.274231 -1.0665 -0.638327 Si
33 1 9.49893 4.12577 1.286 -1.67784 3.27431 1.09754 0.816787 -0.12747 0.699517 Si
56 1 8.19346 5.43496 2.71262 1.36911 -0.613726 3.4116 -0.639044 0.537846 -0.450914 Si
8 1 2.76966 0.0537405 2.80509 -1.95322 -6.99468 6.52283 -0.194948 -1.01479 -1.60775 Si
18 1 -0.0606169 8.23707 2.88 -2.2086 -1.37983 0.554549 0.046498 -1.4267 -1.34559 Si
17 1 4.10916 9.51107 1.32864 3.27939 -1.86035 -1.87987 -0.431602 0.0155484 0.970937 Si
50 1 5.44766 8.1031 2.74195 1.63644 2.46183 1.13607 -0.110669 1.24706 0.272677 Si
49 1 9.53729 9.53693 1.40061 -5.85703 -6.0227 -1.76439 0.0509416 0.573688 0.191287 Si
54 1 8.2346 8.22226 -0.00954755 -0.775772 -0.928315 -3.66829 -0.357699 -0.984961 -0.179483 Si
12 1 -0.0445576 0.065257 5.46714 -2.97952 4.66738 4.18694 -0.169584 -0.709937 -0.973836 Si
14 1 2.64514 2.66158 5.42615 0.367374 2.36276 -1.15736 0.87943 0.0885768 0.0095124 Si
15 1 1.38453 1.26203 6.83793 4.47992 -1.43852 1.45397 0.244657 0.83469 -0.374362 Si
3 1 4.14211 1.38158 4.05586 7.92192 -1.26181 1.37943 0.653067 0.132062 1.08264 Si
47 1 6.81524 1.36333 6.89787 -1.45861 -2.4648 1.19259 -0.924306 -1.17432 -1.56307 Si
35 1 9.48644 1.42202 3.94459 -2.91077 -2.41706 -3.48873 1.51706 0.481844 1.51959 Si
46 1 8.09592 2.63846 5.42885 3.47576 -1.75739 3.05666 0.632814 1.1165 -0.357261 Si
5 1 1.39737 4.08612 4.03952 -1.255 -0.573908 1.84079 -1.41729 -0.555705 0.0682272 Si
31 1 1.29515 6.80239 6.76413 5.54026 3.4921 -4.19711 -0.411689 0.411796 0.276687 Si
9 1 3.98878 4.04077 6.8268 1.89729 1.41621 1.87348 0.0529265 0.387402 -0.680819 Si
19 1 4.00621 6.81427 4.10593 2.37445 1.35629 0.954847 0.523693 -0.805448 -0.512565 Si
37 1 6.82152 4.15336 4.08033 -5.50424 -1.25927 1.28637 -0.0414833 -1.19276 -0.108641 Si
60 1 5.38824 5.38543 5.40978 -2.30134 0.425356 5.73429 -0.732029 0.397535 0.460988 Si
63 1 6.70205 6.74564 6.79732 -1.70892 -0.716102 -3.53158 1.18261 -0.220978 0.486854 Si
28 1 -0.0379384 5.45145 5.37005 1.75115 -1.38687 0.223384 0.475358 -0.673575 0.43267 Si
41 1 9.54887 4.03525 6.73009 -2.8337 1.15428 -0.482298 -0.433071 -0.312515 0.219558 Si
51 1 9.42507 6.76258 4.14139 -4.49477 1.10409 3.9693 0.373688 1.4801 0.124439 Si
21 1 1.38947 9.52735 4.10397 -4.00431 1.69301 -2.73206 -0.130868 0.861748 1.14914 Si
30 1 2.70575 8.11631 5.48127 3.98134 -1.28782 1.03643 -0.206539 0.766417 -0.0871621 Si
44 1 5.4406 -0.164367 5.47738 1.19668 2.5054 -4.01837 0.578716 2.44447 -0.209477 Si
25 1 4.12519 9.42627 6.8273 1.69316 -0.677393 -1.81268 -0.627695 0.0700305 -0.34845 Si
53 1 6.87083 9.55855 4.07164 0.411345 -7.12905 0.338521 -0.202552 -0.813686 -0.0889282 Si
57 1 9.48947 9.61285 6.89627 -1.82838 2.30941 1.42521 0.814306 -0.197196 -0.572578 Si
62 1 8.15759 8.22716 5.59183 -4.33117 0.968404 3.40419 -0.49946 -0.883287 -1.08793 Si
6 1 2.70796 2.85309 0.0751864 3.20709 0.863552 1.17093 0.326487 -1.09186 -0.835377 Si
16 1 2.90105 0.0260684 8.11741 -2.01663 -3.4476 -5.0712 -1.22266 -0.548546 1.06435 Si
36 1 5.50352 -0.0212079 0.0209173 0.162853 2.44354 -3.06817 -0.0867418 0.376892 0.173389 Si
11 1 4.07482 1.37205 9.65018 1.24857 1.0758 0.564929 0.383855 0.491501 -0.623222 Si
42 1 5.38135 2.6752 8.11832 -4.76475 -3.35782 -3.80121 -0.283885 0.0915845 1.30758 Si
38 1 8.22882 2.72192 0.0483504 -0.848252 -0.34865 -0.907504 -0.415546 -0.460966 -1.30283 Si
10 1 0.0800393 2.7246 8.10818 0.0595684 -0.127477 -0.126905 -0.36067 -0.134985 0.576129 Si
43 1 9.61851 1.36809 9.55356 2.6089 -1.64245 -4.68995 -0.287975 0.271468 -0.218498 Si
13 1 1.40632 4.12651 9.48275 -3.77246 4.53988 -6.61689 -0.527385 -0.424103 0.0500843 Si
32 1 2.65609 5.52166 8.13405 -1.2642 -0.0704449 1.36385 0.778324 -0.670603 -0.0541538 Si
52 1 5.447 5.46453 -0.0436707 4.51297 2.99351 3.91921 0.418695 -0.680288 1.17546 Si
27 1 4.07861 6.75976 9.53569 -3.41532 0.749837 -6.38794 -0.641349 1.0387 -0.39145 Si
45 1 6.76292 3.9486 9.53926 -1.04539 -2.22704 -5.10144 0.0252697 0.613577 0.165605 Si
20 1 -0.0423232 5.39667 -0.101192 0.0671223 2.42435 -1.06907 0.653269 1.17528 0.728013 Si
59 1 9.52656 6.78252 9.4354 -3.26928 -2.28055 0.897333 -0.50908 0.157411 0.453523 Si
64 1 8.12497 5.28922 8.17694 0.473829 -0.114365 -3.20771 -0.018528 1.09457 -0.775573 Si
22 1 2.66564 8.16659 -0.0160249 4.49459 2.01398 -0.639002 0.926429 -0.63366 0.625724 Si
29 1 1.45469 9.56319 9.51363 -1.38953 5.62207 6.98869 -0.242732 0.14166 -0.845755 Si
58 1 5.43397 8.13997 8.16982 1.63254 -2.13334 0.62101 0.0576203 -0.77626 0.624928 Si
61 1 6.78787 9.47753 9.5274 -1.94002 -0.914189 5.09377 0.661124 0.787351 -0.224478 Si
48 1 8.17634 0.055824 8.21 -2.73527 0.141324 -0.490424 -0.273486 -0.286797 1.12156 Si
26 1 0.0112644 8.23516 8.18137 3.38276 1.19234 -0.752448 0.181649 -0.351073 -0.352462 Si
ITEM: TIMESTEP
11000
ITEM: NUMBER OF ATOMS
64
ITEM: BOX BOUNDS pp pp pp
0.0000000000000000e+00 1.0887404739999999e+01
0.0000000000000000e+00 1.0887404739999999e+01
0.0000000000000000e+00 1.0887404739999999e+01
ITEM: ATOMS id type xu yu zu vx vy vz fx fy fz element
4 1 -0.033045 0.0438845 -0.0279327 -6.4043 1.69955 -2.01414 0.0515738 -0.929832 -0.579862 Si
7 1 1.18011 1.41354 1.33353 -7.99579 1.23733 -1.38947 0.988075 0.603154 0.61332 Si
34 1 5.45151 2.67562 2.63804 0.925184 0.529082 -1.24075 -0.259043 0.197721 1.07447 Si
39 1 6.76161 1.34855 1.32574 -4.47064 -2.29971 -0.198084 0.952424 -0.182556 0.364216 Si
2 1 -0.0795902 2.79853 2.87185 0.123138 -1.13759 1.69665 1.1093 -1.1092 -1.26286 Si
40 1 8.15943 -0.0250364 2.65799 -2.49205 -0.038383 4.1168 0.524333 1.19551 0.821529 Si
23 1 1.36248 6.75308 1.32038 1.97709 -4.36172 -4.04987 0.851816 0.322221 0.963244 Si
24 1 2.80851 5.41919 2.69739 -3.72206 -0.378113 0.123231 -0.908097 0.217794 -0.207998 Si
1 1 4.05402 3.97294 1.35821 2.43067 -2.98556 4.66738 -0.295397 0.206661 -0.544513 Si
55 1 6.85377 6.66996 1.33827 -2.20682 4.69647 -0.861001 -1.61189 0.970353 -0.0909752 Si
33 1 9.57548 4.0274 1.41725 3.38338 -4.3351 -1.28884 -0.984176 0.286448 -0.215635 Si
56 1 8.18076 5.38272 2.67005 -0.322074 2.51371 -1.84875 0.430314 -0.270464 0.994188 Si
8 1 2.65621 0.0685757 2.58674 5.44742 4.93381 1.48326 -0.42856 -0.326617 1.83835 Si
18 1 0.0160273 8.12594 2.66637 2.68603 2.50742 1.16444 0.546073 0.608963 0.292773 Si
17 1 4.04923 9.54252 1.41257 0.311583 0.45649 -5.759 0.625461 -0.397632 -1.15487 Si
50 1 5.45702 8.11534 2.72335 -2.16476 -1.81778 -0.327188 0.555723 0.474479 -0.167287 Si
49 1 9.56091 9.56404 1.34604 1.60781 -1.50183 0.0506666 -0.376291 -0.84357 -0.167611 Si
54 1 8.11569 8.16741 0.0496644 0.842293 3.84561 3.0585 0.548691 0.297736 -0.220602 Si
12 1 0.0155 -0.0825736 5.3671 1.56651 1.71444 -1.75597 -0.00976163 0.441871 1.35749 Si
14 1 2.70799 2.7216 5.46302 0.622017 2.01441 4.22368 -0.551027 0.31418 -0.0560608 Si
15 1 1.22778 1.3532 6.81652 -5.96205 -2.23873 -1.16042 0.9864 -0.0227511 -0.11001 Si
3 1 4.04063 1.40561 4.02441 -2.63401 3.26352 0.0822256 0.0998876 -0.504327 0.158748 Si
47 1 6.82068 1.37234 6.79247 -0.0495621 0.903587 0.791647 0.604237 0.46455 0.568615 Si
35 1 9.59229 1.33641 4.14262 2.50098 3.58924 -1.27503 -1.63699 -0.442537 -0.986239 Si
46 1 8.21472 2.73716 5.41831 -0.140744 -1.06804 1.32266 -0.019103 -0.0659244 0.772633 Si
5 1 1.36912 4.13379 4.03662 2.64324 -4.70693 -0.479161 0.797962 -0.197325 1.1313 Si
31 1 1.43138 6.75491 6.87167 0.222044 -4.14634 3.65678 -0.587675 0.747611 -0.564956 Si
9 1 4.08729 4.13685 6.80607 -0.757394 0.55379 1.40122 0.68954 -0.436925 -0.319601 Si
19 1 4.08256 6.80525 4.08311 0.642102 1.23917 1.29305 -0.0291143 0.307749 -0.12682 Si
37 1 6.79751 4.01931 4.03488 0.745204 1.52956 -0.822052 -0.0804691 0.855867 0.287049 Si
60 1 5.46965 5.53641 5.41882 3.3071 -0.239471 -0.263058 0.617001 -0.997722 0.549479 Si
63 1 6.86446 6.91832 6.83416 -0.709718 1.42232 -2.0375 -0.772192 -0.356077 -0.754697 Si
28 1 0.0705034 5.46555 5.45717 -0.754871 2.82637 0.128158 -0.0162526 -0.113749 -0.0723742 Si
41 1 9.62426 4.09814 6.83273 2.83415 3.6329 1.19409 -1.12784 0.40054 -0.31585 Si
51 1 9.60658 6.74686 4.00535 1.87902 -1.30164 -2.11199 -0.479977 -0.294697 0.180651 Si
21 1 1.39688 9.48213 4.11827 1.81311 -3.30565 0.502631 -0.0862802 0.325309 -2.14279 Si
30 1 2.70776 8.15366 5.4403 -2.16 -5.96902 -2.23279 0.300165 -0.547237 0.48739 Si
44 1 5.42293 0.0905397 5.48632 -1.25762 -6.07297 -2.50183 -0.506749 -0.977744 -0.96158 Si
25 1 3.96115 9.57748 6.79848 0.268544 2.56107 -0.743859 0.866946 0.285891 0.147959 Si
53 1 6.83938 9.58408 4.07958 -3.1884 4.90334 1.53124 -0.67272 -0.866466 0.260264 Si
57 1 9.55067 9.48032 6.74536 -0.614276 -2.22011 -1.52288 -0.11549 0.0428466 0.684883 Si
62 1 8.25651 8.10244 5.34389 0.397878 1.23145 -2.11233 -0.635312 0.867124 0.288884 Si
6 1 2.67568 2.65311 -0.046159 -2.37656 -0.334 -2.13255 0.279186 -0.0849312 0.86142 Si
16 1 2.61296 0.00944672 8.22373 4.66596 7.10815 4.23731 0.785208 0.775963 -1.65372 Si
36 1 5.45394 0.0314809 0.00572457 -0.396673 -0.925196 -1.05184 -0.946835 -0.72808 -0.912506 Si
11 1 4.07241 1.38587 9.43724 -1.5939 -2.72766 1.84072 0.270393 -0.431095 0.951551 Si
42 1 5.50251 2.76851 8.17883 -1.2091 1.3839 -1.71293 -0.278847 0.0865814 -0.554618 Si
38 1 8.1492 2.73217 0.0797143 3.41948 -5.25655 1.24858 0.0502616 0.20452 -0.290005 Si
10 1 -0.0275012 2.73759 8.25217 -2.77431 1.10446 -0.676495 0.0623536 -0.178351 -0.0472495 Si
43 1 9.45961 1.40232 9.59919 -0.464208 1.3775 2.04744 0.148507 -0.309241 -0.730754 Si
13 1 1.37586 4.05779 9.60506 3.23859 -0.207612 0.490717 -0.244087 0.701993 -0.860062 Si
32 1 2.76117 5.4292 8.1966 1.121 -1.23811 -3.8893 -0.273098 -0.21038 0.769918 Si
52 1 5.3453 5.35053 0.000994719 -0.833058 3.28273 -2.65184 1.0347 0.740673 -0.146482 Si
27 1 4.07189 6.84497 9.54052 2.09028 -3.7123 3.62409 0.16116 -0.411062 0.0325879 Si
45 1 6.86677 4.1108 9.55638 0.612373 0.60994 3.43037 -0.186905 0.342959 -0.378634 Si
20 1 0.0123364 5.38664 0.11262 0.914916 -4.42523 0.884359 -0.15943 -0.0400051 -1.1833 Si
59 1 9.55572 6.82121 9.66405 1.8252 0.0622448 1.95726 0.0053386 -0.193507 -0.778225 Si
64 1 8.21566 5.55393 8.14529 -1.42854 -0.0337684 1.36579 0.309928 -0.983201 0.855747 Si
22 1 2.68854 8.16626 0.000318418 -8.01683 1.12248 -2.05475 0.25568 0.350959 0.0478082 Si
29 1 1.36885 9.51609 9.46461 2.08742 -0.160411 -1.4123 -1.07703 -0.127178 1.73428 Si
58 1 5.38344 8.23911 8.15897 3.77668 0.926227 -3.70943 0.32063 -0.0725888 -0.189998 Si
61 1 6.82763 9.54528 9.48817 1.1772 -2.30021 -1.14415 -0.79337 -0.279632 0.973607 Si
48 1 8.17641 -0.0188425 8.19266 2.10685 2.12299 -0.148991 0.510868 0.432675 -1.03825 Si
26 1 0.0106454 8.12987 8.18789 0.887898 -1.45953 4.96561 -0.190125 -0.138301 -0.277344 Si
ITEM: TIMESTEP
11100
ITEM: NUMBER OF ATOMS
64
ITEM: BOX BOUNDS pp pp pp
0.0000000000000000e+00 1.0887404739999999e+01
0.0000000000000000e+00 1.0887404739999999e+01
0.0000000000000000e+00 1.0887404739999999e+01
ITEM: ATOMS id type xu yu zu vx vy vz fx fy fz element
4 1 0.0728245 -0.00801506 -0.0462084 4.57291 2.25944 -0.255812 -0.523734 1.28445 1.50656 Si
7 1 1.45766 1.44467 1.43391 -0.378133 0.493134 -0.144731 -0.158119 -1.4769 -1.09883 Si
34 1 5.46168 2.72748 2.73231 1.35159 0.493408 -2.27552 -0.0150934 0.548232 -0.46429 Si
39 1 6.83947 1.43553 1.38583 5.16995 -1.08473 -4.15993 -0.464976 -0.999615 -0.323221 Si
2 1 -0.0553722 2.68806 2.64147 -3.54102 6.39459 1.78958 0.242246 0.438056 1.141 Si
40 1 8.16296 0.0442059 2.75875 -0.240321 -3.67522 -2.92284 -0.59784 -1.52157 -0.387229 Si
23 1 1.35433 6.8499 1.38195 -5.78023 5.3451 2.40752 -0.00296858 -0.739842 -0.662481 Si
24 1 2.67343 5.46457 2.73784 -1.15457 0.373 -1.52189 -0.172617 -0.418698 -0.073234 Si
1 1 4.13053 4.1586 1.38994 -5.02074 1.57697 -3.03933 -0.312216 -0.405595 0.479967 Si
55 1 6.8217 6.85079 1.35537 5.91402 -4.266 0.356498 0.705775 -0.268799 0.528367 Si
33 1 9.50453 4.06883 1.35151 1.78614 0.181805 0.994653 0.372706 0.589488 -0.547613 Si
56 1 8.224 5.45832 2.72473 -2.86878 -4.73171 -3.52807 -0.785672 0.439821 0.0540962 Si
8 1 2.68166 -0.0834778 2.84616 -1.81103 2.64506 -7.09607 1.52308 0.891031 -1.54094 Si
18 1 0.0105689 8.16221 2.73298 -2.62373 -1.7647 -2.64339 -0.765311 0.702827 0.201865 Si
17 1 4.11996 9.47839 1.29209 2.82887 -2.77475 6.95123 -0.613409 0.663688 1.20836 Si
50 1 5.45727 8.15491 2.73526 5.70608 0.41869 1.83378 -0.798809 -0.535795 -0.126655 Si
49 1 9.5377 9.56004 1.31978 3.39458 6.25248 0.77376 -0.0542796 -0.180077 0.425784 Si
54 1 8.16426 8.16481 -0.054967 -1.51226 -2.4397 -0.933842 0.212839 0.404168 0.378069 Si
12 1 0.0114784 0.0435326 5.47309 -2.07341 -0.853511 -2.93879 0.332884 0.460351 0.0911799 Si
14 1 2.75589 2.73636 5.37598 -0.375302 -2.84777 -3.89332 0.258711 0.260733 0.227095 Si
15 1 1.51801 1.34966 6.82967 3.53035 3.25189 2.17801 -1.41417 0.133425 -0.432125 Si
3 1 4.21251 1.33721 4.08459 0.083858 0.606771 2.87412 -1.89432 -0.0378906 -0.120636 Si
47 1 6.80467 1.35488 6.8039 -0.180236 -1.6533 -0.510727 -0.0733041 0.363589 0.0575425 Si
35 1 9.53114 1.32487 4.05984 0.886976 0.449003 -3.4831 0.298937 0.768239 0.357824 Si
46 1 8.14845 2.7145 5.37546 0.0179701 1.02935 -7.70513 -0.417687 -0.161854 0.148878 Si
5 1 1.23713 4.09773 4.06888 -2.65846 3.46322 -2.3015 0.880233 -0.444165 -0.258833 Si
31 1 1.36092 6.86481 6.71254 -0.94009 -2.6843 1.80447 0.166861 -0.927357 0.911887 Si
9 1 4.11913 4.09849 6.8204 -6.11651 0.366467 -5.3495 -1.01175 -0.554882 0.256056 Si
19 1 4.02084 6.77972 4.10355 1.24025 -3.07995 -0.605462 0.551305 0.719048 -0.0478878 Si
37 1 6.76962 4.12227 4.04315 -1.76055 -0.697955 3.69741 0.522046 0.0198063 0.445744 Si
60 1 5.40479 5.44285 5.46092 -4.32012 0.706651 -1.96409 0.292715 -0.0500048 -0.673495 Si
63 1 6.80161 6.74382 6.77265 1.62459 -1.93644 1.46841 -0.155808 0.131667 0.791927 Si
28 1 -0.0384078 5.47514 5.45551 4.05456 -3.47517 -0.685933 -0.473626 -0.309357 0.165543 Si
41 1 9.45566 4.03501 6.7843 4.87218 -6.14535 -0.57947 1.07646 0.0532724 0.420412 Si
51 1 9.49499 6.86873 4.14775 0.52134 0.159103 0.466896 0.195091 -0.418123 -0.709966 Si
21 1 1.2997 9.53215 4.15551 -1.00535 -1.02961 2.14198 0.168129 -0.559936 -0.0134926 Si
30 1 2.73638 8.21774 5.47775 -1.51043 5.56143 4.52537 0.0323035 -0.275746 -0.793042 Si
44 1 5.43376 -0.00691813 5.47345 1.40179 2.58251 1.68537 0.748152 -0.744729 0.246701 Si
25 1 4.12638 9.47715 6.83784 -3.57408 -1.96459 -0.602063 -0.0113483 0.281763 -0.146447 Si
53 1 6.76882 9.42401 4.14047 4.61117 0.325767 -3.19565 0.151448 2.07341 -0.786426 Si
57 1 9.51911 9.58889 6.75511 -1.50453 -0.12353 2.65872 -0.535022 -0.614652 0.184565 Si
62 1 8.08219 8.15949 5.47682 -0.54633 0.529831 0.232106 1.21221 0.0468526 0.410868 Si
6 1 2.84534 2.76841 0.0127762 -0.372117 1.02087 -1.81535 -1.10485 0.147582 -0.4528 Si
16 1 2.73137 -0.102417 8.16193 -2.19953 -4.483 1.24575 0.357001 0.304141 0.938797 Si
36 1 5.45604 0.0258472 -0.0209744 2.53186 0.270353 2.49819 0.454745 0.00306276 1.46114 Si
11 1 4.11162 1.27901 9.54934 1.73711 0.744685 0.0198792 -1.066 0.515423 -0.474508 Si
42 1 5.40334 2.67194 8.22337 -2.00497 1.8108 2.56649 0.672286 0.441849 -0.574234 Si
38 1 8.16922 2.73124 0.00460694 1.13892 5.18705 0.684595 0.177497 -0.202043 -0.506838 Si
10 1 0.0181669 2.64819 8.18489 4.12558 -2.21528 3.7648 -0.0423295 0.660556 -0.796525 Si
43 1 9.51184 1.30666 9.50461 2.04769 -0.0433787 4.55372 0.333505 0.543526 0.68637 Si
13 1 1.33215 4.13258 9.49097 -0.0284998 -1.88126 1.47449 0.483908 -1.12571 0.825381 Si
32 1 2.6749 5.46308 8.16174 -1.50029 2.15026 -1.45013 0.224649 0.154072 -1.12775 Si
52 1 5.47634 5.49374 0.0695092 -2.43416 -4.62422 0.60837 -0.578985 0.126274 -1.22584 Si
27 1 4.06324 6.79526 9.4617 -4.39079 0.734729 0.20096 0.64087 -0.518713 0.930354 Si
45 1 6.76355 4.0787 9.57951 1.28024 -3.88474 0.166197 0.0735789 -0.0890226 -0.201426 Si
20 1 -0.0234052 5.47056 -0.0352075 -1.21047 4.21219 1.38983 0.0499826 0.100157 0.600748 Si
59 1 9.52445 6.81319 9.45709 0.280868 0.737448 -2.26637 0.100699 0.17857 -0.24643 Si
64 1 8.13338 5.39851 8.17891 1.46697 1.15632 -1.74353 -0.0218781 0.0426079 -0.170231 Si
22 1 2.75166 8.11242 -0.0320666 3.4091 -3.24179 3.87463 -0.587321 0.512 0.0711586 Si
29 1 1.30262 9.49309 9.56407 -0.016589 -1.72699 -3.8393 1.19792 -0.825906 -1.29811 Si
58 1 5.47419 8.10951 8.16232 -5.94668 0.810381 5.00756 0.183094 0.374934 0.0878687 Si
61 1 6.75724 9.55774 9.56617 -0.521845 6.21381 1.97662 0.801582 -0.579972 -1.17099 Si
48 1 8.16796 0.00533876 8.15832 1.43096 -1.74228 8.09122 -0.56805 -0.440397 0.0374017 Si
26 1 0.00820709 8.19283 8.03592 -0.896346 0.556646 -3.51237 -0.473946 0.0486865 1.17302 Si
ITEM: TIMESTEP
11200
ITEM: NUMBER OF ATOMS
64
ITEM: BOX BOUNDS pp pp pp
0.0000000000000000e+00 1.0887404739999999e+01
0.0000000000000000e+00 1.0887404739999999e+01
0.0000000000000000e+00 1.0887404739999999e+01
ITEM: ATOMS id type xu yu zu vx vy vz fx fy fz element
4 1 -0.0762195 -0.0154885 0.00344537 -4.48094 -3.11023 -0.699276 0.214131 -0.568251 -0.180972 Si
7 1 1.35691 1.30908 1.31718 3.24353 6.65897 3.89775 0.305463 -0.11067 0.90718 Si
34 1 5.42689 2.75899 2.76713 3.32859 -1.25217 2.27065 0.170428 -0.824483 -0.393342 Si
39 1 6.77539 1.37908 1.32458 4.79286 1.06669 4.69742 0.279182 0.453717 0.612715 Si
2 1 0.041839 2.71571 2.70081 2.60658 -4.70532 -4.18362 -0.264774 0.235107 -0.473624 Si
40 1 8.16268 0.0780262 2.75656 -0.688065 3.12184 0.792276 0.334939 -0.138423 -0.582954 Si
23 1 1.43216 6.76611 1.37373 4.75315 -4.29184 0.00578127 -0.826556 0.842998 0.184762 Si
24 1 2.77066 5.41622 2.69119 1.11475 -1.13758 5.75349 0.656174 0.427424 0.769259 Si
1 1 4.13501 4.08748 1.34343 2.41818 0.209528 -1.74014 -0.241186 -0.105538 -0.439161 Si
55 1 6.67413 6.7373 1.41461 -4.76486 -1.74892 1.38104 1.2937 0.490574 -0.46367 Si
33 1 9.46618 4.07811 1.34391 -5.46299 -2.94781 2.58897 0.422705 -0.385163 0.622597 Si
56 1 8.12649 5.41349 2.77464 4.86845 -0.947966 5.19246 0.0935355 0.531997 -0.707668 Si
8 1 2.77085 -0.0488875 2.78431 -4.77729 -4.31147 2.76795 -1.22752 0.630125 -0.820042 Si
18 1 0.0216295 8.13734 2.7917 0.347591 -3.51376 -4.54332 -0.250453 -0.693157 -1.12207 Si
17 1 4.09594 9.61835 1.32444 0.0964509 2.56128 -6.06479 0.0532258 -0.971882 0.152458 Si
50 1 5.41804 8.22111 2.72229 -3.59983 4.1597 0.39715 0.329251 0.373935 0.0524636 Si
49 1 9.45288 9.42486 1.44072 -5.0713 0.204311 1.71996 0.410363 0.993675 -0.584988 Si
54 1 8.10165 8.10223 -0.00564398 1.35173 4.57512 0.824616 0.0367602 -0.281848 0.451775 Si
12 1 -0.0675313 -0.0311891 5.47033 -0.234663 0.604986 6.99187 0.107787 -0.599741 -0.755165 Si
14 1 2.70692 2.74639 5.48515 -2.65546 7.23626 1.90612 0.324353 -0.992958 0.199072 Si
15 1 1.29484 1.28991 6.75385 5.12173 1.82347 -1.08108 0.698606 1.0593 0.662625 Si
3 1 4.05872 1.3394 4.1205 1.26284 -1.92168 0.074691 0.631007 0.329431 0.24364 Si
47 1 6.78917 1.28664 6.80631 3.1572 -2.03544 -1.52665 -0.0773398 -0.0399407 -0.49122 Si
35 1 9.56002 1.44508 4.09909 -5.4444 -5.56197 -0.405008 -0.243866 -0.830466 0.0849488 Si
46 1 8.14792 2.70049 5.47636 -0.692052 2.76344 2.25727 0.0402307 0.453237 0.0153356 Si
5 1 1.45204 4.02305 4.04662 1.21039 -1.64538 3.74103 -1.08506 1.17682 0.288498 Si
31 1 1.37576 6.87955 6.81951 0.959124 7.54034 -1.06533 -0.320284 -0.753647 -0.0414997 Si
9 1 4.08969 4.07593 6.86699 4.99484 1.5557 2.95647 0.0874178 0.0655355 -0.681892 Si
19 1 4.1209 6.86352 4.11126 -3.16465 1.05758 0.215146 -0.0631542 -1.50001 -0.231082 Si
37 1 6.81617 4.07582 4.10332 3.9465 3.66746 -5.87956 0.175541 -0.852984 0.0829185 Si
60 1 5.49776 5.35346 5.449 -0.301027 -1.49833 1.78889 -1.43135 1.16555 0.000294302 Si
63 1 6.72419 6.8155 6.7678 -3.15863 3.66729 -0.583936 1.04286 -0.0123238 0.301795 Si
28 1 0.0318147 5.47553 5.4332 3.20411 5.13665 0.184703 0.170896 -0.0996129 -0.438108 Si
41 1 9.46995 4.18847 6.77847 -5.85101 3.33377 -1.72165 0.271682 -0.823453 -0.209343 Si
51 1 9.47043 6.83287 4.10029 -1.18385 -1.25823 -2.25961 0.443127 -0.30378 0.51183 Si
21 1 1.3447 9.47367 4.08685 2.63007 -0.956402 -0.755059 0.254627 0.805196 0.805964 Si
30 1 2.72522 8.14161 5.45315 5.17753 -6.06576 2.36476 0.190005 0.911685 -0.0046249 Si
44 1 5.461 -0.120392 5.39207 -1.35286 -3.66473 0.911339 -0.246119 2.11958 0.483506 Si
25 1 4.09484 9.56715 6.76897 3.45914 0.676414 2.62765 -0.10061 -1.20226 0.125189 Si
53 1 6.86169 9.58017 4.082 -3.62635 -2.7383 1.01938 0.145087 -1.3859 -0.208032 Si
57 1 9.53489 9.46151 6.89312 4.57144 -0.438659 1.7279 0.832015 0.652721 -0.211002 Si
62 1 8.19354 8.21715 5.54836 -1.81334 2.18145 -5.42742 -0.890247 -0.77505 -1.30176 Si
6 1 2.72225 2.71439 0.0101986 1.29806 -3.78165 2.24051 -0.172161 0.348684 -0.180629 Si
16 1 2.79606 0.0335229 8.10866 -1.49072 -0.891551 -3.84602 -1.17793 -0.076843 0.0157514 Si
36 1 5.45256 0.048831 -0.0416301 -2.08845 0.0811115 -4.03089 -0.0366311 -0.392789 -0.4865 Si
11 1 4.0286 1.3764 9.50614 -2.97811 -2.63812 -0.471099 1.08471 0.318923 0.0870299 Si
42 1 5.46827 2.69701 8.15601 0.708235 0.174202 -1.02343 -0.284186 -0.172284 0.263225 Si
38 1 8.16502 2.7014 -0.0646084 -2.36326 -3.67887 0.797705 -0.641497 0.678907 0.827183 Si
10 1 -0.0640169 2.74788 8.07761 -4.79914 -0.844088 1.06709 0.577169 0.161365 0.629677 Si
43 1 9.48055 1.41111 9.50378 -7.02781 -0.725035 -4.47529 0.592719 -1.22565 -0.744117 Si
13 1 1.37461 4.10487 9.50262 -0.0725174 3.56441 -1.95123 -0.44499 -0.0894491 -0.0438918 Si
32 1 2.74676 5.51755 8.136 0.965828 -1.83306 2.17492 -0.132936 -0.455979 0.68186 Si
52 1 5.46724 5.43293 -0.0903042 1.77927 2.98551 1.8178 -0.164256 -0.607524 1.00955 Si
27 1 4.12204 6.80273 9.5589 3.99844 2.22746 -6.67555 -0.462616 1.04828 -0.950413 Si
45 1 6.83247 4.08101 9.47645 0.110389 4.31637 4.85306 -0.305626 -0.387253 0.165544 Si
20 1 -0.00423796 5.43359 0.0819525 1.5225 -4.55281 -1.19986 0.100364 0.158228 -1.26786 Si
59 1 9.54849 6.80639 9.4928 4.50806 2.28921 3.89138 -0.287102 -0.438289 0.893562 Si
64 1 8.09879 5.46844 8.14749 -0.681688 -1.44836 4.46807 0.513489 0.731234 -0.161829 Si
22 1 2.71578 8.20793 -0.00822743 1.43367 1.44079 -4.21741 0.915238 -0.53218 0.511644 Si
29 1 1.46755 9.5717 9.51999 -6.00346 -0.204323 2.4214 -1.14749 0.605659 0.143332 Si
58 1 5.46361 8.20319 8.12682 1.35967 2.09248 -5.3163 -0.952268 -0.399443 0.362822 Si
61 1 6.81745 9.5016 9.48404 -3.63278 -4.12694 -2.06975 -0.238119 0.362799 0.702294 Si
48 1 8.16749 -0.0675475 8.13155 1.00523 -0.943511 -7.35084 0.0797179 0.936268 0.771332 Si
26 1 0.0722823 8.19198 8.2495 2.15536 -1.5535 -4.22457 -0.162168 -0.039733 -0.446175 Si
ITEM: TIMESTEP
11300
ITEM: NUMBER OF ATOMS
64
ITEM: BOX BOUNDS pp pp pp
0.0000000000000000e+00 1.0887404739999999e+01
0.0000000000000000e+00 1.0887404739999999e+01
0.0000000000000000e+00 1.0887404739999999e+01
ITEM: ATOMS id type xu yu zu vx vy vz fx fy fz element
4 1 0.0344388 0.0530864 -0.0232994 3.05017 3.11984 2.40937 0.10711 -0.631302 -0.393416 Si
7 1 1.33982 1.36938 1.39999 -2.43803 -5.72895 -8.15614 -1.01718 1.20453 -0.896299 Si
34 1 5.45967 2.74354 2.65258 -0.97992 2.39924 -0.238559 -0.558148 -0.0726402 0.970385 Si
39 1 6.78217 1.31674 1.35748 -3.23508 -1.26186 -2.92209 0.0449496 -0.368022 0.0954881 Si
2 1 -0.0280352 2.75521 2.79185 -1.80825 1.16999 0.0393141 0.270595 -0.748874 -0.373003 Si
40 1 8.13902 -0.0820954 2.73993 -1.66829 2.22355 0.13806 0.451054 1.4062 -0.251221 Si
23 1 1.31299 6.8183 1.34919 0.463066 -1.83773 -0.174588 0.246477 -0.546907 0.00591272 Si
24 1 2.65656 5.43871 2.70292 1.23322 -0.166752 -1.86108 0.145667 -0.0887001 -0.182078 Si
1 1 4.00777 4.07649 1.33123 0.160482 1.95971 4.41274 0.569646 0.0439442 0.640966 Si
55 1 6.90694 6.8039 1.31012 -0.853751 0.132753 1.75605 -1.64177 0.181316 -0.0907621 Si
33 1 9.54487 4.05826 1.39051 -0.558048 3.74974 -4.41692 -0.0809659 0.347668 -0.419325 Si
56 1 8.17838 5.44573 2.63673 0.398255 1.9614 -1.10492 0.469668 -0.418628 1.03772 Si
8 1 2.7333 0.104572 2.55598 6.9867 0.15494 3.00951 0.152293 -1.35916 2.47353 Si
18 1 0.0540686 8.19073 2.6944 -5.43967 4.31616 9.77961 0.098 0.412318 0.600795 Si
17 1 3.97087 9.43443 1.38605 0.551468 1.01895 1.20099 1.12234 0.391875 -0.488508 Si
50 1 5.42885 8.12383 2.71212 0.321813 -6.40019 2.67227 0.115384 -0.239626 0.0134247 Si
49 1 9.63003 9.60187 1.38272 -1.17446 -0.0378145 -0.158483 -0.879713 -0.823221 -0.509891 Si
54 1 8.24215 8.19297 -0.0132913 -0.901251 -4.42676 -2.21438 0.00948542 0.674087 -0.701482 Si
12 1 0.0180092 -0.0637714 5.38644 -1.53755 2.62011 -1.60918 -0.232243 1.24861 0.707757 Si
14 1 2.72853 2.67938 5.49773 0.635926 -3.45712 -1.15794 -1.14799 0.819158 -0.895148 Si
15 1 1.33346 1.33862 6.81269 -3.63931 -5.38828 -0.775415 0.317778 -0.522715 -0.113057 Si
3 1 3.99353 1.41787 4.05598 1.65323 1.64416 -0.145167 1.45329 -0.374752 -0.456868 Si
47 1 6.80128 1.4623 6.79747 -3.32927 1.57084 2.95045 -0.0425462 -0.358529 0.743691 Si
35 1 9.50034 1.35537 4.11043 1.81526 7.21982 -1.08561 -0.126825 -0.39281 -0.249885 Si
46 1 8.16565 2.76365 5.44334 -3.07553 -7.00533 -1.04173 0.737374 -0.482396 0.454618 Si
5 1 1.33782 4.11015 4.09445 -0.502815 0.266762 -2.26977 0.68852 -0.858586 0.527885 Si
31 1 1.3191 6.75312 6.8794 -0.301491 -2.01297 -2.93896 0.28649 0.488393 -1.15164 Si
9 1 4.09287 4.08787 6.70195 -2.7393 -0.292237 2.18952 0.95302 0.478032 1.21788 Si
19 1 4.04455 6.72077 4.0714 1.1952 4.7506 2.86232 -0.117266 1.49227 0.0303655 Si
37 1 6.88192 4.05648 4.06731 -1.64145 0.671331 1.86046 -0.955363 0.927027 -0.826987 Si
60 1 5.51487 5.50833 5.37853 0.76679 -1.63933 -4.68846 0.454459 -0.653547 1.01779 Si
63 1 6.92038 6.86999 6.87238 -7.72057 0.865558 -0.257635 -1.09739 -0.377459 -0.836108 Si
28 1 -0.0136456 5.40108 5.44147 -3.17466 -1.44859 -0.783489 -0.0521764 0.342885 0.603262 Si
41 1 9.57506 4.01753 6.87398 5.33567 -0.388045 -3.72627 -0.371119 0.563711 -0.261759 Si
51 1 9.60289 6.75097 3.98381 -1.11296 0.30465 4.45064 -0.430225 0.372209 0.418027 Si
21 1 1.42783 9.60812 4.05587 -1.87738 -1.53829 2.35424 0.126062 -0.598308 -1.00583 Si
30 1 2.67982 8.19857 5.46294 1.26645 0.1861 1.97672 -0.0122879 -1.28994 -0.281202 Si
44 1 5.40373 0.085305 5.48905 1.197 -6.2471 1.03254 -0.316512 -0.640602 -0.515388 Si
25 1 4.01979 9.50111 6.82389 1.08017 -3.71535 -0.214346 0.573906 0.9643 0.0993617 Si
53 1 6.76003 9.55038 4.08555 4.1508 6.94804 -1.9615 -0.324986 -0.632362 0.525555 Si
57 1 9.53263 9.54457 6.77082 -5.74952 -0.594912 2.28611 -0.509087 0.0463093 -0.382211 Si
62 1 8.24461 8.15028 5.3431 3.85514 0.15132 8.93668 -0.451341 0.241508 0.518699 Si
6 1 2.69776 2.69064 0.0422633 -0.212703 4.94562 0.664542 0.392772 -0.467914 0.0520304 Si
16 1 2.71488 0.0293956 8.21353 5.4459 -4.19927 -3.09629 0.140935 -0.131992 -0.672236 Si
36 1 5.38287 -0.0875336 0.036689 6.50365 3.82996 4.07819 0.217712 0.516321 -0.215051 Si
11 1 4.11335 1.3934 9.56348 -0.714871 2.03455 1.71707 -0.281997 -0.374687 0.137101 Si
42 1 5.46752 2.8122 8.24611 1.72363 -3.49003 0.957208 -0.407998 -0.436733 -1.04027 Si
38 1 8.11936 2.76545 0.0706741 1.45306 -1.30805 1.37981 0.842859 -1.26524 -0.102205 Si
10 1 0.0777994 2.68205 8.22412 5.96794 -1.34724 -2.18602 -0.866445 -0.0213732 0.154332 Si
43 1 9.49076 1.36794 9.55687 4.41707 2.17254 6.14913 0.533375 0.980488 0.447223 Si
13 1 1.40198 4.01294 9.61504 1.89666 -0.399119 0.646122 -0.254751 1.28415 -0.973055 Si
32 1 2.76485 5.41455 8.16125 -1.90794 7.06433 -1.68882 -0.267102 -0.330148 0.661232 Si
52 1 5.44285 5.36265 0.0148614 -1.25088 1.05504 -5.52858 0.0282891 1.43782 0.68689 Si
27 1 4.09871 6.7849 9.59229 1.04312 -1.39037 1.26949 -0.351419 -0.463707 -0.354078 Si
45 1 6.8167 4.07821 9.63728 -1.02713 -6.44774 -1.74969 0.19291 0.380143 -1.134 Si
20 1 -0.0205273 5.44313 0.0074306 -4.40882 -1.44653 1.86637 0.305359 -0.491777 -0.152568 Si
59 1 9.55456 6.76274 9.46557 0.490163 2.25015 -7.09573 -0.289768 0.609508 1.10044 Si
64 1 8.17926 5.41436 8.23017 -2.25924 0.525341 -1.95091 -0.0509106 -0.540044 -0.503307 Si
22 1 2.66861 8.11503 0.0114912 -0.884596 -1.73058 -4.5355 -0.449339 0.462676 -1.09795 Si
29 1 1.2998 9.48018 9.38802 6.22386 0.805896 -2.42451 0.476527 0.377924 1.97994 Si
58 1 5.36733 8.15766 8.19967 -1.96301 -0.181454 1.5362 1.17396 0.225589 -0.343936 Si
61 1 6.80191 9.60834 9.45176 1.25144 0.52861 -3.93442 0.17031 -1.06122 0.871832 Si
48 1 8.21884 0.0840114 8.15544 -3.84818 -0.850528 -0.746183 -0.858974 -0.427265 -0.890463 Si
26 1 -0.0907499 8.16142 8.10613 1.40261 1.76092 2.25755 0.575259 -0.429789 -0.0329409 Si
ITEM: TIMESTEP
11400
ITEM: NUMBER OF ATOMS
64
ITEM: BOX BOUNDS pp pp pp
0.0000000000000000e+00 1.0887404739999999e+01
0.0000000000000000e+00 1.0887404739999999e+01
0.0000000000000000e+00 1.0887404739999999e+01
ITEM: ATOMS id type xu yu zu vx vy vz fx fy fz element
4 1 0.0964217 -0.0262135 0.0248855 -2.08718 -1.23755 -4.04648 -0.843045 1.14686 0.533817 Si
7 1 1.45098 1.39303 1.36683 -4.02393 4.06279 5.99969 -0.688919 -0.911621 -0.0145781 Si
34 1 5.42254 2.7022 2.71281 2.19633 -2.30904 -8.66746 0.49231 0.157705 -0.549797 Si
39 1 6.94019 1.45973 1.32225 0.269166 6.0245 2.24908 -1.31989 -0.0935632 -0.231841 Si
2 1 0.0496436 2.71902 2.64289 -2.26722 2.22987 2.34432 -0.664768 0.597788 0.966602 Si
40 1 8.24082 0.0792432 2.65263 1.47264 0.509127 -0.365162 -0.84303 -1.89057 0.604334 Si
23 1 1.3365 6.87086 1.37317 -1.34903 1.01902 -2.10522 0.739801 -0.400015 -0.250349 Si
24 1 2.74789 5.46864 2.67762 2.7577 -2.08 1.71264 -0.636139 -0.140117 -0.135739 Si
1 1 4.08703 4.09148 1.31261 1.07102 -5.00214 -4.13364 -0.0833679 -0.309327 0.591445 Si
55 1 6.76757 6.72127 1.36114 5.16817 -0.778716 -3.20847 1.22876 0.982945 0.473617 Si
33 1 9.52333 4.15901 1.3436 1.96469 -4.90603 3.37875 0.549431 -0.178207 -0.152394 Si
56 1 8.13373 5.38358 2.81167 -1.37322 -3.59845 -2.38934 -0.20476 0.565493 -0.855645 Si
8 1 2.63306 -0.0391728 2.79594 -5.1088 6.40798 -4.95441 1.52874 0.549318 -1.09353 Si
18 1 -0.0695376 8.1102 2.74821 5.6873 -2.48923 -4.04538 0.103297 0.729263 -0.157832 Si
17 1 4.1547 9.58889 1.46397 -1.43372 -3.57113 -1.29227 -0.982393 0.0347742 -0.567412 Si
50 1 5.47244 8.16985 2.70125 -1.16685 -1.28151 0.612673 0.139686 -0.632426 0.345341 Si
49 1 9.57194 9.52491 1.33065 4.03269 3.47044 -1.58183 -0.368797 -0.0999676 0.190339 Si
54 1 8.17678 8.1469 -0.0133461 -1.88544 3.5937 3.5464 -0.492733 -0.250102 1.15874 Si
12 1 -0.00482884 0.056755 5.512 -0.277764 -7.29997 -4.41188 0.66717 -0.733603 -0.884736 Si
14 1 2.64274 2.66521 5.29211 1.08944 -2.15668 1.13858 1.71563 0.330154 1.36549 Si
15 1 1.40789 1.39971 6.80736 -2.99361 -2.17955 1.78314 -0.895848 -0.0533527 0.0702492 Si
3 1 4.13459 1.27176 4.04368 0.378251 2.54662 -1.13424 -0.93248 0.73732 0.196724 Si
47 1 6.88248 1.31359 6.83071 -0.53994 0.0448595 -4.26815 -0.00812163 0.50469 -0.386133 Si
35 1 9.55495 1.30235 4.05704 2.68874 -3.0689 0.337058 0.593909 1.49458 0.033256 Si
46 1 8.18771 2.68868 5.41264 2.35205 2.96339 -0.504021 -0.580503 -0.255048 -0.341046 Si
5 1 1.36589 4.14733 4.07977 -5.18238 5.1498 -2.858 -0.508346 -0.154247 -1.11127 Si
31 1 1.30527 6.86513 6.74143 1.7357 -2.26982 2.92171 1.07902 -0.515504 0.953524 Si
9 1 4.05589 3.98786 6.84278 0.733497 1.96276 -2.76655 -1.39633 0.462861 -0.719271 Si
19 1 4.05727 6.82593 4.01902 -4.19298 -4.58012 0.919296 0.393855 0.0340201 0.709417 Si
37 1 6.72987 4.06915 4.11593 0.561037 -7.60987 -4.18242 -0.14709 -0.20159 0.614427 Si
60 1 5.32638 5.45085 5.51777 1.71488 6.91483 -0.587184 0.497266 -0.373183 -0.958635 Si
63 1 6.79425 6.7246 6.81854 6.59367 6.97873 1.66751 0.0800255 0.640162 0.404594 Si
28 1 -0.0167576 5.50979 5.40925 2.95243 2.44108 -0.647104 -0.332071 -0.877804 0.355768 Si
41 1 9.48174 4.06694 6.7331 1.18836 0.857692 2.65213 0.892575 0.362999 0.248516 Si
51 1 9.45584 6.80499 4.12226 1.46035 -3.90496 -3.39359 0.22139 -0.232408 -0.44803 Si
21 1 1.30132 9.52237 4.04159 2.54002 2.26726 6.84362 -0.847357 -0.186268 1.31188 Si
30 1 2.71041 8.20244 5.3769 -3.52561 2.28577 -0.624115 0.186457 0.119054 0.484845 Si
44 1 5.48287 0.058889 5.48324 -1.40985 7.09746 3.9186 0.404845 -1.57883 -0.503333 Si
25 1 4.12123 9.539 6.81483 -5.07096 0.758073 -1.00787 -0.613588 -0.154803 -0.206365 Si
53 1 6.8367 9.44553 4.09096 -1.88549 -0.5038 3.94705 0.235371 1.95852 -0.270237 Si
57 1 9.58375 9.54323 6.81984 5.68414 0.545066 -4.87377 -0.919001 -0.394427 0.0939331 Si
62 1 8.17042 8.14152 5.48008 1.098 -6.36083 -7.47873 -0.105594 0.138709 0.658441 Si
6 1 2.72147 2.7146 -0.00321033 -1.00527 0.0307773 -1.6744 0.205152 0.727952 -0.866686 Si
16 1 2.66738 -0.024967 8.16349 -2.59386 1.25959 6.62908 0.681774 -0.160358 0.765073 Si
36 1 5.43018 0.0589608 0.0430322 0.0457158 -2.1608 -2.57927 0.854895 0.098925 0.114893 Si
11 1 4.10658 1.37697 9.503 0.964497 -0.802174 -4.70864 -0.600804 -0.411996 -0.0961548 Si
42 1 5.4732 2.66524 8.09433 1.40488 0.253561 -0.241505 -0.0513863 -0.0171849 0.616327 Si
38 1 8.22156 2.82365 -0.102182 -1.14013 1.89076 5.43894 -0.210351 -0.195074 0.420626 Si
10 1 -0.0536038 2.73254 8.13367 -1.2855 2.14396 3.164 0.680151 0.155806 -0.13537 Si
43 1 9.58464 1.36345 9.54887 -3.34434 -1.92016 -1.60445 -0.357821 -0.66539 -0.306736 Si
13 1 1.28493 4.1104 9.53316 -1.62715 -0.49245 3.27775 0.414424 -0.703824 0.114661 Si
32 1 2.67482 5.44452 8.24211 0.352147 -2.14054 2.26799 0.0292381 0.180678 -1.54681 Si
52 1 5.43533 5.45981 0.0157418 -3.85171 -4.7955 3.63531 -0.228217 -0.641837 -1.11281 Si
27 1 4.05728 6.81348 9.5576 -0.079618 0.202661 0.873775 0.167538 -0.301662 0.106936 Si
45 1 6.74477 4.09015 9.44077 0.0107622 1.34454 5.36466 0.192373 -0.0512806 0.779601 Si
20 1 0.012278 5.55045 -0.0549983 2.49877 -1.58663 0.456532 -0.136915 -0.785374 1.30607 Si
59 1 9.50803 6.80925 9.55801 0.802198 -5.11267 6.76305 -0.20896 0.0339023 -1.34085 Si
64 1 8.19483 5.37237 8.17521 0.573439 2.18417 -1.86906 -0.259132 0.84711 -0.278683 Si
22 1 2.8211 8.2039 0.0595938 -0.409475 1.30619 -0.696731 -0.573325 0.0150772 0.646154 Si
29 1 1.35021 9.47584 9.66106 -4.0211 2.82369 -3.37966 0.828313 -0.137708 -1.96002 Si
58 1 5.41667 8.11827 8.19628 -3.19997 0.312635 2.05224 0.376017 0.0956102 -0.352826 Si
61 1 6.7385 9.4588 9.6159 -1.72421 0.782907 0.419 0.364657 0.880868 -0.875314 Si
48 1 8.16758 -0.0575773 8.19378 3.58796 1.78188 5.0639 0.245244 -0.0928433 0.928981 Si
26 1 -0.0143081 8.16023 8.18047 2.42564 -0.248952 0.902541 0.25177 0.198374 0.54581 Si
ITEM: TIMESTEP
11500
ITEM: NUMBER OF ATOMS
64
ITEM: BOX BOUNDS pp pp pp
0.0000000000000000e+00 1.0887404739999999e+01
0.0000000000000000e+00 1.0887404739999999e+01
0.0000000000000000e+00 1.0887404739999999e+01
ITEM: ATOMS id type xu yu zu vx vy vz fx fy fz element
4 1 -0.10059 -0.0208748 0.00251388 4.44402 -3.22393 -2.21863 0.258894 -0.615718 -0.285224 Si
7 1 1.33299 1.25618 1.32822 1.71982 2.85548 -1.40657 0.602281 0.783663 0.788294 Si
34 1 5.41774 2.7402 2.84441 -2.16407 3.14736 4.60642 0.606349 -0.174416 -0.780705 Si
39 1 6.61603 1.28366 1.41374 0.0542335 -0.418913 -1.27309 1.47987 0.345323 0.0573663 Si
2 1 -0.00235611 2.62373 2.7883 -2.2447 0.0978227 -3.20021 -0.0178277 0.516408 -0.767726 Si
40 1 8.10501 -0.0544408 2.77571 -0.587131 4.44779 -1.58806 0.540133 1.02655 -0.197182 Si
23 1 1.44426 6.6907 1.33076 -0.0212737 -0.388959 2.01446 -1.45854 0.991237 0.341572 Si
24 1 2.76018 5.42619 2.76525 -1.54409 0.477119 -5.72186 0.0781105 -0.285571 0.512965 Si
1 1 4.17045 4.09885 1.45043 0.731031 2.43742 4.67181 -0.671744 0.138839 -1.04457 Si
55 1 6.74015 6.87966 1.36776 -0.584131 -4.46019 -1.54744 0.364173 -0.623782 0.00219716 Si
33 1 9.51674 4.03201 1.34251 -0.1269 0.36535 1.7888 -0.600208 -0.715329 0.650573 Si
56 1 8.27203 5.62948 2.69635 2.47475 -2.77141 -1.73169 -0.820429 -1.64129 -0.165289 Si
8 1 2.77186 -0.0763727 2.75057 -3.75478 -7.74613 8.1512 -1.13296 0.963419 -0.528345 Si
18 1 0.0387704 8.20883 2.74343 -0.422527 -0.139215 3.01184 0.470902 -1.28752 -0.963471 Si
17 1 3.95954 9.53724 1.25326 0.0426573 2.45133 -0.807381 1.28171 -0.445966 0.206429 Si
50 1 5.33847 8.18724 2.66717 3.63874 1.2062 -1.88979 0.459051 0.965222 0.0157779 Si
49 1 9.45597 9.43877 1.38175 -0.781314 -2.04246 0.969612 0.554221 1.25437 0.454279 Si
54 1 8.12928 8.15689 0.0438588 1.87341 0.560517 -4.98351 0.104827 -0.163859 -0.910383 Si
12 1 0.0796143 -0.0332353 5.41179 -0.359724 6.52603 1.82265 -1.11481 -0.0366427 0.64489 Si
14 1 2.83502 2.78006 5.55426 -5.00549 -0.835031 -6.1754 -1.0415 -0.938709 -0.657744 Si
15 1 1.30906 1.3738 6.7768 3.96866 -2.31119 2.76267 0.86083 0.596077 0.317984 Si
3 1 4.06386 1.35027 4.08966 7.93631 -1.1204 -5.38739 -0.264696 0.234972 0.560607 Si
47 1 6.70619 1.42036 6.77868 4.54838 -3.04033 3.20121 -0.127201 -0.800666 -0.242337 Si
35 1 9.52692 1.37434 4.22724 0.60299 -0.838488 -1.14359 -0.892408 -0.73357 -1.01853 Si
46 1 8.10216 2.7448 5.55273 3.72744 0.523889 -2.47346 0.82642 0.636722 -1.00812 Si
5 1 1.36975 4.0112 4.13263 0.297331 -2.70216 0.14644 0.129677 0.662623 0.111487 Si
31 1 1.39094 6.807 6.80289 0.792247 4.17462 -4.47752 -0.628546 -0.228007 -0.0587755 Si
9 1 4.19528 4.10211 6.8926 0.989713 2.36265 4.41083 0.112756 0.311371 -0.571961 Si
19 1 4.14374 6.83807 4.08803 -3.06328 0.977816 -1.54949 -0.230298 -1.26526 -0.0678253 Si
37 1 6.89071 4.12268 4.04819 -2.14006 3.2561 -1.4422 0.476398 0.0618632 -0.0773184 Si
60 1 5.5282 5.40659 5.40619 -0.444392 -1.65767 4.46976 -0.401915 0.734327 0.573662 Si
63 1 6.85942 6.80322 6.78873 1.49531 -6.9524 0.664103 -0.172636 -0.527347 -0.80464 Si
28 1 -0.0747596 5.40725 5.47065 0.529075 1.1047 1.16103 1.77704 0.692491 -0.430989 Si
41 1 9.47962 4.17968 6.82396 -3.92763 -2.51677 -2.0807 -0.501256 -1.00966 0.569934 Si
51 1 9.6013 6.87839 4.13296 -1.51626 2.46287 2.23609 -0.32038 0.0563334 -0.134012 Si
21 1 1.39005 9.50086 4.09198 0.0983972 -2.56077 -4.39505 0.763781 -0.265221 0.067985 Si
30 1 2.78758 8.11263 5.42781 -0.932029 2.56222 0.280238 -0.532592 0.907903 0.489305 Si
44 1 5.42612 -0.0100777 5.37767 -1.80261 -1.89773 -0.823 -0.328987 0.746752 1.00105 Si
25 1 4.11331 9.55175 6.7919 -0.552665 -1.28234 1.91396 -0.154015 -0.396648 -0.106784 Si
53 1 6.72698 9.53679 4.08911 0.662456 -4.37148 0.335498 0.405505 -1.32573 -0.339608 Si
57 1 9.49422 9.51457 6.74713 -1.74753 4.14519 0.641849 0.733103 0.512562 0.509644 Si
62 1 8.15076 8.16457 5.45697 -1.7245 5.75266 4.20792 -0.11984 0.292843 -0.90889 Si
6 1 2.75516 2.74925 0.0347839 2.95677 -0.316198 3.48683 -0.27219 -0.344515 0.277739 Si
16 1 2.69212 0.0288479 8.13094 -0.377911 -3.35521 -3.71214 0.262147 -0.0172513 -0.0210007 Si
36 1 5.42312 -0.0300417 -0.086822 -2.41912 4.5925 0.739059 -0.431251 -0.551636 -0.0620215 Si
11 1 4.05199 1.38081 9.50438 -1.3821 -1.66703 5.08893 0.199565 -0.0646033 0.118053 Si
42 1 5.49951 2.71989 8.23428 -2.97033 0.319482 2.94248 -0.574265 0.451955 0.119466 Si
38 1 8.05519 2.59343 -0.0273023 3.61889 2.03741 -1.65964 0.413775 0.886291 0.891615 Si
10 1 -0.0459259 2.77406 8.13197 -2.21331 -1.48387 1.33622 0.0870044 -0.432939 0.216651 Si
43 1 9.48227 1.32773 9.46784 0.288048 2.87355 2.56883 -0.382595 0.103444 -0.367951 Si
13 1 1.40304 4.06977 9.48051 1.89898 2.42533 -2.28137 0.0423304 -0.121316 0.136792 Si
32 1 2.78071 5.46712 8.14413 -1.88322 1.14242 1.81847 0.0339046 0.183686 0.567008 Si
52 1 5.45296 5.49298 -0.0331898 2.60819 2.43651 5.38293 -0.025136 -0.32695 1.04163 Si
27 1 4.1695 6.86271 9.49948 -2.47012 1.09585 -1.1099 -0.588603 0.207579 -0.681071 Si
45 1 6.81874 4.14379 9.55349 0.999947 1.05737 -1.74676 0.291138 -0.497597 -0.189069 Si
20 1 0.00435504 5.31412 -0.00289343 -0.816091 -0.415082 0.587342 0.115355 1.35258 -0.460417 Si
59 1 9.51181 6.83266 9.55214 -1.95749 2.7064 -1.16146 0.632236 -0.420439 0.595845 Si
64 1 8.15725 5.53183 8.18328 -1.42248 -5.62806 0.788176 0.154903 -0.624824 0.359669 Si
22 1 2.65616 8.15098 -0.0712036 -2.7291 -1.3563 -2.09297 0.661864 -0.494861 0.0833086 Si
29 1 1.37374 9.56914 9.52278 4.00147 -2.71716 5.08123 -0.967164 0.0804577 -0.147081 Si
58 1 5.58527 8.17114 8.05637 1.70153 -0.278946 -4.84582 -1.49327 0.401041 1.0493 Si
61 1 6.89792 9.49963 9.45387 -0.288353 -1.08154 0.888543 -0.898779 0.499734 0.445293 Si
48 1 8.06287 0.0310601 8.01881 -2.30021 -2.19302 -3.49183 1.37281 -0.193501 0.794158 Si
26 1 -0.00296712 8.19081 8.19311 -0.0238431 1.18844 -5.75954 0.0129689 -0.0273089 -0.573482 Si
ITEM: TIMESTEP
11600
ITEM: NUMBER OF ATOMS
64
ITEM: BOX BOUNDS pp pp pp
0.0000000000000000e+00 1.0887404739999999e+01
0.0000000000000000e+00 1.0887404739999999e+01
0.0000000000000000e+00 1.0887404739999999e+01
ITEM: ATOMS id type xu yu zu vx vy vz fx fy fz element
4 1 0.0731745 -0.0141682 0.0185101 -2.04261 4.7104 0.676759 0.241042 0.57313 -0.304328 Si
7 1 1.43467 1.36131 1.40304 2.01572 -0.385212 0.677096 -0.666744 0.926546 -0.83842 Si
34 1 5.36723 2.70127 2.63307 1.06149 0.609337 0.214458 0.226749 0.162799 1.38644 Si
39 1 6.84025 1.43072 1.37375 -1.45151 1.33383 -0.106014 0.252 -0.994699 -0.45181 Si
2 1 0.00598977 2.81035 2.6971 0.401266 -2.0034 2.66561 0.189725 -0.492848 -0.206383 Si
40 1 8.25254 -0.0140055 2.70572 -0.815543 -0.19218 5.07333 -0.572436 0.406103 -0.604474 Si
23 1 1.28771 6.97151 1.41658 3.5967 -1.13641 0.084451 1.30636 -1.69945 -0.612225 Si
24 1 2.69612 5.46787 2.68685 -0.637649 1.67754 -0.761463 0.20492 0.957265 -0.373199 Si
1 1 4.0261 4.06769 1.31654 1.81637 -1.70677 -1.2427 0.272662 0.458317 0.323291 Si
55 1 6.85164 6.82888 1.33005 -4.2749 0.128525 3.29513 -1.28884 -1.26762 0.0877626 Si
33 1 9.51555 4.18404 1.36018 -1.3068 1.21447 -3.20665 0.327738 0.204175 -0.111876 Si
56 1 8.03289 5.39111 2.7328 -0.68773 3.1828 2.6055 1.18218 0.536864 0.512108 Si
8 1 2.79508 0.0634052 2.71582 3.80871 1.23975 -1.80136 -0.631059 -1.49137 0.491334 Si
18 1 -0.0265801 8.2205 2.70936 2.6682 1.21014 -0.104276 -0.897132 0.434302 0.972235 Si
17 1 4.16864 9.48453 1.46245 -1.26302 2.27983 -1.46043 -0.321086 0.393536 -0.220445 Si
50 1 5.55706 8.13974 2.76446 -3.1441 0.445593 -1.14605 -0.577118 -0.0913421 0.419976 Si
49 1 9.56628 9.51956 1.26304 -0.884645 -3.40486 3.50511 -0.600815 -0.22532 0.605514 Si
54 1 8.14648 8.10977 -0.0304931 -4.85239 -3.54553 4.81848 0.758744 0.789572 -0.321782 Si
12 1 -0.0654439 -0.0490819 5.43018 0.218702 -5.20572 -1.15786 0.0700668 1.22894 0.00940344 Si
14 1 2.7117 2.63964 5.40291 4.53951 2.47221 3.43272 -0.948404 1.48241 0.212213 Si
15 1 1.35798 1.3111 6.79871 -2.62498 -0.964941 -1.61971 0.460019 -0.699788 -0.326755 Si
3 1 4.04723 1.36452 4.09976 -4.41681 -2.73973 3.45577 1.50585 -0.155807 -0.377543 Si
47 1 6.80614 1.36518 6.83754 -1.09163 0.705919 -1.33375 0.719712 -0.341123 0.311687 Si
35 1 9.51373 1.42251 4.03626 2.12844 1.57075 3.40932 0.782395 -0.502312 0.423686 Si
46 1 8.18738 2.694 5.46908 -4.84756 -0.372672 -0.916932 -0.288408 0.0694477 0.146128 Si
5 1 1.38073 4.16346 4.02866 1.84063 -1.48206 -2.57718 -0.0347236 -1.43836 0.845939 Si
31 1 1.36355 6.70939 6.77371 0.854781 3.02572 3.23686 -0.398636 1.56136 0.208127 Si
9 1 4.0249 4.06641 6.7599 -0.139265 -3.60454 -0.595028 0.263418 -0.333621 0.0263452 Si
19 1 4.06396 6.80137 4.10859 2.22268 3.0323 4.06367 -0.0333292 0.632115 -0.424965 Si
37 1 6.73597 3.9897 4.13474 2.33089 1.37723 1.43262 -0.337778 0.547698 -0.364448 Si
60 1 5.41197 5.47082 5.48024 2.18934 -3.79527 -5.26985 -0.177006 -0.85242 -0.522122 Si
63 1 6.75623 6.79528 6.80601 -2.82565 1.4383 -0.173458 -0.502656 0.490496 0.82071 Si
28 1 -0.0134739 5.36892 5.45336 -3.74052 -2.24654 0.62926 -0.546767 0.532265 -0.265435 Si
41 1 9.56668 3.98873 6.88095 -1.53659 4.55201 1.46432 -0.062017 0.362782 -1.59186 Si
51 1 9.49372 6.81056 4.07867 -0.807286 1.98903 -2.41132 -0.0597747 -0.750123 -0.0563927 Si
21 1 1.32077 9.57806 4.06529 -2.21975 -0.441489 2.85637 0.305185 0.3709 -0.738554 Si
30 1 2.63947 8.24999 5.40753 1.23569 -2.67005 2.98117 0.6951 -1.33884 0.498724 Si
44 1 5.48038 0.036285 5.4639 -0.331522 -5.71156 -2.28266 -0.0929339 -0.593469 -0.577257 Si
25 1 4.08424 9.52917 6.7764 0.600704 1.71585 -0.600391 0.255248 -0.198498 0.576265 Si
53 1 6.91062 9.53522 4.09869 1.51469 5.50873 1.14622 -0.78467 0.252407 0.177709 Si
57 1 9.4617 9.55687 6.82493 0.717758 -4.65092 0.855421 0.358092 -0.811293 0.424673 Si
62 1 8.12442 8.11145 5.4856 -1.20092 -1.27889 5.47042 0.639654 0.6194 -0.0724632 Si
6 1 2.74077 2.75649 -0.0539372 3.76515 -0.0482312 -0.295346 -0.42465 -1.01494 0.239639 Si
16 1 2.78291 -0.0181062 8.20448 1.80386 1.9842 -0.63984 -0.529862 0.237916 -0.857624 Si
36 1 5.45817 -0.0507209 0.0645346 1.71236 -1.05504 -2.84867 -0.0168055 1.42744 0.125901 Si
11 1 4.12035 1.35375 9.50815 -1.30588 -1.51299 -3.46587 0.143212 -0.111448 0.786054 Si
42 1 5.40382 2.7122 8.10849 3.43424 -1.64866 2.46798 0.064109 0.0915166 -0.00240247 Si
38 1 8.20552 2.82135 -0.00110216 -4.84515 -2.27946 -2.96622 0.13791 -1.01424 -0.890722 Si
10 1 0.0896582 2.68854 8.13071 -2.66537 0.47724 -6.06916 -0.398212 -0.152425 0.846434 Si
43 1 9.62955 1.35395 9.51068 -2.52915 -1.71588 -3.08285 -0.117023 0.976775 1.27049 Si
13 1 1.3295 4.07648 9.53796 -0.584082 -1.33373 0.722345 -0.134652 0.728798 0.130466 Si
32 1 2.68829 5.3809 8.14065 1.51717 4.95862 -3.84835 -0.037883 0.0722876 0.321556 Si
52 1 5.45627 5.34082 -0.0129497 -2.43154 -2.30608 -8.24534 0.311626 1.01599 -0.357466 Si
27 1 3.97957 6.717 9.58082 4.05584 -0.0844381 2.00869 0.774909 0.237682 0.20059 Si
45 1 6.82729 4.05402 9.37796 1.62724 1.96635 1.37692 -0.364501 0.0462409 1.20356 Si
20 1 -0.00913484 5.61313 -0.00739197 -1.35825 -0.0352864 3.32396 -0.0395427 -1.35564 -0.0406222 Si
59 1 9.43189 6.74355 9.43499 0.700285 -1.61198 -4.33686 0.642068 0.903432 0.0818042 Si
64 1 8.1487 5.38615 8.02692 0.0674855 5.82917 -1.05955 -0.051601 0.32082 0.769677 Si
22 1 2.76619 8.19074 0.0969382 1.23821 1.41357 3.92034 -0.372629 0.126883 -0.616155 Si
29 1 1.41484 9.53652 9.53213 3.13148 -0.391429 -4.7977 0.153624 -0.464864 0.535126 Si
58 1 5.37313 8.15985 8.30657 2.13249 0.719363 -0.984112 0.501438 -0.0415292 -1.1198 Si
61 1 6.81487 9.57575 9.61324 1.38327 0.845762 -2.38446 -0.0158582 -0.917624 -0.65401 Si
48 1 8.22446 0.0370406 8.29376 1.38165 -2.56569 -0.729662 -1.10706 -0.205924 -1.30398 Si
26 1 0.0153369 8.1843 8.19329 -0.850182 0.513101 2.65075 -0.313141 -0.62166 -0.786044 Si
ITEM: TIMESTEP
11700
ITEM: NUMBER OF ATOMS
64
ITEM: BOX BOUNDS pp pp pp
0.0000000000000000e+00 1.0887404739999999e+01
0.0000000000000000e+00 1.0887404739999999e+01
0.0000000000000000e+00 1.0887404739999999e+01
ITEM: ATOMS id type xu yu zu vx vy vz fx fy fz element
4 1 -0.104575 0.0240987 0.0142968 1.96482 1.28901 2.54859 0.218092 0.160342 0.0734068 Si
7 1 1.29796 1.38392 1.34106 2.10955 -2.1687 2.82203 0.167498 -1.33316 0.225798 Si
34 1 5.46222 2.71317 2.75304 -0.233924 -1.01802 -2.68557 0.182034 0.0627061 -1.65546 Si
39 1 6.81504 1.24983 1.33036 -0.802374 -0.381709 -0.647107 -0.282877 1.28356 0.235021 Si
2 1 0.0363838 2.64351 2.77352 -0.206254 -1.04368 -1.07549 -0.648935 0.501263 0.213955 Si
40 1 8.14309 -0.0731999 2.71511 -0.0379433 -2.27231 0.00590764 -0.493084 0.15985 1.04701 Si
23 1 1.40686 6.73048 1.31043 -3.9096 4.17451 -0.686022 -0.0460042 0.287346 0.367944 Si
24 1 2.70427 5.40056 2.68572 0.0437262 -1.07737 2.88895 -0.33583 -0.832589 0.564008 Si
1 1 4.06218 4.08298 1.3242 -1.46055 3.10834 -2.92667 0.204884 -0.834091 0.404297 Si
55 1 6.83919 6.8515 1.35314 1.93216 -1.37562 -2.15134 0.581418 1.02114 0.805683 Si
33 1 9.59059 4.01112 1.39164 -1.64561 -1.41265 2.07794 -0.301904 0.0253689 -0.430123 Si
56 1 8.18594 5.41217 2.69519 -3.48807 -2.79727 -0.148155 -0.0100232 0.142447 -0.394946 Si
8 1 2.65211 -0.0241749 2.69651 -0.525594 1.97963 -4.22755 0.995583 1.47215 -0.38332 Si
18 1 0.0889001 8.10772 2.63731 2.32576 -3.71062 -0.51114 -0.131761 0.264524 0.527797 Si
17 1 3.98653 9.54575 1.31538 0.0705215 -3.66896 1.02627 0.212815 -0.120481 -0.0212406 Si
50 1 5.33888 8.19541 2.68707 0.559895 -0.645856 0.716002 0.327068 -0.811525 -0.550864 Si
49 1 9.54973 9.52154 1.46967 2.08519 4.07414 -2.19144 0.555182 0.2292 -0.928932 Si
54 1 8.27122 8.28881 0.0289539 3.65324 -3.67615 -7.3526 -1.3726 -1.1336 0.377337 Si
12 1 0.0608704 0.066562 5.45088 -0.370215 -1.32528 2.54574 0.314863 -1.29459 0.0185257 Si
14 1 2.68724 2.78096 5.47106 -0.0225306 -5.61251 0.469043 1.46072 -0.817154 -0.128711 Si
15 1 1.37129 1.45628 6.82963 0.594225 0.553952 -4.08976 -0.913587 -0.0200805 0.257413 Si
3 1 4.08871 1.42026 4.04196 -5.20794 2.91027 0.518188 -1.51754 -0.466083 0.39024 Si
47 1 6.85227 1.36039 6.76966 -3.13437 3.1311 -1.60346 -0.45978 0.984994 0.0390638 Si
35 1 9.53552 1.2751 4.09551 -3.45306 1.68706 0.674904 -0.447774 0.918747 -0.155594 Si
46 1 8.26767 2.8073 5.44565 2.10499 0.957979 0.470451 -1.37999 -1.29971 -0.772447 Si
5 1 1.34765 4.01849 4.15626 -1.18425 2.34624 1.16207 -0.282643 1.42541 -1.08184 Si
31 1 1.35937 6.84514 6.88854 -5.12299 -2.26094 -1.30665 0.839722 -1.13629 -0.638045 Si
9 1 4.13197 4.11075 6.75229 3.74448 1.70581 -4.30447 -0.604648 -0.231575 0.611395 Si
19 1 4.07171 6.71362 4.00653 0.743286 -4.01885 -1.49387 0.288081 0.714066 1.1818 Si
37 1 6.79857 4.09354 4.05228 1.99429 -2.63218 0.690142 0.627701 0.0374105 0.785549 Si
60 1 5.50347 5.45436 5.49386 2.60654 4.16339 0.553208 0.23625 0.529586 -0.993456 Si
63 1 6.96953 6.78755 6.83207 2.23852 0.987095 0.278463 -0.621646 0.479227 -0.653708 Si
28 1 0.0224497 5.49671 5.47151 2.52238 1.45396 0.0821017 -0.152412 -0.323017 -0.0779232 Si
41 1 9.48211 4.14869 6.81457 -0.0123284 -3.81762 3.28329 1.05631 0.392838 0.590616 Si
51 1 9.59592 6.78119 3.96461 4.16368 -0.245276 2.22684 -0.118788 0.0835823 0.761335 Si
21 1 1.39502 9.52311 4.00153 0.53917 3.31136 0.597156 -0.766625 -0.555123 1.46949 Si
30 1 2.72789 8.13003 5.42701 -1.35781 5.65752 -4.66002 0.0327881 0.255752 -0.137884 Si
44 1 5.40094 0.0785736 5.4035 0.499014 5.58804 3.85228 0.0618282 -0.77495 0.627855 Si
25 1 4.02623 9.57566 6.82553 1.42959 0.608792 -0.400125 0.365089 0.0703703 -0.221705 Si
53 1 6.66362 9.48403 4.06092 -0.887647 -2.76267 -0.99509 1.05338 0.733618 0.0999145 Si
57 1 9.58217 9.49867 6.77148 1.30616 3.20953 -0.662025 -0.254699 0.307468 -0.259164 Si
62 1 8.22927 8.19349 5.30223 3.43147 -1.40805 -5.13387 -0.2441 -0.501591 0.801144 Si
6 1 2.66594 2.6265 -0.00574476 -2.68706 -1.95657 -1.56418 0.411653 1.71205 0.0132701 Si
16 1 2.64629 0.104425 8.21221 1.37863 -0.351147 0.623584 0.49371 -1.06612 0.167346 Si
36 1 5.36508 0.0203213 -0.0331017 -3.95842 -2.86764 2.51657 0.829556 -1.01933 0.122038 Si
11 1 4.09123 1.40863 9.55529 0.98663 1.6154 1.14559 -0.379842 -0.0742581 -0.979436 Si
42 1 5.42314 2.78432 8.15957 -1.02087 2.80768 1.80017 0.863982 -0.631439 0.0366861 Si
38 1 8.19005 2.66566 -0.037541 -0.772918 3.5937 2.40649 -1.04479 1.04057 1.25745 Si
10 1 -0.100163 2.75686 8.19963 5.36985 -4.34322 2.82302 0.843397 0.238372 -1.00117 Si
43 1 9.46976 1.419 9.49479 -1.25872 0.607514 -0.315003 0.187656 -1.7215 -0.27846 Si
13 1 1.33371 4.04432 9.51211 -0.686902 -2.35546 5.24162 0.622859 -0.491373 0.0798971 Si
32 1 2.76267 5.35795 8.19359 1.15676 -3.53346 1.4946 -0.263722 1.1233 -0.213167 Si
52 1 5.4759 5.52668 0.119967 3.1722 -1.79847 2.15461 -0.86011 -0.597393 -1.46598 Si
27 1 4.09224 6.8249 9.53844 1.44553 0.849972 2.79457 0.268833 -0.206602 -0.0974453 Si
45 1 6.76471 4.13431 9.60129 -0.0265748 0.643721 -0.93932 0.195293 -0.587515 -0.000432596 Si
20 1 0.0945217 5.38092 0.0155416 0.158992 7.25949 -1.18367 -1.27 -0.013662 0.264766 Si
59 1 9.53588 6.80017 9.68408 3.36876 -0.0295972 -2.69661 0.506974 -0.402018 -0.917031 Si
64 1 8.19936 5.43117 8.29601 -1.53131 -4.57541 2.25778 -0.0185209 0.416647 -0.211071 Si
22 1 2.64793 8.14785 -0.00901437 0.758215 -3.67146 -0.466416 0.56441 0.303462 -0.526226 Si
29 1 1.26487 9.53891 9.56722 -5.49291 -3.67818 -2.90682 0.168538 0.0458333 -0.648492 Si
58 1 5.50025 8.15239 8.10432 -5.08329 0.0940712 5.6065 -0.505732 0.0720143 0.368997 Si
61 1 6.81338 9.50089 9.52704 -4.44306 4.75911 -0.9129 -0.217467 0.743175 -0.126211 Si
48 1 8.16435 -0.0306989 8.11482 2.33885 3.5277 0.209166 0.238332 0.0152825 0.371606 Si
26 1 -0.0517688 8.08621 8.18514 -2.77193 -0.16321 -0.326503 -0.0290567 1.04315 0.791828 Si
ITEM: TIMESTEP
11800
ITEM: NUMBER OF ATOMS
64
ITEM: BOX BOUNDS pp pp pp
0.0000000000000000e+00 1.0887404739999999e+01
0.0000000000000000e+00 1.0887404739999999e+01
0.0000000000000000e+00 1.0887404739999999e+01
ITEM: ATOMS id type xu yu zu vx vy vz fx fy fz element
4 1 0.0393375 -0.0732185 0.00859345 4.54645 -3.28356 -2.03432 0.248032 -0.477951 -0.0219528 Si
7 1 1.38519 1.29202 1.32586 1.40789 0.965089 -2.76619 0.218831 0.677318 0.67791 Si
34 1 5.48157 2.76322 2.82802 -1.57341 -0.890171 3.32301 -0.379531 -0.29225 -0.14379 Si
39 1 6.79442 1.38329 1.34993 3.65264 0.440309 -3.1139 -0.197777 0.506476 0.392982 Si
2 1 0.0489918 2.73205 2.68084 5.64438 1.28723 -1.81058 -0.276517 0.209075 -0.180044 Si
40 1 8.16563 0.0617777 2.68899 2.06967 4.48018 -2.30431 0.51111 -0.549868 -0.771876 Si
23 1 1.27228 6.82464 1.40547 1.48184 -1.12785 -1.19907 -0.28726 0.504846 -0.543725 Si
24 1 2.66875 5.5615 2.73526 0.644895 0.857358 -3.91139 1.35485 -0.663838 0.189843 Si
1 1 4.08109 4.11102 1.41595 -1.88691 0.447114 -2.31863 0.408162 0.749485 -0.0222434 Si
55 1 6.75408 6.81702 1.36291 -1.79447 0.0628499 -0.102387 0.627388 -1.39679 -0.765983 Si
33 1 9.53642 4.1529 1.29218 3.01877 5.06412 -2.50522 -0.446425 -0.428624 0.917082 Si
56 1 8.18972 5.5328 2.78392 2.355 1.05316 1.62216 -0.433032 -0.56732 -0.411418 Si
8 1 2.76592 -0.0116981 2.74948 -2.26466 -3.59648 3.74977 -0.889881 -0.881345 -0.373474 Si
18 1 -0.14325 8.18011 2.76383 -1.10126 0.480271 2.02676 0.581089 -0.553556 -0.262096 Si
17 1 4.16881 9.53819 1.37532 -3.13676 3.16741 4.06454 -0.468111 -0.0438048 0.354527 Si
50 1 5.54568 8.18294 2.68951 -2.33291 2.17827 -2.03192 -0.578576 0.637862 0.800906 Si
49 1 9.48667 9.48699 1.32926 1.62764 -2.44986 3.12787 -0.447331 0.490137 -0.0239424 Si
54 1 8.12062 8.08675 -0.0194601 3.01659 2.30154 1.23368 0.649025 0.482798 -0.350638 Si
12 1 -0.0181007 0.0491612 5.44296 -0.73663 3.63512 -0.770958 -0.327229 -0.315246 -0.0515548 Si
14 1 2.7553 2.68177 5.46007 -7.93415 2.21189 -2.95875 -0.670056 -0.342638 -0.428619 Si
15 1 1.36032 1.39699 6.81072 1.18069 0.131237 1.92669 0.40797 -0.764985 -0.501765 Si
3 1 4.07148 1.2579 4.15167 5.30745 -2.12339 -3.72504 1.03721 1.09222 -0.427267 Si
47 1 6.76949 1.36621 6.86342 5.07885 -1.93321 3.08469 -0.233252 -1.05948 -0.632241 Si
35 1 9.48814 1.38857 4.02431 4.01588 -4.28456 0.584216 0.612951 0.257047 0.450457 Si
46 1 8.0426 2.65176 5.40467 2.11907 -0.858882 3.8003 1.6358 0.837447 0.95088 Si
5 1 1.46355 4.07552 4.07351 1.22315 -1.97675 3.28697 -1.00135 -0.0532596 -0.0756965 Si
31 1 1.32165 6.81581 6.74116 -1.15092 4.15653 2.09082 -0.0105861 -0.0589494 0.249027 Si
9 1 3.98935 3.98738 6.84141 -1.447 -4.69623 1.50994 0.634197 1.1454 0.328385 Si
19 1 4.1771 6.87052 4.08458 -2.05961 -0.125738 -5.36987 -0.858688 -0.617174 -0.849904 Si
37 1 6.80835 4.20672 4.23389 -3.56468 0.858819 0.657634 0.195006 -1.09478 -2.06983 Si
60 1 5.30222 5.3577 5.42977 -4.21015 -4.1975 1.56527 -0.0650573 0.638173 1.05678 Si
63 1 6.68513 6.69161 6.76106 2.94358 -1.14361 2.24957 1.02524 0.538368 0.562603 Si
28 1 -0.023979 5.39177 5.3914 -3.57116 -0.938309 -3.50395 0.772494 0.389721 0.130278 Si
41 1 9.58278 4.03468 6.75273 -2.42196 2.15422 -5.84003 -1.33329 -0.443026 0.100111 Si
51 1 9.46953 6.86769 4.22087 -4.15519 -2.5962 -5.32309 -0.150866 0.0114203 -0.371986 Si
21 1 1.26271 9.47799 4.05724 0.0786184 3.48649 -7.63407 1.32308 0.697756 0.534487 Si
30 1 2.76676 8.12074 5.41082 -0.878106 -1.6791 0.512143 -0.721513 0.998933 0.0631378 Si
44 1 5.51455 -0.108575 5.39206 1.27408 3.3707 -2.33986 0.109276 1.21129 0.725183 Si
25 1 4.17434 9.48537 6.75881 -3.15934 -1.90402 0.397018 -0.885065 -0.0387228 0.117187 Si
53 1 6.92142 9.55723 4.02502 -2.67273 -3.25276 -0.237783 -0.654388 -0.616211 0.277026 Si
57 1 9.51247 9.57871 6.87955 1.2658 -2.15511 0.0867683 -0.159541 0.455863 -0.691308 Si
62 1 8.08313 8.2417 5.5777 3.3603 2.41695 2.3172 0.357243 -0.777173 -0.511865 Si
6 1 2.73502 2.77719 0.0675032 -1.4364 -2.09107 5.21891 -0.343095 -0.538928 -0.63619 Si
16 1 2.78139 0.0112779 8.0894 -5.35766 1.61766 1.16455 -0.166059 -0.471927 0.851921 Si
36 1 5.47399 -0.0030753 0.00531107 0.481596 2.93909 2.54405 -0.232332 0.213625 0.0209735 Si
11 1 4.06675 1.35774 9.58941 2.39217 3.60814 1.74896 -0.0581588 -0.0114827 -0.34863 Si
42 1 5.40095 2.68935 8.1872 3.79634 -0.965369 -3.42168 -0.206509 0.0101673 0.0840549 Si
38 1 8.13625 2.7299 -0.0276427 2.3014 1.30198 -4.20804 1.00501 -0.328751 0.145985 Si
10 1 0.0555002 2.7193 8.14132 -3.94956 3.35238 -2.52309 -0.538568 0.0252109 0.820244 Si
43 1 9.62483 1.30096 9.57674 2.48762 3.23066 1.6906 -0.941652 1.02042 -0.583101 Si
13 1 1.38615 4.11179 9.50185 -3.3512 2.35574 -1.75037 -0.154892 0.23309 0.407429 Si
32 1 2.71066 5.52229 8.14863 0.477031 -0.607578 3.76241 -0.130448 -0.655431 -0.153098 Si
52 1 5.42812 5.43354 -0.138051 1.02473 0.906344 1.64524 0.28429 -0.387457 1.9597 Si
27 1 4.09101 6.8279 9.52696 -3.31188 -1.93116 1.18398 -0.331973 0.400618 -0.476809 Si
45 1 6.80478 4.02877 9.47171 -3.90099 -1.83995 -1.24087 0.254082 0.762279 -0.270189 Si
20 1 -0.0568606 5.51201 -0.084962 0.690508 -3.91234 -2.11079 0.922331 -0.222407 0.0969763 Si
59 1 9.53264 6.83274 9.38441 -3.84591 -2.55268 3.71078 -0.541442 0.205249 1.48631 Si
64 1 8.21723 5.44662 8.13813 1.77265 -0.852563 4.1126 -0.965493 -1.02533 -1.00617 Si
22 1 2.77723 8.13971 0.101633 1.2337 4.28669 1.65056 -0.329518 -0.00782453 -0.417091 Si
29 1 1.45426 9.46883 9.54466 0.834321 4.08775 6.62727 -0.258776 0.426463 -0.509096 Si
58 1 5.47843 8.14686 8.1412 2.28405 -3.42543 -1.2935 -0.299513 -0.168809 0.428144 Si
61 1 6.79101 9.50573 9.55663 2.54364 -4.77207 1.82553 0.197766 -0.12966 -0.356535 Si
48 1 8.14264 0.0134542 8.23075 -1.71387 -3.37811 -3.44829 0.293909 0.195792 0.16574 Si
26 1 -0.026862 8.20722 8.13928 -0.713523 -1.35172 1.69548 1.30743 -0.0395565 -0.106141 Si
ITEM: TIMESTEP
11900
ITEM: NUMBER OF ATOMS
64
ITEM: BOX BOUNDS pp pp pp
0.0000000000000000e+00 1.0887404739999999e+01
0.0000000000000000e+00 1.0887404739999999e+01
0.0000000000000000e+00 1.0887404739999999e+01
ITEM: ATOMS id type xu yu zu vx vy vz fx fy fz element
4 1 -0.038888 0.11779 0.0532098 -4.08979 -2.16529 0.637726 0.250546 -0.615969 -1.18353 Si
7 1 1.38802 1.41849 1.38357 -1.00997 -5.70184 2.82506 -0.592835 0.940184 -0.855247 Si
34 1 5.44111 2.63054 2.63278 -1.72858 1.90497 -0.896868 -0.43326 0.438987 0.928354 Si
39 1 6.85528 1.25384 1.41005 -7.76737 0.683807 4.3628 -0.400886 0.00678009 -0.565537 Si
2 1 -0.0518201 2.73146 2.80247 -1.86683 -2.1042 1.97181 0.214158 -0.316337 -0.429995 Si
40 1 8.14413 -0.134555 2.77551 -2.16843 -5.44282 1.48047 0.455081 1.71542 0.504613 Si
23 1 1.42314 6.79576 1.32385 0.288345 -3.34734 0.162616 0.638545 0.00605072 0.715085 Si
24 1 2.77699 5.3819 2.83101 -1.67238 -0.390086 1.77225 -0.606594 0.637828 -1.55777 Si
1 1 4.07807 4.06589 1.32069 3.27945 -3.74451 6.42185 -0.320922 -0.520425 -0.223205 Si
55 1 6.76987 6.81409 1.42791 -0.0293266 3.65547 -1.15612 -0.781905 0.637348 -0.382416 Si
33 1 9.45411 4.03683 1.3691 -0.207093 -2.07999 0.545782 0.771575 0.445855 -0.226305 Si
56 1 8.12477 5.44673 2.70026 2.75941 6.05885 -2.5119 0.912017 -0.0148189 0.149996 Si
8 1 2.75485 0.0580194 2.59386 3.10069 1.24288 -0.534132 -0.111519 -0.584255 2.29468 Si
18 1 0.058866 8.20296 2.65288 -1.3215 4.05553 1.27666 0.357185 0.453532 0.532151 Si
17 1 4.12363 9.52373 1.38179 -2.46181 -0.819222 -1.75578 -0.539599 -0.0601465 -0.864069 Si
50 1 5.33256 8.18997 2.83521 1.08122 -1.89697 -4.17442 1.21689 -0.504878 -0.936785 Si
49 1 9.51792 9.61213 1.34988 -0.821847 -3.72788 -3.3206 0.565535 -1.08142 0.318171 Si
54 1 8.16372 8.19851 0.0728798 -3.30384 0.10318 5.89283 -0.270727 -0.0600997 -0.076768 Si
12 1 0.0217592 -0.110643 5.51674 5.40704 -3.74453 -1.6683 -0.2239 0.974434 -0.866322 Si
14 1 2.77728 2.83233 5.49769 10.5406 -0.164378 1.75575 -0.916552 -0.20886 -0.491445 Si
15 1 1.37988 1.3869 6.71679 -4.04404 0.0764588 -0.0904892 -0.0603187 -0.187439 1.27822 Si
3 1 3.99329 1.41962 4.14211 -6.40725 -2.70163 -1.33182 1.3182 -0.688313 -0.966826 Si
47 1 6.77365 1.36777 6.75581 -2.59338 3.80412 0.201712 1.10655 0.338524 0.70186 Si
35 1 9.49677 1.32787 4.18131 -2.4076 2.18984 3.08662 0.269783 -0.765626 -0.463593 Si
46 1 8.16431 2.75202 5.48113 -5.57869 -2.212 1.67239 -0.32559 -0.187769 -0.455219 Si
5 1 1.32102 4.11392 4.12527 3.73402 0.0413616 -2.69883 0.396658 -0.504663 0.189034 Si
31 1 1.38237 6.69993 6.87853 0.854991 -4.7685 -2.09654 -0.356636 1.35898 -0.455841 Si
9 1 4.18867 4.1408 6.78257 -1.91889 -2.00634 4.71597 -0.049759 -0.289496 -0.238064 Si
19 1 4.08922 6.77597 4.14902 1.96661 4.2171 1.37627 -0.654805 0.357829 0.0288158 Si
37 1 6.82634 4.0182 3.97884 6.04044 0.436554 -0.837118 -0.659748 0.371889 1.02055 Si
60 1 5.48891 5.4873 5.40338 2.37272 3.33362 2.17022 0.728915 -0.801557 -0.0399525 Si
63 1 6.75848 6.90592 6.77693 2.09139 -3.30144 -1.509 0.0630945 -0.386702 0.277674 Si
28 1 -0.00633964 5.46664 5.45249 -2.34475 -1.4214 4.17721 -0.590011 -0.289788 0.527049 Si
41 1 9.46641 4.10241 6.87442 0.894831 2.54282 4.27264 0.690629 0.486661 -0.657914 Si
51 1 9.59848 6.81865 4.00609 1.64121 3.70249 6.9994 -0.273207 -0.648221 -0.36823 Si
21 1 1.47119 9.53494 4.16044 -0.787253 -1.78922 2.65983 -0.624039 0.055391 -1.74521 Si
30 1 2.74043 8.14162 5.50827 0.609568 -2.92104 -5.85499 0.256634 -0.346862 0.684355 Si
44 1 5.4479 0.0466037 5.50194 0.354211 -0.366762 -0.271578 -1.14787 -0.480725 -1.01162 Si
25 1 4.08824 9.56845 6.87356 3.28099 4.39871 -0.319643 -0.186344 -0.40698 -0.361197 Si
53 1 6.74799 9.52331 4.11743 1.44348 0.779745 1.26007 -0.172253 -0.344442 0.291509 Si
57 1 9.48266 9.41094 6.74349 -1.43229 4.1797 -0.513024 0.178592 -0.122649 0.675961 Si
62 1 8.16021 8.07196 5.29915 -3.78105 -1.32205 -0.594136 -0.185268 0.944268 1.0242 Si
6 1 2.72109 2.70568 -0.179308 2.16166 4.77189 0.16476 0.825575 -0.498034 1.84981 Si
16 1 2.66021 -0.0209575 8.18136 1.47626 1.44415 -0.815865 0.150034 0.69045 -0.867899 Si
36 1 5.49108 -0.0536232 0.00626487 -2.61737 -5.55036 -2.28896 -0.198828 0.643387 -0.455069 Si
11 1 4.15262 1.31961 9.39409 -2.34836 -0.119651 -3.39637 -0.0534554 0.146433 1.00543 Si
42 1 5.50503 2.76711 8.09443 0.369036 1.40995 -0.112279 -0.102024 -0.253041 0.560952 Si
38 1 8.10474 2.66454 0.00802347 -4.34105 -0.914971 -0.00560733 0.346612 0.217952 -0.486363 Si
10 1 0.00661077 2.71464 8.14869 -0.54835 3.78412 -0.785491 -0.263591 -0.0852682 -0.134977 Si
43 1 9.45466 1.34343 9.44257 -0.311816 -6.86504 -2.94587 0.600711 0.411165 0.75042 Si
13 1 1.3612 4.0679 9.51855 4.92591 0.211841 -3.75558 -0.460992 0.563936 -0.749903 Si
32 1 2.77326 5.34805 8.11332 1.64994 -0.357486 -1.70643 -0.13485 0.622619 1.07892 Si
52 1 5.41863 5.45428 -0.017133 -1.02596 1.00145 -3.43536 0.430722 0.253835 0.0703413 Si
27 1 4.08911 6.80582 9.45373 2.19381 2.72346 1.27105 -0.650572 -0.419244 0.906381 Si
45 1 6.83166 4.12428 9.49858 2.29229 2.55545 -1.38639 -0.511193 -0.387302 0.481363 Si
20 1 0.0271121 5.45712 0.0258181 -0.94285 -0.677027 -0.0305922 -0.302889 -1.04915 0.376723 Si
59 1 9.54062 6.83223 9.66158 -0.948566 1.48758 -1.37792 -0.718258 -0.286588 -1.27441 Si
64 1 8.10147 5.52827 8.14959 2.08159 0.46941 -3.72526 0.892062 0.454414 0.667517 Si
22 1 2.74107 8.22491 -0.0720032 -2.07558 1.30063 0.444605 -0.105416 -0.451481 0.303467 Si
29 1 1.27174 9.54407 9.48372 2.9335 -4.18078 -1.27052 0.385117 0.75109 1.55099 Si
58 1 5.4151 8.22412 8.26276 4.81221 0.356682 -3.40207 0.657401 -0.0652586 -1.44898 Si
61 1 6.85784 9.5359 9.51052 3.35392 -1.16262 -0.83237 -0.0200929 -0.153538 0.567955 Si
48 1 8.15787 -0.0301216 8.08565 -3.08883 4.92429 -2.21006 -0.187232 -0.116008 -0.32561 Si
26 1 -0.010846 8.14256 8.23626 -1.99872 4.11926 2.03997 -0.484895 -0.74189 -1.14628 Si
ITEM: TIMESTEP
12000
ITEM: NUMBER OF ATOMS
64
ITEM: BOX BOUNDS pp pp pp
0.0000000000000000e+00 1.0887404739999999e+01
0.0000000000000000e+00 1.0887404739999999e+01
0.0000000000000000e+00 1.0887404739999999e+01
ITEM: ATOMS id type xu yu zu vx vy vz fx fy fz element
4 1 -0.00366669 -0.126556 -0.0178042 1.3054 2.93818 2.39458 -0.662537 1.82291 1.01619 Si
7 1 1.30461 1.29949 1.34842 4.53501 0.218297 -0.313331 0.566463 -0.815254 0.504456 Si
34 1 5.43069 2.73497 2.72672 -5.97054 -3.68082 2.66913 0.41195 0.708398 -0.974096 Si
39 1 6.8093 1.41788 1.32081 2.68491 -1.19167 1.54051 -0.0198908 0.281619 0.462293 Si
2 1 0.0300805 2.73991 2.62471 -2.37381 1.73254 3.1451 -0.134617 -0.487097 1.19707 Si
40 1 8.18615 0.0580147 2.60933 3.76957 -2.90253 0.300962 -0.932524 -1.17406 0.370174 Si
23 1 1.36326 6.82169 1.39441 -0.831445 9.07685 1.23168 -1.03566 -0.454828 -0.488991 Si
24 1 2.71323 5.43794 2.70818 2.95938 0.24664 -1.09694 -0.773477 -0.210598 0.443204 Si
1 1 4.03178 4.1213 1.37234 0.0751927 2.55913 -2.60832 0.876906 -0.45997 0.282956 Si
55 1 6.94656 6.85603 1.3241 1.74495 -0.542658 0.0259094 -0.0102483 -0.661412 0.201504 Si
33 1 9.59123 4.11531 1.40494 -0.980549 1.60826 0.445254 -0.543074 -0.175276 -0.396474 Si
56 1 8.21272 5.39465 2.7432 -8.09348 0.247996 -0.110392 -1.2818 0.00656866 0.129332 Si
8 1 2.68151 -0.0810104 2.81171 2.09253 0.118589 0.766649 1.16328 1.40883 -2.06139 Si
18 1 -0.122406 8.15336 2.72901 0.739351 0.254314 -5.25689 0.476882 -0.493516 -0.10036 Si
17 1 4.05846 9.44701 1.35744 5.21475 -1.59731 5.0995 0.268049 0.665406 0.274873 Si
50 1 5.54126 8.12612 2.67075 1.13202 1.29393 2.25587 -0.913854 -0.0379417 0.000609378 Si
49 1 9.47121 9.49596 1.29953 0.359302 1.51336 -4.08571 0.247821 -0.0899982 0.172471 Si
54 1 8.20696 8.19234 -0.145305 -1.81826 -3.36812 -3.6026 -0.354601 -0.26021 0.484821 Si
12 1 -0.0730667 0.140782 5.39948 -2.21753 -0.6003 -0.10848 0.9357 -1.10299 0.546714 Si
14 1 2.65017 2.715 5.43489 0.652767 -2.81687 -1.27132 1.61595 -0.200928 0.0120405 Si
15 1 1.4295 1.34958 6.88466 1.81945 3.42098 -2.41857 -1.03693 -0.119402 -0.870208 Si
3 1 4.165 1.39086 4.01661 2.90476 1.25756 3.58083 -1.95478 -0.636769 1.24774 Si
47 1 6.81653 1.40739 6.85886 -3.39565 -0.394632 -0.700752 -0.416329 -0.216933 -0.710503 Si
35 1 9.50344 1.37293 3.933 0.346346 0.725183 1.43702 0.163566 1.13901 0.904233 Si
46 1 8.23069 2.70695 5.48275 5.61874 1.98295 2.18077 -0.560501 -0.00974043 -0.920649 Si
5 1 1.32862 4.04606 4.08731 -4.4588 3.35428 3.01212 0.460835 0.328403 -0.880478 Si
31 1 1.44186 6.83721 6.76535 2.90661 -4.84719 0.654002 -0.185414 -0.638409 -0.179951 Si
9 1 4.0148 4.13677 6.81964 4.5611 1.81295 -1.61044 -0.348117 -0.925186 -0.14832 Si
19 1 4.07439 6.77604 3.99066 2.63865 -1.99947 0.0378437 0.595369 0.6976 1.11985 Si
37 1 6.73407 4.06229 4.14496 -7.72071 -3.49287 1.23412 1.12624 0.191863 -0.0850661 Si
60 1 5.39247 5.45067 5.50295 -1.43579 -0.929595 0.731725 0.55525 0.814485 -0.456568 Si
63 1 6.87224 6.84375 6.841 0.132033 0.639878 -0.167386 -0.350082 -0.905462 -0.334188 Si
28 1 0.0681317 5.42107 5.43988 0.255321 -2.56906 -0.658621 -0.153289 0.367055 0.268787 Si
41 1 9.66366 4.01893 6.77755 -1.32117 -4.66592 3.09639 -0.452826 0.127932 1.07252 Si
51 1 9.48159 6.69422 4.13752 3.43248 3.22802 -1.09564 0.647073 1.36504 0.184483 Si
21 1 1.2768 9.56206 4.00501 -0.310638 -1.18284 0.0486202 -0.849535 -0.738986 1.9996 Si
30 1 2.72793 8.22186 5.39127 -4.36073 7.77247 2.50527 -0.327695 -0.630055 -1.11175 Si
44 1 5.48183 0.0354977 5.40026 1.01781 5.14239 -0.975549 0.18832 -0.616472 0.470183 Si
25 1 4.0656 9.48418 6.75632 0.429006 -0.0690461 -2.76626 0.726122 1.08447 0.338862 Si
53 1 6.83926 9.4905 4.02061 -1.00533 0.662694 0.76848 0.445581 1.14625 0.338282 Si
57 1 9.49209 9.63934 6.85166 -5.18724 -2.89326 -3.65026 0.704357 -0.0828918 -0.414655 Si
62 1 8.21756 8.22761 5.48028 -1.30637 -3.47871 2.17923 -0.32353 -0.537923 -0.377118 Si
6 1 2.63494 2.73932 0.11382 1.01618 -0.428339 -7.60688 0.314274 0.232852 -1.22297 Si
16 1 2.72307 -0.0436502 8.19674 -0.42704 -2.3346 1.90662 0.807008 0.270673 0.195013 Si
36 1 5.39781 0.0785616 0.0494865 1.4205 1.09436 -0.839541 -0.0783573 -0.999268 -0.154376 Si
11 1 4.0179 1.40547 9.60708 3.46573 -1.08404 -1.7702 -0.318081 -0.192972 -0.535041 Si
42 1 5.33973 2.70902 8.14069 -0.869325 -2.84667 -1.80473 0.240137 0.151387 0.503458 Si
38 1 8.26524 2.76777 0.0713907 2.14852 1.05129 -2.6219 -1.06721 -0.0322374 -0.433711 Si
10 1 0.0927739 2.68079 8.26823 1.00761 -3.07768 -0.57317 -0.586233 0.248605 -0.72483 Si
43 1 9.5755 1.39606 9.64132 3.33025 0.635071 -2.24591 -0.0658417 -0.696745 -0.779677 Si
13 1 1.34383 4.13693 9.54431 -2.83506 -4.39139 1.49255 0.429081 -1.36498 0.710058 Si
32 1 2.67072 5.42155 8.21808 -1.82002 -0.492427 -2.39009 0.0137589 0.428639 -1.14532 Si
52 1 5.51016 5.46625 0.0996537 -1.17202 -1.62505 2.51435 -0.757865 -0.288481 -1.3818 Si
27 1 4.00493 6.72454 9.51185 -2.5086 -4.28151 -1.45397 1.7908 0.522572 0.659615 Si
45 1 6.75393 3.97995 9.54717 -0.0108236 2.01926 -7.26159 0.667739 0.98673 0.195105 Si
20 1 -0.0175702 5.37167 -0.0108756 1.51499 8.48316 -1.32781 0.129571 2.18662 0.216723 Si
59 1 9.52897 6.77016 9.43008 -4.55727 -0.366471 1.7999 1.12127 0.213842 0.305101 Si
64 1 8.20911 5.3534 8.17142 -3.24481 1.76437 -5.83511 -0.572774 -0.327821 -0.593066 Si
22 1 2.70472 8.10557 -0.0305869 1.99268 -1.68501 2.78702 -0.157146 0.508561 0.343137 Si
29 1 1.36427 9.57971 9.5918 -2.23318 1.23766 2.27213 0.443078 -2.1453 -1.69625 Si
58 1 5.41772 8.12632 8.14149 -1.70865 0.020099 6.92188 -0.141242 0.341029 0.719761 Si
61 1 6.7523 9.57949 9.54484 1.67939 2.06619 3.95112 -0.399422 -0.107114 -0.469887 Si
48 1 8.1342 0.0893328 8.23968 0.583437 -1.68805 4.59956 0.396615 -0.141001 0.363936 Si
26 1 0.0749602 8.17316 8.05468 2.68809 -2.65483 -1.35834 -0.763565 0.730894 1.39255 Si
ITEM: TIMESTEP
12100
ITEM: NUMBER OF ATOMS
64
ITEM: BOX BOUNDS pp pp pp
0.0000000000000000e+00 1.0887404739999999e+01
0.0000000000000000e+00 1.0887404739999999e+01
0.0000000000000000e+00 1.0887404739999999e+01
ITEM: ATOMS id type xu yu zu vx vy vz fx fy fz element
4 1 -0.0549632 0.050662 -0.0344537 -5.7261 -3.72215 -0.424843 0.934426 -0.976334 0.248954 Si
7 1 1.2644 1.40832 1.29867 -1.36672 3.13883 -1.2523 1.39239 0.294102 0.537855 Si
34 1 5.52149 2.75163 2.70557 2.00599 -0.0121179 2.29911 -0.424326 -0.736096 0.833287 Si
39 1 6.83503 1.37534 1.37915 -1.74157 -3.81965 -1.97121 0.111274 -0.609912 -0.446592 Si
2 1 -0.0115142 2.75187 2.75042 6.39742 -4.76923 -3.29681 0.501274 0.175683 -0.999087 Si
40 1 8.17666 0.0568747 2.77412 1.444 -0.428719 0.95241 0.439978 -0.23035 -0.0806316 Si
23 1 1.32375 6.73447 1.28878 0.0684235 -4.10288 -0.263759 0.846945 1.3499 0.772557 Si
24 1 2.69112 5.42987 2.67753 -4.73683 0.904701 -1.31926 1.05193 0.351567 0.130904 Si
1 1 4.12242 4.0037 1.39525 -2.53451 -0.0236895 -4.52576 -0.489757 1.46645 -0.649083 Si
55 1 6.68638 6.83557 1.37417 -0.730925 4.17306 -4.3273 0.557898 -0.314165 0.355001 Si
33 1 9.5447 4.02426 1.32782 3.99717 1.24569 -0.01571 -0.164172 0.29255 0.0965247 Si
56 1 8.15398 5.43901 2.61335 3.15271 0.346429 3.54923 0.243747 0.572513 0.25856 Si
8 1 2.76505 0.12453 2.71632 -2.12049 -1.23171 3.00115 -1.20929 -1.11283 -0.0284454 Si
18 1 0.063577 8.15405 2.76735 1.27959 -0.0511516 -2.38968 -0.102211 -0.089985 -0.87396 Si
17 1 4.08814 9.63771 1.30976 -3.42502 0.398819 -6.46587 0.0673589 -0.772003 0.674606 Si
50 1 5.37704 8.18127 2.75094 -0.0604332 2.12351 0.110209 -0.196674 0.829039 0.139815 Si
49 1 9.59821 9.5741 1.45135 0.572901 -3.28679 4.92284 -0.216573 0.404045 0.252888 Si
54 1 8.1546 8.23766 0.231415 5.13389 6.50183 1.7163 0.303527 -0.963391 -1.35107 Si
12 1 0.0460276 -0.0585941 5.40973 -1.17171 6.60536 -0.490684 -0.509799 0.340134 0.364012 Si
14 1 2.72521 2.71324 5.43073 -4.15266 4.38278 1.51398 -1.16759 -0.314064 0.355983 Si
15 1 1.23823 1.34624 6.85288 1.03021 1.32845 1.50465 1.28139 0.706174 -0.53871 Si
3 1 4.13174 1.36698 4.12387 2.24389 3.56569 -1.59705 0.398981 0.525795 -0.338799 Si
47 1 6.84497 1.21593 6.77367 2.11032 -1.12518 -2.36127 -0.240302 0.881434 0.279645 Si
35 1 9.61761 1.41198 4.06591 -0.431317 -4.15216 -1.88091 -0.818086 -1.1162 0.613503 Si
46 1 8.12172 2.6747 5.34274 0.803344 3.06014 0.503673 0.642878 0.580166 1.15875 Si
5 1 1.37344 4.10715 4.01535 2.95787 -5.70767 2.29545 -0.419319 0.133735 1.44698 Si
31 1 1.28776 6.76863 6.82138 -4.41175 4.84731 1.71984 -0.187459 0.396784 1.25253 Si
9 1 3.99801 4.02624 6.87096 -1.40515 1.16395 -3.01349 1.47008 0.45891 -0.812586 Si
19 1 4.02144 6.83655 4.15965 -3.22646 -2.81375 -0.85423 0.622905 -1.56495 -1.53554 Si
37 1 6.85628 4.13246 4.02151 2.06442 -0.500497 0.652815 -0.591109 -0.255605 0.293825 Si
60 1 5.42426 5.40634 5.42597 1.36035 -3.28044 1.65527 -1.0706 -0.848933 -0.159893 Si
63 1 6.71707 6.7379 6.72335 0.779483 -0.891369 1.96983 1.11748 0.772365 0.890523 Si
28 1 -0.0293377 5.54348 5.41993 0.343614 0.507599 2.41338 -0.101834 -0.97531 -1.16068 Si
41 1 9.46362 4.20654 6.72344 0.807996 1.78022 -0.125474 -0.613645 -1.00787 -0.357674 Si
51 1 9.47527 6.8666 4.01426 -0.0537789 -3.34882 -5.45715 0.110356 -0.851127 0.0436817 Si
21 1 1.4177 9.45081 4.14406 -0.222993 2.4972 -6.75876 0.903111 0.787922 -0.846152 Si
30 1 2.67286 7.99484 5.51195 2.86551 -5.86108 -0.600785 0.227894 2.56853 0.588106 Si
44 1 5.38727 -0.09651 5.47254 -1.41971 -1.30686 -5.14869 0.46716 0.791908 -0.205194 Si
25 1 4.04535 9.52473 6.8429 0.644591 -0.969383 0.690959 -0.31448 -1.12282 -0.0240304 Si
53 1 6.80318 9.56054 4.10723 -3.16972 -1.51424 -1.36399 -0.322719 -0.57439 -0.55065 Si
57 1 9.61573 9.45161 6.80247 5.28857 2.23978 4.10148 -0.776825 -0.255342 0.00820375 Si
62 1 8.11332 8.13242 5.40857 -0.657933 2.97007 -5.43249 0.429974 0.404112 0.675475 Si
6 1 2.77764 2.7406 -0.0348871 -1.82141 -3.48917 4.89349 -0.977787 -0.278699 0.00938556 Si
16 1 2.7859 0.0859699 8.19422 -0.901722 6.07817 0.15402 -1.20149 -0.577953 -0.474298 Si
36 1 5.55137 -0.0393298 -0.0518989 -3.73976 0.975783 -0.639606 -0.411343 0.708215 0.0719655 Si
11 1 4.12468 1.38123 9.52588 -1.65524 2.74563 5.87393 0.755481 -0.318051 0.507552 Si
42 1 5.48346 2.6729 8.16173 -3.08152 3.08488 0.714114 0.351436 0.262571 -0.280281 Si
38 1 8.21775 2.63587 -0.0112289 1.25469 -4.63069 -4.62481 -0.447433 0.757966 -0.10781 Si
10 1 -0.142046 2.83258 8.1025 -2.51446 1.14988 1.87199 1.02242 -0.630583 0.041238 Si
43 1 9.56245 1.34796 9.47962 0.551524 4.2386 -0.656697 -0.824988 0.330285 -0.338054 Si
13 1 1.40299 4.06986 9.40044 -2.18136 3.37622 -2.48705 -0.461087 -0.0153781 1.07737 Si
32 1 2.71847 5.49162 8.13875 0.753886 -5.55243 1.15641 0.106864 0.0249904 0.288614 Si
52 1 5.37546 5.49147 -0.0176117 5.8417 2.84392 3.78249 0.272639 -0.852363 0.428309 Si
27 1 4.07588 6.86941 9.52811 -0.886933 0.496646 2.16537 -0.320518 -0.0980497 -0.470839 Si
45 1 6.8051 4.07922 9.58927 -3.15954 0.0158464 4.90971 0.139717 -0.0742345 -0.654393 Si
20 1 0.0493931 5.3611 0.00125854 5.11078 -3.98416 0.204742 -0.561783 -0.238761 -0.843254 Si
59 1 9.51055 6.82854 9.69807 0.709929 -1.62048 1.49863 -0.53881 -0.298628 -0.478403 Si
64 1 8.13794 5.48348 8.15884 3.51935 -3.00742 5.35824 -0.138229 0.324128 0.801725 Si
22 1 2.70808 8.23544 -0.012574 -3.02623 -2.6364 0.79213 0.167266 -0.618255 0.583447 Si
29 1 1.41168 9.57952 9.53467 -2.50536 4.7375 3.35617 -0.478093 0.675841 0.136478 Si
58 1 5.49194 8.14857 8.14218 3.21443 -1.18032 -3.98626 -0.696812 -0.0972446 -0.05076 Si
61 1 6.88027 9.39626 9.5384 0.201043 -2.15116 1.72858 0.139762 0.984159 0.0511153 Si
48 1 8.23627 -0.0911136 8.18482 1.1207 2.06284 0.0867283 -0.127444 -0.108581 -0.369941 Si
26 1 0.0132858 8.15452 8.33419 -1.39097 -4.41556 -0.387421 0.0440499 -0.253511 -1.24257 Si
ITEM: TIMESTEP
12200
ITEM: NUMBER OF ATOMS
64
ITEM: BOX BOUNDS pp pp pp
0.0000000000000000e+00 1.0887404739999999e+01
0.0000000000000000e+00 1.0887404739999999e+01
0.0000000000000000e+00 1.0887404739999999e+01
ITEM: ATOMS id type xu yu zu vx vy vz fx fy fz element
4 1 0.0137139 0.00804225 -0.0112851 1.20976 0.711677 2.7488 0.0528081 -0.711225 -0.328171 Si
7 1 1.35837 1.37788 1.39239 -2.35957 -6.38357 -3.61572 -0.506145 0.279691 -0.350106 Si
34 1 5.43896 2.72985 2.74656 3.29474 4.41994 -0.919306 -0.226102 -0.223347 -0.0558021 Si
39 1 6.72667 1.32612 1.36893 3.54587 -1.61253 0.758573 0.46216 0.160608 0.108148 Si
2 1 -0.10583 2.69791 2.79338 -0.154198 2.18895 4.28838 0.854761 -0.153946 -0.398207 Si
40 1 8.10904 -0.0961385 2.70679 -3.7313 -0.554542 -2.47786 0.174959 1.23972 -0.378179 Si
23 1 1.36292 6.86597 1.43748 -4.26749 -1.24598 0.312766 -0.0497259 -1.30432 -0.486502 Si
24 1 2.78681 5.47972 2.7742 -1.67819 0.362721 -0.18901 -0.942759 -0.262245 -0.0752773 Si
1 1 4.10474 4.11053 1.38487 -3.17752 -1.94511 4.27112 -0.551176 -0.648646 -0.322103 Si
55 1 6.92411 6.69103 1.34248 -0.545559 0.165563 2.74581 -1.3597 0.928292 -0.423857 Si
33 1 9.47555 4.06056 1.41414 -1.47147 0.54234 -2.46428 0.237148 0.525312 -0.315959 Si
56 1 8.18344 5.44771 2.7961 -2.7556 -1.01842 -2.94368 0.641496 -0.437835 0.319003 Si
8 1 2.68694 -0.0578942 2.66183 4.13751 3.77326 -4.61847 0.515962 -0.496918 0.965434 Si
18 1 -0.0650626 8.16081 2.68748 -3.90668 -1.61105 1.50105 0.0480226 0.423612 1.0902 Si
17 1 4.15663 9.41774 1.35807 2.03106 2.30152 2.97968 -0.682108 0.501305 -0.220641 Si
50 1 5.57818 8.11356 2.74199 2.44033 -1.42505 -0.252067 -0.344849 -0.241974 -0.447053 Si
49 1 9.46791 9.51949 1.28227 -2.17033 1.34916 0.779431 0.0467011 -0.535687 -0.0872443 Si
54 1 8.0886 8.13248 -0.132544 1.12212 -1.46106 1.9426 0.441087 0.730069 0.352994 Si
12 1 -0.0219854 0.0115742 5.45544 1.95418 -1.22433 0.449702 -0.298585 0.267825 -0.022331 Si
14 1 2.815 2.71177 5.44305 2.04026 -3.08757 2.43356 -0.698084 0.801201 -0.256826 Si
15 1 1.41778 1.36785 6.77683 -3.72771 2.86009 1.67819 0.0335458 -0.704755 0.396929 Si
3 1 4.08201 1.31126 4.07097 -7.09012 -3.20472 2.85878 -0.128516 -0.00627049 -0.56421 Si
47 1 6.73355 1.4808 6.79117 1.43321 0.40368 3.36696 0.423919 -0.61924 0.392878 Si
35 1 9.40727 1.31923 4.10479 -3.54298 4.16992 -3.85051 0.670267 -0.36869 -0.295807 Si
46 1 8.17661 2.76431 5.42768 -1.87157 -3.18698 -3.23006 -0.632019 -0.33189 0.414268 Si
5 1 1.31595 4.08834 4.1046 5.46328 2.79649 -1.56232 1.40103 -0.770568 -0.43989 Si
31 1 1.49763 6.82474 6.78045 1.58499 -3.23905 -1.38425 -1.13918 0.222101 -0.865643 Si
9 1 4.16721 4.20537 6.72908 -7.32451 -4.14538 0.096853 -1.03717 -0.857676 1.06152 Si
19 1 4.17574 6.79887 4.11084 4.65579 2.22433 -0.864265 -0.840246 1.35947 0.0188461 Si
37 1 6.77825 4.10044 4.10093 1.25063 5.73231 5.68288 0.594808 -0.115845 -0.262483 Si
60 1 5.51347 5.50448 5.41324 -1.88769 -0.245611 -0.480258 0.528553 0.283143 0.746136 Si
63 1 6.81703 6.89326 6.84644 -2.6403 -3.88041 -3.31837 -0.374877 -0.684944 -0.396407 Si
28 1 0.0839977 5.37727 5.51245 1.64319 -1.19489 -1.98979 -0.50833 0.545796 0.668385 Si
41 1 9.59959 3.93766 6.8571 2.27442 0.0882726 -1.17409 0.119288 1.16218 0.319117 Si
51 1 9.59706 6.76967 4.19528 -0.513154 3.7988 2.61916 -0.67354 0.352301 -0.49482 Si
21 1 1.3231 9.4742 4.15931 -3.6796 -3.80906 0.0458648 -0.100267 0.788451 -1.39572 Si
30 1 2.78457 8.28791 5.49846 -0.425297 -2.24375 -1.16086 0.00405969 -2.34112 -1.57919 Si
44 1 5.45536 0.00476467 5.43426 1.09795 -5.52381 1.907 -0.0912772 0.518554 0.294188 Si
25 1 4.11999 9.51711 6.76043 0.178855 2.08143 -0.352176 0.25708 1.28767 0.404415 Si
53 1 6.80228 9.55923 4.1154 5.85456 4.77962 -5.86329 0.102745 -0.980627 0.0222948 Si
57 1 9.41369 9.59318 6.78348 -1.27673 -0.433643 1.23767 0.813098 0.310911 0.468996 Si
62 1 8.14364 8.19002 5.48115 0.933838 3.20848 1.7886 0.306817 -0.127704 -0.715294 Si
6 1 2.72332 2.72407 -0.0393563 -1.72624 2.6418 1.47529 0.709864 -0.579754 1.5252 Si
16 1 2.72408 -0.121422 8.11654 3.93005 0.176095 -3.65015 -0.247561 0.85672 -0.0310927 Si
36 1 5.38589 0.0239794 -0.0405784 3.49549 -3.78606 1.9975 -0.116609 -0.547907 1.05426 Si
11 1 4.02569 1.26876 9.5027 -1.71853 2.18665 -0.113526 -0.241705 1.16858 -0.447622 Si
42 1 5.37953 2.79086 8.22166 0.359076 1.0585 -0.0531499 0.2007 -0.0884163 -0.374712 Si
38 1 8.09464 2.73883 0.0471731 -0.607813 1.97269 3.96899 0.425788 -0.51094 -0.120567 Si
10 1 0.105288 2.60392 8.28671 3.34849 1.38836 -2.27565 -0.783087 0.572679 -0.438208 Si
43 1 9.45222 1.32225 9.56682 3.27717 -2.44483 2.31348 0.785055 0.896857 0.626115 Si
13 1 1.38444 4.07103 9.63014 3.44413 -2.51971 -1.32416 -0.472897 1.47766 -1.33739 Si
32 1 2.73441 5.52713 8.1397 1.5866 2.14169 0.362273 0.516482 -1.74357 0.823824 Si
52 1 5.42216 5.40235 -0.0298839 -2.32581 -1.50488 -4.86536 0.820579 0.705628 0.301268 Si
27 1 4.15111 6.81156 9.459 0.0250271 1.15775 -0.760273 -0.75892 0.0845134 0.824296 Si
45 1 6.85286 4.12812 9.52798 2.17091 -1.2735 -3.19322 -0.675712 -0.400246 -0.167724 Si
20 1 -0.0603389 5.51683 0.0360804 -1.10034 3.99083 -1.38589 0.470301 -0.530676 0.117475 Si
59 1 9.5514 6.85863 9.40755 1.31949 1.08944 -1.54999 0.133336 -0.174795 0.0896494 Si
64 1 8.1724 5.4564 8.11562 0.863682 -0.485404 -0.506452 0.679385 -0.407276 -0.0279277 Si
22 1 2.70226 8.07984 -0.00562219 0.508389 1.40587 1.35525 0.657362 0.689179 -0.553331 Si
29 1 1.33053 9.41243 9.42504 2.63741 -5.09156 -2.82805 0.169244 0.873652 1.20263 Si
58 1 5.39286 8.24152 8.12352 -1.89375 1.62453 1.74848 0.930439 -0.433049 0.434741 Si
61 1 6.69881 9.63609 9.48137 -1.74706 0.56934 -1.59316 0.624603 -1.18941 0.15269 Si
48 1 8.0973 0.085568 8.21867 -1.19438 -2.37663 1.55722 -0.435603 -0.165072 -1.44812 Si
26 1 0.0359822 8.18992 7.95854 -2.60095 2.79697 5.53774 -0.936703 -0.31709 0.928529 Si
ITEM: TIMESTEP
12300
ITEM: NUMBER OF ATOMS
64
ITEM: BOX BOUNDS pp pp pp
0.0000000000000000e+00 1.0887404739999999e+01
0.0000000000000000e+00 1.0887404739999999e+01
0.0000000000000000e+00 1.0887404739999999e+01
ITEM: ATOMS id type xu yu zu vx vy vz fx fy fz element
4 1 0.0249676 0.0548934 0.0206359 1.32003 2.29738 0.586238 -0.358425 1.00551 0.439985 Si
7 1 1.45561 1.45586 1.36186 1.07043 4.98926 4.21544 -0.810455 -1.63386 -0.000575155 Si
34 1 5.46377 2.69912 2.67501 1.95376 -5.98841 -2.21967 -0.16785 0.282446 -0.256964 Si
39 1 6.95294 1.40366 1.35146 1.53048 -1.09285 1.86338 -1.13702 0.259597 0.0881655 Si
2 1 0.0385287 2.7429 2.61989 -2.67949 1.20124 0.938709 -0.560421 0.214927 1.23836 Si
40 1 8.23104 0.121328 2.75404 0.140863 -5.0162 1.60096 -0.69874 -1.87537 0.107797 Si
23 1 1.43013 6.78304 1.32942 3.58868 1.8376 -0.885588 -0.464152 0.60639 -0.357047 Si
24 1 2.68776 5.404 2.67995 4.9114 1.61587 6.14754 0.537097 0.145951 0.444583 Si
1 1 4.05477 4.08574 1.28289 2.51746 3.15555 -0.654847 0.759983 -0.170031 1.10264 Si
55 1 6.71767 6.79762 1.4208 1.6158 -0.554328 1.46615 0.928768 0.55383 0.141487 Si
33 1 9.49441 4.10984 1.35202 -0.630091 -1.21636 0.181858 0.398534 -0.362013 -0.252547 Si
56 1 8.11596 5.34987 2.7596 2.60405 3.87016 1.87255 -0.118537 1.22849 -1.24998 Si
8 1 2.69201 0.0140434 2.77732 -2.87069 -2.00633 -3.53485 1.24097 0.982925 -0.638 Si
18 1 0.054548 8.1685 2.68117 -0.367747 2.51232 -3.77836 -0.140049 -0.000729183 0.010345 Si
17 1 4.09151 9.6128 1.34362 3.44579 -5.62888 2.69992 -0.108621 -0.157658 0.370561 Si
50 1 5.34357 8.23025 2.78003 -4.34205 1.26032 3.60206 0.206661 -0.809456 -0.285947 Si
49 1 9.54963 9.59978 1.41663 0.291733 5.45674 -0.333101 -0.0676956 -0.469943 -0.746247 Si
54 1 8.17245 8.17576 0.00210861 -1.32439 2.00334 0.435004 0.215234 -0.517502 1.08367 Si
12 1 -0.0416416 0.0181487 5.50441 1.11769 -0.441833 3.77483 1.20694 -0.857726 -0.673677 Si
14 1 2.60482 2.78975 5.43286 1.55015 4.38603 0.895978 2.09346 -0.884821 0.620366 Si
15 1 1.4285 1.31714 6.81714 5.60146 0.749341 -3.58967 -1.54671 0.884467 -0.378784 Si
3 1 4.12187 1.4112 4.13549 2.0345 2.38863 1.90851 -0.791574 -0.404923 -0.0202414 Si
47 1 6.90619 1.24298 6.77553 -3.84808 2.3413 -3.09235 -0.571028 0.911212 0.226394 Si
35 1 9.58324 1.36116 4.06567 -1.95453 -5.81516 2.01006 0.355442 1.39158 0.439066 Si
46 1 8.16105 2.7484 5.40031 -0.0237358 0.948943 1.73596 0.381717 -0.820195 0.34472 Si
5 1 1.34609 4.08793 4.0666 -5.19752 0.353774 2.91194 -1.27444 0.827125 -0.362951 Si
31 1 1.28564 6.82864 6.81221 1.99026 -2.40749 5.53587 1.04386 -0.683203 0.00706896 Si
9 1 4.09673 4.05874 6.84848 5.80378 2.18982 -1.79218 -0.400559 -0.466053 -0.563496 Si
19 1 3.95198 6.80437 4.12992 0.703661 -2.6122 -0.40482 1.28091 -0.57809 -0.649109 Si
37 1 6.79964 4.03825 4.05337 -2.12714 -2.29094 -3.94217 -0.872755 -0.0737285 0.51072 Si
60 1 5.41199 5.39021 5.42269 -4.81074 1.06006 -1.06118 -0.300972 0.415025 -0.111284 Si
63 1 6.70889 6.79805 6.80168 0.735138 6.36862 1.79672 0.789923 0.105071 -0.139612 Si
28 1 -0.0655053 5.53077 5.41204 -2.10048 -0.311975 -1.37818 -0.0445911 -0.763912 -0.37758 Si
41 1 9.43762 4.15718 6.7975 -2.39267 -2.55739 -0.0956607 0.518013 -0.225049 -0.590124 Si
51 1 9.46279 6.81093 3.94612 -0.764345 -2.9068 -0.624298 0.648711 0.131172 0.917748 Si
21 1 1.40956 9.53127 4.06664 4.63491 1.37166 4.60846 -1.12987 -0.232813 1.3163 Si
30 1 2.7307 8.15984 5.51022 3.13735 3.03546 3.17152 -0.927413 0.434985 0.01276 Si
44 1 5.42296 -0.0570786 5.50755 3.35304 4.04645 2.32555 0.298771 0.0767215 -0.568093 Si
25 1 4.06725 9.49 6.89552 0.102469 -2.89167 2.78746 -0.0598233 0.308995 -0.772173 Si
53 1 6.82163 9.50689 4.07693 -3.7523 -1.23222 2.44386 -0.0926309 1.09763 -0.0380199 Si
57 1 9.59963 9.41892 6.83643 -2.75074 -3.08361 -4.13708 -0.705301 0.119279 -1.06587 Si
62 1 8.16202 8.13252 5.3959 -1.88403 -3.61207 -1.76833 -0.0236247 -0.226422 0.736222 Si
6 1 2.77092 2.68831 -0.00425105 -0.359166 0.359577 -9.78941 -0.496945 0.940056 -1.40142 Si
16 1 2.70635 -0.0170438 8.15683 -5.20343 -2.71032 3.27416 0.537504 0.0842556 0.964325 Si
36 1 5.53888 0.0650512 0.0488819 2.02824 2.06882 0.112792 -0.1771 -0.533041 -0.60488 Si
11 1 4.10217 1.32935 9.52967 3.05184 -5.64119 -5.31268 0.310009 -0.138398 -0.133737 Si
42 1 5.4956 2.6575 8.16389 0.555884 0.255426 -5.14012 0.0847663 -0.224992 -0.288667 Si
38 1 8.20311 2.74458 -0.0493505 -3.08058 -2.86401 0.502977 0.0795094 0.296673 0.457107 Si
10 1 -0.0660402 2.73227 8.06876 1.57281 -1.61746 0.626343 0.772939 0.0919716 0.323483 Si
43 1 9.52451 1.42304 9.49574 -4.94759 -2.49525 -2.16039 0.222022 -1.41018 -0.34852 Si
13 1 1.30855 4.07174 9.49076 -0.886373 0.471423 3.21117 0.346518 -1.12026 0.406724 Si
32 1 2.67018 5.37575 8.15902 1.25924 -0.296446 -3.12401 0.165323 1.11842 -0.205835 Si
52 1 5.45397 5.45572 0.0194407 -4.50547 1.66088 -0.283687 -0.476318 -0.203521 -0.549873 Si
27 1 4.05579 6.77318 9.51897 0.90891 -0.248001 -4.2141 0.217017 -0.26842 -0.203142 Si
45 1 6.78845 4.04725 9.5632 0.375973 0.41087 1.09121 -0.0586611 0.462141 -0.461752 Si
20 1 0.0294793 5.4129 0.0139654 -1.40284 -2.184 -2.3425 -0.273966 0.456806 -0.0645432 Si
59 1 9.56231 6.7795 9.53718 -1.64167 0.827763 3.28959 -0.638195 -0.0396934 0.341089 Si
64 1 8.11164 5.45507 8.19749 -0.620143 4.48236 -0.486363 -0.239961 0.304611 0.0314363 Si
22 1 2.79034 8.19417 -0.0392506 1.9782 1.67022 0.0793597 -0.806504 0.310671 0.463542 Si
29 1 1.33619 9.61805 9.5809 -2.60339 0.483879 -3.32874 0.430956 -1.48756 -0.738238 Si
58 1 5.4051 8.17641 8.20569 -0.540861 -0.691854 0.268709 0.32606 -0.692597 0.151572 Si
61 1 6.81637 9.48104 9.54203 0.943567 -1.05959 -0.16773 -0.0280973 0.791836 -0.111234 Si
48 1 8.24518 -0.128773 8.12371 -0.0424401 -0.0351073 0.00698601 -0.267111 0.828812 1.10317 Si
26 1 0.0133735 8.12708 8.20441 1.22517 -0.621133 -4.33777 0.438516 0.662585 0.808769 Si
ITEM: TIMESTEP
12400
ITEM: NUMBER OF ATOMS
64
ITEM: BOX BOUNDS pp pp pp
0.0000000000000000e+00 1.0887404739999999e+01
0.0000000000000000e+00 1.0887404739999999e+01
0.0000000000000000e+00 1.0887404739999999e+01
ITEM: ATOMS id type xu yu zu vx vy vz fx fy fz element
4 1 -0.0472087 -0.0698829 -0.0186244 -1.65821 -6.27638 -4.17194 0.248049 -0.855144 -0.264052 Si
7 1 1.25102 1.25001 1.31876 -2.44242 -0.723081 -1.98691 0.872896 0.765247 0.640357 Si
34 1 5.50209 2.80125 2.67773 -3.02819 -0.212831 1.61827 -0.431976 -0.807572 1.18166 Si
39 1 6.71561 1.36803 1.32591 -1.16347 1.15966 -1.66778 -0.095516 -0.453707 0.0408009 Si
2 1 0.0183169 2.68285 2.68514 -1.63521 0.491466 -4.23114 0.0870203 0.308891 -0.198981 Si
40 1 8.081 0.0448546 2.65203 1.02053 8.23303 -2.60101 1.28679 -0.00155168 0.640323 Si
23 1 1.28193 6.72472 1.36812 0.447782 -3.41242 -0.149498 0.272299 0.824919 0.466501 Si
24 1 2.71744 5.43748 2.73034 -2.34478 -2.31532 -0.316426 -0.0697641 -0.0676737 -0.340241 Si
1 1 4.10325 4.09815 1.42486 -1.09077 -2.85806 0.0603541 -0.374578 0.398595 -1.00569 Si
55 1 6.85306 6.80153 1.34547 -1.48835 1.78664 0.0223003 0.120666 -0.238364 -0.46262 Si
33 1 9.55105 4.01989 1.34745 1.45866 -1.32999 1.97324 -0.0410441 0.146923 0.477393 Si
56 1 8.28173 5.45563 2.66867 1.77517 -4.37711 -0.375017 -0.623117 0.04696 0.705833 Si
8 1 2.72961 0.0107329 2.65719 -0.263321 -1.7137 7.66421 -1.22526 -0.512942 0.516019 Si
18 1 -0.0288147 8.09864 2.86133 -3.27193 -0.331441 3.02431 0.316021 0.411785 -1.27745 Si
17 1 3.97368 9.51243 1.29905 1.15707 0.993971 -5.17452 0.885028 -0.791552 0.363931 Si
50 1 5.43264 8.12105 2.6618 5.51646 -0.0424955 -0.838135 0.228222 1.12393 -0.0320559 Si
49 1 9.51401 9.46772 1.41841 -3.82996 -2.86167 -3.85029 0.191407 0.383942 0.0985793 Si
54 1 8.2463 8.15665 -0.0253306 -1.33464 -1.67727 -3.64585 -1.08862 0.0847022 -0.649404 Si
12 1 0.0046402 -0.0005371 5.37633 -5.60432 5.34707 -1.54876 -0.720717 0.926929 0.74376 Si
14 1 2.7176 2.65898 5.4932 -4.04314 1.0592 -2.57386 -0.676354 0.0835127 -1.05141 Si
15 1 1.28946 1.32421 6.83201 0.478792 -3.00698 3.34173 0.804523 0.201573 -0.245373 Si
3 1 4.05076 1.36437 3.99641 3.62352 1.00397 -2.62707 0.909021 0.448611 0.561486 Si
47 1 6.75993 1.42815 6.82956 1.82054 -2.90637 2.5085 -0.831618 -0.589921 -0.634013 Si
35 1 9.54248 1.44572 4.03693 3.2906 1.50966 -3.66571 -0.841067 -1.62037 0.109585 Si
46 1 8.15415 2.6883 5.45357 0.317808 -1.92184 -0.0698775 0.526755 0.87503 -0.0824799 Si
5 1 1.37931 4.03531 4.02155 1.62749 -3.37074 -0.92121 0.274791 -0.241733 0.866647 Si
31 1 1.33489 6.90252 6.78831 -0.373959 -0.186369 -6.90017 0.0724192 -1.17907 0.553137 Si
9 1 4.00886 4.08081 6.78493 -0.434852 3.95061 6.48859 1.20586 0.862469 0.392719 Si
19 1 4.11412 6.77525 4.0115 -0.607664 3.89111 2.52343 -0.00765382 -0.0718842 0.628634 Si
37 1 6.90548 4.11293 4.06154 -0.102777 -0.140036 1.47919 -0.31081 -0.0180221 -0.183382 Si
60 1 5.50341 5.45845 5.40624 1.29399 1.77012 2.42877 -0.324401 -0.294166 0.564641 Si
63 1 6.89037 6.79735 6.83958 -3.55563 -3.30473 -2.94225 -0.242878 -0.168077 -0.399548 Si
28 1 0.0486087 5.4061 5.40812 4.44882 3.41324 0.843973 0.565808 0.365413 0.489683 Si
41 1 9.58709 4.09382 6.74647 4.87453 0.604218 0.777885 -0.497156 -0.73577 1.07574 Si
51 1 9.53868 6.76671 4.19327 1.03833 0.214879 4.85448 -0.294776 0.0200422 -0.611322 Si
21 1 1.32914 9.55353 4.11194 -2.80473 -1.65697 -2.46 1.27545 -0.66727 -0.953274 Si
30 1 2.73098 8.09706 5.37663 1.70511 -3.29604 -3.41009 0.165734 1.28651 0.317015 Si
44 1 5.40955 -0.0409719 5.39137 -0.546533 -0.15368 -2.33017 0.463054 0.935114 0.214729 Si
25 1 4.05953 9.53282 6.78978 1.72061 0.435788 -0.552313 0.14321 -0.663861 -0.493306 Si
53 1 6.8544 9.52892 4.05005 2.42558 -5.67608 -1.57805 -0.661488 -0.653137 0.201527 Si
57 1 9.58463 9.61747 6.85031 1.35862 4.32043 2.89956 -0.670463 0.118777 0.0254874 Si
62 1 8.25699 8.2183 5.50983 -0.854576 1.91781 -1.2585 -0.681344 -0.0772071 -0.18668 Si
6 1 2.62275 2.75251 0.141178 0.494064 -0.43257 7.33461 0.658411 -0.181644 -0.622871 Si
16 1 2.77671 0.0555374 8.14649 -0.737534 -0.143235 -2.73677 -0.732715 -0.31373 0.185497 Si
36 1 5.35906 -0.0317937 -0.0166717 -1.93897 3.84737 1.25271 0.0947119 0.493424 -0.399082 Si
11 1 3.99151 1.44465 9.59374 -2.50769 2.48953 2.23491 0.465989 -0.253569 0.0470451 Si
42 1 5.39686 2.769 8.22303 -3.9396 -1.14787 2.75579 -0.107343 0.0658355 -0.179067 Si
38 1 8.14514 2.68504 0.108668 5.46001 1.81989 2.93787 0.0728479 0.133358 -1.04473 Si
10 1 0.058743 2.74985 8.21867 0.0963398 -0.966914 3.09625 -0.872147 -0.0258738 -0.0372887 Si
43 1 9.52919 1.37826 9.62033 4.29205 3.45003 5.33904 -0.252361 0.276003 -0.988831 Si
13 1 1.40767 4.12799 9.57429 -0.645967 5.97105 -4.40735 -0.0926761 -0.0834165 -0.209233 Si
32 1 2.75917 5.53564 8.21475 -1.7915 -3.10669 2.78008 -0.630643 -0.276039 -0.742697 Si
52 1 5.46698 5.42421 -0.022288 4.52092 3.28156 2.24738 -0.186534 0.377236 0.927319 Si
27 1 4.13011 6.85443 9.56648 -3.69207 0.557321 0.351697 -0.211572 -0.155303 -0.167333 Si
45 1 6.82814 4.05069 9.60474 -1.98178 -5.00037 -1.28206 0.112798 -0.126469 -0.573333 Si
20 1 -0.036702 5.37362 0.0187328 -0.699903 -4.54426 1.74737 0.368705 0.362178 -0.423656 Si
59 1 9.60714 6.76349 9.49461 5.30447 1.41725 -0.574987 -0.6664 0.195449 0.666042 Si
64 1 8.20391 5.38671 8.22045 -0.845167 -1.02798 -1.46073 0.162106 0.0536371 -0.623799 Si
22 1 2.6166 8.13502 -0.0324897 0.831133 -1.97775 -8.21438 0.636062 -0.487088 0.565711 Si
29 1 1.42506 9.5095 9.46296 0.772766 3.82311 8.80101 -0.606525 1.20991 0.659295 Si
58 1 5.45238 8.13939 8.11254 -1.01618 0.0817757 -0.564428 -0.0804507 0.460554 0.192353 Si
61 1 6.76151 9.56157 9.45 -1.49669 0.290629 2.07358 0.679198 -0.443078 0.845443 Si
48 1 8.12135 0.113768 8.1572 -2.40803 2.69256 -4.18382 0.738628 -0.586212 0.388705 Si
26 1 -0.00773281 8.24091 8.23215 3.00874 0.27426 -0.190015 0.245486 -0.606036 -1.27039 Si
ITEM: TIMESTEP
12500
ITEM: NUMBER OF ATOMS
64
ITEM: BOX BOUNDS pp pp pp
0.0000000000000000e+00 1.0887404739999999e+01
0.0000000000000000e+00 1.0887404739999999e+01
0.0000000000000000e+00 1.0887404739999999e+01
ITEM: ATOMS id type xu yu zu vx vy vz fx fy fz element
4 1 0.130803 0.0389437 -0.048047 -1.00392 7.02258 0.195267 -1.12866 0.468543 0.326875 Si
7 1 1.37008 1.43846 1.44878 -4.71779 0.780516 -2.42071 0.126182 0.286124 -1.08496 Si
34 1 5.41675 2.65223 2.73067 4.05923 4.84285 -4.4084 -0.0321501 0.910627 0.0881819 Si
39 1 6.81795 1.44473 1.36211 2.297 2.00117 1.63299 0.845347 -0.998391 0.373857 Si
2 1 -0.0491253 2.82899 2.81405 -0.941343 1.40215 2.88525 0.0889876 -0.935388 -0.551109 Si
40 1 8.19543 -0.0135646 2.77626 -1.37276 -2.0854 2.7059 -0.576432 0.240387 -0.878893 Si
23 1 1.40477 6.89857 1.30624 -2.15933 0.360794 -3.45181 0.145411 -1.03243 0.461773 Si
24 1 2.77559 5.45034 2.72162 -0.90423 -0.671809 -1.34106 -0.687119 0.596962 -0.277841 Si
1 1 4.08242 4.02396 1.36612 2.82685 -1.41732 1.89236 -0.385615 -0.236853 -0.063915 Si
55 1 6.76334 6.75359 1.34849 2.28065 1.85884 1.74389 -0.533909 -0.0573132 0.0326199 Si
33 1 9.52453 4.13731 1.36339 1.41545 -0.47124 -1.12467 -0.119462 -0.0970527 0.124122 Si
56 1 8.10921 5.41106 2.71072 -0.904582 0.230757 -6.22685 -0.288349 -0.0834599 0.307682 Si
8 1 2.70489 0.0117753 2.71955 4.71778 5.02237 -4.35166 0.66303 -0.265936 0.447053 Si
18 1 0.0182175 8.18345 2.679 4.09415 -0.140189 -0.228261 -0.301442 0.085738 0.267502 Si
17 1 4.17538 9.50921 1.46433 -4.49702 2.27885 -0.0335315 -0.682512 1.10921 -1.06013 Si
50 1 5.4484 8.13195 2.76457 -3.62765 -2.45354 -0.829724 0.81066 0.0138317 0.275033 Si
49 1 9.59576 9.59796 1.29823 2.0838 1.64592 4.10852 -0.83843 -0.750256 0.113883 Si
54 1 8.08958 8.1264 -0.00343708 1.82048 3.14782 8.65337 0.848216 0.854944 0.75355 Si
12 1 0.0093515 -0.0799401 5.4682 2.1546 -5.65931 -5.86757 -0.35765 0.315189 -0.753546 Si
14 1 2.73086 2.65343 5.36492 1.65198 0.336272 3.07113 -0.540437 1.34691 1.08989 Si
15 1 1.32511 1.29702 6.7688 -6.19701 -0.466384 2.58939 0.778719 0.297836 0.794382 Si
3 1 4.10585 1.33059 4.09535 1.00796 -0.648981 1.38274 -0.127828 -0.518457 -0.261865 Si
47 1 6.83359 1.37513 6.82747 1.02619 -2.08904 -0.829467 1.67297 -0.759707 0.264648 Si
35 1 9.52223 1.321 4.14299 4.69696 6.38832 -2.47601 0.686345 0.30739 -0.350634 Si
46 1 8.17553 2.69869 5.42472 0.354998 -0.852025 -3.68155 -0.664593 0.65609 0.306919 Si
5 1 1.3167 4.19575 4.10259 -5.74166 1.24382 -4.29452 1.18747 -1.04949 -0.076949 Si
31 1 1.4042 6.72964 6.84041 2.9212 2.32946 3.62043 -0.615018 1.40646 -0.949548 Si
9 1 4.16711 4.05751 6.78726 -4.71838 -2.09991 -2.64623 -1.309 -0.328397 0.351675 Si
19 1 4.09707 6.83924 4.1224 -2.80656 -2.56505 0.810146 -0.883205 0.0846707 0.022093 Si
37 1 6.69022 4.07147 4.11295 0.859777 1.46638 -3.89378 0.906641 0.0893123 -0.0317149 Si
60 1 5.41067 5.5243 5.49955 1.37442 -2.85453 -3.27372 0.54241 -0.543124 -0.557424 Si
63 1 6.80233 6.90227 6.75746 0.48562 3.28109 0.276413 -0.60491 -0.91766 1.01269 Si
28 1 -0.0251913 5.48959 5.4249 -1.88799 -2.66347 -0.99998 -0.367026 0.11076 0.600468 Si
41 1 9.49347 4.11106 6.79375 1.43569 3.63934 -4.62216 0.244094 -0.0644464 -0.24364 Si
51 1 9.47865 6.79276 4.02111 -2.9362 -2.17586 -5.34009 0.521816 0.187492 -0.0716376 Si
21 1 1.38055 9.51675 4.0798 1.55627 1.40278 6.66444 -0.598283 0.344878 -0.479848 Si
30 1 2.69086 8.25115 5.45803 -6.38311 -5.4958 6.64976 0.212968 -1.86159 0.0263248 Si
44 1 5.47397 0.0869217 5.54459 -3.78641 -5.74293 -1.80463 -0.793325 -1.25691 -0.806914 Si
25 1 4.04678 9.52075 6.79017 -3.98231 -0.833264 -0.632602 0.574015 0.617754 0.855134 Si
53 1 6.76712 9.54098 4.15648 1.23865 7.63454 1.64071 0.354812 -0.0151474 -0.380553 Si
57 1 9.48421 9.45022 6.70175 2.46959 -3.75662 -2.31044 0.759039 0.035936 1.2098 Si
62 1 8.156 8.11139 5.41847 -0.221453 -0.350267 1.87486 -0.137303 0.702029 -0.9798 Si
6 1 2.80158 2.6738 -0.111835 -1.41953 1.89477 -4.08762 -0.348922 -0.325417 1.27064 Si
16 1 2.67262 -0.0956583 8.23856 5.55392 1.48685 6.07943 0.915739 1.35417 -1.53436 Si
36 1 5.5146 0.0228661 0.0373465 3.01242 -3.55938 -3.13599 -0.250602 -0.498886 0.313615 Si
11 1 4.22006 1.28183 9.45616 -0.727378 0.191605 0.682375 -1.04593 0.208253 0.2166 Si
42 1 5.56119 2.68847 8.13673 0.0994163 -2.22719 1.43367 -0.980072 0.680228 0.324485 Si
38 1 8.15327 2.81725 -0.00380396 1.14918 -3.41393 1.39006 0.504382 -0.876106 -0.281251 Si
10 1 -0.0375561 2.69994 8.13556 -1.55917 3.12417 -0.901236 0.0362992 -0.0243121 0.11909 Si
43 1 9.46986 1.32058 9.50072 0.597524 -2.12085 -1.29223 0.835257 0.563616 0.669014 Si
13 1 1.32664 4.03265 9.57518 2.83657 -3.92072 -0.126758 0.0547009 0.861243 -0.91234 Si
32 1 2.73989 5.4565 8.18073 -1.41566 6.21883 -1.56024 0.219277 -1.59806 0.369705 Si
52 1 5.34789 5.38027 -0.0155752 -3.10266 -2.08901 -0.36947 1.32254 0.330458 -0.0918132 Si
27 1 4.08276 6.80297 9.5311 -1.65366 -2.89221 -1.20327 -0.431025 0.130156 0.322625 Si
45 1 6.83128 4.11116 9.4762 1.3839 1.12492 6.32412 -0.499418 0.406473 0.294429 Si
20 1 -0.0501091 5.51667 -0.000178084 1.79551 -4.20106 3.48067 0.807724 -0.388488 0.0190587 Si
59 1 9.43603 6.81201 9.54053 -3.93952 -3.07665 4.08291 0.802208 0.330692 -0.760582 Si
64 1 8.1328 5.51519 8.1082 -2.10153 0.357362 -0.105424 -0.053 -0.349302 0.110711 Si
22 1 2.8019 8.25667 0.0135071 -5.20339 3.84985 1.82517 -0.158223 -0.512604 -0.30389 Si
29 1 1.34511 9.47223 9.4874 3.48382 -0.872402 -6.35275 0.0183655 -0.317325 0.836159 Si
58 1 5.39639 8.1475 8.18335 1.83771 -2.12473 -0.209885 0.469302 0.646325 -0.405547 Si
61 1 6.78538 9.50507 9.55307 3.36314 -0.721042 -2.06532 -0.118036 -0.159547 -0.369248 Si
48 1 8.21742 -0.122684 8.17896 2.74029 -1.17979 6.80564 -1.01214 0.745269 -0.695205 Si
26 1 -0.0128393 8.13902 8.11866 3.22951 1.32694 3.99802 -0.484905 -0.503901 0.242864 Si
ITEM: TIMESTEP
12600
ITEM: NUMBER OF ATOMS
64
ITEM: BOX BOUNDS pp pp pp
0.0000000000000000e+00 1.0887404739999999e+01
0.0000000000000000e+00 1.0887404739999999e+01
0.0000000000000000e+00 1.0887404739999999e+01
ITEM: ATOMS id type xu yu zu vx vy vz fx fy fz element
4 1 -0.0178365 -0.0136754 -0.0173302 2.77838 -2.38475 0.556786 0.268309 0.965387 0.836996 Si
7 1 1.47484 1.41275 1.38771 0.615856 2.1383 5.03869 -0.898552 -1.58421 -0.45723 Si
34 1 5.40521 2.72145 2.74319 1.77625 -1.54596 2.76864 0.84134 0.295465 -1.21126 Si
39 1 6.75576 1.33446 1.37452 -2.59777 -0.119024 -1.71792 0.261273 0.166824 -0.410276 Si
2 1 -0.0234392 2.64676 2.65881 -2.50685 -1.39114 0.325314 0.189416 0.316312 1.08302 Si
40 1 8.16021 -0.0221513 2.74769 0.979056 -2.36102 0.68543 -0.427942 -0.676338 0.252282 Si
23 1 1.40801 6.77025 1.38388 2.8303 3.4126 2.85743 -1.0414 0.505717 -0.156804 Si
24 1 2.70257 5.44254 2.72024 2.00513 0.126111 -1.60309 0.42667 -0.635209 0.452914 Si
1 1 4.13298 4.1305 1.3463 -3.00086 0.92371 -1.49056 0.0259049 0.126742 0.374979 Si
55 1 6.83121 6.80588 1.35465 3.95048 -7.49889 -3.23492 0.475936 0.791208 0.780266 Si
33 1 9.48175 4.03366 1.38882 -3.86858 -0.645858 4.60678 0.363177 0.563829 -0.805537 Si
56 1 8.19068 5.46958 2.76433 -2.93277 -5.37005 4.43052 0.345664 0.229121 -0.440594 Si
8 1 2.73606 -0.0665638 2.80367 -7.54929 -2.14702 -0.733484 0.162534 1.00899 -1.48602 Si
18 1 0.0599909 8.19468 2.77313 -2.44181 -1.48805 -0.210077 -0.422355 -0.423096 -0.486775 Si
17 1 4.01359 9.54161 1.29065 4.87293 -4.57384 0.751936 0.507884 -0.524109 1.1329 Si
50 1 5.4413 8.19936 2.71051 7.14814 -0.854469 1.04792 -0.902036 -0.783568 -0.335233 Si
49 1 9.51104 9.48438 1.34208 0.338784 4.56912 -0.792292 0.512929 0.60512 0.740909 Si
54 1 8.15478 8.20092 -0.0142327 -5.15053 -1.34637 -7.88353 0.304417 -0.816734 -0.134412 Si
12 1 0.00200729 0.0264028 5.47637 -0.22311 3.03758 5.39611 1.06363 -0.370657 0.429337 Si
14 1 2.77043 2.80399 5.37481 2.07088 -5.83039 -4.28254 0.738002 -1.07088 0.613615 Si
15 1 1.48661 1.37605 6.78711 3.20886 -2.64037 -0.330311 -1.55538 0.720823 -0.194437 Si
3 1 4.1342 1.33915 4.00673 0.811972 1.07834 -2.79161 -1.02304 0.267341 1.34774 Si
47 1 6.7763 1.34254 6.7757 -1.50542 2.31372 -2.93064 -0.645738 1.28516 -0.257208 Si
35 1 9.56762 1.28941 4.1291 -9.98234 -4.05314 -1.78888 -0.971028 1.24954 -0.606472 Si
46 1 8.15121 2.75407 5.45972 2.28033 1.69838 -4.28758 -0.0036513 -1.12792 -0.716634 Si
5 1 1.32777 4.02919 4.06666 0.505865 3.02726 -0.310871 -0.614342 0.929196 -0.296538 Si
31 1 1.30143 6.85273 6.74491 1.89894 -3.11154 -0.638005 1.05766 -0.755604 0.626464 Si
9 1 4.11894 4.12499 6.85471 3.27638 5.98958 -2.67869 -0.125941 -0.386199 -1.44939 Si
19 1 4.0244 6.81173 4.11623 0.969499 1.77067 2.12641 1.30617 -0.332943 -0.709482 Si
37 1 6.83826 4.05875 4.00098 0.17171 0.650174 0.735628 -0.366244 0.210491 1.10034 Si
60 1 5.50443 5.42679 5.42869 2.98081 3.93061 3.34489 -0.652601 -0.0905473 -0.236679 Si
63 1 6.84054 6.68658 6.85982 1.11622 2.32743 -0.384147 -0.366867 1.21578 -0.842304 Si
28 1 -0.0422765 5.43096 5.50146 6.54124 4.90523 5.84435 -0.00746813 -0.775778 -0.465179 Si
41 1 9.43161 4.04767 6.86324 -1.47873 -4.37354 3.33872 1.14187 0.362406 -0.459077 Si
51 1 9.55501 6.84967 4.16669 -0.583582 -2.64181 3.06263 -0.332424 -0.132438 -0.550223 Si
21 1 1.39489 9.55415 4.13023 1.86156 -4.83896 -1.36511 -0.671081 -0.311334 0.389905 Si
30 1 2.73734 8.1717 5.43492 5.07728 10.1261 0.582342 -0.028365 0.596913 0.90091 Si
44 1 5.43579 0.0153724 5.40912 1.74693 0.505717 5.49047 0.01955 -0.301141 0.320094 Si
25 1 4.14374 9.55045 6.8348 -0.705438 -1.47091 -0.920318 -0.512258 -0.423208 -0.399689 Si
53 1 6.75014 9.43402 4.16112 -1.2884 -0.350949 1.01717 0.744816 1.27512 -0.869669 Si
57 1 9.50472 9.58636 6.81631 -4.99035 3.90029 1.7377 -0.16609 -0.500322 -0.426254 Si
62 1 8.11649 8.14999 5.51673 0.76345 1.07502 -0.0739284 0.701387 -0.24306 0.231845 Si
6 1 2.81492 2.73796 0.0209798 1.20174 -1.21762 -1.35091 -0.990296 0.78983 -0.9917 Si
16 1 2.70691 -0.00275037 8.16373 0.0444265 -6.57933 -4.25372 0.202438 -0.76616 0.325372 Si
36 1 5.35931 -0.00413192 -0.0315056 -1.68391 2.99672 -0.389492 0.979068 0.00218778 -0.167025 Si
11 1 4.04035 1.3445 9.4822 -0.987056 -2.85874 0.651332 0.330003 0.36297 0.382157 Si
42 1 5.39577 2.73617 8.17576 -1.82069 3.84194 0.191365 0.550718 -0.640655 -0.258887 Si
38 1 8.1566 2.69685 -0.0614903 -0.130228 4.00775 2.25069 -0.920388 0.315376 0.770594 Si
10 1 -0.0391833 2.71044 8.1708 1.58092 -3.30501 5.19455 1.04277 0.0326826 -0.436403 Si
43 1 9.49005 1.3638 9.48646 -4.6598 0.223357 -0.79058 0.149793 -0.725536 -0.0258934 Si
13 1 1.35047 4.15291 9.48038 1.07732 -1.538 3.35791 0.26394 -1.72934 0.818928 Si
32 1 2.70621 5.40609 8.12029 -1.38009 2.12868 -1.9627 0.00959987 2.05432 0.240868 Si
52 1 5.53671 5.50069 0.0227047 -1.72436 -0.094434 2.17672 -1.48585 -0.290142 -0.540321 Si
27 1 4.08744 6.84297 9.54306 4.87488 3.54989 -0.173793 0.48766 -0.689785 -0.822525 Si
45 1 6.73865 4.1083 9.50508 2.34638 1.60209 -1.67812 0.749952 -0.655778 0.456685 Si
20 1 0.0145536 5.43277 -0.00213162 -1.90359 4.48752 0.647147 -0.684886 0.367515 0.364062 Si
59 1 9.55019 6.85512 9.48593 1.27711 4.55593 -5.31206 -0.499686 -0.8059 0.407574 Si
64 1 8.13366 5.40017 8.18154 1.89605 -2.67813 -2.59188 0.759391 0.333279 0.970251 Si
22 1 2.70193 8.12814 0.000614421 2.91719 -4.2727 2.02968 -0.0675411 0.219328 0.0599419 Si
29 1 1.3466 9.51614 9.59165 -3.64357 -2.67697 -3.87721 -0.0310873 -0.232179 -1.41149 Si
58 1 5.55378 8.16478 8.14153 -5.83372 5.24567 -2.07756 -1.10896 -0.394261 0.440624 Si
61 1 6.83128 9.52887 9.51884 -7.14216 1.07896 -1.06812 -0.427453 0.829766 -0.0912681 Si
48 1 8.0977 0.042759 8.07568 2.49728 -2.09195 2.02911 0.706465 -0.478417 1.43614 Si
26 1 -0.0168454 8.18569 8.10049 -0.575517 -2.87351 -8.29975 0.260615 0.678702 0.861187 Si
ITEM: TIMESTEP
12700
ITEM: NUMBER OF ATOMS
64
ITEM: BOX BOUNDS pp pp pp
0.0000000000000000e+00 1.0887404739999999e+01
0.0000000000000000e+00 1.0887404739999999e+01
0.0000000000000000e+00 1.0887404739999999e+01
ITEM: ATOMS id type xu yu zu vx vy vz fx fy fz element
4 1 -0.0723367 -0.016364 0.0386606 2.05401 3.12565 -1.08531 0.0989414 -1.80847 -0.72524 Si
7 1 1.30399 1.19945 1.3184 4.14446 5.8043 -4.35433 0.564103 1.95665 1.19351 Si
34 1 5.38461 2.79999 2.78364 0.38474 1.5474 0.821572 0.497142 -1.44014 0.352874 Si
39 1 6.77668 1.41306 1.3484 3.68314 -0.204555 1.03416 -0.348792 0.284953 0.13318 Si
2 1 0.0772631 2.70562 2.70458 1.40065 -1.49022 -3.05704 -0.0825629 0.419961 -0.57767 Si
40 1 8.20734 0.106155 2.68 -0.747541 8.66446 -0.38522 0.458827 -0.0817052 -0.170728 Si
23 1 1.33265 6.79023 1.38758 -0.319911 -4.90828 -1.50112 0.512554 -0.0952945 -0.804998 Si
24 1 2.70901 5.42664 2.6374 1.57646 1.43502 0.595203 0.363826 0.223164 1.07798 Si
1 1 4.06738 4.06262 1.3815 1.92569 -1.32718 -3.12049 -0.0473269 0.185341 -0.42783 Si
55 1 6.7732 6.78977 1.37161 -6.98109 -0.990831 3.18263 -0.0484488 -0.618734 -0.813264 Si
33 1 9.57335 4.12114 1.3639 -0.276075 -0.213612 -3.05981 -0.484866 -0.748705 0.180647 Si
56 1 8.15375 5.45608 2.70184 1.43046 1.40225 3.89941 0.00562435 -0.39274 0.653928 Si
8 1 2.73507 0.0243802 2.70788 2.36913 0.28688 2.88687 -0.954134 -0.620359 0.31801 Si
18 1 0.00442351 8.11422 2.64766 1.93434 -0.759112 1.27835 -0.452774 0.300326 0.988198 Si
17 1 4.01097 9.59469 1.33693 -1.2349 7.70322 -2.61709 0.897078 -0.733277 -0.488156 Si
50 1 5.426 8.19396 2.60464 -3.8868 2.91962 2.58572 0.262001 0.637386 1.46547 Si
49 1 9.46219 9.40032 1.38737 -0.613652 -0.814374 1.21319 0.0406848 1.24863 -0.760358 Si
54 1 8.14684 8.04702 -0.0311266 1.25902 0.673137 2.02613 -0.137274 0.831737 -0.00836572 Si
12 1 -0.0418619 -0.0531549 5.34164 -2.721 0.554063 -1.18866 -0.219501 0.947647 0.974183 Si
14 1 2.71423 2.66621 5.54751 -5.43599 6.16566 1.42141 -0.875043 0.207044 -0.798184 Si
15 1 1.21082 1.38908 6.83017 4.23896 1.285 1.94145 1.29202 -1.2547 -0.850988 Si
3 1 3.99283 1.32394 4.14224 3.02232 -3.41644 -0.380542 0.810473 1.10244 -0.803572 Si
47 1 6.80669 1.3583 6.85427 4.51479 -4.94783 -0.803762 -0.276671 -0.595028 -0.536988 Si
35 1 9.55284 1.51053 4.06895 5.80581 -2.7455 3.65407 -0.270431 -1.53795 0.100435 Si
46 1 8.17222 2.74163 5.48853 -2.07725 3.73923 0.87404 0.470378 0.263506 0.694052 Si
5 1 1.44297 4.05969 4.05984 0.123689 -3.41894 2.35032 -0.114339 -0.303667 0.401384 Si
31 1 1.38223 6.85704 6.80556 -4.73749 8.32924 -1.48325 -0.9914 -1.0183 0.335148 Si
9 1 4.06442 4.00166 6.84259 0.285802 -2.1279 3.68666 0.422808 1.01879 0.697523 Si
19 1 4.10484 6.76671 4.015 -4.68082 0.0817512 2.67313 -0.33932 0.380543 0.384307 Si
37 1 6.83359 4.07148 4.16884 0.830777 0.710838 -1.00411 0.0393324 0.162885 -1.38684 Si
60 1 5.44413 5.36311 5.43373 -0.0418725 -3.71497 -6.28823 -0.526807 0.901788 0.680587 Si
63 1 6.81429 6.79171 6.78872 -5.7699 -2.51085 2.36924 -0.0777159 0.295152 -0.00773949 Si
28 1 0.0275517 5.39512 5.39927 -6.44643 0.940974 -3.28361 0.799259 1.45276 -0.2422 Si
41 1 9.60542 4.17212 6.79205 -4.60229 0.418493 -3.41009 -1.31876 -0.937186 0.1441 Si
51 1 9.54229 6.80776 4.04167 0.38496 3.2508 -3.68011 -0.0619824 -0.106336 0.581784 Si
21 1 1.30449 9.51352 3.98585 0.710378 0.76122 2.06983 0.781991 -0.230949 0.276696 Si
30 1 2.64838 8.1437 5.42047 1.06238 -4.80536 5.13408 1.13301 0.533273 -1.13576 Si
44 1 5.40469 -0.010453 5.36061 -3.06017 -3.03393 0.859963 1.4177 0.158784 0.740227 Si
25 1 4.05589 9.55489 6.72041 2.8581 -1.55424 4.3799 0.0426493 -0.537041 0.629614 Si
53 1 6.92657 9.60701 3.99792 -2.30053 -2.36174 1.33353 -1.51198 -0.958702 0.428865 Si
57 1 9.59029 9.50177 6.87746 5.52151 -5.43724 -0.422344 -0.359962 0.672417 -0.542452 Si
62 1 8.22232 8.22089 5.47134 -0.901412 -0.743257 -0.253079 -0.295928 -0.589059 -0.526716 Si
6 1 2.637 2.7226 0.115653 3.56608 -4.07197 7.35404 0.325819 -0.556516 -0.350343 Si
16 1 2.76224 0.0788474 8.12628 0.187785 0.980549 -2.30535 -0.635871 -0.0108161 0.403834 Si
36 1 5.43761 0.0116915 -0.0394482 2.89654 1.22412 2.08373 -0.179252 0.41995 0.671589 Si
11 1 4.02933 1.45417 9.62575 -2.04534 -2.88233 -0.776467 0.125749 -0.939213 -0.558539 Si
42 1 5.45023 2.68068 8.25975 4.28315 -3.00027 2.62387 0.00139444 0.574399 -0.673704 Si
38 1 8.16568 2.75471 -0.0260437 -0.977703 -3.46453 -2.20859 0.815646 -0.315303 0.600215 Si
10 1 -0.0147623 2.77317 8.13254 -3.97286 0.114895 -6.00534 -0.352109 -0.109586 1.03045 Si
43 1 9.58874 1.36566 9.54857 0.373171 2.0464 1.056 -0.860243 0.609684 -0.323332 Si
13 1 1.37081 4.0033 9.55699 -2.66311 2.24181 -2.59823 -0.309478 1.48157 -0.0935307 Si
32 1 2.70861 5.48901 8.21071 2.73248 0.0060641 2.49406 -0.13031 -1.32539 -0.633759 Si
52 1 5.45255 5.36002 -0.00442336 0.851061 -0.506493 -2.65974 0.0305287 0.544846 0.0751622 Si
27 1 4.06399 6.75639 9.55954 0.164622 1.06037 -2.40286 0.686609 0.965676 0.164906 Si
45 1 6.86927 4.07669 9.50155 -2.58887 1.11986 3.11079 -0.543341 0.269498 -0.0334797 Si
20 1 0.0195702 5.45813 0.03678 -0.132554 -2.79037 -2.47798 0.0771573 -0.540855 -0.998722 Si
59 1 9.51844 6.72664 9.49617 4.77672 -0.368492 0.484456 1.16614 1.18233 0.823109 Si
64 1 8.21584 5.47218 8.17416 -2.26755 4.14992 3.03922 -0.782722 -0.683745 -1.03043 Si
22 1 2.68065 8.14129 0.0377678 1.86436 0.214548 -4.71585 0.551204 0.0745566 -0.226509 Si
29 1 1.43882 9.56264 9.5484 -0.297851 2.38905 3.56705 -0.70457 0.459309 0.102396 Si
58 1 5.44049 8.19523 8.1612 2.16941 0.0954885 -1.27601 -0.100424 -0.073308 0.064231 Si
61 1 6.86548 9.58257 9.53936 0.0899955 -3.31181 -2.36207 -0.734309 -1.30337 0.0468128 Si
48 1 8.20601 -0.00124171 8.21709 -3.18539 -2.11203 -6.60494 0.410129 0.450647 -0.664242 Si
26 1 0.0462262 8.19967 8.24345 -0.510593 -1.40762 -0.312442 0.0278812 -0.751181 -0.220766 Si
ITEM: TIMESTEP
12800
ITEM: NUMBER OF ATOMS
64
ITEM: BOX BOUNDS pp pp pp
0.0000000000000000e+00 1.0887404739999999e+01
0.0000000000000000e+00 1.0887404739999999e+01
0.0000000000000000e+00 1.0887404739999999e+01
ITEM: ATOMS id type xu yu zu vx vy vz fx fy fz element
4 1 0.0681706 0.0750585 0.0243601 0.6419 0.116086 2.75533 0.186112 0.461751 -0.61437 Si
7 1 1.45492 1.47191 1.40276 -2.66574 -8.90177 1.31333 -0.907877 -0.216549 -1.50118 Si
34 1 5.48109 2.66626 2.62852 0.502715 2.27274 -5.045 -0.626553 1.00053 0.327313 Si
39 1 6.83307 1.27126 1.36134 -3.43376 3.71847 -0.865525 0.606272 -0.30895 -0.0756002 Si
2 1 0.0199745 2.71885 2.74051 0.9927 0.730119 -1.96761 -0.997485 0.526011 0.126694 Si
40 1 8.18177 -0.156569 2.77142 -2.9118 -1.33553 -2.30012 -0.560668 1.42111 -0.049279 Si
23 1 1.31902 6.8907 1.36521 -2.68971 -1.18002 1.04266 0.513615 -0.61402 0.347032 Si
24 1 2.65328 5.47063 2.71767 -1.38544 -3.02994 0.464277 0.364243 -0.0120896 -0.273216 Si
1 1 4.04427 4.11249 1.31896 2.32438 0.572409 3.89278 0.211604 -0.454859 0.459653 Si
55 1 6.85255 6.85884 1.29673 1.26123 -1.57922 0.0260537 -0.750265 0.342915 0.906383 Si
33 1 9.50707 4.11841 1.31157 1.19563 0.566921 -7.88086e-05 0.424187 -0.0293667 0.21899 Si
56 1 8.09484 5.46833 2.7038 5.90875 -0.0313343 -3.40565 0.917608 -0.245668 -0.639315 Si
8 1 2.71324 0.0841356 2.64538 -1.94313 0.0938537 -4.4004 1.19405 -0.914249 1.45048 Si
18 1 0.039385 8.19759 2.75986 -2.31024 0.580905 3.03678 0.125664 0.413989 -0.130948 Si
17 1 4.11085 9.47318 1.44396 -3.25956 -2.72899 0.0690115 -0.623938 0.717249 -0.371041 Si
50 1 5.38915 8.10891 2.80976 -3.06539 -2.1245 -2.87907 1.00264 0.00776996 -0.819919 Si
49 1 9.68699 9.61944 1.40145 1.21818 -2.55216 0.715068 -0.893693 -0.924205 -0.146588 Si
54 1 8.27967 8.26815 0.032315 3.27034 -4.6108 -4.64202 -0.509482 -0.206843 0.357413 Si
12 1 0.059536 -0.00209753 5.51446 3.32091 -2.11114 -1.06929 -0.721921 -0.356425 -1.32153 Si
14 1 2.71551 2.69748 5.36911 3.03937 -4.03234 0.947425 -0.228358 0.962053 0.312884 Si
15 1 1.41626 1.34596 6.75289 -6.2494 -4.32417 -2.39902 0.0789813 0.429067 1.32417 Si
3 1 4.09024 1.43539 4.06033 -3.21522 2.11845 -0.633548 0.51321 -1.4048 -0.311304 Si
47 1 6.81816 1.39475 6.75981 -1.35162 4.80121 0.069628 0.634297 -0.28221 1.15558 Si
35 1 9.47709 1.30465 4.11357 0.535226 9.23691 0.0188411 1.14133 -0.0271339 -0.278956 Si
46 1 8.16601 2.71283 5.4201 -2.11661 -3.89656 -1.41088 -0.519078 0.13337 -0.494689 Si
5 1 1.32626 4.14124 4.11092 -1.66493 0.658981 -5.00663 -0.190208 -0.434453 -0.0786326 Si
31 1 1.28497 6.72562 6.8677 0.281039 -0.440543 -0.907746 0.606687 1.41823 -0.632389 Si
9 1 4.10058 4.08017 6.671 -1.21062 -1.03246 -3.22064 -0.485822 -0.0872502 0.842529 Si
19 1 4.04728 6.77224 4.11258 3.07487 -0.184523 -3.40795 -0.387436 -0.00587351 -0.0948393 Si
37 1 6.78761 4.06859 4.02328 1.92054 -5.39908 0.860676 -0.254309 0.0647051 0.617982 Si
60 1 5.45488 5.49619 5.44748 1.69248 2.59236 -0.212214 0.599715 -0.464304 -0.469786 Si
63 1 6.84421 6.82827 6.83752 1.15284 1.48525 0.816864 -0.175472 -0.447062 0.0690513 Si
28 1 -0.0745141 5.48725 5.46134 1.05868 -4.67921 -1.59915 -0.276899 -1.08219 0.0523541 Si
41 1 9.45389 4.01013 6.83046 4.70251 3.37283 -0.893548 1.17649 0.507329 -0.761623 Si
51 1 9.54233 6.80144 3.98799 0.939912 -2.48452 5.08432 -0.28707 -0.182399 0.499309 Si
21 1 1.42635 9.5686 4.06801 -2.41456 3.82966 1.09329 -0.482553 0.397292 0.0815426 Si
30 1 2.7185 8.1883 5.41976 -1.58165 0.0997865 -4.0701 -0.445663 -0.846827 1.23186 Si
44 1 5.44454 0.0453863 5.52909 -1.52173 0.785477 -2.04764 -1.09836 -0.148022 -0.85198 Si
25 1 4.08509 9.49747 6.85007 -1.04767 0.614934 0.251778 -0.0772371 0.25596 0.12164 Si
53 1 6.6905 9.52284 4.15799 7.8563 0.73091 -0.902078 0.983887 -0.653245 -0.273533 Si
57 1 9.49628 9.52474 6.76552 2.3029 2.22004 3.58306 0.224276 -0.623271 0.241631 Si
62 1 8.19459 8.10706 5.35823 1.74749 0.255939 2.05156 -0.62136 0.828726 0.753035 Si
6 1 2.77497 2.70833 -0.104357 -4.9337 5.85942 -1.5512 0.0552364 0.321524 0.85027 Si
16 1 2.73718 0.001873 8.22391 -0.998124 -1.4886 -0.763745 -0.0414124 -0.16605 -0.537385 Si
36 1 5.44889 -0.0868242 0.0420055 -1.21402 1.63656 -0.957338 0.258693 0.224587 -0.0099659 Si
11 1 4.22044 1.34186 9.5236 -2.10176 3.75658 4.27198 -0.686263 0.120339 -0.486226 Si
42 1 5.46744 2.78913 8.07343 -1.8556 -0.998408 2.33182 -0.103579 -0.518447 0.57541 Si
38 1 8.14083 2.69193 -0.0403704 -3.39779 2.38448 2.35255 0.0908068 0.144416 0.166495 Si
10 1 -0.00452162 2.69662 8.14225 5.74529 1.21955 2.18634 0.498167 0.0889054 -0.285545 Si
43 1 9.53144 1.3617 9.4599 1.33917 -2.162 3.06648 0.355652 -0.046558 1.22064 Si
13 1 1.3147 4.0681 9.56312 1.9045 -2.3053 5.68907 0.362561 0.195723 -0.967185 Si
32 1 2.71922 5.36278 8.12104 -2.16237 4.18206 2.37558 0.453912 0.441511 0.973185 Si
52 1 5.43162 5.46883 0.0221356 -0.475655 -1.53586 -1.82053 0.62728 -0.164323 0.303732 Si
27 1 4.12566 6.78454 9.60272 1.60902 -0.0225342 2.01715 -1.99734 -0.0920572 -0.682777 Si
45 1 6.75183 4.11432 9.5414 3.93432 -2.47935 2.38828 0.133367 -0.748924 -0.0423974 Si
20 1 0.0294426 5.5791 -0.0461017 -2.98731 0.647799 2.50402 -0.414585 -1.54911 0.968338 Si
59 1 9.4761 6.80837 9.5862 0.207878 -4.4205 -2.27765 -0.849767 -0.662402 -0.80271 Si
64 1 8.15537 5.32832 8.17086 2.52882 -1.94436 1.24012 -0.164227 1.80589 0.56492 Si
22 1 2.70688 8.19709 0.0757113 -2.6788 1.13789 -0.724132 0.081186 0.0201511 -1.32611 Si
29 1 1.25633 9.47994 9.46211 3.29373 -1.38231 -4.63915 1.02198 0.339798 1.15206 Si
58 1 5.41481 8.12874 8.25817 -2.08889 -2.14494 0.730381 0.642416 0.117525 -0.99067 Si
61 1 6.79721 9.47481 9.5603 -1.22497 3.98796 -1.07691 0.728159 0.716672 -0.237146 Si
48 1 8.20895 -0.00855338 8.17784 0.166361 4.00044 2.11052 -1.42339 -0.206351 -0.569626 Si
26 1 -0.152928 8.08428 8.20673 0.487775 7.276 5.73956 0.987976 0.701397 -1.14411 Si
ITEM: TIMESTEP
12900
ITEM: NUMBER OF ATOMS
64
ITEM: BOX BOUNDS pp pp pp
0.0000000000000000e+00 1.0887404739999999e+01
0.0000000000000000e+00 1.0887404739999999e+01
0.0000000000000000e+00 1.0887404739999999e+01
ITEM: ATOMS id type xu yu zu vx vy vz fx fy fz element
4 1 -0.0597352 -0.131069 -0.00859085 2.06547 -4.16737 -3.78657 -0.315635 1.18684 0.308638 Si
7 1 1.32934 1.26607 1.33657 2.4532 5.48635 6.08993 -0.0997567 -0.422616 1.35909 Si
34 1 5.4159 2.71296 2.82901 -1.61071 -4.22487 -0.577309 0.293571 0.283795 -1.02796 Si
39 1 6.73785 1.37667 1.32311 1.47208 2.09418 1.1294 0.164171 0.886672 0.603124 Si
2 1 0.0267955 2.71016 2.78704 -1.1711 3.11915 1.70297 0.0402572 -0.382208 -0.0242889 Si
40 1 8.10562 0.0213791 2.63362 3.21195 -0.00154121 2.69348 0.235083 -0.865642 0.466165 Si
23 1 1.39037 6.78697 1.39306 4.72622 4.31172 -3.31504 -0.167602 -0.115464 -0.602894 Si
24 1 2.82709 5.48808 2.75553 0.103077 -2.45262 -1.15724 -0.996025 -0.71729 -0.159678 Si
1 1 4.08005 4.0731 1.36223 -2.97854 -1.4743 -0.748294 0.406121 -0.235069 0.407484 Si
55 1 6.78439 6.79006 1.35099 3.12221 1.48781 -1.42322 0.959747 -0.754139 -0.000187797 Si
33 1 9.56468 4.10397 1.38606 -0.782398 -1.74883 -0.347339 -0.663954 -0.214203 0.469615 Si
56 1 8.17073 5.45188 2.84346 -6.01133 -4.45783 -0.699319 -0.231343 -0.0554715 -0.756838 Si
8 1 2.724 -0.138636 2.81061 -0.215162 1.76331 1.4439 -0.47907 1.18192 -1.70861 Si
18 1 -0.0870476 8.11203 2.69335 4.187 0.123658 0.231664 0.305859 -0.0556059 -0.283042 Si
17 1 4.13222 9.54687 1.37746 1.13608 -2.0378 3.70039 -0.206739 -0.789687 -0.0540924 Si
50 1 5.55888 8.18523 2.6895 -1.0887 0.362025 0.71608 -1.51215 -0.346453 -0.321698 Si
49 1 9.42118 9.42904 1.3091 3.17265 4.64878 -2.03095 0.183391 0.517171 0.397026 Si
54 1 8.08858 8.13501 -0.0741083 -2.21096 2.55114 0.325035 0.0487796 -0.0537289 -0.0569255 Si
12 1 -0.00785784 0.0243177 5.4507 -0.450554 -1.90896 0.852303 0.564579 -0.364324 0.281994 Si
14 1 2.73258 2.71787 5.46835 -3.39011 -2.73943 -4.43767 1.32631 -0.455774 0.00505771 Si
15 1 1.39914 1.44702 6.8236 2.69946 -3.11944 -0.198266 -1.05672 -1.09993 -0.565225 Si
3 1 4.07372 1.27202 4.06534 -0.014544 1.79134 -3.50406 -0.340015 0.813426 0.944682 Si
47 1 6.80216 1.39596 6.84592 0.24277 -0.147444 2.13485 -0.472151 -0.0575073 -0.821946 Si
35 1 9.46632 1.26108 4.11447 -0.888132 -5.00947 0.171248 -0.0232907 1.65769 -0.401338 Si
46 1 8.15691 2.72975 5.54122 3.93232 1.21723 2.69218 0.205081 -0.412114 -1.0599 Si
5 1 1.47185 4.08462 4.17745 -0.397473 3.31083 2.12009 -0.740787 0.281275 -1.68577 Si
31 1 1.43341 6.85928 6.74747 0.690249 -4.5088 3.30288 0.459041 -1.01609 0.373852 Si
9 1 4.08884 4.07219 6.84649 3.93927 0.699425 1.62278 -0.100484 -0.0340627 -0.522632 Si
19 1 4.17523 6.83601 4.03444 -1.4197 -1.07603 -0.171426 0.125698 0.417546 0.48414 Si
37 1 6.75447 4.10916 4.23275 -3.34022 2.25995 -2.58788 0.685366 -0.627942 -1.04171 Si
60 1 5.39631 5.44747 5.48288 3.13496 2.91881 2.99863 0.17074 0.587591 0.458258 Si
63 1 6.82385 6.79424 6.81403 6.89002 3.31715 -0.886073 -0.00371521 0.369314 -0.545967 Si
28 1 0.0411391 5.40534 5.44219 1.93503 4.77988 -0.36222 0.243567 0.660883 0.570737 Si
41 1 9.54898 4.07294 6.79918 -5.43343 0.771086 3.45172 0.0533213 0.631082 0.829637 Si
51 1 9.55376 6.82817 4.17758 -1.14339 -0.306763 -3.83861 -0.358731 -0.394413 -0.379229 Si
21 1 1.25776 9.46734 4.01393 3.16596 -0.74814 -2.02761 0.317432 0.0913104 1.28386 Si
30 1 2.80523 8.22943 5.36039 -2.8756 5.25688 -2.46923 -0.666572 -0.316881 0.0146473 Si
44 1 5.51878 0.039256 5.41239 1.87011 3.63076 3.22524 -0.277351 -0.4877 0.128897 Si
25 1 4.11697 9.58347 6.76293 -3.18702 1.66295 -0.339431 -0.15436 0.202904 -0.220784 Si
53 1 6.80896 9.48151 4.03618 -7.32674 -0.644968 2.12812 0.826729 1.33322 0.605586 Si
57 1 9.49448 9.56694 6.80345 -4.34584 -1.04237 -6.30635 0.234442 0.15835 0.185644 Si
62 1 8.16932 8.21546 5.46811 2.75619 -2.76911 0.282073 -0.207757 -0.604124 -0.137676 Si
6 1 2.68192 2.6726 0.080138 2.92615 -2.81207 -1.36572 0.022965 0.64483 -1.40554 Si
16 1 2.66052 0.00433834 8.11088 -1.63263 -0.963584 5.76821 0.525402 -0.361449 0.66747 Si
36 1 5.40297 0.0421515 0.00367447 -1.27686 -3.33074 1.76054 -0.283497 -0.126489 -0.953453 Si
11 1 4.02411 1.37774 9.45545 3.60804 -2.50394 -4.24579 0.261158 0.0487875 0.741845 Si
42 1 5.462 2.74042 8.13617 4.60603 0.924249 -3.98059 -0.643652 -0.302245 0.445027 Si
38 1 8.13152 2.76682 0.00574596 2.96277 3.72567 3.70301 0.0336746 0.10859 -0.0679215 Si
10 1 0.0186678 2.72129 8.17285 -3.66415 -0.140866 -1.59166 -0.581862 0.120115 0.462621 Si
43 1 9.47759 1.35297 9.56002 -4.20282 1.2116 -2.20847 0.107001 -0.381728 -0.655138 Si
13 1 1.35378 4.12594 9.50635 -1.34863 0.830917 1.61154 0.436696 -1.02877 0.785137 Si
32 1 2.80994 5.4198 8.23149 -0.582205 -2.914 -1.29787 -1.22628 0.877524 -1.22488 Si
52 1 5.45901 5.41286 -0.0286636 -3.04867 -0.90067 2.41731 -0.503009 0.423414 -0.10322 Si
27 1 4.10847 6.84863 9.48093 0.606314 -1.19231 2.57193 1.08397 -0.330476 0.261814 Si
45 1 6.7891 4.11252 9.4342 0.328399 2.46789 -3.25933 0.719242 0.055896 0.936242 Si
20 1 -0.0215349 5.43577 -0.0388858 -0.0574291 1.29046 -1.35488 0.361579 0.825902 0.452113 Si
59 1 9.5417 6.85539 9.46991 -1.09222 0.0314956 2.37808 0.315599 -0.0252546 0.776341 Si
64 1 8.21023 5.53051 8.19039 -4.12202 -0.536019 -4.02939 -0.229633 -1.34502 -0.954685 Si
22 1 2.79815 8.13125 -0.0107156 0.00838912 3.53876 0.672767 -0.642905 0.544884 0.784276 Si
29 1 1.36978 9.51127 9.59379 -2.89708 0.451282 0.160414 0.131715 -0.699835 -1.53856 Si
58 1 5.4755 8.20863 8.07319 0.456385 -0.778415 1.59025 -0.552234 -0.269441 0.702908 Si
61 1 6.74638 9.55467 9.49311 0.368809 -2.72661 1.43435 -0.191561 -0.118664 0.375296 Si
48 1 8.04309 0.00121203 8.12363 3.45257 -4.03419 -2.3019 1.70334 0.173148 0.995699 Si
26 1 0.0112465 8.15993 8.08423 -2.02372 -4.61726 -0.233639 0.377199 0.783725 0.716856 Si
ITEM: TIMESTEP
13000
ITEM: NUMBER OF ATOMS
64
ITEM: BOX BOUNDS pp pp pp
0.0000000000000000e+00 1.0887404739999999e+01
0.0000000000000000e+00 1.0887404739999999e+01
0.0000000000000000e+00 1.0887404739999999e+01
ITEM: ATOMS id type xu yu zu vx vy vz fx fy fz element
4 1 7.14227e-05 0.0627633 0.0295196 0.746734 0.711139 -0.574845 0.257094 -0.965171 -0.417186 Si
7 1 1.40254 1.36996 1.33516 0.889828 -0.299526 -3.06095 0.325371 1.11203 -0.168461 Si
34 1 5.44383 2.74127 2.70932 -2.89586 1.75942 6.19375 0.0882508 -0.749547 0.669505 Si
39 1 6.85533 1.34656 1.42637 -5.04244 -1.68756 -2.4529 -0.580113 -0.350586 -0.720288 Si
2 1 0.0143331 2.75023 2.68068 -0.810023 -1.78152 0.0435209 -0.112978 -0.173296 -0.66435 Si
40 1 8.21249 -0.0162047 2.75684 -1.5796 -0.922904 0.820885 0.411081 0.849642 0.401845 Si
23 1 1.29978 6.73401 1.33775 -0.410834 -1.3426 1.51939 0.685643 1.17604 0.266209 Si
24 1 2.64966 5.41488 2.72843 1.35461 4.90568 -2.14606 0.692195 0.456885 -0.274543 Si
1 1 4.11523 4.11419 1.42169 2.84986 2.10963 0.490416 -0.376405 0.421136 -1.00574 Si
55 1 6.71557 6.90425 1.40597 -1.78603 -0.0164898 -2.35704 0.349258 -0.283929 -0.339758 Si
33 1 9.49702 4.07871 1.28682 2.27173 2.74449 1.76596 0.302759 -0.548961 -0.0523999 Si
56 1 8.23669 5.55021 2.60208 2.64083 4.4817 0.976974 -0.981559 -0.557798 0.925753 Si
8 1 2.76774 0.0448828 2.70201 4.11953 -5.38895 5.10057 -0.314158 0.262847 0.739986 Si
18 1 0.0713286 8.26079 2.70509 -0.890279 -0.280856 0.936679 -0.10839 -0.811363 0.451718 Si
17 1 4.01184 9.54898 1.31848 -3.80211 3.52979 -2.02266 0.768587 0.440587 -0.0323138 Si
50 1 5.27521 8.22215 2.72721 5.01935 1.14354 -0.413014 1.44995 0.153443 0.475711 Si
49 1 9.54393 9.54299 1.41518 -2.26225 -5.64964 -0.363909 0.769171 0.80414 -0.310911 Si
54 1 8.24077 8.18007 0.13737 -0.0611185 -0.473109 2.32471 -0.795943 -0.474703 -0.7032 Si
12 1 0.0712893 -0.0243473 5.45119 -1.40889 1.65201 -0.974725 -1.10154 0.62211 -0.0501733 Si
14 1 2.75629 2.79766 5.49798 3.78211 1.66058 -1.98566 -1.54506 -0.861365 -0.733471 Si
15 1 1.35359 1.36905 6.77994 1.42811 1.83414 0.938691 0.420382 0.604177 0.361771 Si
3 1 4.05638 1.41454 4.18314 4.57725 -4.26492 -2.34497 0.64228 -0.151761 -1.33342 Si
47 1 6.78062 1.31508 6.80002 -0.975395 -2.7378 -0.0642535 0.0456309 0.125282 0.153725 Si
35 1 9.60839 1.44148 4.09073 3.64905 -2.06604 1.7272 -0.637516 -1.24888 0.276517 Si
46 1 8.10244 2.69129 5.43584 -2.14625 -0.265549 0.0928168 0.911643 0.575199 0.141114 Si
5 1 1.33738 4.05828 4.03049 0.106531 -3.12233 0.456609 -0.024302 0.199418 1.26867 Si
31 1 1.26386 6.71626 6.81336 -2.69594 7.37823 -2.70334 -0.471441 0.777897 0.343535 Si
9 1 4.06106 4.01233 6.86268 -2.34757 -0.938401 0.166145 0.863392 0.921207 0.124658 Si
19 1 4.027 6.79138 4.07615 -1.34798 0.696174 0.535042 -0.212091 -0.661973 0.224429 Si
37 1 6.86931 4.07185 3.9893 0.326739 0.163413 1.39698 -0.371856 0.977099 0.377602 Si
60 1 5.38325 5.36826 5.4302 -1.5064 -2.04911 1.12848 0.187017 -0.399661 -0.7499 Si
63 1 6.74222 6.68905 6.75123 -0.369306 -5.31329 3.15311 0.408805 0.670018 0.696578 Si
28 1 -0.100364 5.4002 5.39588 -3.18974 -3.80067 2.65117 0.545572 0.683228 -0.484052 Si
41 1 9.46717 4.14724 6.80845 -0.155083 -0.681257 -2.96421 -0.262358 -1.34153 -0.515087 Si
51 1 9.5172 6.91014 4.03977 -2.65964 1.64146 4.732 0.410366 -0.554183 0.00203822 Si
21 1 1.42226 9.58533 4.11938 -0.98413 4.06459 -0.155051 0.495358 -0.890702 -0.480326 Si
30 1 2.65823 8.03955 5.48535 0.676371 -3.33744 2.24612 0.48336 1.53596 0.223964 Si
44 1 5.42981 -0.00788011 5.43677 -0.649522 1.8681 -2.91317 0.0591434 -0.441632 0.198334 Si
25 1 4.09014 9.51356 6.86116 2.34317 -0.295934 0.0218487 0.0479066 -0.877408 -0.235999 Si
53 1 6.84708 9.53519 4.06748 1.40199 -3.52628 1.99849 -1.51446 -0.297736 -0.0229822 Si
57 1 9.55444 9.50151 6.80455 2.20946 2.32622 2.57792 -0.350958 -0.145767 -0.276798 Si
62 1 8.08157 8.12065 5.44221 -4.68344 1.69444 3.69819 0.865358 0.395359 0.378195 Si
6 1 2.78941 2.82402 -0.0663022 3.36686 -2.38562 2.63828 -0.296278 -1.077 0.935118 Si
16 1 2.7271 0.0539678 8.17561 1.46853 1.10897 -0.679359 0.313592 -0.122952 -0.275362 Si
36 1 5.51948 -0.0462941 -0.0133696 -2.82777 1.43952 -0.297308 -0.224271 0.313595 0.397249 Si
11 1 4.11979 1.36096 9.54334 -0.718026 1.82631 -0.951381 -0.16313 -0.495027 0.434972 Si
42 1 5.43256 2.64593 8.19873 -2.17822 -0.550425 2.1829 0.577495 0.65325 -0.429454 Si
38 1 8.15284 2.6226 -0.0628153 -0.412396 -2.08583 -7.44353 0.629869 0.427568 0.567451 Si
10 1 -0.018775 2.77559 8.11002 -0.999126 -0.22875 0.044441 0.052162 -0.561061 -0.153329 Si
43 1 9.58249 1.32903 9.45243 -0.214853 -0.0597017 -0.567795 -0.336032 0.553253 0.316406 Si
13 1 1.38718 4.0656 9.43979 0.367632 2.27738 -4.00792 -0.357956 0.220249 0.520943 Si
32 1 2.68618 5.42088 8.11372 3.00692 -0.11668 -1.07049 0.325746 0.137568 0.233348 Si
52 1 5.45 5.48844 -0.004736 5.62923 -1.31042 1.43384 -0.195114 -0.401996 0.100777 Si
27 1 4.00701 6.79355 9.50671 -3.93419 4.67986 1.04729 0.483763 0.15243 0.349451 Si
45 1 6.81292 4.02171 9.54703 -2.21374 0.458607 -2.00343 -0.486629 0.544657 -0.313884 Si
20 1 0.0390507 5.37597 -0.0273315 -0.223155 -0.702628 1.39157 -0.611485 0.0199418 -0.491632 Si
59 1 9.481 6.77064 9.61521 -3.90661 2.1697 -4.58913 0.74682 0.412003 -0.563481 Si
64 1 8.14294 5.43056 8.17104 0.145897 1.96642 1.81908 -0.41321 0.22066 0.525712 Si
22 1 2.67943 8.20162 0.0149406 1.01753 -1.6451 2.10067 -0.223975 -1.03129 -0.321908 Si
29 1 1.41422 9.5881 9.52475 3.9529 -3.01075 2.51037 -0.618641 0.420997 0.854378 Si
58 1 5.54023 8.09015 8.23862 5.83829 -2.2642 -5.99796 -0.795193 0.59013 -0.604217 Si
61 1 6.95941 9.48378 9.56511 2.65342 0.814644 -2.18324 -0.744423 0.0614463 -0.128315 Si
48 1 8.19725 -0.000666415 8.13765 -5.1327 1.50847 -0.167513 0.0868701 -0.387001 -0.101845 Si
26 1 0.0116027 8.24285 8.28796 -0.419848 -0.0123322 -5.40634 -0.474424 -1.62717 -0.98288 Si
ITEM: TIMESTEP
13100
ITEM: NUMBER OF ATOMS
64
ITEM: BOX BOUNDS pp pp pp
0.0000000000000000e+00 1.0887404739999999e+01
0.0000000000000000e+00 1.0887404739999999e+01
0.0000000000000000e+00 1.0887404739999999e+01
ITEM: ATOMS id type xu yu zu vx vy vz fx fy fz element
4 1 -0.0842595 -0.0850021 0.00400822 -2.41403 3.07481 2.32481 1.17004 1.25741 0.209084 Si
7 1 1.30167 1.34452 1.4009 0.874031 -5.19837 1.21448 -0.15181 -0.428107 -0.849319 Si
34 1 5.37465 2.65087 2.65351 -2.48589 1.57038 -0.0269864 0.54934 1.20461 0.396474 Si
39 1 6.81138 1.35707 1.33092 1.1556 1.84553 2.94188 0.289343 -0.0391755 -0.0744189 Si
2 1 -0.031567 2.72455 2.74035 3.64777 -3.84372 3.06684 0.431116 -0.221312 0.470391 Si
40 1 8.20264 -0.0557621 2.68146 1.27916 1.23981 1.59026 -1.01215 0.303296 -0.55387 Si
23 1 1.41657 6.92674 1.41077 -2.72941 -0.889607 0.921524 -1.05331 -1.80666 0.321707 Si
24 1 2.7137 5.4498 2.72487 -3.67329 -4.26617 -0.737976 0.177594 0.0937747 -0.0449543 Si
1 1 4.00679 4.06581 1.33343 -1.06764 -3.14092 -0.392575 0.385188 -0.130963 -0.0949952 Si
55 1 6.97044 6.75991 1.32537 -2.47012 -1.15733 2.0275 -1.59174 -0.338907 -0.0839871 Si
33 1 9.56238 4.08002 1.41935 -2.76596 -0.793836 -1.65585 -0.00761041 1.15115 0.109339 Si
56 1 8.10854 5.3641 2.76266 -0.770997 1.06608 -1.19983 1.19243 0.0081245 0.401017 Si
8 1 2.72008 -0.00935703 2.69636 -1.50292 5.48266 -4.63417 -0.332319 -1.16302 -0.18215 Si
18 1 -0.0859453 8.12768 2.67663 3.59347 -2.21292 -4.30426 0.0990111 0.254923 0.395985 Si
17 1 4.16283 9.41887 1.38037 0.431141 -0.218718 -1.88865 -0.924741 0.809648 0.0194318 Si
50 1 5.60405 8.0904 2.68456 -4.80155 -0.0363055 -4.87156 -0.698721 0.045704 0.185015 Si
49 1 9.48386 9.4822 1.26649 -0.778774 -2.92691 -0.999788 -0.535778 -0.756779 0.787091 Si
54 1 8.12373 8.13785 -0.10056 -0.401869 -4.84328 -1.47705 0.618286 0.511666 0.131245 Si
12 1 -0.0910124 0.0374254 5.41156 2.02085 -3.03478 0.358639 0.536533 -0.660201 -0.0277053 Si
14 1 2.71434 2.67631 5.42649 4.06938 -1.75206 3.83745 0.321514 0.932843 0.133867 Si
15 1 1.31588 1.36331 6.77208 -5.92372 4.1246 -2.43747 0.460539 -0.540763 0.425271 Si
3 1 4.02948 1.36706 4.00172 -7.83774 -1.56406 6.54011 0.408457 -0.464456 0.80736 Si
47 1 6.79092 1.46322 6.86049 -0.580548 3.25468 -0.735727 0.384729 -0.91046 -0.77934 Si
35 1 9.45604 1.33469 4.01828 -1.08872 5.63877 0.502652 0.738831 0.359499 0.342789 Si
46 1 8.2744 2.70505 5.479 -0.439015 -0.186019 -0.148579 -1.38615 0.59897 -0.235865 Si
5 1 1.3751 4.08326 4.09158 2.49011 1.00312 -2.26568 0.325555 -0.548044 -0.404422 Si
31 1 1.48206 6.75421 6.83286 1.12249 -4.49855 -1.7712 -0.381998 1.63179 -0.710292 Si
9 1 4.1061 4.16866 6.75032 3.43146 -4.49083 0.22031 -1.16165 -0.715216 -0.111411 Si
19 1 4.15599 6.77191 4.0397 3.38162 0.948478 -0.430812 -0.483144 0.936985 0.201176 Si
37 1 6.71106 4.06164 4.13206 1.73089 -0.403438 1.32531 0.677608 -0.891958 -0.107476 Si
60 1 5.48203 5.52497 5.49123 1.76045 -1.81682 -0.286736 0.336749 0.129529 -0.204181 Si
63 1 6.88922 6.91926 6.82421 -1.68551 -1.60245 -5.11177 -0.970268 -0.457166 0.260565 Si
28 1 0.170023 5.45082 5.47555 1.37718 -0.0599622 0.392887 -1.39376 -0.846955 0.491397 Si
41 1 9.6824 3.99149 6.86899 0.925083 4.01938 4.67787 -0.28909 1.05979 -0.515257 Si
51 1 9.59671 6.68068 4.11224 4.49656 2.93952 -2.24605 -0.752192 0.720436 -0.130279 Si
21 1 1.26915 9.48171 4.03461 -2.2011 -2.47802 -1.79246 -0.0759279 1.20323 -0.132842 Si
30 1 2.70533 8.24188 5.35309 -1.98251 -1.46155 0.344947 0.565255 -1.57046 0.40052 Si
44 1 5.48013 0.0529459 5.36522 -3.11944 0.178021 -2.14247 -0.42004 0.47578 0.772108 Si
25 1 4.05779 9.57767 6.71292 1.6732 3.7664 -4.56518 0.0886995 0.40305 0.719679 Si
53 1 6.80749 9.55032 4.05891 2.73833 4.03096 -0.509315 0.918899 -0.627859 0.0947696 Si
57 1 9.45385 9.58645 6.82297 0.413537 -1.67563 0.841265 1.14788 -0.187107 0.612934 Si
62 1 8.24787 8.18948 5.42821 1.83192 0.795808 -2.32604 -0.470551 -0.0756977 -0.643665 Si
6 1 2.6262 2.70437 -0.0286441 -0.717405 2.68473 0.661066 0.530475 -0.183735 0.886581 Si
16 1 2.69555 0.0242017 8.2012 -0.104208 1.7828 -3.11778 -0.285187 -0.539793 -0.746057 Si
36 1 5.33055 0.0478122 0.00667073 -0.0933545 -2.07059 -5.20067 0.950099 -0.28785 0.523601 Si
11 1 4.04605 1.3879 9.52446 1.31637 2.96334 2.83107 -0.233125 0.699865 -0.532058 Si
42 1 5.36745 2.81109 8.09815 -0.153132 -1.32248 4.618 0.319118 -0.641033 1.09549 Si
38 1 8.24659 2.82407 0.0644235 -2.28585 1.448 -0.345846 -1.30409 -1.14163 -1.0207 Si
10 1 0.0791306 2.64216 8.27924 -2.3907 0.351762 -1.22403 -0.225533 0.621879 -0.369354 Si
43 1 9.54861 1.38351 9.59643 3.93783 -2.86623 -3.40644 0.000506067 0.278621 0.51862 Si
13 1 1.31501 4.11299 9.62031 -0.431431 -5.96633 1.56768 -0.044449 0.303394 -0.647523 Si
32 1 2.69552 5.39228 8.17568 -2.20563 2.34289 0.568541 0.726893 -0.309599 0.741272 Si
52 1 5.46072 5.42094 0.021994 -0.697519 0.83672 -3.08652 0.432711 -0.271205 0.0583656 Si
27 1 4.06324 6.71249 9.571 3.79811 -2.78839 0.8965 -0.295053 1.10432 -0.349414 Si
45 1 6.80849 4.07852 9.46474 0.653048 0.92362 -1.40157 -0.00400202 0.0876405 0.798168 Si
20 1 -0.00530374 5.54254 0.0854726 2.44066 5.37918 -0.615074 0.314258 -0.452502 0.089596 Si
59 1 9.55548 6.79631 9.5081 1.96103 -1.53945 3.24755 -0.497075 -0.312537 -0.468915 Si
64 1 8.17606 5.40371 8.10608 4.04408 -0.550919 1.2149 0.867323 0.328709 0.283541 Si
22 1 2.67906 8.1436 0.0386331 -1.23661 0.104991 2.64878 1.50908 0.473869 -0.847115 Si
29 1 1.32478 9.50129 9.58091 -4.09021 -0.000349488 0.0808171 0.266643 -0.0339128 -0.848932 Si
58 1 5.35254 8.21783 8.1922 -0.884264 2.8565 5.06224 0.64571 -0.258948 -0.174707 Si
61 1 6.72854 9.60647 9.58813 -0.544078 1.57919 3.8951 0.206511 -0.1858 -1.01138 Si
48 1 8.19273 0.115459 8.2643 3.90327 -0.182728 -0.31751 -1.31203 -0.812935 -0.662701 Si
26 1 0.0364558 8.11307 8.13217 0.0565383 3.607 7.25261 -0.29943 0.822225 -0.119159 Si
ITEM: TIMESTEP
13200
ITEM: NUMBER OF ATOMS
64
ITEM: BOX BOUNDS pp pp pp
0.0000000000000000e+00 1.0887404739999999e+01
0.0000000000000000e+00 1.0887404739999999e+01
0.0000000000000000e+00 1.0887404739999999e+01
ITEM: ATOMS id type xu yu zu vx vy vz fx fy fz element
4 1 -0.00419492 0.0757479 -0.0488265 1.50966 0.0777208 4.63744 -0.369645 -0.608565 0.339699 Si
7 1 1.31492 1.42019 1.30148 4.42748 4.22773 0.481601 0.857878 -0.682674 1.37304 Si
34 1 5.52693 2.74496 2.79887 0.291365 -2.84619 -4.34353 -0.336159 -0.294748 -1.45168 Si
39 1 6.82667 1.24806 1.33947 0.926912 -4.9528 -1.05251 -0.0927299 1.38515 0.818089 Si
2 1 -0.0067519 2.72725 2.78524 2.808 1.40619 -5.05454 0.0265509 0.0857074 -0.51118 Si
40 1 8.14001 -0.00450322 2.79493 2.89688 -7.28354 -1.5526 0.156584 -0.379117 -0.19109 Si
23 1 1.36642 6.74595 1.28692 0.864157 5.12279 0.495831 0.180984 0.893451 -0.0380133 Si
24 1 2.70551 5.48504 2.6927 -0.350189 2.9529 0.865591 0.0448128 -0.92087 0.80319 Si
1 1 4.10186 4.10118 1.33904 -1.31108 5.74999 -2.25602 -0.0401547 -0.657711 0.892306 Si
55 1 6.73461 6.90569 1.34427 6.06775 2.09245 -3.07082 0.651123 -0.0882889 0.917266 Si
33 1 9.55337 4.1051 1.36911 2.67394 2.67977 -2.21995 -0.966421 -0.953309 -0.418754 Si
56 1 8.10867 5.48982 2.68104 -5.77096 1.38637 5.39316 0.0895837 -0.0856238 -0.645919 Si
8 1 2.75312 0.0296226 2.7759 -0.7892 0.502558 -1.76431 -0.179068 1.20472 -0.391423 Si
18 1 0.0513186 8.15062 2.68582 -1.99139 4.15381 0.81277 0.319089 0.237571 0.145233 Si
17 1 4.05175 9.57467 1.37835 1.10883 -2.13616 5.76806 0.341942 -0.696563 -0.0505474 Si
50 1 5.39229 8.19656 2.78752 1.18349 -0.272364 3.64446 -0.782068 -0.367767 -0.629264 Si
49 1 9.59005 9.61363 1.46307 4.50315 3.5229 0.45475 -0.0710017 0.101376 -0.807054 Si
54 1 8.18283 8.28921 0.118684 2.61928 3.81262 -2.58464 0.394909 -0.880421 -0.48245 Si
12 1 0.0205719 0.0281337 5.44303 -0.129703 2.10516 1.13333 1.02426 -0.739962 0.523437 Si
14 1 2.71169 2.78465 5.46291 -5.52665 1.98839 -1.90867 0.336504 -1.11754 0.394159 Si
15 1 1.40419 1.37717 6.87643 5.65526 -0.0785525 -2.58706 -0.622207 0.157387 -0.709004 Si
3 1 4.19714 1.40419 4.19025 -0.310937 4.73176 -3.45885 -1.47319 0.00969236 -0.772349 Si
47 1 6.79436 1.23024 6.76628 0.183181 1.35127 0.479424 0.935675 1.69065 0.656173 Si
35 1 9.55618 1.29541 4.10327 -2.4315 -3.05298 0.807401 -0.633722 1.20072 -0.123644 Si
46 1 8.14474 2.73091 5.38459 2.42487 3.08644 3.67322 0.156672 -0.833247 0.798584 Si
5 1 1.33405 4.09611 4.16191 -0.0880024 -1.42759 3.99172 -0.137897 0.966666 -0.928367 Si
31 1 1.33042 6.83325 6.83551 -4.3757 -1.12592 5.39428 0.43795 -1.53486 -0.489905 Si
9 1 4.07275 4.06413 6.82308 0.0194703 0.545819 -3.34271 0.747425 -0.204773 -0.270527 Si
19 1 4.03036 6.8072 4.16369 -3.52283 -4.74703 -3.78953 0.540863 -0.425905 -1.11158 Si
37 1 6.82997 4.14905 4.10547 -0.857263 -0.653571 -1.80986 -0.143034 -0.183751 -0.327979 Si
60 1 5.39373 5.4016 5.43943 -3.09132 -1.58879 -2.99315 0.282726 0.435787 0.345939 Si
63 1 6.78574 6.78138 6.76602 5.1973 3.80838 7.29042 0.248123 -0.0241152 -0.294085 Si
28 1 -0.09501 5.52297 5.44679 -3.41414 -0.639484 -2.32756 0.491578 0.0620882 -0.513527 Si
41 1 9.4602 4.13562 6.76165 -0.670458 -7.60863 0.0674563 -0.50835 0.0459616 0.402172 Si
51 1 9.45557 6.86017 3.95729 1.17334 -2.84708 -4.05783 0.682061 -0.305883 0.807632 Si
21 1 1.43233 9.5164 4.09443 2.43737 0.631698 -2.08085 -0.409456 -0.393206 0.530615 Si
30 1 2.75403 8.0965 5.53673 -0.246185 6.59 -5.18253 -0.842533 1.25164 -0.512654 Si
44 1 5.42999 -0.031963 5.49804 4.26347 0.478637 1.38808 -0.429114 -0.832737 -0.256161 Si
25 1 4.08669 9.47167 6.85526 -0.0480427 -2.96412 3.00737 0.00724523 0.567507 -0.179619 Si
53 1 6.71854 9.52005 4.08878 -5.96152 0.95204 -0.301917 0.493788 0.653182 0.0711465 Si
57 1 9.57932 9.4555 6.73287 -3.04163 -0.332414 -0.26174 -1.0981 0.401735 -0.348086 Si
62 1 8.1058 8.17252 5.32919 4.60043 -1.77788 -1.70224 0.425762 -0.249542 1.10424 Si
6 1 2.79133 2.62758 -0.0224766 -4.09699 -0.449083 -2.90236 -0.394575 1.61149 -0.566965 Si
16 1 2.76187 -0.0111279 8.20776 -0.279915 1.16643 3.47032 0.0641222 0.0651085 0.0400092 Si
36 1 5.50616 -0.0755352 0.00928977 0.281684 -0.273313 5.55742 -0.432234 -0.0285025 -0.75341 Si
11 1 4.20417 1.36135 9.51091 -0.252475 -3.30176 1.01736 -0.376718 -0.902084 0.240654 Si
42 1 5.49748 2.72238 8.14642 1.32263 4.51519 -8.6287 0.0113794 -0.292036 -0.396329 Si
38 1 8.13235 2.62249 -0.0721505 1.46321 0.104741 -2.85892 0.237646 1.41416 1.69598 Si
10 1 -0.105124 2.76297 8.11011 3.5996 0.00996827 -0.994178 0.917218 -0.269967 -0.103132 Si
43 1 9.49335 1.39207 9.48417 -0.466479 1.28161 1.13758 -0.0674568 -1.21134 -0.848902 Si
13 1 1.39233 4.04584 9.39811 -2.61072 0.691998 4.73246 0.247117 -0.474863 1.14305 Si
32 1 2.78255 5.42292 8.11533 -0.510248 -6.45932 -1.48334 -0.883623 0.903903 0.499581 Si
52 1 5.45131 5.49677 0.0597788 -1.07708 -0.827143 2.04236 -0.699793 0.0395856 -1.06898 Si
27 1 4.08206 6.85112 9.49653 0.105039 -5.59174 3.79323 0.735247 -1.0224 -0.0426811 Si
45 1 6.74307 4.07119 9.60113 -2.16506 1.05097 0.147105 0.674447 0.359108 -0.631592 Si
20 1 0.0450575 5.36766 -0.0502805 0.818445 3.43159 -1.92779 -0.439711 0.527271 -0.373252 Si
59 1 9.48936 6.85853 9.59719 -0.549712 -0.363938 -1.42259 0.224682 -0.491593 0.0310256 Si
64 1 8.11702 5.48381 8.22865 -1.36311 -5.45153 -0.186306 0.0104706 -0.416188 -0.160484 Si
22 1 2.76434 8.16565 -0.0464094 -3.22441 -1.15243 3.05975 -1.01167 0.492731 0.596204 Si
29 1 1.32138 9.531 9.50981 -0.837733 -0.601139 -0.486006 0.0435879 -0.514665 -0.298192 Si
58 1 5.4838 8.13843 8.12318 -1.61768 0.342479 3.26239 -0.0959624 -0.0919604 0.558443 Si
61 1 6.86645 9.44603 9.49524 2.12572 -1.52079 0.986321 -0.799165 0.366162 0.52663 Si
48 1 8.15829 -0.126415 8.13653 -0.101974 1.94711 2.8401 0.999876 0.936135 -0.291096 Si
26 1 -0.0539624 8.09093 8.09202 -4.46963 -6.1722 -1.23917 0.295871 1.11014 1.73537 Si
ITEM: TIMESTEP
13300
ITEM: NUMBER OF ATOMS
64
ITEM: BOX BOUNDS pp pp pp
0.0000000000000000e+00 1.0887404739999999e+01
0.0000000000000000e+00 1.0887404739999999e+01
0.0000000000000000e+00 1.0887404739999999e+01
ITEM: ATOMS id type xu yu zu vx vy vz fx fy fz element
4 1 -0.00645357 -0.0781587 0.0363081 -2.52038 -6.16577 -2.96004 0.285858 -0.225404 -0.412388 Si
7 1 1.37076 1.29241 1.34747 -2.42327 -6.69271 -4.02071 -0.244734 0.561568 -0.36923 Si
34 1 5.49858 2.79755 2.7411 0.564999 1.91478 4.43059 -0.939877 -1.04413 0.716122 Si
39 1 6.8077 1.44631 1.37978 -0.95537 -1.86664 -1.62481 -0.912716 -0.861392 -0.801006 Si
2 1 0.0336872 2.66147 2.66517 1.25452 1.7572 5.68605 -0.463512 0.858158 0.148723 Si
40 1 8.11571 0.0297607 2.63748 -4.42836 2.51995 -3.61875 0.864463 0.249709 0.27454 Si
23 1 1.27237 6.80695 1.45261 -0.779781 -4.31267 3.03255 0.774933 0.0164076 -0.701125 Si
24 1 2.7524 5.48028 2.76738 1.12504 0.358099 -2.12219 0.258848 0.41617 -0.86572 Si
1 1 4.10302 4.09652 1.38972 -1.92122 -3.1682 -0.103293 0.130809 0.80263 -0.494394 Si
55 1 6.75843 6.7002 1.40051 -4.56606 4.52663 0.03886 0.865779 0.530275 -0.936639 Si
33 1 9.45332 4.05638 1.37185 2.56216 3.58056 2.45762 1.73419 0.558327 -0.186306 Si
56 1 8.24354 5.48105 2.7686 2.77508 -0.265918 -2.52944 -0.700551 -0.214778 0.377621 Si
8 1 2.68409 -0.0387399 2.68787 0.166351 -5.56393 4.73683 0.451477 -0.988401 0.390854 Si
18 1 -0.110643 8.13978 2.80769 -3.50908 -2.62998 -0.200148 -0.0561331 0.319649 -0.0192196 Si
17 1 4.17339 9.53681 1.29224 -0.982055 2.37196 1.23237 -0.545349 -0.0257713 0.870123 Si
50 1 5.52641 8.16834 2.71329 3.83474 -0.294999 -0.623696 0.0663473 0.739082 0.0796731 Si
49 1 9.4257 9.48019 1.34715 -3.75416 -5.71406 3.12728 0.773884 -0.0460744 0.243442 Si
54 1 8.1374 8.10333 -0.0235256 0.672975 1.331 2.69079 -0.939868 0.0677329 -0.238372 Si
12 1 -0.00426926 0.00489637 5.46719 1.32645 -0.615234 -0.134013 -0.951542 0.98103 -0.210733 Si
14 1 2.78687 2.6807 5.47586 0.388826 -0.864904 1.93177 -1.2222 0.16663 -1.46802 Si
15 1 1.36686 1.42014 6.7954 -0.0616766 1.0657 5.35224 0.159019 -0.993838 -0.131857 Si
3 1 4.05125 1.25532 4.08771 1.38407 -1.36446 0.915861 1.19844 0.884496 -0.363059 Si
47 1 6.78923 1.41189 6.80724 2.12406 -3.47173 0.812794 -1.21636 -1.08313 0.227312 Si
35 1 9.45069 1.40694 3.99678 -2.20144 -3.73558 0.878558 0.921563 -1.10909 0.810083 Si
46 1 8.09303 2.67737 5.4198 -4.56762 -1.07711 2.22976 1.18052 0.652333 0.081679 Si
5 1 1.42793 4.07456 3.99417 6.3761 1.47807 3.96697 -0.354593 -0.939114 1.25747 Si
31 1 1.38284 6.83212 6.73578 3.71787 1.16317 -2.50081 -0.456862 -0.000607095 1.22254 Si
9 1 3.98275 4.06086 6.81125 -4.5558 -0.997592 1.93403 0.825796 0.668489 0.759679 Si
19 1 4.14593 6.86998 4.06624 3.78029 3.18746 1.37939 -0.398445 -0.650701 0.36775 Si
37 1 6.86571 4.11307 4.1142 0.603482 -1.40626 8.06576 -0.634231 0.2344 -0.324696 Si
60 1 5.36163 5.36203 5.43375 -0.913106 2.78164 3.66112 0.372863 0.543678 -0.154984 Si
63 1 6.69786 6.72612 6.80105 -0.813254 -3.24691 -3.16209 0.937166 0.354298 0.605701 Si
28 1 0.0589332 5.38771 5.43603 0.462339 -0.928809 0.117192 0.0327637 0.00712507 -0.0768449 Si
41 1 9.55066 4.02454 6.7428 0.583428 4.88844 -1.37694 0.21733 -0.464693 0.449665 Si
51 1 9.49712 6.80605 4.28047 -0.107459 2.86991 1.87363 -0.00679699 0.196417 -0.872529 Si
21 1 1.29341 9.49322 4.14588 -2.42508 -0.0285292 -5.96218 0.821966 0.0138165 -0.706771 Si
30 1 2.76083 8.1513 5.4637 4.736 -3.65831 -1.68253 -0.0476159 0.561162 -0.828286 Si
44 1 5.45994 -0.131013 5.43134 0.523797 4.08438 0.451831 1.02473 2.02009 -0.501805 Si
25 1 4.12905 9.52825 6.7535 -1.02486 1.37021 0.368143 -0.561053 -0.897228 0.340441 Si
53 1 6.96364 9.56051 4.06755 4.12175 -6.03017 -3.38704 -1.72174 -0.836909 0.105719 Si
57 1 9.52574 9.60822 6.93162 1.27021 2.62594 1.93688 -0.035944 -0.227143 -0.74415 Si
62 1 8.12002 8.2277 5.58538 -3.17595 3.28006 -2.90906 0.556733 -0.615143 0.0843165 Si
6 1 2.6617 2.81963 0.0614543 0.803542 -2.1391 5.70077 0.403671 -1.05953 -0.401382 Si
16 1 2.77705 -0.0233633 8.03522 -3.03896 2.02414 -5.38673 -0.926927 0.528398 1.30763 Si
36 1 5.45949 0.0433206 -0.0841916 0.524711 -1.17102 -0.79408 -0.417032 0.925077 1.26504 Si
11 1 3.97501 1.36734 9.54509 1.54443 7.04338 -3.03445 0.242464 0.276539 -0.129491 Si
42 1 5.35019 2.73104 8.19929 0.650237 -1.55818 0.202992 0.450905 -0.0950505 -0.396826 Si
38 1 8.15077 2.72394 0.0351504 -4.14111 -0.729927 0.962717 0.427709 -0.338513 -1.26259 Si
10 1 0.0674094 2.72346 8.20158 -1.43335 2.80777 -1.61419 -0.71232 0.244886 -0.165735 Si
43 1 9.58751 1.30015 9.54579 -0.346498 0.416226 -0.663156 -0.446591 1.16959 0.544499 Si
13 1 1.40411 4.16198 9.50368 1.02494 2.24123 -7.06295 -0.50423 -0.285602 0.369704 Si
32 1 2.71614 5.53565 8.18266 6.1146 -1.87744 2.91527 0.0156912 -0.46569 -0.952546 Si
52 1 5.45679 5.42331 -0.12975 1.22823 -0.248037 0.965971 -0.349198 -0.086751 1.34417 Si
27 1 4.11591 6.84112 9.46785 -0.63571 6.3292 -3.04989 -0.533356 0.093664 0.899893 Si
45 1 6.83037 4.06158 9.48116 0.16129 -0.497876 -2.79071 0.0455824 -0.362802 0.0407313 Si
20 1 -0.00845357 5.4596 -0.0454628 -0.57073 -3.03142 -1.88831 -0.461744 -0.183918 0.872126 Si
59 1 9.55842 6.82799 9.45467 -3.12931 -0.0987815 2.38086 -0.000855506 0.0360413 0.302925 Si
64 1 8.23956 5.37587 8.13877 2.74608 5.45791 1.49784 -0.807753 0.706604 -0.529762 Si
22 1 2.74677 8.1442 0.0418302 6.93521 -0.284589 -3.80643 -0.234875 -0.297862 -0.1622 Si
29 1 1.42921 9.51205 9.51078 0.795444 3.83982 2.79591 0.541978 0.894923 0.650045 Si
58 1 5.40795 8.20578 8.15135 0.332103 -0.304697 -3.61814 0.442272 -0.424948 -0.463995 Si
61 1 6.71299 9.56044 9.5087 1.16403 0.233126 -2.67831 1.64787 -0.702505 -0.075482 Si
48 1 8.13119 0.0718874 8.21604 -6.55542 -2.64709 -5.24667 -0.240689 -0.28821 -0.0680654 Si
26 1 0.080209 8.26744 8.19831 -2.84232 1.14067 -0.179432 -0.627926 -1.46446 -0.993997 Si
ITEM: TIMESTEP
13400
ITEM: NUMBER OF ATOMS
64
ITEM: BOX BOUNDS pp pp pp
0.0000000000000000e+00 1.0887404739999999e+01
0.0000000000000000e+00 1.0887404739999999e+01
0.0000000000000000e+00 1.0887404739999999e+01
ITEM: ATOMS id type xu yu zu vx vy vz fx fy fz element
4 1 0.0129091 0.117446 0.0515851 -2.4242 1.16703 0.347826 -0.353374 -0.0827688 -0.888796 Si
7 1 1.34041 1.47302 1.35964 1.37953 4.11771 2.93562 -0.0521554 -0.0978738 0.145366 Si
34 1 5.42364 2.61691 2.62667 0.574377 -0.417202 -2.08083 -0.0716144 1.27052 0.60825 Si
39 1 6.8671 1.31195 1.39991 0.816625 4.46397 5.94878 0.462041 0.484647 0.294185 Si
2 1 -0.0588553 2.77785 2.74251 -1.38145 -1.47298 0.192583 0.244784 -0.932156 0.259646 Si
40 1 8.22105 -0.0161056 2.75515 1.40673 -4.59335 0.623408 -0.597969 0.304924 0.299846 Si
23 1 1.43655 6.76645 1.29153 -5.53215 1.61503 -3.18076 -0.105701 -0.131965 0.896221 Si
24 1 2.72862 5.32159 2.77042 -0.21483 -0.131365 6.41857 -0.762043 0.814338 -0.500938 Si
1 1 4.04746 4.04692 1.32631 3.77564 -1.04532 5.2897 0.0346593 -0.724104 0.192888 Si
55 1 6.8553 6.78308 1.39396 -1.99031 2.05477 0.95474 -1.18217 0.447618 -0.0367821 Si
33 1 9.53615 4.04629 1.33095 -3.28799 -2.92259 -5.31358 -0.766485 0.156692 1.01089 Si
56 1 8.16605 5.3619 2.72536 2.56267 5.99808 -3.13121 0.358394 0.299636 -0.965911 Si
8 1 2.66078 0.0503086 2.6363 3.78706 2.92907 -1.11413 0.466642 -0.153386 1.16248 Si
18 1 0.0825433 8.22068 2.603 2.33604 2.77985 -0.772922 0.201126 -0.61297 -0.0576197 Si
17 1 4.03792 9.51279 1.37126 3.08232 -1.53121 -2.24052 -0.139534 0.333547 -1.0238 Si
50 1 5.32811 8.15251 2.73726 -5.94961 -0.684401 -0.905641 1.02004 -0.466088 -0.319688 Si
49 1 9.58649 9.6435 1.35738 -0.69647 1.28408 -1.86126 -0.622166 -1.37833 -0.46418 Si
54 1 8.17886 8.1673 -0.0168571 3.77865 1.11563 3.53357 0.702383 0.352159 0.94016 Si
12 1 0.00792717 -0.0144563 5.45812 4.07632 0.236669 0.241753 0.0715236 -0.867224 -0.648265 Si
14 1 2.64788 2.8226 5.48318 3.98619 0.463214 3.27022 1.26379 -0.287671 0.496535 Si
15 1 1.34885 1.34046 6.78186 -0.537361 3.20596 -3.41961 0.0840648 0.262203 0.64091 Si
3 1 3.99693 1.46627 4.0587 -1.57902 -1.43901 2.84183 0.151437 -1.18653 0.539654 Si
47 1 6.85274 1.41991 6.79042 -1.70436 4.27651 1.19714 0.758652 -0.426989 -0.00304445 Si
35 1 9.52102 1.36147 4.14102 1.51786 1.67781 -0.741373 0.526567 0.0931737 -0.519854 Si
46 1 8.26606 2.80185 5.45392 -0.389717 -4.43765 1.33525 -1.48549 -0.285725 -0.187223 Si
5 1 1.25909 4.07355 4.14258 -2.63431 0.860636 -3.2685 0.605087 0.332534 -0.577589 Si
31 1 1.41941 6.71493 6.88486 -0.354903 -4.31021 -2.28018 -0.527696 1.22243 -1.28963 Si
9 1 4.21233 4.18181 6.83815 1.918 -2.61143 -0.369225 -0.888966 -0.963863 -0.517918 Si
19 1 4.02664 6.74907 4.09604 1.04706 -0.486045 -2.0175 0.162088 0.449424 0.171608 Si
37 1 6.76968 4.03339 3.99624 -1.3196 2.36585 -4.64748 0.388937 -0.41849 0.779831 Si
60 1 5.53354 5.49317 5.37293 -3.26257 -1.27519 2.86149 -0.0467928 0.274383 0.8601 Si
63 1 6.84507 6.96936 6.81075 -3.66475 -1.45083 -2.85596 -0.237722 -1.13413 -0.623602 Si
28 1 -0.00345513 5.47598 5.44991 -1.35367 -1.05701 -0.204959 -0.302972 0.0663455 0.409812 Si
41 1 9.53799 4.11235 6.88265 -0.892063 -0.626459 -0.936603 0.16386 0.71027 -0.379962 Si
51 1 9.6466 6.75817 3.86515 -0.198009 2.41803 1.74426 -0.303877 0.114867 1.28056 Si
21 1 1.42233 9.46579 4.05446 -2.56756 0.822672 7.25977 -0.810579 1.47184 -0.011811 Si
30 1 2.7226 8.19663 5.46806 -5.09222 -4.84253 -0.418444 -0.0491951 -1.53463 0.318587 Si
44 1 5.43313 0.0769884 5.49824 -0.0808733 -3.3628 -1.03503 -1.0344 -0.273788 -0.566578 Si
25 1 4.00891 9.51838 6.86535 3.44672 2.58875 -0.487935 0.700359 0.851666 -0.373679 Si
53 1 6.70312 9.5761 4.029 0.168272 5.70738 3.03287 0.967935 -0.702614 0.717186 Si
57 1 9.48375 9.41469 6.70695 -1.40138 2.09355 -4.06269 1.28791 0.524271 0.745098 Si
62 1 8.27478 8.09623 5.25904 -4.0775 -2.67606 3.2401 -1.53675 0.642502 -0.225798 Si
6 1 2.72176 2.68088 -0.0770282 3.11769 5.26809 -7.62213 0.391908 0.00736354 1.01956 Si
16 1 2.61929 -0.0519532 8.21735 2.89361 2.24771 4.51146 0.875668 0.960352 -1.11755 Si
36 1 5.50703 0.0634987 0.111319 -0.539236 -2.83648 -3.43964 -0.906578 -1.7745 -1.5518 Si
11 1 4.04942 1.27069 9.52147 -0.928963 -4.17222 -1.45048 1.14209 0.72254 -0.239893 Si
42 1 5.53286 2.71912 8.17314 -2.627 -2.99473 -0.634261 -0.994422 0.0330789 0.756792 Si
38 1 8.16918 2.704 0.0647536 2.90001 -4.36077 0.868998 -0.401694 0.139976 -0.489167 Si
10 1 -0.000563918 2.69578 8.17137 1.11878 -2.12895 -0.191944 -0.210318 -0.0961789 0.388542 Si
43 1 9.46155 1.38887 9.55881 1.71627 -3.63274 -3.59211 0.774524 -0.459349 -0.577783 Si
13 1 1.33596 4.00489 9.60527 1.19562 1.23273 0.90241 -0.21012 0.851354 -1.16251 Si
32 1 2.70774 5.38785 8.20258 -1.88775 2.48811 0.231199 0.280822 -0.922496 0.331269 Si
52 1 5.34688 5.4677 0.0568541 -1.56701 3.06625 -3.16163 1.55608 -0.270649 -0.308029 Si
27 1 4.0675 6.72215 9.47846 -0.165939 -3.41308 -2.61893 -0.38055 1.10518 0.670263 Si
45 1 6.83087 4.09995 9.60635 -1.74599 -0.084058 -0.760665 -0.478528 0.352275 -0.165563 Si
20 1 -0.00615124 5.37778 0.0895576 2.70269 -0.249091 -3.10329 0.692058 0.445233 -1.00577 Si
59 1 9.59748 6.78376 9.60928 -2.49833 -0.124388 5.2408 -0.621212 -0.113794 -0.562136 Si
64 1 8.14202 5.52137 8.1919 -0.573991 -1.47123 -2.46915 0.299372 -0.19147 0.393606 Si
22 1 2.66935 8.17415 -0.120081 -4.42419 2.01928 3.85364 0.732139 0.108637 0.457221 Si
29 1 1.26741 9.61108 9.51043 1.80338 -2.33678 -2.72609 -0.487137 -1.26989 0.649685 Si
58 1 5.36909 8.197 8.22226 5.99418 -5.30266 2.50651 0.773983 -0.0783643 -0.407358 Si
61 1 6.84035 9.51859 9.52529 0.683405 -3.12878 2.9243 -0.712571 0.672537 0.313508 Si
48 1 8.21765 -0.0474963 8.11563 1.962 4.41143 1.89539 -0.577126 0.333811 0.0874705 Si
26 1 0.0126352 8.0986 8.16249 3.79758 2.63379 2.9125 -0.283023 0.625642 -0.0674966 Si
ITEM: TIMESTEP
13500
ITEM: NUMBER OF ATOMS
64
ITEM: BOX BOUNDS pp pp pp
0.0000000000000000e+00 1.0887404739999999e+01
0.0000000000000000e+00 1.0887404739999999e+01
0.0000000000000000e+00 1.0887404739999999e+01
ITEM: ATOMS id type xu yu zu vx vy vz fx fy fz element
4 1 0.0296923 -0.0994229 -0.0719745 -1.31323 -0.314518 2.3251 0.112563 0.735208 1.34725 Si
7 1 1.36403 1.33413 1.34676 -2.61314 -0.0145047 -1.53906 0.206532 -0.620893 0.109237 Si
34 1 5.51537 2.77784 2.66828 -4.85142 -4.94948 1.7311 -0.390288 -0.322339 -0.119409 Si
39 1 6.82181 1.41857 1.30744 -0.0640552 -5.29441 -5.19442 -0.332015 -0.611416 0.049651 Si
2 1 -0.0144993 2.75102 2.61678 -5.27418 3.31072 0.369279 0.580978 -0.344059 0.743785 Si
40 1 8.1615 0.0832795 2.67536 5.83406 -1.73277 1.71484 -0.0367716 -1.52974 0.201279 Si
23 1 1.29195 6.85601 1.39962 7.44669 1.52621 -0.162175 -0.212246 0.545131 -0.717248 Si
24 1 2.6984 5.54643 2.66823 -0.845525 -0.584992 -4.36812 0.354319 -1.15561 0.744955 Si
1 1 4.10416 4.09737 1.35451 -4.94015 3.23294 -4.21257 -0.182188 0.726371 0.439489 Si
55 1 6.84444 6.84124 1.32485 6.39915 -1.63732 -1.58399 0.22023 -0.625877 0.515038 Si
33 1 9.54841 4.14853 1.3942 4.67941 0.641248 2.35925 -0.443551 -0.261683 -0.891578 Si
56 1 8.15772 5.41433 2.73368 -2.20653 -5.55782 2.3513 -0.468861 0.60949 0.530354 Si
8 1 2.76356 -0.0171369 2.81327 -2.28088 -3.09944 0.176821 0.14935 0.629496 -1.31462 Si
18 1 -0.0955167 8.19202 2.85531 -2.43543 2.40717 -3.5862 0.552356 -0.241638 -0.456936 Si
17 1 4.10419 9.50067 1.37378 0.481036 -3.57937 0.128224 0.401301 0.052317 0.968429 Si
50 1 5.53785 8.12997 2.78204 6.56218 0.437861 1.67019 -1.14311 0.172643 -0.585023 Si
49 1 9.52405 9.49365 1.3606 -1.59158 2.40341 -2.05559 0.0965357 0.907517 0.282785 Si
54 1 8.19481 8.20909 -0.0150529 -6.49077 -2.85505 -2.85146 -0.285053 -0.689587 -0.954412 Si
12 1 -0.0577298 0.0394462 5.39412 -4.10621 4.53446 -0.752716 0.730593 -0.00204111 0.985316 Si
14 1 2.68714 2.66464 5.34492 -0.372199 0.936008 -2.26286 0.14331 -0.0866339 0.502938 Si
15 1 1.41135 1.22575 6.86128 -2.1299 -0.99495 -2.42613 -0.706573 1.73364 -1.12608 Si
3 1 4.25388 1.38306 4.02777 -0.19253 5.13421 -2.58697 -1.44894 -0.15798 0.448277 Si
47 1 6.80402 1.26435 6.79115 -4.31099 1.23473 0.388016 -0.306716 1.31997 0.300681 Si
35 1 9.57278 1.36786 3.98392 0.146808 -2.30376 -1.0536 -0.80289 0.766343 0.421644 Si
46 1 8.12157 2.66092 5.39433 7.15671 1.24758 -4.23879 0.805182 -0.390081 0.23116 Si
5 1 1.31407 4.10131 4.01437 -2.83027 -1.50251 1.68992 0.545358 0.115883 -0.192786 Si
31 1 1.27889 6.8761 6.72897 1.22151 -5.16395 3.7425 0.770506 -0.99992 0.575226 Si
9 1 3.95882 4.10555 6.7608 2.66515 5.84922 1.32021 0.871377 -0.413603 -0.229158 Si
19 1 4.04571 6.83964 4.13317 0.356067 -1.31328 -0.163996 0.478705 -0.0828925 -1.22172 Si
37 1 6.77418 4.03438 4.11318 -5.21385 -1.26901 0.00246236 0.101802 1.34868 -0.13248 Si
60 1 5.40145 5.51043 5.44476 1.76606 0.343767 -0.304212 -0.258022 -1.69649 -0.0649186 Si
63 1 6.74308 6.71998 6.84899 2.18667 2.66425 0.107645 0.343382 0.477072 -0.0945377 Si
28 1 -0.0249597 5.46078 5.39897 6.56799 0.373449 1.83714 0.287012 -0.540356 0.333278 Si
41 1 9.56144 4.02186 6.70884 6.09002 -2.16485 4.18541 -0.412697 -0.0765002 0.782712 Si
51 1 9.43467 6.78114 4.20887 3.41564 -2.82172 -2.20673 -0.236659 0.439874 -1.01303 Si
21 1 1.33905 9.60688 4.13004 -0.0758116 -3.57199 -4.0099 0.103219 -1.1871 -0.027056 Si
30 1 2.71389 8.15713 5.43868 1.15906 6.54639 0.0613458 -0.496315 1.08028 0.306523 Si
44 1 5.45933 -0.039931 5.43977 3.61731 4.13777 -2.20869 0.124947 -1.0548 0.0404787 Si
25 1 4.09032 9.44578 6.86477 -3.30942 -1.05578 -1.48355 0.105772 0.67499 -0.926736 Si
53 1 6.89237 9.43848 4.12287 -2.52236 -0.31825 -3.95924 -0.434743 1.73984 -0.411185 Si
57 1 9.57631 9.60593 6.86196 -3.63642 -1.77919 1.15999 -1.37689 -0.488803 -0.341515 Si
62 1 8.08782 8.13703 5.57747 3.56205 -1.43978 -1.68794 1.31931 0.223517 0.422698 Si
6 1 2.73279 2.74598 0.0606251 -1.24627 -0.887602 -4.13377 -0.448897 0.22016 -1.14159 Si
16 1 2.7943 -0.00630669 8.19786 -4.73652 -0.681832 0.837048 0.100593 -0.756491 0.486542 Si
36 1 5.40176 0.00154987 -0.00238452 1.30824 7.84795 2.81029 0.633222 0.210769 0.278921 Si
11 1 4.10026 1.39129 9.55296 -1.14241 0.570968 1.03583 -0.700083 -0.109029 0.178524 Si
42 1 5.36132 2.68973 8.12464 -1.10774 1.79423 -0.880027 0.851849 0.458896 -0.364826 Si
38 1 8.22219 2.74595 0.0425157 4.70648 5.08181 -1.41667 0.0503009 0.285772 -0.280417 Si
10 1 0.0554472 2.72756 8.19295 4.02612 -1.25699 5.47613 0.0393077 -0.200636 -0.626039 Si
43 1 9.59825 1.39883 9.60029 0.634782 3.89903 4.79514 -0.377834 -0.191778 -0.617313 Si
13 1 1.35477 4.18695 9.51348 -3.47379 -2.99925 1.02427 0.383714 -1.36221 0.615729 Si
32 1 2.67627 5.48069 8.13437 -3.52628 -4.34445 -3.49044 -0.113604 1.05583 -0.102985 Si
52 1 5.48933 5.43643 0.0116305 0.100398 -0.836095 4.26494 -0.499042 0.31273 -0.364891 Si
27 1 4.05848 6.83566 9.56819 -4.61803 -1.63708 2.87708 0.634021 -1.52226 -0.685247 Si
45 1 6.78874 4.00709 9.55382 0.962484 -4.12533 -2.06393 0.123272 0.319474 -0.810692 Si
20 1 -0.0449583 5.46309 -0.0359958 -1.06249 -0.434167 7.44148 0.423189 0.636419 0.560785 Si
59 1 9.53249 6.77337 9.43353 3.45145 2.77602 -1.68701 -0.73411 0.494184 0.452843 Si
64 1 8.14076 5.37147 8.10239 -1.71705 2.13035 -0.73063 0.405542 -0.578476 0.528511 Si
22 1 2.79375 8.15548 0.0102278 -0.356793 -3.08537 0.574126 -1.32836 0.0820336 0.962049 Si
29 1 1.44756 9.48747 9.54468 -0.697987 3.23881 4.72013 -0.184231 -0.186977 -0.784989 Si
58 1 5.4341 8.07986 8.16604 -3.72211 4.12483 1.80621 0.0297284 0.614296 0.651809 Si
61 1 6.74322 9.53606 9.50918 1.32436 3.56353 3.14214 0.589485 -0.185693 0.143549 Si
48 1 8.16501 0.0688662 8.24037 1.53898 -1.35503 3.81829 0.442804 -0.616563 -0.0268713 Si
26 1 0.0101031 8.1842 8.14429 1.64746 -5.02702 -2.64244 0.249028 0.301328 0.483837 Si
ITEM: TIMESTEP
13600
ITEM: NUMBER OF ATOMS
64
ITEM: BOX BOUNDS pp pp pp
0.0000000000000000e+00 1.0887404739999999e+01
0.0000000000000000e+00 1.0887404739999999e+01
0.0000000000000000e+00 1.0887404739999999e+01
ITEM: ATOMS id type xu yu zu vx vy vz fx fy fz element
4 1 -0.0767112 -0.00695988 -0.0647867 -1.68314 -1.57676 -4.79978 0.105961 -0.385624 0.321768 Si
7 1 1.25409 1.31925 1.37197 -1.53429 2.4183 -0.411646 0.741358 0.479414 0.0266718 Si
34 1 5.46783 2.786 2.83359 7.02306 4.77859 -1.36807 -0.0889469 -1.34749 0.197212 Si
39 1 6.72233 1.38957 1.39555 4.72223 -1.12879 2.50971 -0.015898 -0.394783 -0.400964 Si
2 1 -0.0434467 2.68676 2.85656 2.42081 -1.62566 -2.11022 0.86171 0.455634 -1.10304 Si
40 1 8.10132 0.0610167 2.77117 -3.19444 5.32065 1.23455 0.726017 -0.0962642 -0.520622 Si
23 1 1.41462 6.73148 1.28122 -2.61833 -3.46693 2.22793 0.604158 -0.140709 0.582854 Si
24 1 2.80767 5.37687 2.73915 -3.66775 2.9239 0.508498 -0.36278 0.764803 -0.25313 Si
1 1 4.13744 3.98379 1.43368 0.684472 -1.87283 -1.0424 -0.501071 0.931298 -1.32675 Si
55 1 6.71239 6.77241 1.41193 -0.299175 3.92687 1.46845 0.617995 0.403772 -1.08759 Si
33 1 9.50486 3.95186 1.38102 -2.44053 0.0266805 3.53144 0.869593 0.860375 0.0254415 Si
56 1 8.19407 5.41952 2.63587 -0.436199 0.542148 -1.87028 -0.143308 0.385826 1.0565 Si
8 1 2.7202 -0.0124854 2.71962 1.97895 3.30872 0.563509 -0.801722 -0.321913 -0.106735 Si
18 1 0.0960866 8.04792 2.69888 1.38969 -3.40715 -0.867841 -1.13133 0.768667 0.302191 Si
17 1 4.05352 9.58191 1.28498 -1.86852 2.14342 -2.88641 -0.42764 -0.26573 -0.168037 Si
50 1 5.34163 8.20155 2.64394 -0.0167723 1.8954 -0.0259899 1.10365 0.295718 1.16781 Si
49 1 9.49883 9.5223 1.42961 -0.732619 -1.31732 3.01828 0.232291 -0.137737 -0.254568 Si
54 1 8.11039 8.1754 0.0233358 3.11003 6.93519 5.24644 -0.217985 -0.126044 0.847939 Si
12 1 0.0302663 -0.0622264 5.40996 -2.86316 -1.52055 -1.56886 -0.319198 0.704048 0.38723 Si
14 1 2.75094 2.66505 5.52209 -1.29726 4.61436 3.65964 -0.161054 0.665394 -0.242182 Si
15 1 1.24838 1.39544 6.84743 2.83087 -0.82365 5.46465 0.921815 -0.783521 -0.256269 Si
3 1 4.06196 1.28135 4.10735 1.85284 -1.86566 3.75449 0.0624903 1.3476 -0.268285 Si
47 1 6.79103 1.35567 6.80967 1.31795 -6.0632 -1.86718 -0.374507 -0.443561 -0.291128 Si
35 1 9.51371 1.36738 4.14189 0.126187 -2.24756 -4.60557 -0.327684 -0.808307 0.21332 Si
46 1 8.14596 2.7251 5.44463 -3.75715 2.51496 0.863524 0.16206 0.756845 0.49249 Si
5 1 1.41178 4.10447 4.11729 2.32531 -1.69777 0.0920277 -0.272611 -0.534221 0.653753 Si
31 1 1.44743 6.85197 6.83705 0.433698 7.33131 -1.22369 -0.998881 -0.316476 0.710899 Si
9 1 4.19446 4.0694 6.84924 -4.61957 -1.43056 1.38652 -1.0967 0.322772 0.305671 Si
19 1 4.16476 6.78095 4.10232 -3.52529 -1.12716 3.1031 -0.76904 -0.0534555 0.213686 Si
37 1 6.84806 4.17326 4.10735 6.35592 1.75217 -0.567145 0.4428 -0.889265 -0.308233 Si
60 1 5.5383 5.42444 5.49656 -0.896829 0.33545 -0.698373 -0.930872 0.393693 -0.618729 Si
63 1 6.82744 6.84422 6.71569 -1.30214 -1.79273 -1.33069 0.362805 0.169951 0.862664 Si
28 1 0.0666756 5.52002 5.51047 -2.13654 2.312 -1.77395 -0.173254 -0.326978 -0.732687 Si
41 1 9.47151 4.23567 6.78265 -2.52195 0.256449 -1.76804 -0.0460853 -0.93347 0.125229 Si
51 1 9.50058 6.78804 4.11805 -4.34731 -0.463675 -2.80477 0.627036 -0.00261753 -0.732355 Si
21 1 1.38909 9.44073 4.12659 2.78453 2.67569 2.09457 0.116975 0.318666 -1.14313 Si
30 1 2.70957 8.1162 5.47522 -0.117952 -8.70336 5.26211 1.45016 0.451268 -0.772379 Si
44 1 5.3712 -0.0440067 5.42707 -3.44561 -5.57263 0.0655849 1.51569 1.13691 0.0719049 Si
25 1 4.06138 9.5868 6.72684 1.9727 -1.12821 1.00114 -0.424928 -1.29639 0.913343 Si
53 1 6.7916 9.58179 4.08309 2.84191 -2.3193 0.755228 -0.802128 -1.10598 -0.40809 Si
57 1 9.56811 9.48025 6.74638 5.69159 -0.486174 -0.0547898 0.0633948 0.252363 0.656034 Si
62 1 8.16349 8.21362 5.43603 -4.25334 4.00826 -4.77542 0.0527349 -0.2768 -0.88797 Si
6 1 2.74026 2.68518 -0.000760897 -0.0211798 -2.85053 7.39905 -0.345666 -0.356536 0.69748 Si
16 1 2.7541 0.0066836 8.1553 4.69643 2.35244 -1.07807 -0.806301 0.592478 -0.430036 Si
36 1 5.43074 -0.02843 -0.111368 -2.72754 -9.15863 -1.95007 0.293251 0.688852 1.08413 Si
11 1 4.0949 1.37436 9.49696 2.26643 1.624 -1.00313 -0.185027 -0.214853 0.194507 Si
42 1 5.49777 2.72128 8.2459 -2.29599 2.12383 1.16067 0.28483 0.131586 -0.665648 Si
38 1 8.12454 2.70181 0.0374328 -3.99026 -3.98787 2.00111 -0.237423 -0.360194 -0.678821 Si
10 1 -0.139118 2.76998 8.12912 -3.58133 2.14736 -1.92902 0.581524 0.309448 0.544841 Si
43 1 9.41686 1.33563 9.46514 0.350191 -0.263753 -1.44548 0.106663 0.096966 0.24072 Si
13 1 1.43281 4.03887 9.48279 3.22856 3.62645 -4.83356 -0.696489 0.389482 -0.14806 Si
32 1 2.79099 5.55915 8.21115 2.28878 -0.477887 -1.43776 0.16198 -1.7013 -0.7078 Si
52 1 5.39729 5.44611 -0.0273907 3.76394 0.49453 -0.108413 0.112307 -0.214327 0.365742 Si
27 1 4.14844 6.91508 9.46188 -0.769876 0.857878 -2.00649 0.0328978 0.160013 0.634553 Si
45 1 6.8575 4.13714 9.52996 -2.01684 1.22973 4.75314 -0.367637 -0.0930734 0.382292 Si
20 1 0.0357807 5.34138 0.0132634 2.04876 -2.04088 -4.4172 -0.627859 -0.0339913 -0.275545 Si
59 1 9.50032 6.82674 9.629 1.36215 -2.34171 1.35603 1.12695 0.00461763 -0.822999 Si
64 1 8.13651 5.57197 8.17841 -1.01175 -2.80257 2.34461 0.260389 -0.312431 0.0043397 Si
22 1 2.67446 8.22505 -0.0774558 1.03492 1.34255 -2.63271 0.939374 -0.788509 0.520228 Si
29 1 1.37663 9.53232 9.47182 -2.0399 -1.28247 -0.338537 -0.405348 1.1534 0.430612 Si
58 1 5.50637 8.21539 8.01604 0.836441 0.499632 -1.09235 -0.894033 0.0578979 0.519313 Si
61 1 6.79043 9.48742 9.47788 -0.443375 -1.46078 -1.83947 0.243026 0.0217339 -0.0793072 Si
48 1 8.13898 -0.105412 8.09017 0.530449 0.286609 -0.432641 0.217406 0.7333 0.0976499 Si
26 1 0.0559771 8.2059 8.1839 0.204131 1.69917 -1.85998 -1.04789 -1.14223 -0.159932 Si
ITEM: TIMESTEP
13700
ITEM: NUMBER OF ATOMS
64
ITEM: BOX BOUNDS pp pp pp
0.0000000000000000e+00 1.0887404739999999e+01
0.0000000000000000e+00 1.0887404739999999e+01
0.0000000000000000e+00 1.0887404739999999e+01
ITEM: ATOMS id type xu yu zu vx vy vz fx fy fz element
4 1 0.189885 0.10176 0.0377555 2.71415 2.7638 4.07112 -0.730959 -0.36449 -0.397167 Si
7 1 1.51993 1.4987 1.41981 -1.57497 -4.99513 -0.859362 -0.978615 -0.520995 -1.06697 Si
34 1 5.40815 2.6599 2.67642 1.66028 1.58459 1.29687 0.212482 1.33616 -0.568557 Si
39 1 6.85063 1.37923 1.35606 -2.52216 -0.646719 -1.84851 0.896023 0.0255121 0.396106 Si
2 1 -0.0399896 2.73489 2.61805 -0.14528 -1.49486 1.27992 -0.174531 -0.0321548 0.432153 Si
40 1 8.21225 -0.0845942 2.74705 -4.67735 -4.08448 -2.69685 -0.640968 1.24122 -0.263533 Si
23 1 1.37123 6.87628 1.38245 -1.68802 2.94882 -0.883948 -1.34012 -0.247326 0.712484 Si
24 1 2.64993 5.47974 2.71082 4.24012 -0.9434 2.3811 0.17048 -0.0753687 0.236558 Si
1 1 4.03813 4.16092 1.34509 1.63192 0.663779 3.74871 0.48295 -1.06531 0.426175 Si
55 1 6.90238 6.72382 1.32598 -3.80119 -7.20444 2.79223 -1.34532 0.844922 0.598805 Si
33 1 9.49396 4.15947 1.34024 -1.85006 -1.1901 -0.122493 -0.176871 -0.477816 0.0475843 Si
56 1 8.15354 5.42566 2.78645 1.147 1.85204 -0.618947 0.355747 0.126978 -0.967104 Si
8 1 2.71648 -0.00362186 2.65228 -2.34546 0.128331 -3.92407 0.721383 0.156454 1.36449 Si
18 1 -0.0208671 8.2713 2.73818 -5.36991 -1.804 4.10438 0.24111 -0.494207 -0.138927 Si
17 1 4.08497 9.49991 1.3829 6.24482 0.411204 2.83949 0.890527 0.281036 0.289623 Si
50 1 5.48564 8.15275 2.78333 -0.592259 -2.18632 1.57747 -0.259013 -0.584216 -0.738159 Si
49 1 9.58702 9.62705 1.27833 -0.0512648 3.75049 2.53258 -0.240493 -1.10407 -0.0565958 Si
54 1 8.16276 8.13026 -0.0650759 0.742112 -3.2959 -4.12886 1.05581 0.579573 0.13794 Si
12 1 -0.0330602 0.0675435 5.49895 1.93144 1.68623 2.33536 0.132234 -0.705815 -0.640081 Si
14 1 2.73923 2.76607 5.3309 0.420698 -4.29335 0.0162062 -0.402003 -0.108863 0.375985 Si
15 1 1.47211 1.31297 6.73931 -1.12143 1.54787 -1.18348 -0.288448 0.675587 0.948359 Si
3 1 4.09757 1.37499 4.03611 2.05226 -1.90918 0.503933 -0.10441 -1.11983 0.485448 Si
47 1 6.81726 1.44114 6.81397 2.79999 2.96648 0.932383 0.708603 -0.508198 0.100307 Si
35 1 9.54217 1.37501 4.05 -3.09269 5.87598 0.363936 0.170137 -0.315029 -0.339902 Si
46 1 8.2048 2.73919 5.35035 -1.74915 -4.9565 -2.95964 -0.909618 -0.27279 0.603287 Si
5 1 1.25134 4.07098 3.9823 1.01505 2.11226 -1.15517 0.775637 0.248869 0.740376 Si
31 1 1.30887 6.75216 6.79671 3.3342 -1.1626 0.37144 0.260035 0.726617 -1.25022 Si
9 1 4.05513 4.10893 6.77806 -0.297629 -0.84708 -2.8285 0.0249653 -0.52232 -0.223971 Si
19 1 3.9844 6.82853 4.11569 4.32578 2.75631 -1.67098 0.887251 -0.0533043 -0.317622 Si
37 1 6.77426 4.05811 3.99946 -0.239685 2.28531 2.63131 -0.318966 -0.285382 0.825292 Si
60 1 5.41785 5.42158 5.39463 -3.83683 -3.71273 2.08648 0.287329 0.617848 0.463728 Si
63 1 6.79742 6.77841 6.88565 -2.85653 1.64782 0.357468 -0.465188 -0.54136 -0.80139 Si
28 1 -0.0509506 5.36892 5.45719 1.57631 1.56231 0.665483 -0.355629 0.281963 -0.292116 Si
41 1 9.52314 3.93752 6.85206 0.487108 0.0391074 -5.72208 0.707849 0.473499 -0.644883 Si
51 1 9.50244 6.81594 4.05912 -3.5106 -1.23102 5.61538 0.496673 0.0845622 0.811443 Si
21 1 1.3747 9.60633 4.11003 -0.94244 -4.82132 1.89063 -0.529034 0.0730446 0.0152602 Si
30 1 2.71701 8.24482 5.4785 1.95208 3.24573 1.7967 -0.943906 -1.19974 -0.00954301 Si
44 1 5.48857 0.0249338 5.49756 -0.271336 -5.49826 2.2123 -1.33556 0.150039 0.182101 Si
25 1 4.07792 9.45719 6.86164 -0.490046 -0.379318 -0.957296 0.779653 1.09297 -0.101678 Si
53 1 6.77467 9.55526 4.15758 3.63442 4.98362 -0.0112161 1.06112 -0.905899 -0.13979 Si
57 1 9.47237 9.55401 6.8379 -2.56961 -0.947319 3.7167 0.611002 -0.0311123 -0.343099 Si
62 1 8.16863 8.12021 5.51671 2.70492 2.60841 2.82065 -0.547928 0.537035 -0.516426 Si
6 1 2.78406 2.75628 -0.0615495 -3.95642 1.0961 -4.86266 -0.104087 0.287182 0.550764 Si
16 1 2.6935 -0.110231 8.21397 2.15148 -5.40853 -2.61956 0.612026 0.696368 -0.696127 Si
36 1 5.47365 0.0601532 0.0889961 4.36883 7.18426 0.3846 -0.425888 -1.23508 -0.612445 Si
11 1 4.06628 1.26733 9.55864 -0.226219 -0.907256 2.24871 0.398846 0.815296 -0.64719 Si
42 1 5.41134 2.73902 8.16972 -0.219603 0.561215 -1.5403 -0.534666 -0.532804 0.0615847 Si
38 1 8.20984 2.76424 -0.0729423 1.43533 0.896438 0.0637121 -0.272806 -0.406363 1.09751 Si
10 1 0.0906562 2.64957 8.20997 1.21737 -1.43566 -0.642054 -0.185245 -0.0876767 -0.648285 Si
43 1 9.58194 1.36042 9.56809 0.265799 -0.955008 1.99685 0.598529 -0.109278 0.0355731 Si
13 1 1.29787 4.08594 9.60769 2.98305 -1.05384 1.08295 0.351369 0.516523 -0.634844 Si
32 1 2.62071 5.40259 8.08819 0.454498 6.98957 1.47256 0.726335 0.0897275 1.77252 Si
52 1 5.46142 5.38401 -0.00555734 -2.48665 2.51754 -4.16579 0.160596 0.673338 -0.0232118 Si
27 1 4.02777 6.74902 9.58941 3.25418 0.10857 -2.58159 -0.274478 -0.0591636 -0.53991 Si
45 1 6.79822 4.0401 9.50883 1.46051 -1.95889 -1.57484 -0.196291 0.180889 -0.0688936 Si
20 1 -0.0566655 5.54457 0.0530031 -1.25924 1.85871 0.324694 0.466672 -0.000788186 -0.941643 Si
59 1 9.54261 6.81212 9.36158 -3.00295 2.6405 -1.87288 -0.896431 -0.830454 1.44631 Si
64 1 8.16211 5.30816 8.11881 1.22705 -0.175066 -0.394634 0.0555976 0.971744 0.429521 Si
22 1 2.70948 8.15767 0.108646 0.416349 0.268337 -2.46718 0.347431 0.198837 -1.80775 Si
29 1 1.34398 9.44805 9.50173 3.23018 -2.38304 -4.89341 -0.112846 -0.0932117 0.927952 Si
58 1 5.41505 8.1357 8.24977 -5.39861 0.603857 -2.48279 0.130579 -0.203602 0.0636676 Si
61 1 6.78496 9.55424 9.56564 -3.944 -0.42985 -2.43279 -0.0124373 0.0853133 -0.0460225 Si
48 1 8.20816 0.0322347 8.23319 -1.59535 -1.70531 -0.124354 -0.996546 0.189235 -0.380171 Si
26 1 -0.023435 8.132 8.07497 0.605668 1.8709 1.71194 0.322323 0.835671 0.285319 Si
ITEM: TIMESTEP
13800
ITEM: NUMBER OF ATOMS
64
ITEM: BOX BOUNDS pp pp pp
0.0000000000000000e+00 1.0887404739999999e+01
0.0000000000000000e+00 1.0887404739999999e+01
0.0000000000000000e+00 1.0887404739999999e+01
ITEM: ATOMS id type xu yu zu vx vy vz fx fy fz element
4 1 -0.0942827 -0.0242573 0.0160686 1.93217 1.22119 -1.75955 -0.486859 0.0799539 0.0659648 Si
7 1 1.25679 1.28287 1.3442 0.623266 8.37077 1.16254 0.460052 -0.331126 0.871229 Si
34 1 5.43683 2.73444 2.67924 1.48731 -6.88489 -3.28255 -0.250321 -0.562236 0.508627 Si
39 1 6.81978 1.37858 1.32605 1.40835 2.99161 1.69454 -1.18386 -0.155368 0.0573098 Si
2 1 0.0743518 2.68376 2.71703 -2.30785 1.55299 -1.11014 -0.69721 0.461434 0.859143 Si
40 1 8.18405 0.158082 2.73244 3.26037 2.66637 1.73604 -0.181109 -2.51594 -0.286228 Si
23 1 1.40419 6.72657 1.36353 2.72041 -2.74506 -2.17392 0.326662 0.30046 -1.10991 Si
24 1 2.74732 5.4053 2.69572 -0.243654 -3.28269 2.31482 0.230269 -0.468437 0.186369 Si
1 1 4.06601 4.03491 1.27834 -0.861655 -1.54716 -6.46346 0.199468 0.414183 0.926054 Si
55 1 6.75218 6.78689 1.4145 3.17736 1.59776 -2.00765 1.1001 -0.715338 -0.488978 Si
33 1 9.55348 4.05578 1.42507 1.74693 -2.43363 -2.77584 0.0846425 0.00994356 -0.578097 Si
56 1 8.1798 5.36986 2.77339 1.27123 -4.01702 5.50647 -0.148469 0.833434 -0.296797 Si
8 1 2.68561 0.0349906 2.7395 -4.31803 0.175506 -1.27702 -0.43891 -0.626022 -1.05627 Si
18 1 0.0648712 8.06124 2.65465 2.18071 3.10063 -0.826052 -0.357528 1.01119 0.230698 Si
17 1 4.03366 9.58786 1.32923 -3.21538 -2.92576 -2.6729 -0.131881 -1.02481 0.434324 Si
50 1 5.43828 8.18444 2.66441 -1.05201 0.113786 1.36751 -1.0294 0.0496568 0.415108 Si
49 1 9.49623 9.44443 1.37655 4.39973 4.85205 -3.51176 -0.222373 0.762286 0.436334 Si
54 1 8.14382 8.10139 -0.00310714 -3.29503 0.378777 2.49313 -0.276728 0.458006 -0.148312 Si
12 1 -0.0381029 -0.102892 5.41716 0.309614 -0.140016 0.179759 0.899923 0.858799 0.0324746 Si
14 1 2.69819 2.73817 5.49066 -1.22437 3.48569 -1.67287 0.440155 -0.268828 0.190571 Si
15 1 1.28021 1.39999 6.81084 4.40729 -2.01757 -0.330669 -0.17601 -0.547657 -0.688298 Si
3 1 3.97762 1.36165 4.05542 -2.0477 3.81875 -1.77842 1.23628 0.937639 0.347446 Si
47 1 6.82418 1.32238 6.75295 -2.97958 3.15953 -2.93865 -0.368315 0.542984 0.346925 Si
35 1 9.54937 1.37786 4.1089 -1.01145 -4.20196 0.480353 0.269135 0.665149 0.555841 Si
46 1 8.19664 2.77572 5.52592 2.54175 4.46052 -0.612809 0.275556 -0.834121 -0.528414 Si
5 1 1.41932 4.07164 4.12084 -7.01773 -0.59901 2.09759 -0.58582 0.233264 -0.627701 Si
31 1 1.32697 6.89135 6.80861 -0.800773 -4.52862 2.12276 0.945561 -1.47218 0.621537 Si
9 1 4.13078 4.07965 6.83389 2.83679 5.32048 3.2763 0.282489 0.21382 -0.406249 Si
19 1 4.06317 6.78509 4.04886 -2.05707 0.709539 3.84423 0.614538 0.344875 -0.0892502 Si
37 1 6.84543 4.00331 4.11521 -0.298035 -1.65399 -4.39773 -0.558533 0.532801 -0.396046 Si
60 1 5.50153 5.46324 5.38066 5.02191 2.63759 -5.86459 -0.511383 -0.467858 0.737559 Si
63 1 6.82917 6.82595 6.78809 1.29634 5.89025 0.0224228 0.0919043 0.608704 0.276019 Si
28 1 0.0183283 5.47148 5.41676 -0.739578 -0.942229 -0.322905 0.369965 -0.228203 0.679188 Si
41 1 9.50449 4.18903 6.84166 0.280795 -0.476366 5.10571 0.157174 0.130994 0.0793088 Si
51 1 9.61278 6.77763 4.03391 6.4125 -0.401769 -5.54827 -0.817283 -0.158915 -0.0410959 Si
21 1 1.37965 9.48869 4.00289 0.960344 -0.680606 0.129221 -0.252123 -0.348043 0.830182 Si
30 1 2.73914 8.15056 5.44425 3.29486 2.85264 -0.112561 -0.0951679 0.591001 -0.374423 Si
44 1 5.39795 0.0217029 5.39045 2.78924 4.43682 2.56851 0.631644 -0.482581 -0.458263 Si
25 1 4.06851 9.5864 6.78453 -1.90606 -1.64815 3.06285 -0.341549 -0.187787 -0.0582982 Si
53 1 6.82646 9.46144 4.02357 -8.59364 -0.640404 -0.528657 -0.00496747 1.7193 0.199142 Si
57 1 9.58858 9.4384 6.81992 -0.769679 -0.935068 -4.30635 -0.885515 0.405602 -0.134447 Si
62 1 8.24104 8.15529 5.36004 2.31025 -7.24515 -3.24425 -0.253957 -0.453122 0.698059 Si
6 1 2.63005 2.62031 0.136567 2.94381 -1.47245 1.51305 0.375103 0.999861 -2.32565 Si
16 1 2.68917 0.0771333 8.1193 -4.19633 -1.33667 3.41991 -0.323579 -0.563834 1.01041 Si
36 1 5.37729 -0.0238606 -0.0131687 1.30564 2.30297 2.41483 0.667132 1.3855 -0.151603 Si
11 1 4.0518 1.42356 9.52274 -4.00939 -5.51018 -2.6891 -0.133003 -0.561008 0.335426 Si
42 1 5.51132 2.71568 8.19748 3.89078 -2.82778 -0.314336 -0.0322806 0.175248 -0.384165 Si
38 1 8.12173 2.77181 0.0506365 -1.50638 -2.03098 4.60113 0.828976 0.0250949 -0.686754 Si
10 1 -0.0690035 2.76038 8.14864 0.397086 0.0386511 2.80608 0.158748 -0.0106671 0.422742 Si
43 1 9.47815 1.38615 9.53529 -2.60163 -0.96426 2.03007 -0.231244 0.0238477 -0.107591 Si
13 1 1.35221 4.05759 9.51629 -3.24049 -0.115348 2.87443 0.261463 -0.479555 0.681904 Si
32 1 2.78419 5.42326 8.23105 -0.324166 -1.12647 0.588474 -1.04759 0.605648 -1.14373 Si
52 1 5.46843 5.42711 -0.00908644 -6.33452 -0.548913 0.550501 -0.736119 0.54949 0.124543 Si
27 1 4.09419 6.83092 9.53023 1.73032 -0.377826 0.154171 0.859452 -0.402422 -0.230303 Si
45 1 6.83781 4.15804 9.53922 -0.471609 1.25421 5.49242 -0.0061256 -0.761678 0.00956576 Si
20 1 0.00872441 5.41586 -4.11742e-05 -3.09775 -5.09573 0.969305 0.418496 -0.632789 0.699326 Si
59 1 9.62912 6.78027 9.57348 9.31777 -0.240075 0.0545081 -0.914561 0.855817 0.372262 Si
64 1 8.2021 5.55173 8.28453 1.03412 2.87094 -1.39975 -0.340286 -0.474248 -1.47759 Si
22 1 2.74608 8.1336 -0.0625267 1.80046 -0.996696 -2.15774 -0.829742 0.645324 1.36692 Si
29 1 1.30926 9.58218 9.62359 -6.99746 5.92475 0.652673 1.05848 -0.212944 -1.45827 Si
58 1 5.4058 8.24488 8.16258 -1.98187 -0.0790916 1.69136 0.646759 -0.531423 -0.294498 Si
61 1 6.78765 9.60556 9.518 -1.46498 -0.601528 0.51598 0.486983 -1.04674 -0.0201484 Si
48 1 8.18942 -0.00834738 8.0914 1.75077 1.55904 -1.35892 0.135015 -0.144963 0.583725 Si
26 1 0.0174631 8.17262 8.24831 0.125573 -4.47271 -2.05426 0.337687 0.239535 -0.144851 Si
ITEM: TIMESTEP
13900
ITEM: NUMBER OF ATOMS
64
ITEM: BOX BOUNDS pp pp pp
0.0000000000000000e+00 1.0887404739999999e+01
0.0000000000000000e+00 1.0887404739999999e+01
0.0000000000000000e+00 1.0887404739999999e+01
ITEM: ATOMS id type xu yu zu vx vy vz fx fy fz element
4 1 0.0569372 -0.0219395 -0.0255139 0.675024 -4.20751 0.423225 -0.137566 -0.84911 -0.414826 Si
7 1 1.40387 1.26924 1.33725 -1.7928 -2.27671 -3.60048 0.269169 1.50744 0.102479 Si
34 1 5.50435 2.78799 2.81786 -0.991953 6.35155 -2.81274 -0.0541064 -0.699232 -0.512073 Si
39 1 6.70902 1.33142 1.36499 2.02128 4.25405 -0.158326 0.800602 0.327596 0.105075 Si
2 1 0.0552253 2.70876 2.71435 -0.730137 2.22805 -5.62392 -0.661244 0.18554 -0.940737 Si
40 1 8.07401 -0.0788451 2.67007 0.246943 5.58405 -2.44712 1.30027 1.61803 0.923848 Si
23 1 1.23779 6.83992 1.36221 -4.937 0.00732553 1.4377 1.09058 0.116094 0.601307 Si
24 1 2.70839 5.47448 2.74683 0.579112 1.2291 -3.24115 -0.363097 0.15573 -0.424291 Si
1 1 4.18198 4.14944 1.47776 2.47746 -1.14757 3.10784 -1.05444 -0.220832 -1.15178 Si
55 1 6.74745 6.86959 1.30805 -1.52233 -2.48168 1.85345 0.954561 1.20119 0.11206 Si
33 1 9.50786 4.09495 1.28183 -0.934585 2.9604 3.70891 0.210466 -0.243315 0.45018 Si
56 1 8.17063 5.58761 2.64489 1.90909 -3.52517 -3.00849 -0.362298 -1.48982 0.561534 Si
8 1 2.77455 -0.00255541 2.72446 5.07947 -2.8849 5.88193 0.138716 0.573004 0.938062 Si
18 1 -0.020189 8.20333 2.87724 -1.48929 1.86129 1.63752 -0.000621178 -0.386649 -0.796895 Si
17 1 4.0517 9.50497 1.42306 -0.700112 5.30135 -0.881671 0.0231509 0.323409 -1.41011 Si
50 1 5.33505 8.17029 2.73455 4.18414 1.56811 0.444215 2.2379 0.413504 0.0891105 Si
49 1 9.58556 9.51389 1.43282 -4.69949 -4.59784 -0.881079 -0.0672389 0.249753 -0.921664 Si
54 1 8.29133 8.20279 -0.0707864 3.75976 -0.697968 -0.654404 -1.67168 -0.145565 1.33584 Si
12 1 0.0634567 0.0343614 5.43209 -1.11418 -2.41205 -3.09939 -1.29023 0.0597571 0.208634 Si
14 1 2.70945 2.66165 5.44143 -1.62223 -0.625416 -2.7245 -0.0163163 -0.0502581 -0.377449 Si
15 1 1.38399 1.30473 6.81978 -3.80651 -5.56737 2.93226 0.262517 0.625898 0.57534 Si
3 1 4.20723 1.3621 4.15132 3.89629 -1.85383 -4.46942 -1.44301 -0.0199145 -0.816189 Si
47 1 6.78391 1.32999 6.81919 3.60719 -6.10291 -1.69925 -0.761517 0.0124672 0.412146 Si
35 1 9.52613 1.44722 4.10645 4.18339 4.60044 -3.96333 -0.641078 -1.64934 -0.703999 Si
46 1 8.05216 2.66532 5.48219 -0.177149 -0.177857 0.765138 1.07241 0.771552 -0.861637 Si
5 1 1.36448 4.06056 4.07999 -1.59719 0.234683 -4.54826 0.00718238 0.402911 0.304352 Si
31 1 1.30091 6.83948 6.77915 -5.02882 5.76633 -7.53623 -0.256901 -0.0439568 0.00831715 Si
9 1 4.04638 4.01373 6.74583 -2.60613 1.50567 1.73156 -0.184629 0.935878 1.32767 Si
19 1 4.12807 6.80429 4.05313 -3.61933 -0.459393 -0.063908 -1.13287 -0.570605 0.972909 Si
37 1 6.83536 4.13681 4.12724 -0.487397 -4.71333 -0.740008 0.284863 0.698211 -0.352863 Si
60 1 5.40632 5.43463 5.49661 1.00965 2.7605 1.39611 0.520408 0.10593 -0.629534 Si
63 1 6.83673 6.7415 6.84036 -5.0823 -5.78793 1.66065 -0.017935 -0.145692 -0.677476 Si
28 1 -0.0814282 5.44474 5.40439 -0.451292 0.329984 -1.83535 0.98612 0.253147 -0.207766 Si
41 1 9.47731 4.08225 6.67012 0.521473 -0.0379806 -6.89348 0.121216 -0.885604 1.31033 Si
51 1 9.4265 6.85577 4.15931 -1.22306 -0.895013 5.39978 0.561726 0.130936 -0.48215 Si
21 1 1.38773 9.58721 4.11132 -0.250064 4.05616 1.08511 0.32503 -0.311143 -0.336225 Si
30 1 2.70689 8.14397 5.38015 -5.27437 -2.43582 2.51687 0.429295 0.192139 0.762335 Si
44 1 5.44381 -0.0328026 5.48665 -2.18592 -2.2692 -0.255928 0.421978 0.0578806 0.187594 Si
25 1 4.13539 9.45893 6.80057 -0.0336757 -0.811192 3.75855 -0.321272 -0.511703 0.0609236 Si
53 1 6.79265 9.55593 4.12729 9.6611 -3.47944 -0.488688 -0.68664 -1.13723 -0.425567 Si
57 1 9.527 9.58228 6.81773 2.84682 1.49027 1.65757 -0.0348175 0.406084 -0.459037 Si
62 1 8.13369 8.2163 5.52721 -6.13722 0.47565 4.33795 -0.202906 -0.154492 -0.150455 Si
6 1 2.76172 2.78051 0.00968818 -1.07227 1.82692 3.07086 0.384227 -0.32223 1.20946 Si
16 1 2.8193 -0.0386995 8.17153 3.24441 -0.188805 -1.88578 0.0574458 0.669307 -0.260615 Si
36 1 5.45754 -0.0579283 -0.00693699 -2.66865 -1.38977 0.709765 -0.248351 -0.609344 -0.0832017 Si
11 1 4.13699 1.39457 9.59185 -3.64957 3.12827 2.51166 -0.482183 -0.602119 -0.589122 Si
42 1 5.42953 2.71394 8.16519 -4.49428 -3.53401 3.19154 -0.0239416 0.0328578 -0.140189 Si
38 1 8.12383 2.62499 -0.0521393 4.66546 0.895896 2.07822 0.102507 0.681858 0.831097 Si
10 1 -0.0182335 2.76401 8.12127 1.81389 0.6276 1.37438 0.446506 -0.118327 0.144181 Si
43 1 9.55245 1.33755 9.51114 2.65926 3.45669 2.6706 -0.0421735 0.00247701 -0.338989 Si
13 1 1.41484 4.11821 9.5519 2.05604 3.10965 -0.703917 -0.50773 0.0269162 -1.0929 Si
32 1 2.72594 5.53514 8.15503 -2.49581 -0.56283 2.90101 0.263647 -1.06441 -0.328423 Si
52 1 5.45678 5.50971 0.00799277 5.3184 -2.45361 2.62136 0.0620427 -1.25681 0.175945 Si
27 1 4.15932 6.8068 9.53958 -6.09969 3.34798 -1.26531 -1.38403 0.410664 0.0956761 Si
45 1 6.76166 4.05473 9.55557 2.59988 -0.921849 -1.25929 0.318087 0.16986 -0.410239 Si
20 1 0.00305105 5.48763 -0.0800838 0.932002 -1.64243 0.629145 -0.710175 -0.401624 0.435528 Si
59 1 9.41396 6.75902 9.4829 -2.82799 -2.45973 -0.821075 1.64476 -0.039333 -0.572155 Si
64 1 8.16371 5.33671 8.12096 -3.30219 -0.455474 -1.0699 -0.478212 0.145142 0.463871 Si
22 1 2.6955 8.17938 0.0110441 -0.0172712 0.0130115 -4.64336 0.228685 -0.513077 -0.199795 Si
29 1 1.42305 9.47655 9.38916 7.79776 -2.64165 3.19911 -0.620928 0.530672 1.7057 Si
58 1 5.51438 8.04783 8.15252 1.78051 -2.93682 -0.681982 -0.545382 1.05429 -0.0745221 Si
61 1 6.84848 9.44738 9.44583 -0.603944 2.45543 -2.49074 -0.280772 0.761407 0.86496 Si
48 1 8.12537 0.020274 8.14902 -0.923286 2.54932 2.7798 0.774402 -0.230123 0.277764 Si
26 1 -0.091487 8.21273 8.17292 7.12367 4.65933 2.97468 0.385821 -1.13768 -0.411346 Si
ITEM: TIMESTEP
14000
ITEM: NUMBER OF ATOMS
64
ITEM: BOX BOUNDS pp pp pp
0.0000000000000000e+00 1.0887404739999999e+01
0.0000000000000000e+00 1.0887404739999999e+01
0.0000000000000000e+00 1.0887404739999999e+01
ITEM: ATOMS id type xu yu zu vx vy vz fx fy fz element
4 1 -0.0156636 -0.0118142 -0.0194877 -1.00806 1.15039 -3.29633 0.442619 1.54899 0.876297 Si
7 1 1.45218 1.43171 1.43921 -0.116349 -3.12049 2.8843 -1.55367 -0.43608 -1.1105 Si
34 1 5.33585 2.63642 2.67787 0.41023 1.45183 3.9819 0.742518 1.3713 0.168219 Si
39 1 6.83726 1.43408 1.38819 -3.65568 -2.98293 0.629207 0.554531 -0.756316 -0.444749 Si
2 1 -0.016361 2.78663 2.80681 -2.78008 -2.29002 6.98016 0.24549 -0.917164 0.19333 Si
40 1 8.2119 -0.0612831 2.74547 -2.05951 -2.08761 3.68028 -1.1534 0.141401 -0.477636 Si
23 1 1.48445 6.88733 1.36617 4.80744 0.266516 -3.68724 -1.3366 -0.953563 -0.0713897 Si
24 1 2.75319 5.41779 2.70286 1.31843 -3.67997 -2.04334 0.226516 0.705495 0.0650694 Si
1 1 3.99832 4.00117 1.29426 -0.221829 -3.58619 3.72526 0.81633 0.546921 0.778205 Si
55 1 6.81958 6.77781 1.32239 2.54877 0.258366 1.51385 -1.16533 -1.69215 0.895948 Si
33 1 9.57727 4.09264 1.34344 -1.94602 -3.31465 -1.36576 -0.677932 0.485526 0.962681 Si
56 1 8.09657 5.35957 2.77369 0.863697 0.171546 -3.86988 0.962326 0.619205 -0.555101 Si
8 1 2.68422 -0.0377112 2.75487 -2.17192 1.83406 -4.27539 0.295598 -0.574987 -0.975218 Si
18 1 -0.0171397 8.17721 2.65542 5.13737 -3.51233 1.27645 0.225461 -0.65323 0.100987 Si
17 1 4.1633 9.51969 1.41752 -4.31378 -3.4244 0.156371 -0.0958632 0.693719 0.0524599 Si
50 1 5.54728 8.13098 2.73541 -7.88542 -0.0789998 -3.21017 -1.27247 -0.273836 0.0358855 Si
49 1 9.54749 9.52125 1.29291 -0.646407 0.781813 6.33588 -0.873742 -0.29701 0.54287 Si
54 1 8.04454 8.15139 0.0615852 -1.58738 3.10457 -2.07785 2.01918 0.450066 -1.16311 Si
12 1 0.0132516 -0.0500224 5.47613 0.196132 -0.139943 -2.91714 0.032595 0.095218 -0.133305 Si
14 1 2.74317 2.67144 5.34834 1.49929 -3.59925 3.10521 -0.139295 1.13253 0.89105 Si
15 1 1.38847 1.37736 6.77435 -2.74288 -0.631859 2.2188 -0.404059 -0.238334 -0.176272 Si
3 1 4.00882 1.32409 3.97909 4.0337 -0.590499 0.571503 0.947484 -0.310652 1.40221 Si
47 1 6.87747 1.41962 6.85131 -0.990738 2.07178 1.62299 0.148848 -0.985137 -1.14975 Si
35 1 9.47062 1.24713 4.16378 -0.322299 0.683457 3.22803 1.19222 1.38704 -0.623639 Si
46 1 8.18398 2.71888 5.45552 -1.32198 -1.39176 -2.37269 -0.0153874 0.432799 0.193914 Si
5 1 1.39287 4.20067 4.1309 0.69587 0.331508 -1.21707 -0.00688613 -1.62403 -0.52879 Si
31 1 1.44889 6.70834 6.85289 7.93047 -0.462944 5.38001 -0.0355347 1.66905 -0.49211 Si
9 1 4.11325 4.06875 6.78498 5.98437 0.310062 -3.91908 -0.337077 -0.355333 -0.586177 Si
19 1 4.09598 6.80216 4.11118 3.41 -1.75749 0.994253 0.20409 0.279398 -0.535217 Si
37 1 6.70559 4.03527 4.12953 -0.723505 4.11604 1.17561 0.145978 -0.492608 -0.437513 Si
60 1 5.46951 5.4837 5.49306 5.836 0.0461406 3.08342 -0.417302 -0.172143 -0.19654 Si
63 1 6.81743 6.86612 6.8074 5.39023 5.10818 -1.55271 -0.615919 -0.101814 0.157392 Si
28 1 0.0622215 5.42867 5.51341 1.04777 3.83945 6.04963 -0.894563 0.237191 0.150618 Si
41 1 9.52855 4.08332 6.88767 -1.61103 6.57851 2.18385 0.0490916 0.163388 -1.41822 Si
51 1 9.60275 6.76176 4.07286 -5.69065 -3.54359 -1.50832 -0.908561 -0.0750947 0.146607 Si
21 1 1.30192 9.48543 4.02165 2.89381 -1.9703 2.0078 -0.0914286 0.68447 0.556286 Si
30 1 2.72017 8.27125 5.38088 0.773803 0.460847 2.41496 -0.113597 -1.66768 0.969398 Si
44 1 5.48472 0.120845 5.45192 -4.75173 -2.47933 -2.18502 -0.889237 -0.549537 -0.0320936 Si
25 1 4.04245 9.60807 6.79063 -2.11242 -0.435222 -4.69078 0.177689 0.422399 -0.084803 Si
53 1 6.74293 9.5149 4.13023 -1.74276 5.71276 2.84694 1.40921 0.304642 0.013933 Si
57 1 9.48189 9.54488 6.81557 -1.2713 -2.97004 -1.77727 0.645702 -1.05751 0.166004 Si
62 1 8.1704 8.12392 5.45216 1.24488 0.912785 1.41603 0.403916 0.657916 -0.685416 Si
6 1 2.74532 2.73175 -0.0906049 2.98007 0.0540603 -1.34622 -0.660798 -1.13808 -0.212202 Si
16 1 2.62451 0.00944893 8.20568 1.50095 -2.64164 2.79304 0.525177 -0.395352 -0.634497 Si
36 1 5.46228 0.0542423 0.00638246 0.10456 -0.0684707 -5.40174 -0.102828 -0.10458 0.369447 Si
11 1 4.10684 1.30882 9.41522 3.35534 0.141341 0.617394 0.384011 1.20752 0.541334 Si
42 1 5.53679 2.73626 8.04542 3.70813 1.48628 2.08297 -1.26897 0.097079 1.63243 Si
38 1 8.19483 2.84428 -0.0228916 -2.26188 1.49559 0.420952 -0.220084 -1.44366 -0.503204 Si
10 1 -0.000805176 2.69376 8.12697 -6.10004 2.04328 -3.05072 -0.250884 -0.414548 0.559944 Si
43 1 9.4832 1.30799 9.47138 -3.54016 -0.116791 -3.10909 0.511323 1.10506 0.85493 Si
13 1 1.27227 4.05142 9.53091 0.749623 -3.46803 0.755373 0.470449 0.526014 0.106076 Si
32 1 2.7579 5.34996 8.20791 -1.21063 8.61303 -2.19662 -0.0815504 0.243832 0.262929 Si
52 1 5.36064 5.34783 -0.0283633 -3.76683 2.69754 -0.154634 1.32613 0.75936 0.0515251 Si
27 1 4.08723 6.79686 9.54653 4.86648 1.60187 -1.87855 -0.347547 0.399115 -0.305103 Si
45 1 6.83598 4.12765 9.41679 0.310799 -0.99775 0.341292 -0.482682 -0.0252267 0.748225 Si
20 1 -0.0363056 5.51092 0.0242865 1.68536 -2.25212 2.67646 1.19128 0.11599 -0.046425 Si
59 1 9.49431 6.83243 9.53754 -5.08395 -0.851789 1.90382 -0.739093 -0.00325449 0.422042 Si
64 1 8.16355 5.51759 8.10803 -0.538853 2.772 -2.96053 0.270795 -0.128551 0.711556 Si
22 1 2.78412 8.25085 0.0502341 -2.79955 4.2668 2.0564 0.151307 -0.410562 -0.817917 Si
29 1 1.3139 9.53436 9.59577 0.847626 1.42637 -6.44571 0.31924 -0.887533 -0.898895 Si
58 1 5.39485 8.22499 8.1322 2.98849 0.638693 -5.68157 0.255839 -0.35107 0.554467 Si
61 1 6.76959 9.51787 9.59157 -0.305877 -3.69717 -0.689761 -0.185863 0.313383 -0.956069 Si
48 1 8.14069 -0.0200788 8.17144 -0.412105 -5.52286 -3.02514 -0.473381 -0.368376 0.296528 Si
26 1 -0.0159171 8.08672 8.17093 -1.42608 1.23898 -1.20405 0.518595 1.05898 -0.178943 Si
ITEM: TIMESTEP
14100
ITEM: NUMBER OF ATOMS
64
ITEM: BOX BOUNDS pp pp pp
0.0000000000000000e+00 1.0887404739999999e+01
0.0000000000000000e+00 1.0887404739999999e+01
0.0000000000000000e+00 1.0887404739999999e+01
ITEM: ATOMS id type xu yu zu vx vy vz fx fy fz element
4 1 -0.0483104 0.0100778 0.0180007 5.4089 4.01643 0.637797 0.0201386 -0.540903 -0.569419 Si
7 1 1.32734 1.34075 1.32194 3.52093 7.13531 3.97798 0.766274 -0.139717 1.0049 Si
34 1 5.37989 2.75763 2.75053 -0.0673561 -3.5994 -0.460025 0.890391 -0.844827 -0.342818 Si
39 1 6.77015 1.30538 1.38797 -0.795568 2.00442 -0.487815 -0.670537 0.231937 -0.259058 Si
2 1 -0.0280581 2.68251 2.69878 -0.119414 -1.28759 -5.229 0.432686 0.274742 -0.225758 Si
40 1 8.22004 0.00467938 2.69468 1.46914 1.58018 0.611679 -0.570948 -0.434725 0.375122 Si
23 1 1.29773 6.65844 1.38166 2.11526 2.65069 -0.387037 0.683403 1.42321 -0.271278 Si
24 1 2.69318 5.42395 2.6974 -1.9156 6.7596 0.749722 -0.197631 -0.661935 0.853891 Si
1 1 4.10629 4.13543 1.41062 -0.793636 1.8832 -3.19066 -0.252382 -0.45512 -0.529603 Si
55 1 6.85107 6.86489 1.34373 2.28736 -2.59531 -4.69937 -0.0508103 0.295175 0.265458 Si
33 1 9.51196 4.0889 1.36892 3.17916 0.660914 1.69735 0.0256729 -0.824887 -0.800315 Si
56 1 8.22751 5.50347 2.67335 -5.71046 -2.77559 7.05713 -0.290504 0.125107 0.701025 Si
8 1 2.76911 -0.0242292 2.75141 1.30012 1.70587 0.251694 -1.20246 1.52247 -0.336451 Si
18 1 0.0940573 8.22657 2.61952 -2.37075 -0.394463 0.0276951 -0.382467 -0.274817 0.908037 Si
17 1 3.92305 9.54303 1.31313 3.39704 0.986333 -1.5095 1.02206 -1.24163 -0.105097 Si
50 1 5.36516 8.20524 2.64877 6.39055 -0.0559038 4.12318 0.168554 -0.325534 0.22892 Si
49 1 9.49321 9.47151 1.34314 5.18929 4.27251 -5.98441 1.11575 1.30143 0.309854 Si
54 1 8.25784 8.18983 -0.011481 -4.55169 -2.28865 -2.39841 -1.06299 -0.598081 -0.137435 Si
12 1 0.0330039 0.0491679 5.42235 -3.14657 2.14859 3.26517 -0.0299337 -0.114599 0.17277 Si
14 1 2.75471 2.81939 5.48829 1.12967 -2.25493 -5.72353 -0.3546 -1.05 0.210073 Si
15 1 1.34407 1.41779 6.80143 4.18546 -1.68627 -2.35807 0.285778 0.103532 0.00711002 Si
3 1 4.03502 1.41616 4.11753 -2.33818 -0.743699 -2.64948 0.165705 0.019942 -0.251364 Si
47 1 6.72104 1.36717 6.76824 -1.99681 1.14417 0.380376 0.829756 1.18174 0.846082 Si
35 1 9.57646 1.34834 4.06507 -1.85035 -2.49181 -0.389112 -0.814584 0.377001 0.448653 Si
46 1 8.24713 2.76476 5.49814 2.24165 1.49797 -4.06095 -1.1522 -1.0582 -0.895292 Si
5 1 1.35866 3.99157 4.07135 -1.47845 1.55528 -1.92976 -0.278134 1.0937 -0.172908 Si
31 1 1.27221 6.80759 6.72989 -4.50103 1.18134 -0.168785 0.59455 -1.38458 0.693649 Si
9 1 4.10988 4.10522 6.8743 -1.76439 -1.23999 2.40411 0.387205 0.029876 -0.625355 Si
19 1 4.02587 6.77415 4.03322 -4.23654 0.482391 3.77728 0.560354 0.438451 0.302351 Si
37 1 6.85715 4.05666 4.00651 1.59039 1.2104 -0.494623 0.232691 0.652971 0.857313 Si
60 1 5.45084 5.42547 5.39525 -2.23989 1.11524 -2.1699 -0.0588648 -0.391129 0.0105755 Si
63 1 6.83809 6.68308 6.81226 0.438468 -1.6757 2.49728 0.00511021 1.1732 -0.319544 Si
28 1 -0.0697366 5.3475 5.42854 -1.26463 0.205989 -1.37472 0.584494 0.675708 -0.382819 Si
41 1 9.54024 4.04462 6.89832 -1.16089 -7.16042 3.21883 0.0227527 0.590148 0.050927 Si
51 1 9.63184 6.89588 4.02749 0.268631 1.46475 1.87562 -0.65383 -0.787199 0.203017 Si
21 1 1.37752 9.59866 4.07335 -0.0134174 1.10395 2.22351 0.132978 -1.13195 0.213366 Si
30 1 2.6669 8.10043 5.4462 1.83978 4.28571 -4.13475 0.879897 1.41647 -0.243227 Si
44 1 5.43148 0.0730363 5.39335 3.4999 1.59151 3.51057 -0.147264 -1.5028 -0.0203425 Si
25 1 4.1117 9.54945 6.85002 2.09731 -1.24683 2.58569 0.0244588 -0.661599 -0.449862 Si
53 1 6.81292 9.50095 4.02289 -3.44159 -2.4103 4.58472 -0.494423 0.661273 0.243009 Si
57 1 9.53565 9.58089 6.74359 1.27366 2.51878 -0.114437 -0.400106 -0.303456 0.435605 Si
62 1 8.14614 8.13647 5.4116 -0.044432 -1.27909 1.4219 0.43977 0.0857259 0.253941 Si
6 1 2.74939 2.73121 0.0601355 -0.21621 -3.29698 -0.511627 -0.466036 0.547204 -0.0430654 Si
16 1 2.67495 0.0446166 8.16271 1.03102 0.460733 1.6796 0.292583 -0.403542 0.353005 Si
36 1 5.36566 -0.085617 -0.00939392 -1.5061 -0.00915791 2.54674 0.716989 0.958248 -0.456281 Si
11 1 4.01499 1.42033 9.54879 0.338371 -4.32228 -1.05165 0.23943 -1.52756 0.483194 Si
42 1 5.3782 2.71535 8.27898 -0.914988 2.70553 -3.57685 1.1265 0.450154 -1.23508 Si
38 1 8.13439 2.63616 -0.0200851 0.147972 2.46119 -2.05696 -0.122307 1.34806 0.921928 Si
10 1 0.0152297 2.71907 8.23676 2.96996 -1.78126 0.334109 0.326034 0.19366 -0.630592 Si
43 1 9.53448 1.42336 9.52948 1.83244 -1.40931 1.4323 -0.222726 -1.34247 -0.0825672 Si
13 1 1.405 4.06536 9.51883 -2.53419 -0.0992263 2.6583 -0.046691 -0.31499 0.636613 Si
32 1 2.69198 5.39675 8.14172 0.563058 -4.75873 -1.96735 -0.114325 1.60184 -0.00543481 Si
52 1 5.51994 5.44474 0.0942816 -0.105368 -6.27925 -1.67769 -1.10278 0.69775 -1.16071 Si
27 1 4.02659 6.83229 9.55163 -0.171342 0.692099 4.70233 1.28238 -1.10297 -0.190492 Si
45 1 6.80955 4.10707 9.56221 0.86238 2.31795 -2.10577 -0.0934493 -0.690174 0.224017 Si
20 1 0.0481744 5.38292 0.00192223 -3.87853 8.02989 -0.0849189 -1.03478 -0.292768 -0.402825 Si
59 1 9.57112 6.81344 9.58634 5.84702 1.62377 -8.0432 0.650592 -0.160626 -1.12103 Si
64 1 8.18396 5.43592 8.22801 -0.939479 -5.06191 -1.0052 0.474626 -0.130933 0.0649738 Si
22 1 2.61058 8.06321 0.00986972 1.54026 -1.48641 4.87379 0.208411 0.428266 0.49572 Si
29 1 1.36343 9.49909 9.57151 -2.58454 -7.73609 1.48067 -0.498312 0.665268 -0.654934 Si
58 1 5.58841 8.13498 8.22722 -3.0184 1.9423 0.576641 -1.21029 0.226315 -0.521558 Si
61 1 6.95441 9.56008 9.52284 -4.43758 0.448114 2.05479 -1.43316 -0.217577 0.511732 Si
48 1 8.14459 0.0691961 8.14527 2.03255 1.73662 3.56055 0.875321 0.101633 -0.58568 Si
26 1 0.0423215 8.19534 8.10707 -3.87932 -6.15316 -4.78354 -1.05377 0.0190779 0.741364 Si
ITEM: TIMESTEP
14200
ITEM: NUMBER OF ATOMS
64
ITEM: BOX BOUNDS pp pp pp
0.0000000000000000e+00 1.0887404739999999e+01
0.0000000000000000e+00 1.0887404739999999e+01
0.0000000000000000e+00 1.0887404739999999e+01
ITEM: ATOMS id type xu yu zu vx vy vz fx fy fz element
4 1 -0.0523299 -0.0896368 0.0381813 2.43077 2.68233 1.94859 0.66944 0.600391 -0.0147565 Si
7 1 1.38888 1.28372 1.36011 -3.9415 -4.38297 -3.89427 -0.397269 0.722188 -0.524583 Si
34 1 5.44197 2.73358 2.75531 -0.83763 3.16308 1.20048 -0.11338 -0.0554633 -0.472158 Si
39 1 6.84598 1.39893 1.33349 0.969502 -1.68291 -3.1295 0.381521 0.275744 0.382565 Si
2 1 0.0765346 2.71198 2.70044 4.8601 -1.62877 1.29291 -0.39841 0.728406 -0.395907 Si
40 1 8.20638 0.0169769 2.73936 -1.18201 4.40895 0.302315 0.0104564 0.729668 -0.693535 Si
23 1 1.35573 6.92812 1.39895 -2.67934 -6.80051 2.08092 -0.215121 -1.21944 -0.328545 Si
24 1 2.70665 5.52188 2.68182 -0.46986 -2.7825 -3.02261 0.314123 -0.263748 -0.0406634 Si
1 1 4.06627 4.12628 1.36456 0.235069 0.995479 -1.15458 0.483216 0.031048 -0.305797 Si
55 1 6.74792 6.81073 1.38449 -5.38622 -2.0985 5.39992 0.639904 -0.185832 -0.500557 Si
33 1 9.53642 4.1404 1.33502 0.233302 1.72871 1.02542 0.577757 0.0532526 0.388238 Si
56 1 8.12798 5.49371 2.7303 5.60366 0.662209 -2.88621 -0.516974 -1.23716 0.207105 Si
8 1 2.74582 0.0254371 2.73955 -2.39477 -1.25723 -2.25361 0.472098 -1.14717 0.0111347 Si
18 1 -0.0565301 8.13156 2.7415 4.63309 -2.49947 -2.83439 -0.620965 0.450532 0.430267 Si
17 1 4.19565 9.51883 1.3574 -3.16041 5.86059 -0.180942 -0.578036 0.965471 0.504824 Si
50 1 5.47455 8.15563 2.74784 -4.68144 2.05524 -3.30586 0.459608 0.752808 0.281955 Si
49 1 9.44224 9.45847 1.38438 -1.83752 -4.30587 3.32018 0.601353 0.137379 -0.0499997 Si
54 1 8.13543 8.11069 0.00156087 5.28796 -4.87727 -1.47479 -0.555588 0.164232 0.38298 Si
12 1 -0.0452999 -0.00992005 5.4258 1.49823 -3.73506 -0.0317454 -0.0479751 -0.201432 0.347828 Si
14 1 2.71365 2.63903 5.48987 -0.930947 5.6617 1.78605 -0.303917 0.648741 -1.50413 Si
15 1 1.27228 1.39365 6.76544 -2.88874 3.7736 -0.805104 0.877788 -1.13647 0.227778 Si
3 1 4.12256 1.33441 4.13291 -3.27245 -0.470686 1.70318 -0.50908 0.267216 -0.625239 Si
47 1 6.84164 1.3338 6.84543 0.955242 -1.20002 -4.11287 -0.685247 -1.23257 -0.321143 Si
35 1 9.5679 1.41815 4.05522 4.56848 3.2307 1.43889 -0.319995 -0.599294 0.126477 Si
46 1 8.11068 2.65058 5.4235 0.17916 2.37134 4.38581 0.869078 1.1155 0.279417 Si
5 1 1.44376 4.11389 4.03933 1.27806 -4.02412 1.17754 -0.466622 -0.414524 0.746054 Si
31 1 1.33934 6.84504 6.84246 -2.36186 4.76519 -0.860882 -0.25254 0.185491 -0.0407553 Si
9 1 4.05744 3.9763 6.74943 1.7255 -1.95275 -0.327357 -0.613976 0.767857 1.51963 Si
19 1 4.10046 6.8002 4.03369 1.14253 -0.233651 -3.7487 -0.384454 -0.117377 0.79382 Si
37 1 6.73651 4.08265 4.17072 0.918342 -4.02004 0.417483 0.687851 0.181565 -1.04059 Si
60 1 5.32804 5.37845 5.4813 -0.316561 -4.07068 -4.18905 0.736067 0.950513 -0.559519 Si
63 1 6.74196 6.78146 6.78303 -0.514882 -4.03405 -1.13513 0.265259 -0.0964934 0.544061 Si
28 1 0.0308777 5.50112 5.40375 -2.75344 -4.57775 -3.15088 -0.0365766 -0.322679 -0.0955931 Si
41 1 9.5327 4.13128 6.7186 -2.93862 3.77692 -1.39882 -0.297982 -0.845541 0.0754595 Si
51 1 9.41856 6.80012 4.12372 4.1059 2.17061 -2.44029 0.979377 0.572581 0.0426909 Si
21 1 1.3023 9.51257 4.06184 0.576439 1.74154 -4.15148 0.707848 0.112292 0.159763 Si
30 1 2.71357 8.12947 5.42285 -1.09428 -2.42159 5.2708 -0.380148 0.1972 -0.483479 Si
44 1 5.43464 -0.0847309 5.37899 -1.89471 2.49181 -2.48385 1.19604 1.13802 1.01891 Si
25 1 4.09025 9.49103 6.70111 -1.973 1.69693 -0.349952 -0.139042 -0.0190982 1.45414 Si
53 1 6.90084 9.58307 4.07236 3.14012 -3.34661 -3.79112 -0.887328 -1.14922 0.0840735 Si
57 1 9.56763 9.47711 6.90591 1.26999 -4.41727 1.38092 -0.0906907 0.641566 -0.723573 Si
62 1 8.15356 8.2183 5.52124 3.3897 2.01095 -1.79419 -0.123928 -0.555187 -0.210679 Si
6 1 2.684 2.77477 -0.00152371 -3.22453 -3.50478 4.72428 0.153723 -0.498658 0.0892372 Si
16 1 2.7778 0.0719289 8.09947 -3.84339 -0.341835 -5.13873 -0.226983 -0.285532 0.473193 Si
36 1 5.523 0.0405592 -0.0340326 -0.342999 0.649542 1.1049 -0.548059 -0.16344 1.14439 Si
11 1 4.15209 1.40644 9.59791 0.615203 5.49889 2.42963 -1.16016 -0.137604 -0.938474 Si
42 1 5.42568 2.69141 8.1418 1.96516 -2.49079 6.82422 0.00796355 -0.326184 -0.334112 Si
38 1 8.23185 2.77527 -0.0675123 -3.91839 -2.03168 -1.1352 -0.308685 -0.726036 0.0640267 Si
10 1 -0.0127713 2.73003 8.08604 -1.68976 0.202782 0.198587 -0.403113 0.642173 0.44369 Si
43 1 9.61942 1.33377 9.48788 -0.371486 1.89992 0.398197 -0.624978 0.329056 0.61494 Si
13 1 1.29777 4.09992 9.48762 -0.179184 -0.0109612 -0.776432 0.541159 0.0419312 -0.0395576 Si
32 1 2.69135 5.44567 8.12617 2.8677 0.554616 3.95808 0.473909 -0.722688 0.0749691 Si
52 1 5.49316 5.46422 -0.0629169 3.25406 0.629792 -1.376 -0.517046 -1.03015 0.776522 Si
27 1 4.07444 6.74322 9.54851 -1.68624 2.38384 -0.723432 -0.53734 0.981418 -0.218831 Si
45 1 6.75404 4.01388 9.44601 0.351858 2.35092 0.292734 0.988233 0.922278 0.568512 Si
20 1 0.0481894 5.53719 -0.0247679 1.79136 -2.43793 -1.59413 -0.74537 -0.245965 0.300948 Si
59 1 9.42359 6.77044 9.50568 -0.677638 -1.88901 4.42939 1.21713 0.302533 0.583947 Si
64 1 8.17169 5.40604 8.14819 3.26162 6.28123 9.34729 -1.00376 -0.0783327 -0.766481 Si
22 1 2.76677 8.17911 0.10827 -0.869286 -2.94365 -3.72827 0.300526 0.290277 -1.55794 Si
29 1 1.43137 9.57838 9.56388 -2.04216 4.53617 4.47843 0.236812 -0.282315 0.109979 Si
58 1 5.4297 8.15638 8.2056 -0.105871 -0.0881575 3.32073 -0.3107 0.0560882 -0.460877 Si
61 1 6.78427 9.51388 9.5966 4.4979 4.75286 -0.923141 0.728224 -0.30013 -1.0728 Si
48 1 8.2255 -0.0514084 8.23422 -2.20132 -3.01498 -5.83373 -0.73929 0.258737 -0.221628 Si
26 1 -0.0069558 8.19192 8.31151 1.05642 4.58561 4.49938 0.484263 -0.618417 -0.711617 Si
ITEM: TIMESTEP
14300
ITEM: NUMBER OF ATOMS
64
ITEM: BOX BOUNDS pp pp pp
0.0000000000000000e+00 1.0887404739999999e+01
0.0000000000000000e+00 1.0887404739999999e+01
0.0000000000000000e+00 1.0887404739999999e+01
ITEM: ATOMS id type xu yu zu vx vy vz fx fy fz element
4 1 -0.0292284 0.0765243 -0.0281369 -1.50463 -6.88402 0.318478 0.276864 -0.47285 -0.34464 Si
7 1 1.32516 1.41458 1.36264 5.87922 -2.5131 4.72217 0.0968427 -0.229831 -0.108795 Si
34 1 5.5041 2.65358 2.70778 0.731162 -1.10393 -0.957274 -0.691811 0.917014 0.427543 Si
39 1 6.74823 1.17952 1.37018 -2.6123 3.17635 2.39016 0.424461 1.24008 -0.0392837 Si
2 1 -0.0253292 2.689 2.84421 3.41611 0.379478 -2.59604 -0.360827 -0.0889569 -0.203545 Si
40 1 8.07698 -0.128209 2.74803 -0.960367 -5.89359 -1.91444 0.462856 0.336281 0.238317 Si
23 1 1.40546 6.7665 1.32818 -2.70659 5.99316 0.607545 0.253048 0.314386 0.840169 Si
24 1 2.72342 5.40327 2.8318 -1.56472 -2.05516 5.14163 0.119056 0.0364782 -1.06152 Si
1 1 4.07557 4.07404 1.35259 1.34768 0.66485 2.26945 0.0305182 -0.521339 0.513105 Si
55 1 6.86906 6.8855 1.28563 0.684923 3.18886 -2.96169 -0.906283 -0.560685 1.14824 Si
33 1 9.53487 4.02398 1.34869 -2.31937 0.71744 -3.87834 -0.812215 0.327854 0.489748 Si
56 1 8.0845 5.44684 2.73215 -0.833273 3.81037 1.96386 1.95818 0.514311 -1.39811 Si
8 1 2.70326 0.0270211 2.66456 -0.0734544 0.590042 0.142609 -0.119236 -0.375646 0.902634 Si
18 1 0.0371637 8.12506 2.71807 0.00290719 3.56353 3.57474 0.652812 0.485658 -0.562043 Si
17 1 4.06769 9.46723 1.39301 -0.581795 -5.67136 1.00248 -0.54194 0.053207 -0.405891 Si
50 1 5.4432 8.13029 2.74875 -1.31411 -0.882792 -1.99679 -0.553874 -0.658587 -0.94427 Si
49 1 9.62712 9.59706 1.39173 -0.669634 -1.61561 -1.4498 -1.01816 -0.803805 -0.0568071 Si
54 1 8.18067 8.27048 -0.00240499 2.05002 0.0613669 -2.65835 1.14662 -0.105775 -0.100192 Si
12 1 0.0219617 0.0179622 5.51362 0.62719 -1.76764 -1.01781 0.496572 -0.275805 -1.11661 Si
14 1 2.74746 2.75553 5.47917 -0.198241 -2.08744 2.72302 0.307629 -0.0657918 0.456405 Si
15 1 1.44108 1.37234 6.8064 1.91567 -1.32116 -2.73072 -0.775922 0.0172772 0.642534 Si
3 1 4.01359 1.41134 4.10652 -0.566913 -0.264942 -0.335149 1.15973 -0.771096 -0.405238 Si
47 1 6.7442 1.41041 6.82599 2.98186 3.39619 3.66018 1.2217 0.646351 -0.406504 Si
35 1 9.3993 1.24876 4.16746 -2.04727 2.4589 0.323475 0.997874 0.640136 -0.687812 Si
46 1 8.17691 2.76505 5.45547 -5.61189 -2.66754 3.39812 -0.656477 -0.320385 0.427386 Si
5 1 1.38912 4.05468 4.20802 2.01424 0.235619 -2.39223 -0.817728 0.239711 -0.864267 Si
31 1 1.4739 6.77353 6.87348 -0.488269 -2.918 1.06861 -0.226893 0.498432 -1.00156 Si
9 1 4.11691 4.15566 6.76453 -1.04314 -1.42546 -2.8112 0.467614 -0.202131 -0.76249 Si
19 1 4.13212 6.76071 4.12912 -0.264988 1.1568 -3.42499 0.0993902 0.129824 -0.780066 Si
37 1 6.83915 4.16205 4.08768 0.359079 -0.483099 0.818037 -0.836613 -1.60327 0.189816 Si
60 1 5.53674 5.51193 5.45871 0.404848 1.06504 5.36749 -0.0199845 -0.0727206 0.471403 Si
63 1 6.93544 6.90291 6.78788 1.57671 2.43083 1.45781 -0.644173 -0.154139 0.0587382 Si
28 1 0.0470093 5.45327 5.51773 1.11526 0.189411 -0.38411 -0.653531 -0.212077 0.161934 Si
41 1 9.51664 4.03572 6.91358 -0.549752 2.56011 -1.05136 0.296169 0.945109 -1.20774 Si
51 1 9.58311 6.7906 4.01337 -4.6189 -0.608699 1.21559 -0.261963 -0.825682 0.590635 Si
21 1 1.40137 9.47492 4.10676 -0.959355 1.36501 -0.828845 -0.506729 1.04295 -0.477526 Si
30 1 2.81884 8.16621 5.37604 -0.243129 1.03179 -8.18558 -0.680063 -0.306033 1.5957 Si
44 1 5.4698 0.0630438 5.50561 1.33017 -2.60879 1.10046 -1.6133 -0.141462 -0.896388 Si
25 1 4.07444 9.57103 6.80266 3.12969 -0.00669949 -1.7317 -0.13706 0.0892829 -0.223459 Si
53 1 6.62872 9.49112 4.09757 -0.748157 3.57059 2.14787 1.68225 0.467228 0.27682 Si
57 1 9.47251 9.57059 6.69928 -2.26608 4.14116 3.56945 0.0914418 -0.636162 0.692063 Si
62 1 8.23101 8.21369 5.26881 -0.138723 0.274501 1.48202 -0.752146 -0.146638 0.818395 Si
6 1 2.74658 2.65492 -0.0597324 1.55896 5.25373 2.14253 0.312031 0.386473 0.367548 Si
16 1 2.70179 -0.0257698 8.21405 2.98078 0.215996 2.77374 -0.204347 -0.237468 -0.763822 Si
36 1 5.39771 -0.0846404 0.0253777 -0.393804 -1.89413 0.898794 -0.122628 0.0596391 -0.944506 Si
11 1 4.15437 1.32142 9.42385 -3.24012 -2.5496 0.288269 0.0918103 0.763173 0.761828 Si
42 1 5.47678 2.88292 8.0769 1.43912 0.193394 -4.46733 -0.45395 -1.32536 1.30852 Si
38 1 8.02607 2.67157 0.00253472 1.74584 1.43476 0.280776 0.78902 0.0394172 0.347384 Si
10 1 -0.000869344 2.69839 8.17366 0.38514 1.22913 -1.77027 0.349964 -0.524831 0.517301 Si
43 1 9.42198 1.35063 9.50172 -1.31545 -4.53206 -1.93049 0.311656 0.286629 -0.125803 Si
13 1 1.38747 4.05732 9.53135 0.387477 4.25571 3.7902 -0.19283 0.495676 -0.103456 Si
32 1 2.84941 5.38529 8.16962 -1.48491 0.361076 -1.05915 -1.16441 0.596925 0.869557 Si
52 1 5.41998 5.49143 0.0443519 0.530483 3.80333 -0.301165 0.414923 0.0511035 -0.134633 Si
27 1 4.13965 6.81104 9.51123 2.86827 -5.40633 1.00473 -0.482716 0.417301 -0.0644444 Si
45 1 6.76589 4.15578 9.55797 -2.67098 -1.42145 -0.400244 -0.15219 -0.409193 0.135672 Si
20 1 -0.00396494 5.49246 0.0189004 -0.137271 2.04053 -1.96982 0.350663 -1.31865 -0.271479 Si
59 1 9.57617 6.86014 9.56576 -2.68694 -2.67097 -3.67684 -1.65507 -0.735594 -0.127544 Si
64 1 8.15349 5.42524 8.21303 2.54682 -6.62291 -3.96952 0.701135 1.13007 0.192281 Si
22 1 2.68601 8.18385 -0.0778217 -0.0298384 2.50418 4.57772 0.121017 -0.324498 0.224569 Si
29 1 1.21044 9.45942 9.42526 2.67552 0.212017 -4.70542 0.400145 0.569253 0.599442 Si
58 1 5.41976 8.23483 8.12734 2.78682 -3.18955 0.664889 0.813537 -0.920633 -0.0025343 Si
61 1 6.79073 9.51966 9.50932 -0.965797 -2.88001 -0.789623 -0.124106 0.504107 -0.133079 Si
48 1 8.10616 -0.00613493 8.09007 2.39281 5.26502 -0.983112 -0.00443019 0.0542634 0.523844 Si
26 1 -0.141513 8.07219 8.03968 -4.05459 1.15579 2.44256 1.24608 1.05149 -0.0634703 Si
ITEM: TIMESTEP
14400
ITEM: NUMBER OF ATOMS
64
ITEM: BOX BOUNDS pp pp pp
0.0000000000000000e+00 1.0887404739999999e+01
0.0000000000000000e+00 1.0887404739999999e+01
0.0000000000000000e+00 1.0887404739999999e+01
ITEM: ATOMS id type xu yu zu vx vy vz fx fy fz element
4 1 0.070143 -0.0229197 0.0155707 -2.94099 3.00638 -1.28056 -0.650486 -0.242854 0.0332744 Si
7 1 1.37876 1.33297 1.3448 -0.24398 -0.529321 -2.11082 0.303001 0.135769 0.78186 Si
34 1 5.44338 2.78583 2.71575 -5.53595 -2.87498 0.657267 -0.123428 -0.850227 -0.0857072 Si
39 1 6.88959 1.48611 1.33842 0.396716 -3.48846 -0.0664275 -1.24104 -0.542674 0.267299 Si
2 1 0.0593359 2.80652 2.64819 -4.75151 4.54848 5.98455 -0.21776 -0.822241 0.278479 Si
40 1 8.20081 0.0714573 2.60975 2.89155 -1.74894 0.899159 0.221818 -0.415393 0.63666 Si
23 1 1.29895 6.82475 1.40125 4.46134 1.84143 -2.11744 -0.447233 0.635886 -1.27699 Si
24 1 2.71981 5.5599 2.66114 2.55733 -0.0511019 -4.92115 0.110061 -1.05112 0.813112 Si
1 1 4.04961 4.10288 1.3454 -2.04486 -0.590356 -1.65236 -0.0930254 -0.0199859 -0.0841904 Si
55 1 6.71599 6.72279 1.41471 1.32527 3.19558 -4.22564 0.85877 0.37193 -1.27532 Si
33 1 9.54817 4.17196 1.38937 4.38678 -0.233634 -0.900788 0.0205358 -0.718892 -0.982468 Si
56 1 8.18763 5.48195 2.69386 -7.01203 -4.38804 -2.04497 -0.786904 -0.413436 1.72208 Si
8 1 2.72859 -0.0688926 2.76689 4.13664 -1.49091 4.93061 0.367226 1.38004 -0.54473 Si
18 1 -0.127151 8.25858 2.68105 -2.17639 1.31257 0.543989 0.917649 -0.902158 0.708165 Si
17 1 4.18547 9.57579 1.42079 0.49108 1.52949 7.48627 -0.144333 -0.528427 -0.383983 Si
50 1 5.53499 8.17976 2.75226 4.71497 -0.557402 3.6968 -0.450875 0.226237 0.215248 Si
49 1 9.46594 9.52442 1.28377 4.19384 0.379649 -0.0694825 0.534385 0.759882 -0.0135475 Si
54 1 8.17475 8.08883 0.0434368 -3.47961 1.6696 4.94015 -1.23255 0.0530279 -0.699883 Si
12 1 0.0173983 0.0168366 5.44729 2.41347 -0.774562 1.22117 -0.69004 0.374263 0.170946 Si
14 1 2.66713 2.78346 5.39347 2.42748 -4.53256 -5.70102 0.286588 -1.64897 -0.0829031 Si
15 1 1.4125 1.36946 6.80544 0.764455 -1.30359 0.572505 -0.722763 0.234995 -0.782227 Si
3 1 4.11964 1.34637 4.108 -0.495564 2.24437 -3.17681 -0.376218 0.381627 -0.278768 Si
47 1 6.88962 1.30317 6.81948 -2.05334 -4.88191 1.80096 -1.25706 0.167018 0.404774 Si
35 1 9.57789 1.3841 3.97832 -2.54825 -3.93029 5.5534 -0.104047 0.315275 0.878537 Si
46 1 8.14713 2.67087 5.46524 2.98142 -1.21312 1.01894 0.565956 -0.370263 -1.22634 Si
5 1 1.38065 4.11465 4.03397 -0.479163 6.57856 8.13734 0.156304 0.628223 -0.755965 Si
31 1 1.30778 6.78252 6.74966 1.63639 -3.77597 2.08768 -0.127693 -0.636806 0.336975 Si
9 1 3.92196 3.99087 6.83943 0.462069 0.106203 2.23153 1.11764 0.239393 0.214341 Si
19 1 4.07015 6.87774 4.05722 2.00483 -1.87486 2.24916 -0.621629 0.214223 0.483071 Si
37 1 6.77892 4.03664 4.13555 -4.72265 1.29662 2.32151 0.225107 1.16673 -0.450384 Si
60 1 5.19191 5.32156 5.40497 1.85942 3.0759 0.0490928 1.80257 0.583713 0.494647 Si
63 1 6.66543 6.67572 6.82947 3.03462 0.150553 0.653138 0.0120078 0.401459 -0.451401 Si
28 1 -0.0661751 5.36674 5.32926 1.91794 0.889712 1.54994 0.822786 0.968658 0.85075 Si
41 1 9.55502 3.99716 6.69313 -1.27232 -1.56187 1.73956 -0.0601642 0.546787 1.90663 Si
51 1 9.50453 6.8551 4.1355 6.13189 1.52072 -0.868137 -0.778531 0.284118 -0.489191 Si
21 1 1.28873 9.57697 4.04463 0.873824 -2.03021 -3.22192 0.247604 -1.10541 0.682805 Si
30 1 2.65507 8.2111 5.50405 -1.72322 4.07273 -1.24293 0.215902 -0.0708919 -1.3098 Si
44 1 5.5121 -0.0303279 5.43365 2.77514 9.87573 1.8165 -0.0404548 -0.654017 0.2115 Si
25 1 4.03381 9.52289 6.8695 -2.68068 1.57036 2.15795 0.920208 0.133425 -0.790062 Si
53 1 6.98792 9.50851 4.03641 -6.6703 -4.30967 -0.579748 -1.36241 0.773251 0.440646 Si
57 1 9.54767 9.53884 6.89651 -3.18609 0.14499 -4.30542 -0.0163814 0.361505 -0.496053 Si
62 1 8.09994 8.17954 5.58715 0.289826 -2.41058 0.548138 0.692592 -0.833708 -0.265651 Si
6 1 2.65326 2.74105 -0.00285598 2.98508 -0.373922 -6.55347 0.659371 0.187494 0.0225389 Si
16 1 2.67239 0.0100012 8.13544 -2.55465 1.3685 2.17253 0.953339 0.0133519 1.4736 Si
36 1 5.4872 0.0879233 0.0233629 0.352997 -1.44663 0.804408 0.219583 -0.203977 0.0587977 Si
11 1 4.05364 1.38564 9.57119 5.56618 2.99685 -6.24108 -0.523092 -0.70876 -0.323551 Si
42 1 5.3807 2.63438 8.15917 2.35996 -0.24219 -7.73077 0.997923 0.677275 -0.355889 Si
38 1 8.24934 2.73459 0.0102686 1.74709 2.17128 -1.77296 0.456214 0.733487 -0.219398 Si
10 1 0.0896972 2.70472 8.18507 -0.469703 0.63382 -1.1949 -0.913546 0.234715 -0.69891 Si
43 1 9.62247 1.36484 9.57763 -1.39263 0.65032 -1.61368 -0.0751341 0.0666451 -0.247766 Si
13 1 1.37256 4.12616 9.48854 -0.911486 -6.76358 -3.46236 -0.482653 -0.736049 0.702404 Si
32 1 2.67755 5.40621 8.16499 4.21294 -3.66453 -0.264915 -0.24207 1.01192 -0.705293 Si
52 1 5.45687 5.34809 -0.0642162 -4.50761 -3.17387 4.48187 -0.397691 0.604204 0.296115 Si
27 1 4.00624 6.74966 9.53429 -1.4941 2.32879 0.814185 0.966588 -0.391258 0.129854 Si
45 1 6.86423 4.01257 9.49977 1.35881 1.85297 -4.25383 -0.360415 -0.0191275 -0.491508 Si
20 1 -0.0369479 5.42956 -0.0842784 -2.52209 4.09162 1.92288 0.583975 0.774715 0.907407 Si
59 1 9.51088 6.79886 9.48261 -2.46407 4.12265 3.10985 0.662639 0.755185 0.140817 Si
64 1 8.20587 5.45503 8.15653 -4.9611 4.97055 -2.96386 -0.410374 -1.37464 -1.0117 Si
22 1 2.82827 8.13499 0.0715949 2.83872 2.0029 -2.62192 -0.849537 0.406412 0.531551 Si
29 1 1.45235 9.51337 9.61819 -1.07621 -2.33413 2.08382 -0.0396309 -0.149855 -0.671313 Si
58 1 5.37593 8.10884 8.21356 -1.10773 1.75852 -1.29281 0.593173 0.6395 0.125013 Si
61 1 6.84575 9.57596 9.54107 4.34964 -1.89163 -0.924622 -0.810143 -1.2865 0.522017 Si
48 1 8.20195 0.0327851 8.25655 -4.90313 -3.27361 -0.230602 0.692951 -0.0893858 -0.416718 Si
26 1 0.0856667 8.20893 8.18513 -2.5183 -6.24197 -0.629452 -0.535144 -0.655316 0.425692 Si
ITEM: TIMESTEP
14500
ITEM: NUMBER OF ATOMS
64
ITEM: BOX BOUNDS pp pp pp
0.0000000000000000e+00 1.0887404739999999e+01
0.0000000000000000e+00 1.0887404739999999e+01
0.0000000000000000e+00 1.0887404739999999e+01
ITEM: ATOMS id type xu yu zu vx vy vz fx fy fz element
4 1 -0.157549 -0.0312336 0.0291698 -1.43318 -3.05492 -2.94236 1.02941 1.02532 -0.0390274 Si
7 1 1.32312 1.35556 1.32219 -0.855907 -0.260214 0.500202 -0.274483 0.266452 -0.1689 Si
34 1 5.44157 2.69757 2.69438 -2.68109 4.62903 3.29081 0.195641 -0.0475839 0.640891 Si
39 1 6.82259 1.33614 1.42197 -2.59708 4.26561 2.00133 -0.298491 -0.527503 -0.754462 Si
2 1 -0.0598192 2.68446 2.71148 1.8455 -4.72615 -0.499894 0.770496 0.0258442 -0.15277 Si
40 1 8.18296 -0.000165047 2.77605 2.14602 -0.304818 -0.880603 -0.130885 0.297716 0.0697007 Si
23 1 1.34351 6.71428 1.35113 -3.74536 -4.93525 5.04563 1.31206 -0.356592 0.450467 Si
24 1 2.73935 5.23662 2.79935 -0.220242 3.27406 -1.71294 -0.0017969 1.98895 -1.13496 Si
1 1 4.14399 4.04774 1.35522 2.53615 -1.93154 3.01114 -0.0110969 0.911812 -0.204278 Si
55 1 6.79836 6.89259 1.43345 0.326508 0.719325 0.644135 0.636652 -0.439579 -0.309262 Si
33 1 9.48601 3.94687 1.2862 -0.328962 2.57543 2.30875 0.929185 1.09805 1.17566 Si
56 1 8.28599 5.44346 2.65942 7.09052 7.77604 -3.01417 -0.973459 -0.0924564 -0.122139 Si
8 1 2.67191 0.0103368 2.69217 -0.808986 -1.42457 2.1429 0.24978 -0.523604 -0.0478631 Si
18 1 0.117551 8.1514 2.71872 1.22975 0.8493 -6.56525 -1.14113 -0.238967 -0.108165 Si
17 1 3.98669 9.49594 1.23945 -2.72182 0.0898177 -4.45635 -0.349847 0.899424 0.127662 Si
50 1 5.27565 8.18515 2.60414 -2.64356 0.529818 -5.47703 1.35346 0.36559 1.27879 Si
49 1 9.51137 9.51817 1.46207 -3.52424 -7.07161 -2.95168 0.31291 -0.484999 -0.0928553 Si
54 1 8.20001 8.18371 0.0657174 3.67705 4.15823 0.712759 -0.15954 -0.0829515 0.320583 Si
12 1 0.0209558 -0.0113651 5.42008 1.73221 4.03702 -2.91767 0.195208 -0.0985295 0.363033 Si
14 1 2.74033 2.75905 5.54198 1.1453 3.38823 0.98963 0.286771 0.256704 -0.451786 Si
15 1 1.29257 1.44067 6.80874 -1.88212 3.76179 1.63949 0.25026 -0.707542 0.298221 Si
3 1 4.01107 1.38949 4.07002 2.307 -2.78757 3.78695 0.204942 -0.0283625 0.0310911 Si
47 1 6.76787 1.42549 6.77367 -2.93357 3.32983 -2.78253 -0.326431 -0.957683 -0.417821 Si
35 1 9.55738 1.37643 4.10801 2.69244 -4.44465 -4.10218 -0.668854 -0.43735 0.178129 Si
46 1 8.16449 2.74651 5.4369 -0.658822 1.24391 3.98064 0.599007 0.777833 0.28388 Si
5 1 1.3309 3.99987 4.10711 2.74349 -5.51539 -2.03271 -0.422586 0.102804 0.864298 Si
31 1 1.3591 6.75172 6.841 -1.16792 2.08985 -4.50445 0.114049 1.76093 0.599765 Si
9 1 4.21045 4.15887 6.85761 0.541752 -2.38186 -0.517738 -0.954402 -0.23782 -0.0534941 Si
19 1 4.09997 6.77339 4.03547 0.733193 -1.60218 -1.76728 -0.043618 -1.05937 0.377264 Si
37 1 6.86716 4.08236 3.98114 1.35494 -3.10815 -0.631676 -0.063842 0.178902 0.572273 Si
60 1 5.5858 5.47106 5.44478 -5.57946 -2.65947 0.620228 -1.31575 -0.590676 -1.31612 Si
63 1 6.81508 6.849 6.72022 -1.72704 -4.57287 -0.308868 1.44691 0.137191 1.24725 Si
28 1 0.0586191 5.49345 5.5123 -4.0159 -3.29521 0.974711 -0.671992 -1.1568 -1.21183 Si
41 1 9.53281 4.21336 6.86935 5.23811 -3.45247 -0.272016 -0.472519 -1.17401 -0.884467 Si
51 1 9.61122 6.77916 4.04654 1.3827 -0.755981 0.234566 0.45144 0.0282226 -0.047775 Si
21 1 1.40598 9.45701 4.10943 -3.64201 4.86252 0.32503 0.104994 0.814599 -0.128542 Si
30 1 2.71486 8.03367 5.41799 -2.32548 -5.47317 1.99268 0.623062 1.02358 0.776078 Si
44 1 5.36913 -0.0201265 5.38216 -2.21623 2.59041 -6.33237 0.920045 1.00573 0.208358 Si
25 1 4.1136 9.53213 6.76703 2.80946 1.35265 -2.05232 -0.851462 -0.964478 0.662369 Si
53 1 6.74681 9.54318 4.01389 5.23881 2.10594 -0.153881 -0.301874 -0.872929 -0.0525406 Si
57 1 9.55034 9.49881 6.78724 4.67489 3.45244 0.361689 -0.044304 -0.315796 -0.472062 Si
62 1 8.19832 8.12384 5.30577 -4.48786 1.31989 1.20822 -0.226667 0.965323 0.769325 Si
6 1 2.75249 2.79594 0.00476717 -0.594511 0.816726 3.85266 -0.843859 -0.967962 0.0386619 Si
16 1 2.71405 0.053788 8.14644 -4.10415 3.63279 -1.22037 -0.426726 -0.169642 -0.963606 Si
36 1 5.44728 -0.0129536 -0.030822 -5.00496 -3.28589 -6.89702 -0.185117 0.154424 0.155753 Si
11 1 3.9701 1.35686 9.53677 -1.09018 3.83605 2.38565 1.61449 0.195319 0.293449 Si
42 1 5.43933 2.68524 8.23579 -4.42245 -0.299845 6.61571 -0.208666 0.48231 -0.0693205 Si
38 1 8.1791 2.64204 0.0329938 -3.09767 -4.76017 -3.62414 -1.55418 0.0453153 -0.906854 Si
10 1 -0.0998582 2.74924 8.19158 -0.0995292 -1.35961 3.21646 0.8479 0.243515 0.136584 Si
43 1 9.45036 1.33537 9.50101 2.7204 1.44818 -1.77437 0.22293 -0.0841252 -0.038414 Si
13 1 1.40485 4.09314 9.4931 -0.277094 4.40168 0.282589 -0.415647 -0.568719 -0.0621437 Si
32 1 2.71181 5.50744 8.18527 -3.79507 0.215905 -0.209613 0.964459 -1.12198 -0.36318 Si
52 1 5.41486 5.63682 0.0582815 2.78706 -1.6419 -1.09337 0.379549 -2.09363 -0.177102 Si
27 1 4.09273 6.83027 9.47671 0.624528 1.74516 1.78482 -0.412805 0.916448 0.366698 Si
45 1 6.758 4.08025 9.61059 -0.887956 -0.486402 2.68189 0.578146 0.727255 0.0435396 Si
20 1 0.0549756 5.27683 0.0531862 4.30459 -3.4515 -4.50273 -0.706156 1.01023 -0.432902 Si
59 1 9.58937 6.80214 9.68792 -0.487665 -1.7138 4.0457 0.247354 -0.16979 -0.987273 Si
64 1 8.18707 5.51135 8.21752 4.17959 -0.0192812 2.82851 -0.853892 0.277359 0.54303 Si
22 1 2.602 8.1661 -0.109195 -3.77086 -3.85621 3.86091 0.366382 -0.304589 0.364197 Si
29 1 1.32083 9.70759 9.53423 -1.81517 -1.1124 3.63214 0.0271537 -1.12225 0.0952217 Si
58 1 5.52959 8.15794 8.1792 6.42953 -2.67574 1.23861 -0.848188 0.403204 -0.77761 Si
61 1 6.86465 9.48293 9.54721 4.30931 0.243 2.63609 0.175265 1.06541 -0.552415 Si
48 1 8.16987 0.0246488 8.04879 -0.171514 5.86217 5.36841 -0.642918 -0.609318 0.887054 Si
26 1 0.055794 8.22876 8.2653 5.01483 3.81796 -4.00406 -0.606725 -0.844176 -0.717342 Si
ITEM: TIMESTEP
14600
ITEM: NUMBER OF ATOMS
64
ITEM: BOX BOUNDS pp pp pp
0.0000000000000000e+00 1.0887404739999999e+01
0.0000000000000000e+00 1.0887404739999999e+01
0.0000000000000000e+00 1.0887404739999999e+01
ITEM: ATOMS id type xu yu zu vx vy vz fx fy fz element
4 1 0.0625217 -0.0217983 -0.0331417 -2.408 -0.534142 7.63382 0.498208 -0.469722 0.0858695 Si
7 1 1.38561 1.37933 1.36368 3.39972 -3.13777 -1.71112 0.167449 -0.194115 0.388919 Si
34 1 5.43109 2.68253 2.72518 -1.82131 -1.81276 -1.14583 0.448789 1.01693 -0.815886 Si
39 1 6.81999 1.35545 1.33491 3.11664 -4.72595 1.01157 0.681016 0.466016 0.330918 Si
2 1 -0.0742063 2.7661 2.71582 0.0426459 -0.261083 -0.905738 0.829262 -0.275329 -0.0310604 Si
40 1 8.16618 -0.0666987 2.69881 1.09964 -2.70645 0.305187 -0.610754 0.721262 0.0611946 Si
23 1 1.37978 6.95658 1.33483 0.563282 4.11675 -1.83943 -0.790327 -0.461213 0.978322 Si
24 1 2.74902 5.56764 2.72535 -2.11838 -3.10499 1.48192 -0.790423 -0.641378 0.188981 Si
1 1 4.06145 4.11099 1.3838 -3.0889 3.619 0.485266 -0.135078 -0.634488 0.281126 Si
55 1 6.90656 6.76879 1.27425 -0.925981 -1.79827 0.405637 -1.53369 -0.308784 1.09122 Si
33 1 9.51858 4.19694 1.41492 -1.97379 -0.372313 -3.65871 -0.679317 -0.440395 -0.0180535 Si
56 1 8.03021 5.40222 2.80743 -4.88205 -1.77873 2.85301 1.2027 0.445032 -0.525045 Si
8 1 2.81905 -0.0146436 2.76552 -0.185984 3.34595 -1.76129 -1.00036 0.10891 -0.313481 Si
18 1 -0.160332 8.23261 2.76499 0.736677 -1.05778 -2.20536 1.37225 -0.360438 -0.643247 Si
17 1 4.17053 9.46663 1.44543 3.11029 0.998801 -1.87525 0.617448 0.0334121 0.0841689 Si
50 1 5.64209 8.10269 2.8534 0.203891 0.347429 2.29171 -1.70461 -0.236098 -1.66633 Si
49 1 9.48529 9.54964 1.26225 -2.42944 4.12584 0.193877 -0.0746651 -0.377716 0.118206 Si
54 1 8.07191 8.18889 -0.0847752 -1.15269 -4.28291 -0.246161 1.30594 0.0613187 -0.706651 Si
12 1 -0.0714887 0.0245514 5.40665 -2.45546 1.54135 2.58805 0.0832385 -0.300416 0.416776 Si
14 1 2.74989 2.63232 5.40217 -0.841591 -1.64678 3.80682 -0.882439 1.03473 0.0964057 Si
15 1 1.36971 1.22284 6.80748 -2.80028 5.69566 -3.86807 0.563097 0.931566 0.130852 Si
3 1 4.20309 1.36025 4.06441 -3.50996 1.13319 0.758486 -0.887897 -0.855207 0.909567 Si
47 1 6.82216 1.33762 6.8532 4.6776 0.873028 3.51835 0.817252 0.686798 -0.127824 Si
35 1 9.47302 1.35444 4.04229 2.03094 4.14266 2.46375 0.412771 -0.193784 -0.540243 Si
46 1 8.20511 2.69261 5.39426 0.12361 -1.7888 -5.70765 -1.37329 0.216031 0.55979 Si
5 1 1.27463 4.16103 4.09283 3.98131 2.41879 -2.80697 1.88352 -1.04298 -0.74361 Si
31 1 1.42912 6.81796 6.7735 -0.0626046 -4.5567 2.15215 -0.0236909 -0.366399 -0.704778 Si
9 1 4.03179 4.14926 6.75412 1.37947 -1.54848 1.50703 0.446786 -0.957832 -0.238017 Si
19 1 4.11149 6.84187 4.15919 -3.6401 1.28472 -2.62036 -0.0920153 0.628091 -0.760565 Si
37 1 6.66403 4.09443 4.1453 -0.214303 3.10328 -0.164097 0.974333 -0.746601 0.101642 Si
60 1 5.44488 5.55268 5.48474 -0.55948 -3.15227 0.707607 -0.193294 -0.569311 0.671299 Si
63 1 6.79011 6.908 6.87535 -1.74991 -2.18852 -2.65442 -0.22081 -1.14347 -0.924712 Si
28 1 0.0357002 5.49492 5.4389 2.92137 3.46897 0.0728554 -0.758688 0.08032 0.365836 Si
41 1 9.63529 3.98019 6.71949 -0.380646 2.47635 4.36251 -0.455329 0.710987 0.692159 Si
51 1 9.45619 6.77995 4.11191 -1.81237 2.96847 -1.90602 -0.252597 0.138214 0.13491 Si
21 1 1.3123 9.55656 4.11166 -0.114984 -5.25018 -0.85908 0.195635 0.0744878 -0.672254 Si
30 1 2.72953 8.24215 5.44423 0.434281 -0.478151 -3.33833 -0.286323 -0.722217 -0.229853 Si
44 1 5.51708 0.0130969 5.5027 -1.92052 -6.23601 -0.908176 -1.36674 -0.318006 0.183933 Si
25 1 4.08332 9.46157 6.825 1.31704 -0.0341838 -2.19 0.402834 1.48826 -0.414317 Si
53 1 6.77859 9.55673 4.15858 1.10087 3.15159 -1.69173 1.64051 -0.0892435 -0.130722 Si
57 1 9.46944 9.55878 6.79477 -1.15189 -2.72761 3.19012 0.365582 -0.0679042 0.78858 Si
62 1 8.12712 8.16336 5.49357 3.15656 1.31268 -4.18879 0.235176 0.476432 -0.407457 Si
6 1 2.74785 2.72877 -0.0416927 -1.26086 4.0472 -2.08672 0.0447868 -0.172334 0.63285 Si
16 1 2.77622 -0.0775281 8.22125 1.92753 1.12918 -3.50672 -0.286211 0.11393 -0.77657 Si
36 1 5.45079 0.0136195 0.0377693 9.02556 3.30605 3.28829 -0.421447 -0.439019 -0.0431454 Si
11 1 4.12302 1.32698 9.51369 -1.05998 -2.71801 2.9887 -0.22349 0.540183 0.0962474 Si
42 1 5.40772 2.73419 8.0919 0.750858 1.45337 -0.202432 -0.0996696 -0.0771308 0.445962 Si
38 1 8.2403 2.79083 0.00332544 5.38935 4.01535 -2.73416 -0.518166 -0.384523 0.45491 Si
10 1 0.0989093 2.68327 8.20273 -0.341042 -1.13061 -3.80697 -0.664493 -0.404266 -0.801689 Si
43 1 9.61011 1.39636 9.60506 4.02462 -0.533746 -0.964528 -0.438077 -0.153325 -0.591298 Si
13 1 1.32372 4.06415 9.57241 -2.01502 -3.10388 -2.54173 0.291111 1.28945 0.0313395 Si
32 1 2.68975 5.42219 8.12255 -1.70567 -2.87564 -2.5402 -0.312688 -0.083888 0.948274 Si
52 1 5.45197 5.34731 0.0166734 3.4985 4.0216 -0.445891 0.13826 1.1573 -0.639361 Si
27 1 4.06066 6.7446 9.50409 -3.05823 -4.85632 1.307 0.515046 -0.2908 0.401332 Si
45 1 6.79418 4.02792 9.49709 -2.13084 -1.91873 -5.22517 0.0109225 0.0691551 -0.233639 Si
20 1 -0.0609452 5.55615 0.0519647 3.80401 4.99542 2.88641 0.689331 -0.131703 -1.03977 Si
59 1 9.48477 6.81628 9.38034 -1.3828 2.11623 -0.900385 -0.703476 -0.769336 0.545679 Si
64 1 8.07176 5.33533 7.99636 -1.34724 -4.37191 1.35713 1.51022 0.316306 1.15988 Si
22 1 2.82561 8.18286 -0.00065679 -3.17731 -0.302742 2.01471 -0.240494 -0.125358 -0.138461 Si
29 1 1.41664 9.39532 9.45629 1.35873 3.02734 2.91559 -0.655034 0.698409 0.695638 Si
58 1 5.37827 8.14666 8.15607 -0.921217 5.03657 3.99639 -0.0420119 -0.123592 0.777571 Si
61 1 6.67378 9.53635 9.48942 -1.4114 -1.56609 5.16183 0.479402 -0.0742185 0.633102 Si
48 1 8.13831 0.0231089 8.32265 1.41089 -4.81749 -3.54109 0.634171 0.00488185 -1.21869 Si
26 1 0.0365005 8.07154 8.03909 -2.57369 0.103164 9.04282 -0.739453 1.49414 0.613269 Si
ITEM: TIMESTEP
14700
ITEM: NUMBER OF ATOMS
64
ITEM: BOX BOUNDS pp pp pp
0.0000000000000000e+00 1.0887404739999999e+01
0.0000000000000000e+00 1.0887404739999999e+01
0.0000000000000000e+00 1.0887404739999999e+01
ITEM: ATOMS id type xu yu zu vx vy vz fx fy fz element
4 1 -0.00995451 0.0530002 -0.0559055 -1.21339 2.05234 -2.1765 -1.13512 0.340022 0.758287 Si
7 1 1.27509 1.4082 1.34409 -4.39145 2.21528 -1.06821 0.690348 -0.653805 0.027224 Si
34 1 5.53608 2.79504 2.71312 6.7972 -3.8777 -2.27853 -1.06807 -1.21717 -0.0850861 Si
39 1 6.79396 1.33308 1.35224 0.56148 -4.94741 -1.70807 -0.670683 -0.42096 0.267325 Si
2 1 0.0166649 2.69465 2.77707 1.98825 -0.871184 2.52744 -0.386985 0.484587 0.148119 Si
40 1 8.16451 0.100104 2.8166 -2.06231 -2.09224 0.656838 -0.217974 -1.53709 -1.3349 Si
23 1 1.41013 6.71452 1.34063 2.25452 -1.5293 0.960856 -0.600612 0.635258 -1.37516 Si
24 1 2.73347 5.44553 2.6433 1.45175 3.83985 3.2414 0.640988 -1.03439 1.21898 Si
1 1 4.06806 4.00204 1.30466 0.0526801 4.77479 -2.58124 0.188642 0.66912 0.294197 Si
55 1 6.73956 6.79922 1.43635 5.28882 5.01046 -2.50278 0.523316 0.195473 -1.14734 Si
33 1 9.52373 4.00418 1.40203 1.40836 3.13115 1.72618 0.633064 -0.367814 -1.35425 Si
56 1 8.2406 5.40952 2.63235 -3.26226 0.650403 3.81482 -1.01897 0.553155 0.916342 Si
8 1 2.67149 0.0790812 2.71667 1.36546 -1.869 -3.2073 0.415274 -0.258933 -0.295928 Si
18 1 0.100965 8.06656 2.71605 -3.045 -0.194545 1.63933 -0.517075 0.807446 0.689603 Si
17 1 4.04974 9.6139 1.32849 -1.1594 -4.41076 2.44513 -0.489054 -0.772542 0.199586 Si
50 1 5.35296 8.18963 2.71956 3.10883 -1.21986 2.44911 0.284999 0.114194 0.661769 Si
49 1 9.61181 9.59948 1.48227 1.24981 0.388529 2.46162 -0.207819 0.0572927 -0.357725 Si
54 1 8.18861 8.28148 0.117879 -0.940398 2.72214 0.334358 -0.228736 -1.22241 0.197903 Si
12 1 0.0599906 -0.00371411 5.47533 -0.0587863 -2.03137 2.11805 -0.0555931 -0.119433 -0.476376 Si
14 1 2.70492 2.73762 5.43426 1.75527 2.57332 3.66728 0.40926 -0.452498 0.727488 Si
15 1 1.34865 1.38791 6.8917 4.7045 -3.00752 0.546616 0.0993473 0.133682 -1.19758 Si
3 1 4.09857 1.36833 4.07678 -1.14991 3.55109 3.67457 -0.0190683 0.722845 -0.384812 Si
47 1 6.75977 1.29208 6.72106 -6.18973 -0.158881 -2.10895 0.309686 0.134601 0.9783 Si
35 1 9.52429 1.32381 4.09457 -7.7391 -5.24 -1.65817 0.867404 1.11532 1.32802 Si
46 1 8.13995 2.73327 5.43239 2.09259 3.22819 3.30596 0.467608 -0.680281 0.224132 Si
5 1 1.39529 4.1013 4.09866 -1.04899 -2.76056 5.35303 -0.810748 0.554102 -0.126638 Si
31 1 1.35513 6.81813 6.8259 4.44236 5.09038 4.29739 -0.406317 -0.654435 0.68206 Si
9 1 4.08588 4.08743 6.82254 -3.04459 2.88012 -4.03617 -0.0344297 -0.0956184 -0.0238931 Si
19 1 4.02823 6.77244 4.14092 2.27964 -3.19218 1.14786 0.367383 0.174039 -0.603095 Si
37 1 6.90983 4.08653 4.04255 -0.966629 1.09288 1.14691 -0.600323 0.608974 0.0584437 Si
60 1 5.44849 5.37752 5.40843 -0.0461398 2.00384 -3.74709 0.118577 0.162361 -0.0864764 Si
63 1 6.76918 6.76972 6.75773 6.72065 7.00344 3.6478 0.126409 0.563653 0.604216 Si
28 1 -0.0541144 5.46826 5.50955 -0.483801 -5.2117 -1.05232 0.529892 -0.504276 -0.710668 Si
41 1 9.42489 4.12942 6.83768 -0.923286 -3.53099 0.49273 0.218354 0.175687 -0.013179 Si
51 1 9.49379 6.75167 4.05997 0.057146 -0.473199 -4.37378 0.671678 0.549674 -0.0140006 Si
21 1 1.46616 9.50375 4.10609 0.67793 1.41111 1.39995 -0.697847 -0.375702 0.282443 Si
30 1 2.73883 8.11296 5.59312 6.5116 1.6945 2.11777 -0.0179026 0.609124 -1.78202 Si
44 1 5.34614 -0.0788848 5.41875 5.52931 1.69225 1.84999 1.14473 0.437075 -0.490572 Si
25 1 4.04088 9.55362 6.81403 -3.77203 -2.31267 0.552338 0.0126158 -0.260121 0.42456 Si
53 1 6.85496 9.50617 4.08068 -5.18089 -1.66341 -0.328594 -1.45927 0.32655 -0.306154 Si
57 1 9.58014 9.45804 6.73673 -3.36697 -0.701125 -4.3519 -0.565735 0.354522 0.216678 Si
62 1 8.13477 8.14281 5.40836 1.39002 2.10645 -0.95496 0.620803 -0.552273 0.220467 Si
6 1 2.71569 2.62194 -0.0176359 -1.0289 -3.67627 -0.22675 -0.0119293 0.904335 -0.604631 Si
16 1 2.71794 0.0094063 8.16857 -0.522752 -0.762152 0.901952 0.0947986 0.335624 0.833653 Si
36 1 5.44014 -0.0612147 -0.0762688 -3.99361 -3.32787 1.18558 0.46632 1.00707 0.793396 Si
11 1 4.16847 1.38482 9.50556 3.05787 -0.886132 -5.57651 -0.944396 -0.760133 -0.159817 Si
42 1 5.49073 2.74726 8.18403 -0.675844 3.98854 -5.43627 0.451278 0.0660527 -0.65457 Si
38 1 8.06647 2.68405 0.0303396 -8.94015 -4.02135 1.96093 1.46009 0.442883 -0.450292 Si
10 1 -0.0670757 2.76966 8.12279 3.86428 1.03253 1.5374 0.117211 -0.126023 0.300714 Si
43 1 9.44845 1.3911 9.44829 -2.64005 -1.01219 1.4756 0.153894 -0.279975 0.685001 Si
13 1 1.43144 4.04672 9.41135 0.581753 -0.223382 0.646393 -0.430586 -0.486461 1.07295 Si
32 1 2.74484 5.49519 8.18856 7.32934 -1.4787 -0.811184 0.430992 0.113507 -0.597733 Si
52 1 5.39809 5.43679 -0.0310387 -1.34651 -1.74024 0.89014 0.15789 0.614366 0.469386 Si
27 1 4.12008 6.91548 9.49258 0.358861 -1.33633 -2.24789 -0.289239 -0.873054 0.188837 Si
45 1 6.84388 4.14229 9.57104 -0.959376 3.15148 3.07285 -0.590727 -0.400247 -0.361419 Si
20 1 0.0440931 5.3146 -0.058776 -2.75446 2.04705 0.184841 -0.246125 0.497768 0.808796 Si
59 1 9.52742 6.82433 9.64057 1.14099 -1.17767 -2.49723 0.66169 0.821805 -0.329205 Si
64 1 8.1653 5.55486 8.26514 0.944586 0.739011 0.532374 -0.355517 -0.546786 -0.868952 Si
22 1 2.70227 8.18673 -0.0438838 3.6821 -0.357498 0.487179 -0.120029 0.274057 0.678964 Si
29 1 1.29323 9.58112 9.55244 -2.32344 -0.96627 -6.35402 1.03906 -0.524524 -0.817581 Si
58 1 5.43935 8.23327 8.10917 -2.7966 0.344884 -2.12604 0.592749 -0.517157 0.0483187 Si
61 1 6.82851 9.50009 9.52966 1.0331 3.81679 -2.76571 0.0524706 -0.18065 -0.262211 Si
48 1 8.18655 -0.110644 8.13206 -1.51901 1.32966 2.64836 -0.313123 0.926411 -0.72911 Si
26 1 0.019374 8.19009 8.14756 -4.13531 -3.30077 -6.92277 -0.508816 -0.60787 0.995205 Si
ITEM: TIMESTEP
14800
ITEM: NUMBER OF ATOMS
64
ITEM: BOX BOUNDS pp pp pp
0.0000000000000000e+00 1.0887404739999999e+01
0.0000000000000000e+00 1.0887404739999999e+01
0.0000000000000000e+00 1.0887404739999999e+01
ITEM: ATOMS id type xu yu zu vx vy vz fx fy fz element
4 1 0.0745143 -0.0127279 0.0809017 1.82957 -3.87166 -1.67281 -0.186652 -0.744538 -1.26264 Si
7 1 1.39276 1.32781 1.37617 -2.65624 -0.231843 -0.138737 -0.406132 0.262961 -0.138541 Si
34 1 5.44207 2.74226 2.7807 1.44835 4.84785 0.889149 0.0816189 -0.172583 -0.00942415 Si
39 1 6.75792 1.41023 1.3686 0.415957 3.74016 -0.505775 0.395485 0.95361 -0.204749 Si
2 1 -0.00084268 2.65627 2.61124 1.94795 3.01509 0.639134 0.190993 0.637003 0.369588 Si
40 1 8.09279 0.010376 2.56886 -0.877189 3.72496 -2.38901 1.24424 0.504922 1.57413 Si
23 1 1.30443 6.77102 1.39831 -3.69654 0.182596 -0.586044 0.519722 0.173445 0.65215 Si
24 1 2.71344 5.41241 2.78431 -1.29644 1.41528 -0.909934 -0.0327885 0.770628 -1.06737 Si
1 1 4.10146 4.10894 1.43577 -0.0807893 -5.64412 0.942383 0.027429 0.0206889 -0.739046 Si
55 1 6.82168 6.68201 1.36307 -9.60885 -1.70884 3.92397 0.299324 1.89741 0.0284225 Si
33 1 9.5185 4.04198 1.35838 0.0792915 -2.29862 1.47837 0.257627 1.01311 0.38977 Si
56 1 8.2374 5.47172 2.78945 3.3761 1.24466 -7.30887 -0.206632 -0.532478 -0.813908 Si
8 1 2.6636 -0.0694026 2.63295 -1.34027 0.247578 4.08925 0.798724 -0.206305 1.5694 Si
18 1 -0.0694239 8.1551 2.73186 -1.90127 0.387757 0.317708 -0.308591 0.175731 -0.25093 Si
17 1 4.07258 9.53506 1.24512 7.30067 2.77568 1.07263 -0.0330934 -0.096628 0.734433 Si
50 1 5.4146 8.20862 2.66951 0.604091 -0.228606 0.266036 1.11744 -0.24559 -0.102652 Si
49 1 9.46126 9.52658 1.28036 -0.685169 0.878609 -0.526856 0.35389 -0.941971 0.0176189 Si
54 1 8.17692 8.05318 -0.145754 3.9983 -0.982173 2.0195 -0.625069 0.70534 0.866156 Si
12 1 -0.0719994 0.0859839 5.42021 2.86708 2.31776 1.29017 0.793435 -0.559689 0.393011 Si
14 1 2.67755 2.74411 5.46238 -3.55191 1.25808 -2.798 0.737211 -0.329582 -1.04963 Si
15 1 1.39257 1.39147 6.78774 -0.224482 -1.67574 2.17899 -0.839748 -0.602804 0.521096 Si
3 1 4.07159 1.2997 4.08235 1.84473 -0.152965 0.184074 -0.576977 0.18868 0.021522 Si
47 1 6.85448 1.46506 6.83954 3.88428 -2.62898 -0.346225 -1.31915 -0.494177 -0.515242 Si
35 1 9.54743 1.43553 3.99082 1.8163 1.52303 -3.16086 -1.23083 -1.40187 -0.274427 Si
46 1 8.21216 2.75204 5.37902 -4.31202 -4.23043 1.51312 -0.0193554 -0.0729891 0.551453 Si
5 1 1.34324 4.00268 3.95046 3.6687 0.170818 -1.38691 -0.33351 0.301726 1.5472 Si
31 1 1.37991 6.85243 6.75927 -3.40702 -2.9874 -4.75539 -0.309754 -0.113417 -0.280159 Si
9 1 4.02945 4.0587 6.86046 -2.8442 -2.68123 1.08778 0.168267 0.480687 -0.0516017 Si
19 1 4.06902 6.85238 4.02953 1.81805 3.88206 0.847176 0.608042 -0.794328 0.586019 Si
37 1 6.87371 4.11297 4.06479 0.943894 -1.673 2.80308 -0.891313 -0.0684961 0.485079 Si
60 1 5.42041 5.40289 5.45536 -6.17185 -1.10239 6.23562 0.123282 0.576005 -0.18249 Si
63 1 6.84493 6.75731 6.8356 -7.50044 -7.00059 -5.91493 -0.0634029 0.17129 -0.3588 Si
28 1 0.0241565 5.42744 5.38656 0.559483 5.00186 -1.0613 0.37336 -0.170952 0.29636 Si
41 1 9.5915 4.03647 6.78096 -0.0588295 -0.196118 -6.25388 0.266346 -0.11974 -0.370339 Si
51 1 9.49861 6.8391 4.17147 -2.17023 0.0139142 6.2741 0.638231 -0.0492609 -0.548626 Si
21 1 1.27735 9.48778 4.10943 -1.2495 -1.14746 -1.53752 0.164427 1.01633 -0.719166 Si
30 1 2.74167 8.1928 5.35815 -1.65885 -0.938446 -0.174679 -0.116283 0.0484627 1.06905 Si
44 1 5.45397 -0.0596862 5.45066 -0.841114 -3.15709 2.58736 0.843967 1.52302 0.249357 Si
25 1 4.11784 9.51283 6.79101 -0.116257 3.80911 1.88951 -0.409208 -0.52062 -0.246725 Si
53 1 6.87496 9.58474 4.06255 7.55836 -2.12682 -2.96166 -0.685634 -1.01868 -0.137231 Si
57 1 9.56595 9.59237 6.91318 3.05248 1.79448 2.06424 -0.340381 0.191762 -1.1534 Si
62 1 8.22231 8.22359 5.50537 -3.4764 1.15751 0.394708 -0.727254 0.104829 0.380638 Si
6 1 2.64139 2.7793 0.106612 -0.632617 -2.04129 -0.782235 0.835408 -0.0297994 -0.197024 Si
16 1 2.74419 -0.0416457 8.11819 0.867169 1.79853 -1.5254 -0.535182 0.224489 0.0638048 Si
36 1 5.4384 0.134672 0.0335435 0.135141 2.58043 0.194213 -0.764989 -1.42267 -0.947551 Si
11 1 3.88169 1.31858 9.62321 0.49815 2.5936 2.37839 1.44883 1.09409 -0.399301 Si
42 1 5.3632 2.73444 8.3043 -2.02195 -2.71644 0.0806343 -0.0373328 -0.82706 -0.750541 Si
38 1 8.22726 2.7119 0.0236607 4.10666 -1.49149 3.13137 -1.20072 -0.0588677 0.0690229 Si
10 1 0.0251976 2.72025 8.22316 -0.82011 -1.32666 -0.406285 0.54352 0.183248 0.156856 Si
43 1 9.60024 1.36766 9.6477 -0.181298 2.54295 -1.85433 -0.155919 -0.437097 -1.09684 Si
13 1 1.35293 4.15729 9.64142 1.61238 4.09403 -2.88193 -0.116291 -0.516842 -1.23844 Si
32 1 2.66376 5.49805 8.16941 -1.32208 -2.07241 2.93121 0.407437 -0.55694 0.264185 Si
52 1 5.47543 5.44867 -0.0282558 0.049069 1.72086 -1.64101 -0.39097 -1.1383 0.423408 Si
27 1 4.09399 6.7693 9.54151 1.57892 2.73651 0.675475 -0.362805 0.583586 -0.279489 Si
45 1 6.84242 4.04649 9.53786 1.76113 -2.53974 -1.16507 0.0880442 0.175067 0.293599 Si
20 1 -0.0152034 5.46048 0.0500441 0.0349661 -2.88043 -6.60817 -0.553819 -0.103148 -0.215134 Si
59 1 9.62908 6.7639 9.41492 -0.391556 -0.186524 3.02181 -0.850388 -0.558574 0.601769 Si
64 1 8.2374 5.31785 8.12653 0.895799 2.44851 1.53523 -0.359433 1.01586 0.294245 Si
22 1 2.67185 8.09382 0.0233772 3.4748 0.085353 -4.97871 0.627536 0.0581316 -0.427989 Si
29 1 1.42933 9.48746 9.50411 1.28646 -0.67627 3.761 -0.683755 0.491633 0.610032 Si
58 1 5.43788 8.15237 8.15746 -4.17829 -3.02646 0.318836 -0.081517 -0.445681 0.0123713 Si
61 1 6.70914 9.55577 9.51123 -1.7374 -1.54628 -0.143592 1.25351 0.398086 0.114834 Si
48 1 8.17977 0.0900244 8.17124 3.86639 0.00668447 -0.502957 -0.0913342 -0.407194 1.29849 Si
26 1 0.0295105 8.19855 8.16943 1.83049 3.1722 3.86287 0.638872 -0.182972 -0.475671 Si
ITEM: TIMESTEP
14900
ITEM: NUMBER OF ATOMS
64
ITEM: BOX BOUNDS pp pp pp
0.0000000000000000e+00 1.0887404739999999e+01
0.0000000000000000e+00 1.0887404739999999e+01
0.0000000000000000e+00 1.0887404739999999e+01
ITEM: ATOMS id type xu yu zu vx vy vz fx fy fz element
4 1 0.0259105 0.101978 0.00897252 -2.35477 3.2233 0.371733 -0.07219 -0.414765 0.494245 Si
7 1 1.3954 1.48003 1.37151 3.20976 1.3679 -1.41118 0.0410836 -0.512704 -0.1325 Si
34 1 5.47155 2.61144 2.55445 -2.38528 -2.8189 -0.920058 -0.826124 1.49532 1.05671 Si
39 1 6.938 1.34767 1.35046 1.85307 -1.25475 2.8419 -0.0590808 -0.625589 0.510553 Si
2 1 -0.0075396 2.82073 2.72063 -6.65112 0.69473 -0.940586 -0.25456 -0.817246 0.312054 Si
40 1 8.21141 0.0426165 2.89506 -1.56254 -2.88219 -1.60431 -0.541727 -0.951598 -1.20525 Si
23 1 1.42153 6.86002 1.30287 -0.883578 -0.98983 -2.40437 -0.371751 -0.184153 0.291327 Si
24 1 2.68639 5.41476 2.72697 1.42594 -8.80035 4.09393 0.180335 0.313958 -0.185536 Si
1 1 4.06698 4.09032 1.25837 2.22409 -0.449837 -0.911199 -0.122209 -0.604572 1.21112 Si
55 1 6.78279 6.83201 1.41042 4.88108 0.570298 -0.112054 -0.285843 -1.32758 -0.0709363 Si
33 1 9.5471 4.13136 1.3287 1.11121 -4.49698 -6.59126 -1.07003 -0.561783 0.423664 Si
56 1 8.11395 5.34992 2.75207 3.6075 -0.314123 0.687728 0.169699 0.771394 -0.507475 Si
8 1 2.73944 0.0552825 2.7204 -1.24521 -2.15816 -3.92404 -0.129574 -0.14382 -0.252315 Si
18 1 0.063127 8.20849 2.71156 2.21227 1.35131 0.969218 0.684775 -0.10855 -0.236234 Si
17 1 4.11492 9.51119 1.41758 -5.65469 -2.28946 -2.90704 0.169872 0.595855 -0.117427 Si
50 1 5.44754 8.14026 2.79377 -4.72771 1.96831 -2.64758 -0.918438 -0.208517 -0.556233 Si
49 1 9.60203 9.59651 1.42917 0.418894 2.01945 0.885109 -1.03713 -0.122107 -0.463927 Si
54 1 8.15517 8.11913 0.0662507 -1.14517 -0.554999 2.37366 0.821329 1.27731 -0.246138 Si
12 1 -0.00896966 -0.150251 5.46071 -2.08179 2.22387 -4.73803 -0.0183145 1.30371 -0.100861 Si
14 1 2.73083 2.76832 5.40689 -1.34119 2.4088 2.5625 -0.347239 0.2261 0.540463 Si
15 1 1.37283 1.29905 6.76093 1.91515 4.51961 -0.385712 0.0838504 0.281071 0.113904 Si
3 1 4.06878 1.42276 4.0421 0.976353 -1.83691 -2.96566 0.709032 -0.591172 0.268118 Si
47 1 6.85037 1.31392 6.75055 0.774517 3.73045 3.78059 0.558319 -0.0262041 0.117958 Si
35 1 9.55683 1.40096 4.16697 5.62472 -0.061525 1.76957 0.928885 -0.0214324 -0.19366 Si
46 1 8.15049 2.74756 5.41973 2.19984 1.07794 -4.58541 -0.0511554 0.184835 0.74069 Si
5 1 1.24314 4.15529 4.14613 -7.31955 -0.674854 0.00406392 1.74477 -0.906364 -0.885519 Si
31 1 1.31653 6.79567 6.87945 3.38153 -2.39531 3.22738 0.424522 -0.433594 -0.626272 Si
9 1 4.19669 4.12745 6.75976 2.08171 1.9929 1.50194 -0.503904 -0.591818 0.183162 Si
19 1 4.05168 6.79252 4.1283 2.08358 -1.08716 -1.60578 -0.606441 0.4502 -0.536276 Si
37 1 6.6957 3.99672 4.08048 -0.266118 3.8833 -4.00001 0.645972 0.0595979 -0.85468 Si
60 1 5.49245 5.52 5.36015 4.95216 -0.973739 -3.39924 -0.0127064 -0.374758 1.29471 Si
63 1 6.78042 6.92937 6.81127 1.04865 3.99746 1.10761 -0.505028 -1.18225 -0.440486 Si
28 1 -0.0584017 5.44264 5.42813 1.47297 -3.87081 -0.400394 -0.220221 1.2258 1.17556 Si
41 1 9.44273 4.17489 6.83931 4.2334 1.8104 2.6926 0.0280088 -0.624864 -0.264261 Si
51 1 9.59946 6.78421 3.95296 3.20477 -2.5963 -1.65768 -1.10981 -0.274752 0.857155 Si
21 1 1.43766 9.55095 4.08992 -1.62528 -1.28363 3.8212 -0.230085 -0.454663 -0.0227741 Si
30 1 2.71734 8.1933 5.53897 -2.65999 -2.60747 -0.957058 -0.637123 -1.17346 -0.928808 Si
44 1 5.42102 0.0268038 5.48983 -1.31861 0.201877 -5.00561 -0.952074 -0.815385 -0.559765 Si
25 1 4.04158 9.4462 6.86307 0.508073 -1.55289 0.591841 0.569122 1.82644 -0.338425 Si
53 1 6.7186 9.46144 4.13001 -3.9958 1.99702 -0.194043 1.26372 1.23222 0.345938 Si
57 1 9.49408 9.3525 6.74517 0.0337163 0.342816 0.45592 0.194579 0.747753 0.685869 Si
62 1 8.15914 8.06925 5.37227 0.640939 -1.73694 -0.310404 0.196366 0.333805 -0.545973 Si
6 1 2.79686 2.68613 -0.0929178 0.231707 5.56084 -2.58679 -0.308272 -0.094809 0.0231858 Si
16 1 2.7287 -0.0370345 8.19553 -2.5621 -1.4882 5.51081 0.231031 0.532818 -0.387937 Si
36 1 5.52598 0.00838977 0.0909321 2.6203 5.06617 0.176763 -0.123521 -0.641912 -0.26695 Si
11 1 4.22669 1.26572 9.51054 -7.39534 -3.57262 -1.46587 -0.852485 0.558046 -0.168387 Si
42 1 5.54229 2.63034 8.09488 0.439502 -1.86509 3.44095 -0.513177 1.15766 0.622538 Si
38 1 8.13028 2.76574 -0.00720079 4.1436 -0.416287 1.65195 1.41438 -0.353944 -0.425763 Si
10 1 -0.0258675 2.69744 8.09933 -1.06436 0.658583 1.96093 -0.559944 -0.301135 0.161703 Si
43 1 9.48361 1.29048 9.49979 0.454219 -1.36557 4.69941 -0.0661505 1.1889 -0.25822 Si
13 1 1.29914 4.00008 9.5268 -0.315329 -0.575335 3.60895 0.534172 1.16479 -0.140077 Si
32 1 2.77763 5.4167 8.18093 -2.66233 6.84934 -0.157755 -1.19175 -0.625753 -0.282182 Si
52 1 5.37973 5.45066 -0.0157076 -2.73156 5.1012 2.32818 1.01575 0.714273 -0.0148818 Si
27 1 4.03004 6.80253 9.51609 -2.74107 -3.51344 -2.80152 0.492649 0.191865 0.32226 Si
45 1 6.79229 4.09698 9.53924 -2.65446 -2.27674 3.37101 -0.48587 0.183459 -0.716723 Si
20 1 -0.0636092 5.49441 0.0182076 -0.111307 -7.34345 6.59504 1.57452 -0.415628 -0.611172 Si
59 1 9.50427 6.77644 9.52254 3.04936 1.1581 3.57483 -0.567033 0.688649 0.720669 Si
64 1 8.07345 5.57612 8.17983 -0.760324 0.969335 -2.7287 0.167748 -1.19933 -0.0228462 Si
22 1 2.77625 8.25962 -0.0457278 -5.20774 2.59014 0.114331 -0.671685 -0.292675 0.238873 Si
29 1 1.31823 9.59906 9.52481 0.966522 4.55985 -1.64458 0.0303932 -0.74747 0.281489 Si
58 1 5.36367 8.1581 8.17986 5.64254 -1.09046 -1.12291 1.09616 0.374713 0.874136 Si
61 1 6.81517 9.54616 9.55889 1.82081 -3.17745 0.890908 -0.284972 -1.01011 -0.109747 Si
48 1 8.16738 -0.0935805 8.10259 -3.85569 2.79608 -3.7217 0.201221 0.041031 0.0379874 Si
26 1 -0.0415112 8.12162 8.22585 3.83559 -0.319641 -0.854027 0.335355 0.614897 -0.229421 Si
ITEM: TIMESTEP
15000
ITEM: NUMBER OF ATOMS
64
ITEM: BOX BOUNDS pp pp pp
0.0000000000000000e+00 1.0887404739999999e+01
0.0000000000000000e+00 1.0887404739999999e+01
0.0000000000000000e+00 1.0887404739999999e+01
ITEM: ATOMS id type xu yu zu vx vy vz fx fy fz element
4 1 0.00102392 -0.170589 -0.119216 -0.41491 -1.0666 -0.34372 -0.698492 1.34583 0.794968 Si
7 1 1.27372 1.24316 1.38763 -1.11374 1.98083 4.21689 0.7449 -0.190508 -0.398796 Si
34 1 5.47528 2.79088 2.80329 0.452853 -1.54004 -1.99795 -0.148131 -0.977527 -0.101948 Si
39 1 6.61284 1.37776 1.32331 2.95477 3.92251 -1.20199 0.216493 -0.94614 -0.255129 Si
2 1 0.00856534 2.67759 2.76434 -2.02696 0.991379 -5.47637 -0.331098 -0.0140705 -0.295144 Si
40 1 8.06873 -0.0019471 2.60804 4.73643 1.31487 4.90093 0.472292 -0.0319039 0.22358 Si
23 1 1.30584 6.75888 1.38713 5.36703 0.714919 0.347762 0.428216 0.468349 -0.0862577 Si
24 1 2.76652 5.47427 2.74284 0.0557061 5.48956 -2.42965 -0.00760824 -0.452425 0.13299 Si
1 1 4.13589 4.03966 1.44391 -2.03697 1.42519 -1.00781 -0.527935 0.926579 -0.805595 Si
55 1 6.82081 6.81575 1.29988 4.91582 -1.96326 0.707929 0.677501 0.607548 -0.00963111 Si
33 1 9.50262 4.05273 1.44526 -2.59656 6.43891 8.65488 0.736629 -0.00215243 -0.935269 Si
56 1 8.18558 5.46491 2.70044 -3.70552 -6.26664 2.46601 -0.23609 0.428553 1.13639 Si
8 1 2.754 -0.065489 2.76592 1.76789 1.06435 3.07952 -0.326079 1.17967 -0.569877 Si
18 1 -0.00386937 8.14663 2.84777 -6.56808 3.26165 -2.30085 -0.706685 -0.295201 -0.950653 Si
17 1 4.02954 9.48561 1.39622 1.91758 -1.38273 -0.397827 -0.228814 -0.644335 -0.575061 Si
50 1 5.47104 8.18169 2.68874 8.65814 -1.14404 2.86615 0.357907 -0.120965 0.264987 Si
49 1 9.48457 9.43214 1.33115 -3.5929 0.186348 -2.74371 0.687131 0.744605 0.47142 Si
54 1 8.18683 8.24178 -0.145052 -8.28451 1.1955 -3.06513 -0.997143 -1.1445 0.416736 Si
12 1 0.0153174 -0.0014063 5.41143 -1.53372 -4.7065 1.83642 -0.774267 0.287003 -0.384736 Si
14 1 2.73196 2.66635 5.41328 5.58636 -3.65987 -1.89588 0.109171 -0.418819 1.13018 Si
15 1 1.33537 1.23119 6.84881 -2.4442 -8.16931 0.53633 0.256816 2.05525 -0.0878984 Si
3 1 4.14732 1.33756 4.0755 -0.879491 1.5228 -0.516288 -0.395843 0.039464 0.133021 Si
47 1 6.70116 1.35368 6.80846 -2.80692 -3.36271 -4.40085 0.531823 0.769651 0.953684 Si
35 1 9.451 1.33035 4.02953 -7.00738 -0.0781902 -4.33905 0.0847556 -0.0570054 0.743613 Si
46 1 8.14646 2.66047 5.56824 3.1382 1.77241 -2.81046 -0.106789 -0.0584434 -2.04851 Si
5 1 1.42582 4.01415 4.07268 -3.86605 4.37669 -1.2113 -0.532729 1.0155 0.0424255 Si
31 1 1.33985 6.85625 6.67291 -1.39984 -0.572269 -2.58827 0.875464 0.0307347 1.62272 Si
9 1 4.05346 4.14082 6.78474 1.7575 5.6201 2.19806 0.0324697 -0.217095 -0.234835 Si
19 1 4.16372 6.84312 4.10222 -2.29219 1.51929 4.76075 -0.0777011 -0.40048 -0.211368 Si
37 1 6.86038 4.07834 4.12507 -1.82693 -4.66127 -0.793949 0.158168 0.69135 0.717397 Si
60 1 5.52524 5.52297 5.53828 0.872485 6.77182 0.66063 -1.04262 -1.53366 -1.73673 Si
63 1 6.84217 6.73799 6.83638 -1.24636 4.46089 0.574776 0.580953 1.15685 0.636395 Si
28 1 0.0607965 5.44535 5.46628 1.69074 4.58186 2.78959 -0.519189 -1.20406 -0.97676 Si
41 1 9.53459 4.04738 6.73266 2.4524 0.0779753 0.111638 0.947157 0.193825 1.42981 Si
51 1 9.48134 6.80159 4.26168 -0.183598 -0.457287 -1.08105 0.161578 0.0786995 -1.38743 Si
21 1 1.37719 9.5626 4.07536 3.42269 2.73463 0.069225 -0.185018 -0.67122 0.378131 Si
30 1 2.73346 8.17483 5.36647 -0.0516622 1.93947 3.73163 0.674956 0.917416 0.784302 Si
44 1 5.48783 -0.00174709 5.44935 2.39711 2.4526 3.93761 -0.267852 -0.160611 -0.784141 Si
25 1 4.12982 9.60508 6.79681 -0.0388652 -3.45141 2.19467 -0.285297 -1.74848 -0.207052 Si
53 1 6.84873 9.52561 4.08538 1.97361 -1.56361 2.55218 -0.532359 -0.100745 -0.11522 Si
57 1 9.49508 9.67314 6.80816 -2.00061 -2.4489 -1.47556 0.123543 -0.883962 0.285943 Si
62 1 8.11571 8.19996 5.5653 -2.66609 -2.71956 -0.721981 0.56591 0.228297 -0.500995 Si
6 1 2.72927 2.66299 0.102209 0.421001 -0.448172 -0.23515 -0.782824 1.07248 0.042983 Si
16 1 2.76722 -0.0117133 8.18215 0.691953 -2.21788 -2.45803 -0.431694 -0.146098 0.168314 Si
36 1 5.21412 -0.0934139 -0.0924649 -2.00129 -3.58918 -0.620821 1.70919 1.32601 -0.149832 Si
11 1 4.00468 1.50185 9.48124 2.05571 -0.513904 1.0538 0.251201 -1.50783 0.369882 Si
42 1 5.38996 2.79661 8.16012 -2.55015 -1.05686 -1.50044 0.561704 0.145656 -0.114328 Si
38 1 8.11026 2.70232 0.102584 -1.32753 4.9471 1.20068 -0.378371 0.732907 -0.420419 Si
10 1 0.0128938 2.76562 8.25457 4.14929 0.516274 2.48085 0.514679 -0.00131576 -0.695102 Si
43 1 9.43953 1.45441 9.57398 1.01756 -1.93499 0.442314 1.45185 -0.982478 0.357299 Si
13 1 1.47921 4.20874 9.57857 1.35989 -2.62666 -1.42103 -0.712431 -1.95262 0.0493557 Si
32 1 2.71925 5.51103 8.14531 -1.41682 -3.93205 -2.13829 0.692981 1.19211 -0.238727 Si
52 1 5.48832 5.42513 0.010608 0.247142 -6.30282 0.589033 -0.552393 -0.00582361 -0.0704866 Si
27 1 4.21102 6.89214 9.52489 -1.70861 2.17037 -1.4301 -1.11452 -1.6782 -0.0735884 Si
45 1 6.84651 4.11119 9.51961 4.58187 -1.44963 1.28196 -0.175954 -0.660662 0.18109 Si
20 1 -0.0179946 5.40946 -0.0335386 -3.47197 1.66207 2.47437 -0.367735 0.247366 1.0844 Si
59 1 9.56897 6.81075 9.48818 0.863963 0.00260298 -5.78122 -0.119742 0.0449338 -0.768379 Si
64 1 8.20581 5.39846 8.11459 -4.54676 -0.961744 -5.80987 0.511327 0.209742 0.6258 Si
22 1 2.72798 8.10494 -0.0387779 5.0123 -0.281827 -0.771826 -0.121998 -0.174789 1.10672 Si
29 1 1.4162 9.3925 9.4556 3.62103 -2.49238 -1.13501 0.204773 1.10685 -0.017669 Si
58 1 5.51689 8.12572 8.12152 -3.90098 1.51206 1.14476 -0.637855 0.884637 -0.859619 Si
61 1 6.76283 9.56717 9.37439 -1.8502 3.6733 -0.866829 0.230644 0.479342 1.45457 Si
48 1 8.15311 0.142574 8.18094 0.967925 -1.48983 7.79303 -0.525837 -0.567033 -0.465402 Si
26 1 0.0180016 8.21778 8.07446 4.2514 -1.78822 -4.68611 -0.70309 -0.656051 -0.206523 Si
ITEM: TIMESTEP
15100
ITEM: NUMBER OF ATOMS
64
ITEM: BOX BOUNDS pp pp pp
0.0000000000000000e+00 1.0887404739999999e+01
0.0000000000000000e+00 1.0887404739999999e+01
0.0000000000000000e+00 1.0887404739999999e+01
ITEM: ATOMS id type xu yu zu vx vy vz fx fy fz element
4 1 0.0330324 0.0907204 0.0566655 4.22453 0.429367 -0.768541 0.0302087 -0.392895 -0.409271 Si
7 1 1.46939 1.40285 1.3662 -3.51426 -0.0606662 -4.34129 -1.28777 0.681065 0.278044 Si
34 1 5.35118 2.76108 2.79725 3.5482 5.55287 2.46681 1.47535 -0.0316447 -0.97454 Si
39 1 6.90338 1.47154 1.42752 -3.43311 -5.33413 -2.36598 0.136518 0.268216 -0.10991 Si
2 1 -0.00499476 2.77772 2.70616 0.673516 -4.14836 2.21936 1.22507 -0.325949 -0.227929 Si
40 1 8.26161 0.0418316 2.76998 -2.9909 5.0883 2.22055 -0.2533 0.551048 0.267273 Si
23 1 1.39881 6.87349 1.27939 -1.68105 -0.282133 0.875348 -0.399535 -1.19479 0.527987 Si
24 1 2.70623 5.41088 2.60177 1.40721 1.12473 -3.83952 -0.659926 1.0063 0.567818 Si
1 1 4.02007 4.03914 1.36197 1.21532 -3.00378 1.48785 0.912741 0.261106 -0.374832 Si
55 1 6.7173 6.79431 1.39089 -2.05556 -1.41832 2.23827 0.138735 -0.207304 0.0712546 Si
33 1 9.59748 4.01549 1.23279 -3.07643 -4.17412 1.04558 -0.431379 1.03567 1.60003 Si
56 1 8.21796 5.42572 2.62175 3.36612 1.51616 -2.28472 -0.726498 -0.482253 0.121919 Si
8 1 2.69871 0.043411 2.75623 1.1338 4.94384 -1.81155 -0.0513732 -0.778081 -0.537449 Si
18 1 0.0446038 8.13807 2.66842 5.6826 -7.64952 5.73865 -0.861753 0.167456 0.512391 Si
17 1 4.03916 9.63629 1.35637 0.15732 6.87895 0.54929 1.31099 0.211987 -0.0639769 Si
50 1 5.33653 8.19257 2.71666 -5.96423 0.793179 2.12366 0.56446 0.167824 0.411117 Si
49 1 9.56848 9.58526 1.38957 2.13481 1.03713 4.48348 0.0927121 -0.485167 -0.0389315 Si
54 1 8.16501 8.13274 0.141879 5.16822 5.81664 -0.407278 0.0680289 0.231077 -0.580038 Si
12 1 0.0330292 0.0256189 5.39221 -1.10808 2.93881 0.190369 0.593895 -0.430645 1.70532 Si
14 1 2.72039 2.68834 5.40578 -2.48487 -0.423074 0.0899506 -0.112563 0.6756 -0.69661 Si
15 1 1.36981 1.46516 6.82186 -1.5892 1.70351 4.65631 0.0185955 -1.81566 -0.46692 Si
3 1 4.09112 1.29407 4.02468 5.501 -2.18458 -0.253927 -0.686027 1.20167 1.02919 Si
47 1 6.93332 1.32269 6.88989 -1.15064 -2.1916 -2.2538 -1.36922 -0.776977 -1.68204 Si
35 1 9.66184 1.42824 4.13987 3.42014 1.19333 0.251902 -1.64033 -0.102937 -0.95224 Si
46 1 8.11025 2.69647 5.38112 -1.1059 -0.350401 3.12414 0.974059 0.739059 0.803564 Si
5 1 1.33326 4.20103 4.04307 3.1882 -3.79737 -0.309633 0.303844 -1.24233 0.4767 Si
31 1 1.35849 6.79156 6.90501 0.592727 5.0448 -1.58632 -0.760576 0.260671 -1.1052 Si
9 1 4.06029 3.93903 6.87001 -0.829167 -0.218769 -0.637046 -0.0690194 0.633066 0.313589 Si
19 1 3.98001 6.74223 4.03488 -2.95608 -0.370542 2.00864 0.419356 0.304786 0.905456 Si
37 1 6.7912 4.15537 4.08632 2.16922 3.8059 -1.39262 0.0836231 -0.858302 -0.70331 Si
60 1 5.34698 5.30702 5.4692 3.62317 -3.29337 -1.35784 0.0548109 1.66711 -0.0310083 Si
63 1 6.77572 6.76297 6.77942 -1.34194 -2.86962 -1.73619 -0.0829517 -0.383313 -0.36718 Si
28 1 -0.0408168 5.4878 5.45364 -3.16833 5.7019 1.79614 0.587802 0.467816 -0.0940184 Si
41 1 9.47762 4.17135 6.75197 -6.5423 -1.83362 -3.57922 -0.731414 -0.957043 -0.118378 Si
51 1 9.48393 6.76922 4.03686 -6.49055 -2.18194 2.15933 0.567572 0.935152 0.0914822 Si
21 1 1.33209 9.52296 4.04114 4.70099 -2.16321 1.58427 0.169145 0.0688546 0.151494 Si
30 1 2.61783 8.16499 5.45558 1.01626 -3.61969 7.73374 0.672404 -0.501823 -0.234411 Si
44 1 5.39088 0.0207632 5.38867 -7.01904 -8.51302 0.415311 1.18358 -0.20907 1.70796 Si
25 1 4.02013 9.51779 6.79056 -0.338914 1.28143 -2.43486 0.392324 0.356724 0.299856 Si
53 1 6.80852 9.58195 4.07672 1.48882 2.17201 0.74184 -0.0630764 -0.818635 -0.119082 Si
57 1 9.62255 9.46273 6.83485 0.0624445 -2.62969 -2.94089 -0.225063 0.270608 -0.873211 Si
62 1 8.16916 8.16494 5.47679 1.79759 0.24761 1.75425 -0.0705431 -0.0942993 -0.650587 Si
6 1 2.72565 2.77094 -0.0371483 1.28822 -6.83498 3.12813 0.181987 -1.07419 -0.311744 Si
16 1 2.71221 0.0438755 8.2539 7.40957 -1.55852 -2.46952 0.0262514 -0.154522 -1.21988 Si
36 1 5.64001 0.0775141 0.0167764 0.460462 -2.90897 -1.46901 -1.47884 -0.767824 0.584352 Si
11 1 4.12916 1.32026 9.57602 2.6095 2.1814 0.952352 0.43403 0.700864 0.107981 Si
42 1 5.55144 2.62638 8.19944 1.63308 1.86032 2.08391 -1.36833 -0.0738105 -0.305602 Si
38 1 8.29506 2.75826 -0.0979646 -0.187418 -3.65176 1.89576 -1.50477 -1.14728 -0.0287286 Si
10 1 -0.0864698 2.73915 8.03784 -4.61777 0.806483 -2.59072 -0.000322209 0.133337 0.887962 Si
43 1 9.55905 1.30361 9.44518 -2.69271 7.23513 -3.308 -0.220485 -0.0256816 -0.0466824 Si
13 1 1.27717 3.99168 9.4885 2.9731 1.95031 -3.4112 0.453599 0.957201 -0.291223 Si
32 1 2.67597 5.45668 8.20336 -0.814069 5.01377 0.0690028 0.278527 -1.74985 -0.0923299 Si
52 1 5.39083 5.40107 0.00430544 -0.117336 2.82429 -2.69206 0.163451 -0.116647 -0.308208 Si
27 1 3.98877 6.78356 9.55214 4.47771 4.08008 -2.62181 1.28188 1.02355 -0.00974543 Si
45 1 6.79414 4.0281 9.47961 -2.45386 3.03697 -1.34175 0.468224 1.00872 1.02145 Si
20 1 0.0366978 5.39035 0.013721 3.59567 -2.97036 -4.67735 -0.20102 1.18698 -1.19874 Si
59 1 9.42487 6.78473 9.56443 -1.78502 0.392305 3.67214 1.44927 0.0367052 0.727575 Si
64 1 8.13822 5.46526 8.18862 -1.00831 -0.181324 4.11079 -0.497715 -0.409609 -0.564095 Si
22 1 2.71743 8.26355 0.0521947 -2.79422 -2.41172 -4.35813 0.482227 -0.325597 -1.03484 Si
29 1 1.37125 9.58782 9.59695 -3.49029 0.482803 0.705736 -0.596392 -0.262721 -0.196324 Si
58 1 5.49194 8.1434 8.11775 0.127367 2.28686 1.15588 -1.4356 -0.0611538 0.986879 Si
61 1 6.85047 9.42976 9.59331 -3.15807 -2.70448 -3.15368 -0.129868 0.202688 -0.353079 Si
48 1 8.17833 -0.17258 8.1512 0.761598 -5.20544 -2.99733 0.728718 0.720381 0.741632 Si
26 1 0.0135783 8.13658 8.25565 0.351165 1.71792 -0.336997 -0.00833326 0.124712 0.472007 Si
ITEM: TIMESTEP
15200
ITEM: NUMBER OF ATOMS
64
ITEM: BOX BOUNDS pp pp pp
0.0000000000000000e+00 1.0887404739999999e+01
0.0000000000000000e+00 1.0887404739999999e+01
0.0000000000000000e+00 1.0887404739999999e+01
ITEM: ATOMS id type xu yu zu vx vy vz fx fy fz element
4 1 0.00854936 0.0538164 0.0323123 2.58292 5.10357 2.78762 0.517559 -1.09634 -0.0790261 Si
7 1 1.40066 1.37626 1.40017 1.55506 0.40858 2.12454 -0.176209 -0.158098 -1.12782 Si
34 1 5.39348 2.63551 2.64777 2.03833 -2.18561 1.04578 0.0360706 0.776444 0.569811 Si
39 1 6.77236 1.28717 1.3535 -5.36867 4.00662 -0.217065 -0.236373 -0.585981 -0.485143 Si
2 1 -0.0380979 2.61726 2.67369 1.98936 -2.25488 -1.53626 -0.488885 0.989868 0.805333 Si
40 1 8.16794 -0.102872 2.72518 -2.99052 -1.23839 -5.75668 -0.741846 -0.0728954 -0.360918 Si
23 1 1.36125 6.72566 1.47332 -3.12723 0.181375 -1.93651 0.220695 1.32165 -0.210422 Si
24 1 2.71924 5.43177 2.78561 -0.802055 -2.55687 3.56222 0.405072 -0.612318 0.0689382 Si
1 1 4.09333 4.13675 1.34873 -0.510193 -0.64716 -0.551166 -0.155993 -0.541386 0.500827 Si
55 1 6.95454 6.77732 1.28876 -0.607962 -5.24023 -3.94978 -1.43051 0.159506 0.791815 Si
33 1 9.48718 4.14424 1.42574 5.97127 -1.73809 -2.25543 -0.0267529 -0.904664 -0.888482 Si
56 1 8.14241 5.43831 2.82112 2.87942 -0.0959351 5.92145 1.03552 0.771072 -0.825399 Si
8 1 2.70923 -0.0178216 2.66393 -6.69373 -1.59841 -3.96978 0.0895445 -0.396064 0.824082 Si
18 1 0.0132837 8.19774 2.67387 -3.35383 -2.92512 -0.369181 0.909089 0.223281 0.335826 Si
17 1 4.02825 9.4527 1.31907 -1.623 -0.0280444 -6.4349 0.0908829 -0.0626517 0.537197 Si
50 1 5.49011 8.14182 2.6691 0.108139 -0.237472 -0.469878 -0.242763 -0.418488 -0.109259 Si
49 1 9.5567 9.47596 1.28929 2.79465 2.12582 -1.80216 -0.554212 0.561871 0.211471 Si
54 1 8.17689 8.16821 -0.109138 -0.448647 -6.08518 -3.12203 0.920521 -0.001141 0.648839 Si
12 1 -0.0517904 -0.00928538 5.49422 -1.12684 1.82592 -3.23908 0.0827504 0.22998 -1.27978 Si
14 1 2.80225 2.73136 5.41788 -1.62032 -1.02515 0.441358 -1.29105 0.719646 0.826964 Si
15 1 1.33718 1.35352 6.73327 1.80845 2.09627 -1.12773 0.434597 0.683052 0.90478 Si
3 1 3.98143 1.37916 4.06165 0.390499 -2.86374 -1.2028 1.49582 -0.857156 -0.62076 Si
47 1 6.71301 1.48229 6.72999 4.27882 4.51764 1.97818 1.55952 0.73007 1.25547 Si
35 1 9.43592 1.30495 4.06986 0.737612 3.75674 0.223223 1.29707 -0.0889239 0.0546616 Si
46 1 8.26628 2.78365 5.41318 -2.45921 0.378565 -6.85716 -1.17225 -0.550829 0.708955 Si
5 1 1.33276 3.99984 4.05009 -3.66999 1.71412 -5.07726 -0.0232337 0.171845 0.51302 Si
31 1 1.36717 6.7811 6.74821 4.28063 2.73056 2.33681 0.372701 0.158415 0.136761 Si
9 1 4.14755 4.18421 6.78014 -3.13153 -1.11677 -0.796434 -0.293825 -0.298129 -0.796811 Si
19 1 4.10645 6.8046 4.09807 -1.54419 0.775445 -0.569209 0.296115 0.248802 -1.11249 Si
37 1 6.8167 3.99992 4.01213 3.9978 -0.54293 1.52953 -0.726866 0.368806 0.761503 Si
60 1 5.53262 5.53305 5.3712 -1.3886 -2.32116 1.35389 0.33276 -1.03771 0.835656 Si
63 1 6.89013 6.83519 6.85132 1.22754 4.72001 2.61883 -0.298558 0.0377526 -0.314536 Si
28 1 -0.0113357 5.36425 5.5026 0.835618 -4.1336 -1.19306 0.00384375 -0.0092983 -0.634117 Si
41 1 9.581 3.97829 6.99065 3.9215 1.90384 -0.328747 0.134977 0.522788 -1.85074 Si
51 1 9.65368 6.86408 4.03187 -0.85346 -0.612227 -0.176525 -1.07459 -1.47561 0.998023 Si
21 1 1.36434 9.54974 4.10158 -5.17121 -2.08647 0.611491 -0.24356 -0.0823729 -0.323911 Si
30 1 2.77563 8.15877 5.39079 4.30775 4.24016 -4.71722 -0.492025 0.299084 0.805959 Si
44 1 5.46127 0.121834 5.44564 0.466973 -0.402131 -0.112248 -1.20788 -1.45049 -0.704309 Si
25 1 4.14399 9.51336 6.79561 -0.313316 -2.05376 -0.452138 -0.552639 0.668394 -0.088493 Si
53 1 6.7462 9.47534 4.14655 1.07607 2.68961 2.97272 0.532287 0.661055 -0.707437 Si
57 1 9.45738 9.6017 6.81362 4.34642 1.46719 5.19708 -0.294766 -0.550448 0.397261 Si
62 1 8.23297 8.151 5.3779 1.67042 2.2951 -0.11861 -0.302962 0.325221 0.963416 Si
6 1 2.73243 2.76054 0.0216261 -5.17935 2.1059 2.65207 -0.0695404 -0.119386 -0.0183732 Si
16 1 2.638 -0.0416742 8.12105 -1.66156 -1.80128 3.37143 0.715375 0.0193626 0.348107 Si
36 1 5.31643 -0.0708963 -0.037073 2.45137 8.86182 1.15592 0.909905 1.02851 0.372994 Si
11 1 4.04956 1.3974 9.49326 -4.74772 -4.17736 2.80747 -0.656954 -0.512211 -0.150624 Si
42 1 5.38246 2.82563 8.18013 1.60453 0.921647 3.59331 0.732118 -0.396391 -0.0832713 Si
38 1 8.05304 2.73834 -0.0175466 -0.569444 0.84261 -1.55832 1.59668 -0.220118 0.928312 Si
10 1 0.0652854 2.68319 8.2916 1.65381 0.912898 0.0434939 0.217818 -0.573288 -0.587679 Si
43 1 9.55715 1.34717 9.58608 3.46508 -3.76784 5.37985 -0.896128 1.02637 0.07659 Si
13 1 1.34647 4.11457 9.58742 -3.70152 -1.15249 6.92828 0.178581 0.675551 0.31337 Si
32 1 2.7265 5.42001 8.13459 0.545235 3.04612 3.38685 -0.167081 0.690849 0.667971 Si
52 1 5.47113 5.43812 0.014339 -0.862036 -2.60596 -0.333666 0.0368008 0.832879 0.0447602 Si
27 1 4.0795 6.80566 9.56793 -0.346666 -3.29249 0.227999 -0.169824 -0.287901 -0.380882 Si
45 1 6.79965 4.13882 9.55048 0.550994 -1.90583 2.61002 -0.373656 -0.464446 -0.724762 Si
20 1 -0.0073743 5.57863 0.0982891 -1.16389 1.68172 5.36988 -0.127157 -2.1082 -0.667067 Si
59 1 9.62012 6.83489 9.51075 2.9942 -2.23897 -6.75955 -1.27528 -0.528374 -0.48571 Si
64 1 8.22034 5.37404 8.17124 7.13027 -3.43629 0.306713 -0.056648 1.30515 0.905349 Si
22 1 2.64213 8.07178 0.0507876 3.21493 1.26313 4.20536 -0.0048207 0.298675 -0.567016 Si
29 1 1.26961 9.442 9.51515 0.480731 -1.0914 -3.12229 0.565731 0.652155 0.258784 Si
58 1 5.45302 8.2161 8.24503 -0.929022 0.620448 -7.99152 0.642829 -0.482656 -0.406123 Si
61 1 6.84025 9.60098 9.58169 -7.9965 1.58353 0.25857 -0.706913 -0.0666824 -0.990257 Si
48 1 8.10967 0.150305 8.20118 -0.48252 2.42803 1.76399 -0.0965265 -0.633308 -0.787752 Si
26 1 -0.0381494 8.13998 8.06927 -2.91171 -1.7457 -0.661514 0.26503 0.485843 -0.00343321 Si
ITEM: TIMESTEP
15300
ITEM: NUMBER OF ATOMS
64
ITEM: BOX BOUNDS pp pp pp
0.0000000000000000e+00 1.0887404739999999e+01
0.0000000000000000e+00 1.0887404739999999e+01
0.0000000000000000e+00 1.0887404739999999e+01
ITEM: ATOMS id type xu yu zu vx vy vz fx fy fz element
4 1 -0.052655 -0.101782 0.00922583 1.51573 2.4675 -0.730104 -0.523386 1.01012 -0.342348 Si
7 1 1.28667 1.26301 1.3521 1.56782 4.26168 2.60835 0.691393 0.341893 0.742699 Si
34 1 5.44412 2.78631 2.769 0.58988 -1.83607 -7.78569 0.097044 -0.901838 -0.537743 Si
39 1 6.79004 1.35773 1.3328 8.40974 0.654562 1.95916 0.305504 0.925437 0.652795 Si
2 1 0.0959341 2.74955 2.7632 -0.132584 4.42856 -2.25858 -0.891511 0.212019 -0.140933 Si
40 1 8.17322 0.0790722 2.74485 2.43005 3.8724 4.47515 0.339399 -0.332711 -0.298278 Si
23 1 1.36309 6.87334 1.34234 1.68913 -3.27465 -0.163792 -0.653894 -0.924643 -1.0063 Si
24 1 2.74571 5.57314 2.65893 -3.32216 -2.04918 -1.69716 -0.216841 -1.32446 0.662377 Si
1 1 4.09116 4.11675 1.37165 -0.987529 0.185978 -2.17895 -0.422299 -0.359486 -0.485075 Si
55 1 6.69407 6.81122 1.39791 -0.883968 0.398724 4.38502 0.894129 -0.0188843 -0.898108 Si
33 1 9.53031 4.15756 1.38094 -2.49376 1.17766 0.34812 0.230211 -0.294025 -0.341895 Si
56 1 8.05295 5.49963 2.7556 -2.22804 -6.65483 -2.37144 0.468847 -0.963084 0.29391 Si
8 1 2.77845 0.0380441 2.78702 0.197879 0.536835 0.185402 -0.302828 0.0288172 -0.553596 Si
18 1 0.00305373 8.18863 2.66753 3.59792 4.92164 -0.0636258 -0.573806 -0.196342 0.484329 Si
17 1 4.17842 9.58573 1.43939 1.18012 0.586683 3.40385 -1.17083 -1.01903 -0.60705 Si
50 1 5.46216 8.17412 2.78243 0.173804 2.71112 0.214405 -0.158544 0.439324 0.0199034 Si
49 1 9.43983 9.47194 1.36623 2.86781 3.13741 1.33794 0.199824 0.610772 0.0903166 Si
54 1 8.1266 8.12436 -0.0179521 1.43349 -1.89696 0.798076 -0.724027 0.070737 0.486089 Si
12 1 0.0137013 -0.0662849 5.43252 1.66614 -7.20658 3.70839 -0.200854 0.0363778 -0.0553537 Si
14 1 2.69986 2.74767 5.52574 0.430064 3.69855 -5.58317 0.653824 -0.962867 -0.543751 Si
15 1 1.29812 1.3673 6.79237 2.69164 -5.22613 -2.48463 0.624493 -0.434156 -0.275472 Si
3 1 4.14898 1.38844 4.16012 -5.39571 3.9485 -1.39899 -0.864757 0.285375 -0.127841 Si
47 1 6.84008 1.27202 6.79973 -0.460709 -2.89807 -4.48181 -0.658584 -0.651336 0.248508 Si
35 1 9.55673 1.40226 4.15371 -1.84944 1.12738 -0.351712 -0.106613 0.13077 -0.23391 Si
46 1 8.12657 2.69891 5.5798 2.81846 2.07913 1.88744 -0.0359276 -0.266325 -2.0759 Si
5 1 1.48409 4.11502 4.13892 -2.90316 1.20689 1.12124 -0.912817 0.958835 -1.01143 Si
31 1 1.3355 6.8633 6.84002 -5.52505 -4.65146 -3.08226 -0.00412708 -0.953028 0.0980609 Si
9 1 4.12217 4.0118 6.81202 5.20034 1.50299 2.78503 -0.448979 0.348184 0.361754 Si
19 1 4.05611 6.83661 4.07781 -0.925913 0.13889 1.32291 -0.0339425 0.247369 0.548184 Si
37 1 6.73186 4.05779 4.21225 -2.49739 -2.36376 -3.14346 1.25282 0.191493 -1.00634 Si
60 1 5.3378 5.38481 5.4181 3.39094 3.78741 -3.91096 0.317206 1.03543 0.639896 Si
63 1 6.72914 6.77658 6.78061 0.872516 -2.63043 0.360483 -0.192921 0.412659 0.114292 Si
28 1 -0.0376723 5.50933 5.37288 -0.830873 -0.621424 -2.02061 0.546271 -0.463153 0.752323 Si
41 1 9.45159 4.09779 6.72471 -6.6807 0.0715343 4.89518 0.898773 1.28445 1.55056 Si
51 1 9.47951 6.85592 4.05446 7.80178 4.32848 -2.58102 0.119942 0.0701152 -0.367308 Si
21 1 1.38108 9.49655 4.02172 4.47623 0.874666 -0.738509 0.00013445 0.429486 0.623026 Si
30 1 2.69266 8.19605 5.48239 -3.77006 3.26267 2.77431 0.127118 -0.349605 -0.715969 Si
44 1 5.43659 -0.0935561 5.41855 0.77437 2.59301 5.04132 0.910921 1.15246 0.139133 Si
25 1 4.09952 9.52497 6.7564 -0.990923 -0.510258 5.26313 -0.179061 -0.421662 0.842765 Si
53 1 6.85993 9.55965 4.06476 -2.2197 -5.49942 -0.509278 -0.245892 -0.445438 0.188169 Si
57 1 9.53288 9.40711 6.77127 -4.39575 -3.25294 -4.89759 0.588641 0.90733 0.409652 Si
62 1 8.13597 8.16259 5.45671 0.948451 -4.96756 -0.354525 -0.394375 -0.523623 -0.391744 Si
6 1 2.67293 2.63749 0.0455098 4.12383 0.300864 -3.22664 0.540126 0.92549 -0.376425 Si
16 1 2.80148 0.0691133 8.0689 -0.160532 -3.02576 -2.3427 -0.609479 -0.355611 1.61715 Si
36 1 5.50293 -0.0428431 0.0197054 -1.06638 -3.66139 2.56724 -0.0551388 0.32833 -0.156875 Si
11 1 4.17672 1.35825 9.60021 3.34526 -1.52404 -0.521297 -0.721814 -0.0245365 -0.952636 Si
42 1 5.50519 2.6727 8.1159 -0.096719 -4.5582 -1.29414 -0.150439 -0.121232 0.69837 Si
38 1 8.17869 2.72363 -0.0411362 -3.08968 1.88355 3.58323 -0.0428188 0.458193 0.144653 Si
10 1 -0.0299199 2.72611 8.08523 -0.126832 0.677578 2.21538 -0.236294 0.61591 0.295528 Si
43 1 9.52596 1.36373 9.44591 -2.18824 -2.38751 -0.395488 0.182838 -0.735035 0.701418 Si
13 1 1.38881 4.0576 9.44959 0.736127 -1.48686 -0.851837 -0.151935 -0.674962 0.412964 Si
32 1 2.76828 5.39152 8.14569 0.00427387 -3.48762 1.11717 -0.0278598 0.875304 -0.201944 Si
52 1 5.48539 5.40518 -0.0531632 -3.19138 -1.17077 -1.51705 -0.442014 0.0243266 0.850802 Si
27 1 4.14947 6.76165 9.53874 -0.635662 3.38612 1.22359 -1.01698 0.052659 -0.256182 Si
45 1 6.8056 4.11286 9.44537 4.91681 3.52823 0.741686 0.287266 -1.01369 0.690121 Si
20 1 0.0179735 5.47664 -0.168961 -3.81844 4.03086 -2.23745 0.0987733 -0.24191 2.06263 Si
59 1 9.45863 6.79957 9.51253 3.61945 -1.65029 2.31418 0.51804 0.570582 0.0460914 Si
64 1 8.11228 5.51676 8.19867 -6.03819 5.52126 -2.1124 0.361637 -0.900324 -1.7016 Si
22 1 2.76253 8.12644 0.00764515 -2.06391 0.698437 -2.95123 0.939247 1.18356 0.396482 Si
29 1 1.41618 9.56486 9.59394 -1.79607 -0.109398 1.81736 0.437856 -0.184887 -1.27677 Si
58 1 5.41645 8.1821 8.21048 -3.91194 -0.700518 4.89952 0.267496 -0.155525 -0.977407 Si
61 1 6.81492 9.5368 9.49587 4.54655 1.7403 1.30823 0.221954 -0.523363 0.35509 Si
48 1 8.21543 -0.0981343 8.11694 -0.683583 -0.491023 -4.23434 -0.0920645 0.596225 0.120976 Si
26 1 -0.0144837 8.18436 8.263 -0.655647 0.0650736 3.80994 0.341922 -0.0232553 -0.424839 Si
ITEM: TIMESTEP
15400
ITEM: NUMBER OF ATOMS
64
ITEM: BOX BOUNDS pp pp pp
0.0000000000000000e+00 1.0887404739999999e+01
0.0000000000000000e+00 1.0887404739999999e+01
0.0000000000000000e+00 1.0887404739999999e+01
ITEM: ATOMS id type xu yu zu vx vy vz fx fy fz element
4 1 -0.0128631 0.0133913 0.00998022 -0.860462 -9.19606 -1.23136 0.396148 -0.0557813 -0.323348 Si
7 1 1.43513 1.34453 1.29071 -0.4496 -4.95361 -0.542877 -0.53031 0.720447 0.492206 Si
34 1 5.50313 2.73347 2.75251 -3.76186 1.62638 3.93879 -0.688032 -0.0169368 -0.167871 Si
39 1 6.76673 1.30088 1.37746 -5.24318 1.99072 -1.65405 0.495309 0.562599 -0.0720602 Si
2 1 0.0264793 2.68625 2.7458 -0.265721 0.48206 0.447744 -0.0598852 -0.287205 -0.930292 Si
40 1 8.13564 -0.0836364 2.66359 -3.54023 -1.62495 -2.04329 0.433091 0.880186 1.0458 Si
23 1 1.31651 6.79712 1.40047 1.32969 1.66435 2.47937 1.25428 -0.00192505 0.26392 Si
24 1 2.69265 5.32799 2.75235 3.36573 3.06424 -0.137448 0.414149 1.61121 -0.646485 Si
1 1 4.10951 4.10825 1.3749 3.71909 -0.0630059 4.34975 0.450542 -0.209853 0.170358 Si
55 1 6.80971 6.94615 1.29241 0.971247 1.27434 0.102379 0.450273 -0.737855 1.16527 Si
33 1 9.57014 4.01446 1.2521 0.36527 1.30477 0.894361 -0.651835 0.127564 1.29927 Si
56 1 8.19544 5.49295 2.65492 3.63265 5.46001 0.580268 -0.0629727 -0.274795 -0.500357 Si
8 1 2.68275 -0.0446087 2.708 4.16734 -5.86487 3.70466 0.512492 0.464951 0.17198 Si
18 1 0.0374975 8.12921 2.84136 1.1508 1.29886 0.672454 -0.528772 0.0132601 -0.363947 Si
17 1 4.01211 9.48342 1.34049 -3.0848 -1.77358 2.07106 0.912598 1.17331 0.180495 Si
50 1 5.36299 8.16011 2.68946 -1.29737 0.517566 -2.52307 0.795168 0.205205 0.0659675 Si
49 1 9.63998 9.53305 1.46781 -6.29664 -6.77836 0.174866 -0.196546 -0.309415 -0.690922 Si
54 1 8.28506 8.23705 0.0504671 0.34305 1.32886 -3.6907 -0.605585 0.0260489 -0.320614 Si
12 1 0.0548812 0.0786552 5.45398 -1.89102 -0.141438 -4.88437 -0.182681 -0.211804 0.618366 Si
14 1 2.70784 2.67411 5.44952 -1.02906 1.20778 1.17379 0.288991 0.167365 -0.700932 Si
15 1 1.42933 1.4211 6.84494 -2.16424 -2.94593 0.701557 -1.00784 -0.720958 0.163016 Si
3 1 4.069 1.35328 4.08672 6.31394 -3.17175 -0.587505 0.346105 -0.279498 -0.289125 Si
47 1 6.7878 1.38929 6.86266 -1.07134 2.60026 3.4224 -0.328602 0.0381308 -0.82456 Si
35 1 9.51119 1.32165 4.08717 2.53596 -3.06181 -0.438484 -0.488987 0.0935875 -0.553654 Si
46 1 8.06085 2.68963 5.38047 -2.05228 -2.92888 8.14835 1.74227 0.20928 1.18852 Si
5 1 1.40587 4.01951 4.08681 2.44211 -4.81923 1.37499 -1.07401 -0.187362 0.606534 Si
31 1 1.38588 6.81424 6.84658 -0.257904 5.13376 0.661812 -0.609974 0.348796 -0.924239 Si
9 1 3.97625 4.06717 6.73122 1.66229 -0.141539 -2.31666 1.15176 0.378472 0.928049 Si
19 1 4.11857 6.74323 4.03884 2.50279 0.590455 -2.17942 -0.143283 -0.669308 0.357425 Si
37 1 6.87056 4.12867 4.07222 -2.26285 -2.26697 3.44399 -0.851225 0.23267 -0.438603 Si
60 1 5.47184 5.39692 5.50951 1.41669 1.80472 4.15836 -0.234532 0.279103 -1.13883 Si
63 1 6.87132 6.73234 6.81424 0.0650166 1.69879 2.80832 0.440814 0.281008 0.208824 Si
28 1 0.01135 5.36353 5.47533 -0.5799 -0.799866 -0.277417 0.210712 1.14633 -0.354012 Si
41 1 9.5053 4.09419 6.81785 1.39425 2.41678 -7.17652 -0.219164 -1.47498 -1.22284 Si
51 1 9.46886 6.80607 4.139 -4.72908 -4.2328 4.96998 0.821871 -0.276977 0.137059 Si
21 1 1.34387 9.54613 4.11862 -0.0563305 2.88593 -0.720227 0.441251 -0.143866 -0.00466926 Si
30 1 2.77544 8.13612 5.33733 -0.515389 -0.816277 -2.15129 -0.582346 0.107733 1.39138 Si
44 1 5.46702 0.0166931 5.47174 -0.415722 -1.53756 -4.81138 -0.412286 -0.0327981 -0.204871 Si
25 1 4.06793 9.52659 6.795 2.46958 1.38139 -2.08474 0.146526 -0.163104 0.00803826 Si
53 1 6.75862 9.52299 4.04495 3.83645 3.81114 0.625411 -0.205455 -0.12859 0.233807 Si
57 1 9.55275 9.66141 6.86605 -0.97365 0.856459 3.66929 -0.452686 -0.893416 -1.38335 Si
62 1 8.14527 8.24822 5.45584 -4.10204 0.77284 6.76686 0.305524 -0.243305 0.567653 Si
6 1 2.77143 2.81838 -0.0396069 -0.93148 -1.86645 3.29835 -0.291225 -0.871466 0.00188664 Si
16 1 2.69943 -0.000232781 8.22192 2.46693 1.96243 0.00319365 0.441039 0.0860654 -1.36299 Si
36 1 5.44265 0.0156405 0.00616463 -6.58827 0.844483 -1.48456 -0.895578 -0.726184 -0.711377 Si
11 1 4.05874 1.39771 9.45426 -5.58717 3.06955 -0.799022 0.725368 0.0618406 1.08301 Si
42 1 5.4114 2.78709 8.11824 1.17814 -0.526842 -0.841432 -0.594777 -0.300476 -0.0130529 Si
38 1 8.10973 2.63478 -0.0402117 2.88615 -0.603691 -1.02063 0.00445856 0.612075 0.20591 Si
10 1 -0.0259644 2.75949 8.13092 -2.32115 0.0491027 0.277308 0.478901 -0.279679 0.644089 Si
43 1 9.52606 1.35413 9.50012 -6.57759 3.67824 0.49629 -0.0189719 0.0817056 -0.0119119 Si
13 1 1.35064 4.12526 9.51497 3.91105 6.63134 3.89596 0.249995 -0.245359 -0.40358 Si
32 1 2.74107 5.46116 8.1607 -0.912846 3.6565 -2.87685 -0.470155 -0.408707 -0.00118737 Si
52 1 5.43557 5.55491 0.063343 2.10914 0.748372 -1.01562 -0.0247689 -0.959816 -0.909203 Si
27 1 4.05111 6.79636 9.52145 3.3194 1.16157 -0.378025 0.692672 0.874077 -0.00772046 Si
45 1 6.71987 4.07461 9.54021 -0.129863 -1.15829 -3.36501 0.709931 0.485671 0.409364 Si
20 1 0.0563659 5.43028 0.0285363 -1.5139 -5.12535 -1.44434 -0.955972 0.487142 -0.721754 Si
59 1 9.47378 6.78303 9.56514 -2.56362 -2.60893 -2.50542 1.18789 -0.127178 0.342073 Si
64 1 8.25789 5.34328 8.2188 -0.0231209 1.22893 0.206765 -1.90571 0.953523 0.195265 Si
22 1 2.71433 8.20349 0.00646672 -0.649066 -2.05698 0.440619 -1.3234 -0.909765 -0.830661 Si
29 1 1.31467 9.56045 9.4591 7.13499 -0.600693 -0.637427 -0.31561 -0.861724 1.27802 Si
58 1 5.49718 8.12557 8.10126 5.93562 -5.06029 -3.14748 -0.611065 0.0616529 0.826672 Si
61 1 6.83808 9.4834 9.53989 0.535172 0.69676 -7.72191 -0.137913 0.59824 -0.119789 Si
48 1 8.13819 0.0348752 8.15521 -0.600533 4.23417 -0.646016 -0.0488021 -0.125551 0.892393 Si
26 1 -0.121069 8.1719 8.16905 2.13875 3.59208 -2.62476 1.21083 -0.233603 0.00618558 Si
ITEM: TIMESTEP
15500
ITEM: NUMBER OF ATOMS
64
ITEM: BOX BOUNDS pp pp pp
0.0000000000000000e+00 1.0887404739999999e+01
0.0000000000000000e+00 1.0887404739999999e+01
0.0000000000000000e+00 1.0887404739999999e+01
ITEM: ATOMS id type xu yu zu vx vy vz fx fy fz element
4 1 -0.0428187 -0.00228738 -0.0212574 -1.1482 4.69443 -0.293607 1.08385 0.010115 0.655228 Si
7 1 1.32128 1.40695 1.43355 3.95436 -0.289299 0.231553 -0.0146686 -0.83516 -0.791444 Si
34 1 5.35833 2.67612 2.69296 -2.78891 -1.88474 3.57883 0.47043 0.705206 0.488337 Si
39 1 6.86795 1.43324 1.41754 1.78962 1.2964 1.23364 -0.720821 -0.84279 -0.926197 Si
2 1 -0.0246062 2.7777 2.78676 -2.06587 -0.391346 1.85907 -0.126217 -0.314601 0.0404666 Si
40 1 8.21519 -0.0369903 2.65316 3.71667 -0.505105 2.72647 -0.98634 0.179125 0.483304 Si
23 1 1.3969 6.8295 1.305 -1.6264 2.24911 -6.42213 -0.476627 -0.0469464 0.67674 Si
24 1 2.72837 5.48379 2.74099 -4.09974 -4.68157 -2.57173 -0.224204 -0.17372 -0.58737 Si
1 1 3.98778 4.02362 1.36715 -4.15581 -1.97341 -1.70178 0.414917 0.396937 -0.0483195 Si
55 1 6.8028 6.71067 1.36194 -2.69555 2.7656 -4.42486 -0.316523 -0.189647 -0.420716 Si
33 1 9.52699 4.10394 1.39285 1.8141 -3.69573 -5.3514 0.468261 0.157677 -0.15603 Si
56 1 8.13341 5.38605 2.70372 -1.11123 -3.68232 -3.95352 0.50258 0.590483 1.21123 Si
8 1 2.70939 -0.0459927 2.72658 -0.811288 7.56955 1.43686 -0.535959 0.163602 -0.342318 Si
18 1 -0.0759943 8.2333 2.53973 1.65046 -4.71961 0.836455 0.798614 -0.75605 0.564177 Si
17 1 4.15027 9.50514 1.41307 -3.87877 0.291381 -0.973646 -0.308077 0.0686447 -0.216433 Si
50 1 5.56577 8.13192 2.70692 -2.30094 -1.22266 2.70781 -1.30756 -0.325697 -0.183096 Si
49 1 9.44447 9.53493 1.21248 5.80673 3.53441 1.26866 0.218244 -0.0786481 0.575605 Si
54 1 8.11406 8.08108 0.0215796 1.16278 -0.291265 3.9712 -0.057368 0.500334 -0.882467 Si
12 1 0.0154261 -0.0349581 5.44775 1.0548 2.23198 -0.293577 -0.761016 0.545666 -0.945999 Si
14 1 2.72575 2.75398 5.44094 4.28646 -8.18619 -1.91695 -0.470504 0.29866 -0.0892022 Si
15 1 1.36181 1.34334 6.72923 -0.0988386 3.38692 0.160008 -0.0282033 0.426333 0.613673 Si
3 1 3.97052 1.38994 4.03227 -3.0046 -0.591313 -1.05117 1.13421 -0.494846 0.799311 Si
47 1 6.87951 1.38935 6.83549 1.5463 -3.59704 2.67759 -0.219798 0.449842 -0.0698799 Si
35 1 9.46192 1.32763 4.06994 2.74497 3.75378 4.41076 1.36482 0.106022 0.372562 Si
46 1 8.26958 2.74424 5.49669 -4.42179 -4.20146 -6.96184 -1.54904 0.0542768 -0.782425 Si
5 1 1.35042 4.16791 4.10113 -0.127406 7.20618 -1.59449 0.960126 -1.24686 -0.461055 Si
31 1 1.4315 6.71248 6.78634 0.285821 -3.7001 1.50537 0.483697 0.728605 0.74152 Si
9 1 4.08396 4.06883 6.84822 -0.788695 -2.69245 1.59308 -0.0312988 -0.00674786 -0.573482 Si
19 1 4.13573 6.80308 4.04332 -1.84066 -0.535897 1.14005 -0.586734 0.975519 0.356535 Si
37 1 6.71624 4.07029 4.09875 2.02825 3.21324 0.405376 0.707571 -0.420715 0.301282 Si
60 1 5.38266 5.47869 5.46729 -0.59966 0.655788 4.79897 0.67189 -0.439956 0.212065 Si
63 1 6.81814 6.83233 6.78479 -1.08461 -1.49014 -3.44125 -0.668403 0.483844 -0.248013 Si
28 1 0.0930032 5.43136 5.4394 1.53957 3.70583 3.35694 -1.5523 0.299792 0.566633 Si
41 1 9.61208 4.03497 6.85617 0.344057 5.23417 4.21253 0.349387 0.966476 0.0337364 Si
51 1 9.65645 6.81564 4.01844 0.362 2.43059 -0.723199 -1.42796 -0.446483 0.0473895 Si
21 1 1.24749 9.5043 3.99787 -0.940861 0.708464 -0.588185 0.697062 0.0484811 0.176553 Si
30 1 2.67647 8.2106 5.38526 -0.51908 -2.39368 -2.75167 0.617273 -0.414501 0.231352 Si
44 1 5.50149 0.126389 5.4251 -0.649184 5.39923 0.853915 -1.02418 -1.17214 -0.206473 Si
25 1 4.00976 9.62849 6.84086 0.560022 -0.729913 -1.57771 0.563686 -0.245005 -0.72951 Si
53 1 6.80317 9.50908 4.02285 -3.93782 -1.22693 1.66815 0.875412 0.898599 0.986193 Si
57 1 9.52439 9.55822 6.77711 3.67213 2.22412 -0.216658 0.326796 -0.69903 1.2065 Si
62 1 8.21454 8.16263 5.40579 0.00374506 0.77032 -5.11129 -0.114306 -0.028569 -0.368242 Si
6 1 2.67793 2.70093 -0.0259819 4.00648 2.03927 -0.424119 -0.166275 -0.272077 0.688186 Si
16 1 2.59136 0.0507609 8.21334 -1.27269 0.190107 5.74316 0.818656 -0.619641 -0.0140942 Si
36 1 5.40928 0.038058 0.0297644 6.29388 -1.27492 -1.22094 0.856223 0.317524 0.169858 Si
11 1 4.05489 1.37789 9.50771 6.79347 1.86145 -1.4857 -0.0869847 -0.210482 0.161611 Si
42 1 5.43185 2.71826 8.14972 3.1349 -0.326522 1.4868 0.976153 0.110961 0.616989 Si
38 1 8.23323 2.76586 0.0395806 1.7693 3.19453 -2.47322 -0.188459 -0.550156 -0.557313 Si
10 1 0.0865032 2.64496 8.22462 -2.57695 1.27677 -3.88921 -0.833085 0.145787 -0.750378 Si
43 1 9.55838 1.3333 9.55127 4.51186 -1.95221 -3.02153 -0.144774 1.11958 0.161014 Si
13 1 1.30782 4.0445 9.58035 -4.60613 -5.86449 -2.29121 0.0858273 0.528723 0.192539 Si
32 1 2.74089 5.31742 8.25863 1.25224 -0.0389392 0.537054 -0.484906 1.082 -0.597332 Si
52 1 5.41684 5.31741 0.00504262 0.156801 -0.300489 2.39424 -0.00398619 0.926667 0.0248274 Si
27 1 4.04925 6.77589 9.55821 -4.28853 0.319428 2.33023 0.602663 -0.256558 0.0848087 Si
45 1 6.89318 4.09926 9.52214 -3.90313 -3.0006 -1.03107 -0.748571 -0.376124 -0.497689 Si
20 1 -0.0442906 5.50294 0.0117966 3.04797 2.33776 4.92131 0.708004 -0.937206 0.204742 Si
59 1 9.56877 6.84153 9.54823 -2.58708 2.08991 0.667684 -0.976296 -0.276949 -0.787282 Si
64 1 8.1736 5.51254 8.09995 0.614766 -4.28291 0.790453 0.968959 -0.723829 0.895931 Si
22 1 2.75954 8.18546 0.0326888 2.43646 4.91947 0.324575 0.320892 -0.100155 -0.103719 Si
29 1 1.33775 9.4544 9.58635 -4.19038 0.0324545 0.754918 0.152275 0.959676 -0.308665 Si
58 1 5.39284 8.17803 8.1817 1.61764 1.06085 -2.57092 0.305193 0.288153 -0.130732 Si
61 1 6.80768 9.55215 9.56814 -1.94477 -3.6634 4.38121 -0.32758 -0.250412 -0.268903 Si
48 1 8.20263 0.0633515 8.22454 -0.541518 -5.84164 -3.5897 -0.34227 -1.22425 -0.584129 Si
26 1 0.0758564 8.11094 8.1738 -3.35152 -3.41518 2.95337 -0.692379 0.44263 -0.911996 Si
ITEM: TIMESTEP
15600
ITEM: NUMBER OF ATOMS
64
ITEM: BOX BOUNDS pp pp pp
0.0000000000000000e+00 1.0887404739999999e+01
0.0000000000000000e+00 1.0887404739999999e+01
0.0000000000000000e+00 1.0887404739999999e+01
ITEM: ATOMS id type xu yu zu vx vy vz fx fy fz element
4 1 0.00908818 -0.0431804 -0.0130501 3.46384 2.61038 1.33628 -1.04169 0.973143 0.0691908 Si
7 1 1.36986 1.34007 1.27741 -3.03502 3.31366 2.40169 0.570414 0.613784 1.00899 Si
34 1 5.44279 2.73582 2.69918 -1.27701 -0.681594 -1.04755 0.637364 -0.519637 -0.48586 Si
39 1 6.82141 1.26726 1.34707 -1.33861 -0.59456 0.289006 0.0378623 0.693108 0.693288 Si
2 1 -0.0400122 2.7496 2.67211 3.34941 -5.77446 -2.05239 0.651607 -0.516638 -0.143738 Si
40 1 8.20672 -0.00358645 2.84212 2.4115 -2.89339 -1.0748 -0.0983492 -0.086396 -1.33841 Si
23 1 1.34106 6.76732 1.43494 1.53829 -1.17985 3.81313 -0.636839 0.0789215 -1.14132 Si
24 1 2.76018 5.47339 2.70165 3.78462 7.54571 0.345512 -0.27774 -1.00148 1.00832 Si
1 1 4.1828 4.16647 1.33836 0.285864 3.46774 -0.168239 -0.984333 -0.503193 -0.29436 Si
55 1 6.77517 6.93966 1.43192 4.22853 -4.3893 -1.27729 0.361977 -0.662886 -0.706019 Si
33 1 9.47679 4.13963 1.31504 -0.617288 3.49854 4.06339 -0.0109335 -0.69483 0.00662627 Si
56 1 8.18531 5.56069 2.69522 0.475137 2.4143 2.88803 -1.01073 -1.27793 0.0117876 Si
8 1 2.82506 0.0404017 2.76357 -0.140294 -2.42976 -3.04756 -0.584627 0.537802 -0.483061 Si
18 1 0.0675984 8.25211 2.75577 -0.845894 2.31452 -3.62634 -0.243873 -0.706566 0.696981 Si
17 1 4.05849 9.48345 1.37015 1.05201 1.74969 1.66155 -0.458017 0.270598 -0.831115 Si
50 1 5.36764 8.18911 2.73163 4.65557 0.510546 -1.86105 0.644034 0.350307 0.568276 Si
49 1 9.54106 9.53159 1.42542 1.54963 -2.06063 -5.74211 0.397631 0.741843 0.0996399 Si
54 1 8.20066 8.22424 0.096223 -1.18057 1.55951 -2.69313 0.335032 -0.814163 0.0716888 Si
12 1 0.00592756 0.0362643 5.48404 0.107935 -1.9301 2.79523 0.380525 -1.14989 0.0948427 Si
14 1 2.73443 2.79002 5.45985 1.06138 2.11769 -0.598665 0.352048 -1.21783 0.661483 Si
15 1 1.33463 1.39328 6.81385 -1.08288 1.76538 -4.12504 0.817317 0.0293377 -0.113987 Si
3 1 4.17115 1.42515 4.15898 -2.39095 -1.01817 -0.47015 -1.14482 0.000164436 -0.915115 Si
47 1 6.69015 1.34616 6.75351 -5.35828 3.47058 -3.33471 1.23378 -0.907414 0.0284998 Si
35 1 9.62059 1.32406 4.10444 -5.66406 -3.13361 -4.21637 -1.03637 1.1342 -0.057447 Si
46 1 8.13752 2.67401 5.43301 8.58516 4.02093 5.33715 0.237456 0.272692 -0.144961 Si
5 1 1.35847 4.00821 4.12436 -0.655495 -3.22699 -0.41751 -0.491185 1.8564 -1.16072 Si
31 1 1.19027 6.77481 6.79707 -1.42601 2.96196 -1.42278 0.35218 0.297225 -0.17338 Si
9 1 4.15207 4.10013 6.78318 -0.922611 -1.52047 -0.993599 -0.903429 0.0457494 0.212334 Si
19 1 4.08082 6.83543 4.09298 -0.68966 -4.42541 -2.8042 -0.651582 -0.465087 0.0354261 Si
37 1 6.78494 4.07081 4.03735 -2.05655 -0.284805 -2.97492 1.16986 0.324679 -0.294262 Si
60 1 5.41024 5.39616 5.34171 -2.43658 -4.28877 -7.082 0.179858 0.308426 0.477126 Si
63 1 6.6921 6.73198 6.76793 5.52884 -0.122891 5.08135 0.57753 0.111739 0.667823 Si
28 1 -0.127314 5.42548 5.42909 -1.21961 -5.01457 -0.649681 0.932648 -0.529591 -0.388085 Si
41 1 9.50656 4.06107 6.82528 -0.703093 -11.6909 1.46767 -1.25936 0.276677 0.198508 Si
51 1 9.49346 6.82403 4.067 2.54977 0.435018 -2.44709 0.60112 0.871589 0.157303 Si
21 1 1.4695 9.60082 4.14558 -1.09237 0.366513 -0.928295 -0.456352 -0.655214 0.348156 Si
30 1 2.68264 8.05023 5.55639 -1.30842 1.93984 1.05393 0.335335 1.19069 -0.869481 Si
44 1 5.41232 -0.0768222 5.362 2.44749 2.61792 -1.15323 0.51698 0.0728277 1.07319 Si
25 1 4.15879 9.44276 6.81838 -0.477697 3.90741 -1.92589 -0.423749 -0.113135 0.652282 Si
53 1 6.82193 9.49416 4.06509 -1.23646 1.39278 1.2917 -0.491179 -0.317057 0.21183 Si
57 1 9.48838 9.45695 6.7666 -3.48021 1.32602 -3.129 0.00558786 0.91289 -0.0375766 Si
62 1 8.07232 8.08345 5.46378 5.2864 1.06044 2.77598 0.49664 0.343369 -0.315082 Si
6 1 2.79567 2.74257 -0.067608 -4.91115 -1.23869 0.461252 -0.289429 0.464902 0.621241 Si
16 1 2.75564 0.0122292 8.12381 -4.39358 -0.562527 -0.723474 0.165555 -0.200118 0.240611 Si
36 1 5.47499 -0.0776111 -0.0168581 -6.06815 -3.92838 -2.57964 0.162668 -0.353878 0.0163759 Si
11 1 4.12528 1.32481 9.54798 0.0961525 2.5788 -1.32319 -0.0235545 -0.21413 -0.587067 Si
42 1 5.43945 2.67148 8.15245 -1.46649 5.10837 -3.15574 -0.367295 0.589079 0.239339 Si
38 1 8.14154 2.67601 -0.0386114 -3.5911 0.890872 -1.60518 -0.291307 0.649365 0.867258 Si
10 1 -0.0301405 2.70595 8.15081 5.67135 -0.592978 4.46255 0.453831 0.575753 0.318832 Si
43 1 9.48342 1.39929 9.50564 1.89455 -0.673302 3.04272 0.805945 -1.28338 -0.0137294 Si
13 1 1.43684 4.11518 9.4081 -1.3103 2.14283 1.57424 -0.464569 -0.677428 0.342982 Si
32 1 2.68085 5.52367 8.01671 -0.0904065 -3.19072 2.53704 1.10132 -0.532541 1.02576 Si
52 1 5.47836 5.58209 0.00562875 -0.120064 -6.27427 -2.47979 0.3365 -1.00115 -0.05301 Si
27 1 4.054 6.81588 9.53909 0.709298 -2.19302 1.59539 -0.665403 -0.142144 -0.364238 Si
45 1 6.75933 4.04162 9.53218 2.13864 4.8064 1.60042 0.0160599 0.720635 0.208341 Si
20 1 0.0226026 5.36668 -0.0642738 -0.149782 5.16774 -1.63021 0.166084 1.08775 0.523158 Si
59 1 9.49595 6.83425 9.59461 3.67493 1.47767 2.16187 0.62754 0.209522 -0.571524 Si
64 1 8.09651 5.49332 8.22463 0.505858 -0.62151 0.300232 0.470942 -0.840885 -0.678001 Si
22 1 2.60782 8.11499 -0.0184456 -5.22555 -5.40499 6.24834 1.1382 0.384563 0.796294 Si
29 1 1.39432 9.59224 9.56304 -4.26609 -6.0991 2.69659 -0.159435 -0.619905 -1.23932 Si
58 1 5.54187 8.10326 8.31247 -0.448532 2.04751 5.38153 -0.54299 0.688393 -1.37154 Si
61 1 6.99091 9.49232 9.54854 3.97613 2.70174 2.24936 -1.79035 0.500447 0.111451 Si
48 1 8.16297 -0.00766511 8.12912 -1.1458 6.46187 8.18116 0.0855884 0.495697 -0.580692 Si
26 1 0.0055849 8.24212 8.16212 2.79436 -2.31116 -4.33348 -0.555523 -0.669773 0.987867 Si
ITEM: TIMESTEP
15700
ITEM: NUMBER OF ATOMS
64
ITEM: BOX BOUNDS pp pp pp
0.0000000000000000e+00 1.0887404739999999e+01
0.0000000000000000e+00 1.0887404739999999e+01
0.0000000000000000e+00 1.0887404739999999e+01
ITEM: ATOMS id type xu yu zu vx vy vz fx fy fz element
4 1 -0.117454 -0.0963155 0.0223565 -1.58822 -5.53746 3.62376 1.42624 -0.136119 -0.279024 Si
7 1 1.32995 1.21432 1.36815 -0.109954 -7.64556 -3.27697 -0.59518 0.931263 -0.145947 Si
34 1 5.44372 2.72612 2.82306 -0.487623 4.2593 3.44389 -0.0908645 0.0511356 -0.439111 Si
39 1 6.76325 1.41437 1.34346 -0.831647 -4.38111 -0.135467 -0.0219758 0.142394 -0.39648 Si
2 1 -0.0043596 2.62979 2.7293 2.74445 3.16153 1.11027 0.591476 0.730276 0.172111 Si
40 1 8.06579 -0.0201059 2.61787 -1.37645 0.654092 2.22244 0.624911 0.499261 1.05135 Si
23 1 1.41734 6.83231 1.36112 1.64224 -1.4494 4.89532 0.368375 0.0360888 0.474785 Si
24 1 2.74371 5.41597 2.79844 -1.9985 -1.06536 -3.97862 0.47066 0.922347 -1.07659 Si
1 1 4.08833 4.08494 1.40824 1.08277 2.38998 0.322869 0.411348 0.136615 0.0179181 Si
55 1 6.87186 6.77036 1.31427 -4.80029 1.63058 2.63599 -0.51277 0.37464 0.884599 Si
33 1 9.51184 4.04042 1.43003 -0.0922929 3.61629 0.442414 0.275579 0.842491 -0.187985 Si
56 1 8.08229 5.41291 2.80594 -1.59028 4.34577 0.987969 1.60649 0.371103 -0.751425 Si
8 1 2.70434 -0.0396394 2.71981 -0.508911 -0.862361 2.99007 0.283983 -1.31359 0.278087 Si
18 1 -0.122161 8.03568 2.74229 0.975511 2.93008 -4.36582 0.254216 1.01651 -0.532038 Si
17 1 4.13369 9.49582 1.27941 0.694436 1.10359 0.0974987 0.367191 0.879209 1.52935 Si
50 1 5.51303 8.144 2.72225 -3.22696 0.635557 -0.497352 -0.137158 0.181421 -0.694554 Si
49 1 9.3698 9.44979 1.31091 -5.02504 -2.53656 2.63219 0.662265 -0.500375 0.498317 Si
54 1 8.04154 8.16667 -0.115659 0.378176 -2.85241 1.00175 0.590251 -0.159568 -0.347643 Si
12 1 -0.0620044 0.0327784 5.40496 1.5802 1.08146 0.855907 0.614902 -0.218866 0.845888 Si
14 1 2.76718 2.61163 5.55192 0.759285 5.8573 3.36091 -0.508059 1.21671 -1.53237 Si
15 1 1.32842 1.38643 6.83718 -2.48148 2.07683 1.89163 -0.609974 -0.667119 -0.528195 Si
3 1 4.08037 1.28356 4.11991 0.36457 2.37332 3.91814 -0.0250379 0.454785 -0.241686 Si
47 1 6.83823 1.35883 6.86469 2.78246 0.279648 -0.849924 -0.948617 0.721051 -0.482884 Si
35 1 9.46392 1.36371 4.05397 1.06139 0.666907 5.45354 -0.522517 -0.681047 -0.461639 Si
46 1 8.1411 2.72731 5.41763 -7.25092 1.04565 0.600692 1.10371 0.0201436 1.15598 Si
5 1 1.43173 4.07224 4.08623 7.70143 -2.64288 0.238159 -0.79929 -1.11351 1.0668 Si
31 1 1.53476 6.89226 6.85889 1.38084 -1.74651 3.31266 -0.839557 -0.122952 -0.585381 Si
9 1 4.02898 4.102 6.80874 2.0551 -0.621676 3.30396 0.81897 -0.154018 -0.119105 Si
19 1 4.16474 6.79885 4.07845 -2.12874 5.92645 0.0538352 0.00443361 -0.505297 -0.306458 Si
37 1 6.8382 4.10547 4.16132 1.86595 -5.39111 5.39614 -1.77558 -0.128705 0.195584 Si
60 1 5.4503 5.49237 5.54174 -1.91893 -1.76002 2.0424 0.416142 -0.319299 -0.639548 Si
63 1 6.87781 6.89478 6.79369 -4.49228 -3.4526 -5.66393 0.0887911 -0.541399 0.212782 Si
28 1 0.141241 5.56475 5.48431 -3.30763 2.18068 -1.14636 -0.0652836 -0.782494 -0.20414 Si
41 1 9.63241 4.14224 6.74262 -2.29487 4.59274 2.95317 -0.509289 -1.01237 -0.679186 Si
51 1 9.45608 6.76691 4.21126 -1.45889 2.31791 -3.44609 0.285414 -0.112209 -0.949374 Si
21 1 1.26313 9.43987 4.10643 2.52356 -2.32781 -4.90799 0.325838 0.560148 -0.995224 Si
30 1 2.79344 8.14251 5.31841 3.44679 -0.42154 -0.493083 -0.304853 0.725934 1.18172 Si
44 1 5.48893 -0.00633838 5.43397 -1.47957 -4.38828 -0.842434 0.0727312 0.635809 0.527924 Si
25 1 4.10031 9.55514 6.7065 1.45366 -2.73871 -2.40681 -0.770574 0.103472 0.0399758 Si
53 1 6.7961 9.56634 4.09615 4.50261 0.207959 -2.51243 0.0205391 -0.153608 -1.03337 Si
57 1 9.59686 9.55778 6.90847 -0.0836623 -5.47967 4.5818 -0.731228 -0.0511118 -1.21718 Si
62 1 8.18743 8.29801 5.39876 -1.96701 0.223349 -4.12437 0.468587 -0.503317 1.52484 Si
6 1 2.62672 2.75946 0.112577 -0.766296 -0.199465 2.5057 0.505725 -0.705282 -0.924426 Si
16 1 2.72639 0.0422469 8.0967 1.60355 1.23722 -8.50676 -0.0410606 -0.60423 0.345134 Si
36 1 5.42875 0.0469481 -0.0607108 6.54136 1.56484 3.22881 -1.0396 0.826216 0.746339 Si
11 1 3.99864 1.41433 9.50834 -0.363157 -1.7042 6.28245 0.0409629 0.281502 0.661721 Si
42 1 5.36996 2.79834 8.18892 3.5736 -2.20937 -0.0488355 0.236306 -1.29819 -0.668515 Si
38 1 8.19763 2.75321 -0.025275 -0.0678708 -2.39874 -3.86089 -0.44003 -0.509795 -0.0184493 Si
10 1 -0.0276001 2.75451 8.14144 -4.23929 -0.579126 -3.8794 0.539549 -0.0796799 0.516025 Si
43 1 9.59814 1.33645 9.53631 -2.68276 0.734984 -6.28774 -1.41576 0.370458 -0.305438 Si
13 1 1.33942 4.09892 9.52743 2.8483 0.350434 -5.10748 0.169795 0.0675624 0.11369 Si
32 1 2.76023 5.43068 8.15463 1.12833 -3.21329 -5.31243 -0.441017 0.0649927 0.87673 Si
52 1 5.5221 5.45036 0.0113253 1.84484 6.09889 1.41279 -1.32466 -0.444903 -0.0351907 Si
27 1 4.12932 6.76772 9.49534 2.69388 -0.370042 1.6774 0.563417 0.621692 -0.185324 Si
45 1 6.73624 4.06142 9.50158 -1.0389 -0.0457258 -5.48789 1.45538 0.264892 0.274592 Si
20 1 0.0522659 5.46636 0.064711 1.12373 -1.96451 -5.71997 -1.19778 -0.121619 -0.634741 Si
59 1 9.54298 6.82117 9.44842 -3.71211 -0.969835 -2.14974 -0.37165 -0.976462 0.904361 Si
64 1 8.20536 5.30672 8.09333 2.36271 2.40929 4.92554 -0.586447 1.99352 0.65622 Si
22 1 2.83767 8.20723 -0.0474031 0.0539721 -2.46883 -1.97291 -1.42418 -0.975619 -0.324851 Si
29 1 1.39259 9.54362 9.49119 2.13504 7.62397 3.35599 0.105893 0.315516 0.780723 Si
58 1 5.4175 8.24259 8.05722 -1.59838 2.68264 3.14224 -0.333676 -1.25648 0.674922 Si
61 1 6.61183 9.56796 9.49354 4.54636 -0.751645 -0.66235 2.03844 -0.296962 -0.533701 Si
48 1 8.13669 -0.0198646 8.19378 1.65292 -6.09806 -7.92258 0.372997 0.141317 0.752937 Si
26 1 0.0683175 8.17013 8.19652 -6.13513 4.01465 4.66637 0.202149 -0.0542842 -0.504231 Si
ITEM: TIMESTEP
15800
ITEM: NUMBER OF ATOMS
64
ITEM: BOX BOUNDS pp pp pp
0.0000000000000000e+00 1.0887404739999999e+01
0.0000000000000000e+00 1.0887404739999999e+01
0.0000000000000000e+00 1.0887404739999999e+01
ITEM: ATOMS id type xu yu zu vx vy vz fx fy fz element
4 1 0.117178 0.187969 -0.0377851 -6.64406 0.329222 -2.28313 -0.911428 -1.06229 0.334133 Si
7 1 1.35831 1.55781 1.32627 5.92197 0.437188 -0.207284 0.701143 -0.974082 -0.0158934 Si
34 1 5.51632 2.72113 2.61315 2.15109 -2.60532 -4.01412 -0.779049 0.140057 0.75589 Si
39 1 6.88208 1.27328 1.39762 1.90742 0.405207 3.54188 -0.138979 0.22852 0.047184 Si
2 1 0.027514 2.7824 2.73728 0.036026 -3.04761 -0.102648 -0.876338 0.228209 0.0574728 Si
40 1 8.2548 0.00713839 2.80633 -1.87774 -2.2287 -4.98131 -0.626668 -0.318989 -0.534565 Si
23 1 1.32824 6.83902 1.29178 -6.06652 2.57004 -1.48533 0.189897 -0.411635 0.331775 Si
24 1 2.68707 5.45052 2.67757 0.186516 -3.79556 7.81434 -0.825185 -0.172136 -0.129809 Si
1 1 4.01529 4.05741 1.32404 1.30746 -0.356829 1.12529 0.231363 -0.520857 0.232202 Si
55 1 6.77492 6.79388 1.37705 4.15845 6.12702 -4.20599 -0.0983882 0.172643 -0.66106 Si
33 1 9.52944 4.06815 1.33558 0.263127 -1.39855 -5.02995 0.0774015 -0.383895 -0.301482 Si
56 1 8.18476 5.41966 2.62053 -7.75605 0.713843 2.57901 -0.303253 0.424933 0.254474 Si
8 1 2.68023 0.134461 2.63774 2.72112 0.665439 -0.451999 0.248989 -0.231773 0.987262 Si
18 1 0.0551163 8.19501 2.71891 -0.887087 -1.37535 4.89804 0.634653 0.316364 0.0267518 Si
17 1 4.09657 9.59919 1.46071 0.799212 -4.53351 -0.285267 -0.558255 -1.11033 -1.106 Si
50 1 5.4283 8.1356 2.77025 -0.0087923 -1.07341 0.935947 -0.726849 -0.222657 -0.0232309 Si
49 1 9.73259 9.70165 1.42564 1.57255 -1.23051 1.66048 -1.06488 -0.683602 -0.682063 Si
54 1 8.26251 8.22932 0.122932 3.56091 0.258898 0.393308 -0.0793593 -0.0122386 0.454078 Si
12 1 0.0602922 0.0042091 5.50933 -2.63894 -0.520022 -2.00384 -0.346639 0.476226 -1.39629 Si
14 1 2.67265 2.76136 5.40653 -1.49879 -4.2775 3.82209 0.334752 -0.128643 0.347171 Si
15 1 1.43092 1.36186 6.84829 4.72184 2.93517 0.299758 0.127061 -0.453391 -0.0830828 Si
3 1 4.0688 1.43573 4.03989 -0.55212 -0.840634 0.21355 0.490941 -0.309522 0.178985 Si
47 1 6.83966 1.33891 6.76892 2.94795 -2.01753 3.7762 0.312437 -0.126169 0.548581 Si
35 1 9.51373 1.42314 4.08029 -0.260473 -1.32471 0.147456 1.60858 -0.429415 0.806687 Si
46 1 8.19371 2.75915 5.41464 -2.446 -1.18306 -0.871777 -1.49101 -0.486787 -0.477085 Si
5 1 1.30153 4.14566 4.10938 1.56674 1.49271 2.20272 0.69051 -0.273328 -0.596664 Si
31 1 1.34733 6.7328 6.79993 2.96007 2.88032 0.626749 -0.348491 -0.497811 0.314703 Si
9 1 4.03674 4.0872 6.79818 -3.35364 0.237111 -5.72262 0.126582 -0.190289 -0.0168009 Si
19 1 3.9659 6.74385 4.09688 4.98262 -4.26281 -0.33506 0.762222 1.18097 0.479458 Si
37 1 6.82176 4.1362 3.98836 -0.737425 2.74159 0.271822 0.245484 -1.09745 0.297402 Si
60 1 5.39472 5.35012 5.35435 -0.182731 2.15098 0.416679 0.465549 1.45579 1.18867 Si
63 1 6.82299 6.80314 6.83523 2.10079 -0.284706 4.1755 -1.05609 -0.0933526 -0.986076 Si
28 1 -0.0848136 5.38572 5.44408 1.33885 -2.99735 -1.98113 -0.450543 0.816583 0.159804 Si
41 1 9.45819 3.96769 6.83989 0.255408 -1.47795 0.0928322 0.797263 1.79297 0.497075 Si
51 1 9.5274 6.79664 3.92136 0.684413 2.65986 2.19763 0.247284 -0.330353 1.4023 Si
21 1 1.46533 9.55778 4.08601 -4.26881 -0.366911 5.77799 -0.757597 0.181003 0.229303 Si
30 1 2.68511 8.19315 5.60016 -0.923643 -1.14216 -5.93854 -0.0224174 -1.03747 -2.05997 Si
44 1 5.37477 -0.00816152 5.51003 2.87761 2.19744 1.72757 -0.0929871 -0.0341301 -0.894614 Si
25 1 3.97448 9.51192 6.89095 1.60612 -0.987288 1.4025 1.43697 0.427789 0.00956177 Si
53 1 6.76585 9.52695 4.06039 -4.6482 -1.2141 0.22114 0.425347 0.175662 0.932435 Si
57 1 9.49362 9.48854 6.67388 0.615333 7.18456 1.79695 0.541256 0.235316 1.71218 Si
62 1 8.20631 8.1317 5.36063 -2.18798 3.08772 1.42414 -1.17737 -0.399519 -0.293927 Si
6 1 2.78001 2.66089 -0.115005 2.6516 6.8261 -1.55957 0.312534 0.506368 0.442508 Si
16 1 2.70089 -0.0823878 8.27334 1.89585 2.10093 2.80961 0.107688 1.26545 -0.174925 Si
36 1 5.51629 -0.0640197 0.0813045 -2.13571 -0.937602 -0.287846 0.158934 0.116243 -0.245706 Si
11 1 4.24829 1.2833 9.53607 -1.09949 0.137303 -6.38518 -0.906608 0.0810205 -0.505791 Si
42 1 5.48254 2.74754 8.09638 -4.7272 1.16107 -3.00667 0.380232 -0.0800451 0.935176 Si
38 1 8.12821 2.66545 0.030256 0.112938 -3.14046 0.873267 1.03243 0.196364 -0.28299 Si
10 1 0.0593715 2.69864 8.13978 0.666009 0.433427 -1.67672 -1.08408 -0.50448 -0.219417 Si
43 1 9.55337 1.37079 9.5022 5.46684 -4.1334 0.893952 -0.263627 0.444097 0.138078 Si
13 1 1.36376 3.97154 9.4814 -2.53687 0.845086 1.87351 -0.138731 1.40604 0.922524 Si
32 1 2.69942 5.40674 8.23998 3.52621 0.922978 1.72787 -0.412346 -0.242975 -1.3874 Si
52 1 5.33167 5.39794 0.0133894 1.09081 2.91041 1.17191 0.997964 1.03624 -0.110521 Si
27 1 4.00743 6.7742 9.50309 -4.68306 -5.15326 -2.43611 0.35024 0.618301 1.05965 Si
45 1 6.83148 4.11038 9.6218 -5.62937 -0.350647 0.738123 -0.965596 -0.533844 -0.970864 Si
20 1 -0.0369175 5.43485 -0.0402549 3.17808 5.49652 0.0685013 0.738548 -0.554393 -0.100878 Si
59 1 9.4809 6.82683 9.58981 -1.34016 -0.750001 1.62461 0.374354 0.0697797 -0.681777 Si
64 1 8.14598 5.46626 8.22866 0.972593 -3.9325 -4.4303 0.294028 -0.613532 -0.259465 Si
22 1 2.67269 8.22312 -0.0288595 3.54036 3.76724 -0.0111055 0.624081 0.16497 0.388231 Si
29 1 1.21752 9.50411 9.50589 -0.0400365 -1.35165 -4.1609 0.721635 -0.164609 0.0414528 Si
58 1 5.36534 8.17658 8.21365 2.26024 -2.74259 -4.41085 1.23301 -0.261939 -0.0487037 Si
61 1 6.87725 9.48098 9.61454 -3.10796 -0.489679 1.52573 -0.818003 -0.284512 -0.380126 Si
48 1 8.20367 -0.0693134 8.23979 -1.6807 5.92036 -0.729234 -0.124644 0.33439 -1.4488 Si
26 1 -0.0500433 8.07407 8.07691 -2.68554 -2.07185 2.14581 -0.575951 0.740146 0.562814 Si
ITEM: TIMESTEP
15900
ITEM: NUMBER OF ATOMS
64
ITEM: BOX BOUNDS pp pp pp
0.0000000000000000e+00 1.0887404739999999e+01
0.0000000000000000e+00 1.0887404739999999e+01
0.0000000000000000e+00 1.0887404739999999e+01
ITEM: ATOMS id type xu yu zu vx vy vz fx fy fz element
4 1 0.000376668 -0.106563 0.028877 -0.190035 0.213025 -3.03022 -0.626169 0.722311 -0.68618 Si
7 1 1.29153 1.27956 1.38069 -8.44133 1.97023 -0.663144 0.398569 -0.116487 0.462993 Si
34 1 5.47141 2.74996 2.74789 -1.37654 -1.07196 1.83796 -0.634377 -0.587129 -0.324459 Si
39 1 6.69915 1.41577 1.30173 -0.939248 0.626021 -0.658782 0.574259 -0.116507 0.484497 Si
2 1 -0.0132374 2.6799 2.72812 -0.172661 4.00954 6.66511 -0.241306 -0.250673 -0.420077 Si
40 1 8.1067 0.036141 2.5788 4.54196 -1.23033 -0.0947473 0.312427 -0.351779 0.405205 Si
23 1 1.3357 6.7307 1.45958 3.83585 0.0486598 -4.71742 -0.184586 0.717645 -0.91814 Si
24 1 2.78917 5.45815 2.74265 1.7967 4.79157 -4.19538 0.167044 -0.428312 0.394056 Si
1 1 4.11861 4.04046 1.3499 -2.89615 -2.83208 0.448294 -0.246136 0.768678 0.155566 Si
55 1 6.81103 6.71803 1.38747 -4.19758 -1.53384 1.14255 0.461975 0.678766 -0.116514 Si
33 1 9.53908 4.10536 1.43566 2.57981 0.398238 1.54331 -0.0737034 -0.35165 -0.458774 Si
56 1 8.23687 5.47818 2.80701 3.21018 -2.0842 -6.4389 -0.877152 -0.739228 -0.284044 Si
8 1 2.67963 -0.136403 2.71376 -3.07168 -3.37107 1.094 0.758296 1.23399 -0.198106 Si
18 1 -0.0878178 8.183 2.73858 -2.05141 3.33033 -6.62702 -0.0683431 -0.877713 -0.394104 Si
17 1 4.13076 9.51044 1.28162 2.55193 -0.269336 5.22186 -0.319917 -0.0890932 0.774573 Si
50 1 5.50488 8.17801 2.67968 3.2856 -3.35716 -0.136513 0.227301 0.427909 0.254012 Si
49 1 9.40822 9.44287 1.26976 0.978238 2.18629 -0.544891 0.636426 0.470101 0.724381 Si
54 1 8.09923 8.09768 -0.0692651 -0.326334 0.812335 1.27331 -0.207667 -0.0180935 -0.495982 Si
12 1 -0.024986 0.00173289 5.39302 5.74061 0.738809 3.38361 -0.4073 -0.708494 0.47816 Si
14 1 2.68592 2.76267 5.39356 -0.515425 -0.514384 -2.11927 0.411411 -1.14255 0.722735 Si
15 1 1.30842 1.32695 6.77326 -3.96887 -4.48234 -2.44295 0.0775 1.19751 -0.0296995 Si
3 1 4.10114 1.34988 4.06782 -0.0427487 5.99169 -1.46975 -0.514525 -0.607573 -0.051263 Si
47 1 6.77488 1.41374 6.76232 -2.45217 0.721369 -0.264291 0.0385118 -0.542366 0.694588 Si
35 1 9.49751 1.30622 4.0102 -4.09963 -1.62212 -0.66677 -0.266818 0.327782 0.270409 Si
46 1 8.20402 2.70181 5.43891 4.00051 -1.24177 1.94195 0.146737 -0.028812 -0.211964 Si
5 1 1.36334 4.00788 4.00064 -2.33418 1.26378 3.78343 -0.0169518 1.49556 0.527308 Si
31 1 1.3487 6.81972 6.75487 -1.15563 -6.35873 -1.39012 0.219754 0.627085 0.0640104 Si
9 1 4.02016 4.12292 6.81376 2.49207 0.740257 -0.228626 0.78289 -0.375953 -0.31593 Si
19 1 4.13344 6.92863 4.10721 2.69593 -2.59158 -1.19435 0.444334 -1.67777 -0.803153 Si
37 1 6.8358 4.02135 4.08035 -5.98512 0.424695 1.31312 0.332441 1.29643 0.501275 Si
60 1 5.47327 5.46196 5.44039 -1.68376 -0.832632 0.504618 -0.940963 -0.843293 -0.638131 Si
63 1 6.726 6.78002 6.78483 0.766637 -0.355668 -2.14971 1.24076 0.307655 1.30347 Si
28 1 0.0228372 5.42289 5.42745 5.6521 -1.19583 3.22432 0.62918 -0.512729 -0.257561 Si
41 1 9.58908 4.07374 6.78623 3.45123 -1.61156 -1.589 -0.199336 -0.306882 0.461937 Si
51 1 9.53781 6.79135 4.18299 3.39913 -2.00534 -1.70233 0.0347955 0.612907 -0.373839 Si
21 1 1.29814 9.46733 4.06215 -0.551609 1.98018 -5.43607 0.408854 0.190181 0.526306 Si
30 1 2.77633 8.18196 5.40427 -1.25253 2.08927 1.19114 -1.19581 0.520027 0.817837 Si
44 1 5.48717 -0.0757436 5.41707 0.520362 5.90623 -1.69157 -0.0169255 1.01128 -0.12079 Si
25 1 4.09115 9.55165 6.80115 -6.32176 5.38924 1.21735 -0.0239857 -0.396211 -0.151522 Si
53 1 6.92827 9.53148 4.05993 0.807609 -0.0325999 -6.07078 -0.722515 -0.542558 -0.032295 Si
57 1 9.52737 9.56429 6.91365 1.03188 -0.36735 -5.67997 0.014312 0.0694627 -1.0799 Si
62 1 8.16706 8.1159 5.54144 2.05567 -1.67576 -0.149684 0.286411 0.96242 -0.281284 Si
6 1 2.62697 2.7133 0.0987176 -1.07745 -4.65039 -7.22574 0.0241666 0.495528 -0.4629 Si
16 1 2.70148 0.0281572 8.09021 -6.94388 1.71799 3.11086 -0.175766 -0.452631 0.639357 Si
36 1 5.35756 0.113625 -0.0445992 -2.29676 2.6939 0.0797906 0.157723 -1.03028 -0.540407 Si
11 1 3.88756 1.38844 9.55803 2.48165 3.93849 2.85681 1.18145 0.410585 -0.530925 Si
42 1 5.39687 2.71798 8.22689 -0.491813 0.176322 -3.53262 -0.244877 0.388813 -0.468542 Si
38 1 8.17142 2.72104 0.0783458 -0.116219 -0.706403 -0.434837 -0.362755 1.14224 -0.255351 Si
10 1 0.00305954 2.7208 8.26727 5.93552 -0.760905 4.11555 0.629381 0.519554 -0.737941 Si
43 1 9.50257 1.43136 9.62037 -3.02565 3.03601 0.0115253 0.9615 -1.12568 0.155977 Si
13 1 1.39465 4.20114 9.58173 0.447735 -3.68423 0.344347 -0.0316974 -1.66427 -0.601074 Si
32 1 2.69042 5.50428 8.12369 -1.66375 -5.10257 5.47831 0.793213 0.47232 0.935278 Si
52 1 5.47209 5.45424 -0.0213153 -3.81189 -4.08216 2.68817 0.215099 -0.972017 0.0330537 Si
27 1 4.19188 6.84717 9.5288 0.723541 3.61933 2.15657 -1.66576 -1.22976 -0.207954 Si
45 1 6.88983 4.1081 9.49275 6.95068 -1.15616 2.84004 -0.36729 -0.198362 0.428713 Si
20 1 -0.0166351 5.40576 -0.00960439 -3.27626 -2.31036 -0.446058 0.106548 0.864056 1.19934 Si
59 1 9.6418 6.81792 9.50089 0.418631 2.173 4.52891 -1.03306 0.196 0.311425 Si
64 1 8.27034 5.4886 8.13969 -0.849307 7.89785 0.175164 -0.75711 -0.160507 -0.398343 Si
22 1 2.7791 8.0529 0.041206 -1.52975 -0.835351 0.775014 -0.602591 0.587986 -0.0188104 Si
29 1 1.46719 9.52457 9.56567 -1.49144 -1.09221 2.65267 -0.241499 -0.355113 -0.158123 Si
58 1 5.4137 8.1708 8.1746 -1.9805 -1.64265 0.695042 0.640277 0.676319 -0.926299 Si
61 1 6.75118 9.59667 9.45792 5.1308 0.391962 0.408131 0.38536 0.0599548 0.794277 Si
48 1 8.20296 0.123935 8.20256 2.82607 -0.520857 6.41774 -0.921334 -0.370151 -0.338106 Si
26 1 0.0572566 8.22498 8.19347 2.27245 -2.0947 -2.12908 0.489317 -0.280433 -0.232256 Si
ITEM: TIMESTEP
16000
ITEM: NUMBER OF ATOMS
64
ITEM: BOX BOUNDS pp pp pp
0.0000000000000000e+00 1.0887404739999999e+01
0.0000000000000000e+00 1.0887404739999999e+01
0.0000000000000000e+00 1.0887404739999999e+01
ITEM: ATOMS id type xu yu zu vx vy vz fx fy fz element
4 1 -0.0903976 0.0335262 0.00999717 3.21586 -4.30368 1.0027 1.50038 -0.193826 0.179953 Si
7 1 1.4423 1.40177 1.33261 3.47535 -0.441806 -1.30749 -0.850242 0.104984 0.19103 Si
34 1 5.47401 2.70614 2.70721 1.0814 2.52884 1.0996 -0.176113 0.193358 0.606114 Si
39 1 6.91197 1.38127 1.43838 3.11075 -0.281783 1.04732 -0.693686 -0.233418 -0.468883 Si
2 1 -0.0571126 2.77251 2.67076 -2.26681 0.773134 -4.08184 1.43216 -0.420384 0.394022 Si
40 1 8.15968 0.0661819 2.85964 -0.847741 1.1992 0.971262 0.418385 -0.694607 0.0929901 Si
23 1 1.35878 6.83415 1.27865 -1.24485 -1.77016 5.33459 0.970849 -0.563688 0.743127 Si
24 1 2.68379 5.3404 2.79009 -0.729619 -0.814637 0.0340241 0.203634 1.33428 -1.28683 Si
1 1 4.14168 4.09092 1.35815 1.09115 0.517814 -0.599569 -0.302792 0.363161 0.189388 Si
55 1 6.76899 6.90851 1.42775 1.15431 4.80423 1.47891 0.148956 -0.927307 -0.151335 Si
33 1 9.49816 4.01754 1.25611 -3.47829 -1.43097 -2.88984 -0.00627324 1.40049 1.28509 Si
56 1 8.10938 5.38999 2.71374 1.9273 2.31919 0.359718 0.9411 0.815343 -0.479277 Si
8 1 2.78598 0.0561141 2.782 4.7665 1.46479 1.30555 -1.1922 -1.21659 -0.750798 Si
18 1 0.0853741 8.15856 2.74305 1.95159 0.882828 2.1267 -0.706137 0.549761 -0.175366 Si
17 1 4.03871 9.52738 1.29479 -1.55156 -1.11907 -3.93647 0.241694 0.802647 0.526464 Si
50 1 5.31367 8.20174 2.72184 -2.16063 2.4563 -0.35264 0.42191 -0.319625 -0.00392385 Si
49 1 9.50234 9.57827 1.46274 -3.00567 0.193983 -3.70327 0.148595 -0.611426 -0.272027 Si
54 1 8.18403 8.13565 0.0340996 -0.485822 2.76233 6.19817 0.00393408 0.744472 0.135741 Si
12 1 0.00228014 -0.0214789 5.42793 -2.63234 4.30428 -0.432178 0.772062 0.667335 1.18274 Si
14 1 2.74826 2.75262 5.52418 0.346741 3.95895 -0.812738 0.231886 0.402637 -0.749163 Si
15 1 1.40871 1.38784 6.84749 1.6182 2.24976 2.22497 -0.27913 -1.00811 -0.489002 Si
3 1 4.10253 1.34407 4.10806 -1.17579 -1.39682 0.704458 0.172881 1.22021 0.496864 Si
47 1 6.85776 1.29622 6.80371 -1.12427 2.01236 1.03723 -1.01437 0.63137 -0.787613 Si
35 1 9.62708 1.42523 4.15125 4.73212 -4.9269 -1.9754 -1.32825 0.00548324 -0.574437 Si
46 1 8.11172 2.76674 5.39936 -0.970518 0.0707916 -2.44679 0.951596 -0.0123592 1.01014 Si
5 1 1.27408 4.12488 4.16444 2.89809 -2.73879 -3.64085 0.560684 -1.31959 -0.447688 Si
31 1 1.35274 6.85059 6.82129 -2.43889 -0.776524 -0.616447 -0.0520823 -0.631146 0.367407 Si
9 1 4.22683 4.10198 6.84905 -3.72566 -0.329669 2.57263 -0.905564 -0.345453 0.421266 Si
19 1 4.0837 6.75313 4.09184 -1.4254 4.18896 0.869259 -0.993943 0.457971 0.0886874 Si
37 1 6.75953 4.127 4.10499 1.95221 2.31529 -3.41034 -0.0655501 -0.585241 -0.582128 Si
60 1 5.49161 5.50733 5.44804 0.945944 -0.495828 0.122699 -0.424364 -0.423216 0.222328 Si
63 1 6.79195 6.86041 6.78568 -5.85975 -4.53626 -6.47214 0.534104 -0.538892 -0.725455 Si
28 1 -0.012163 5.53673 5.42209 -4.71107 1.95885 -0.544693 0.0142761 0.0708572 0.840128 Si
41 1 9.47541 4.25004 6.76621 -0.48653 -1.00991 2.15468 -0.419894 -1.38463 0.00910545 Si
51 1 9.554 6.81401 4.06076 -2.91861 0.330147 1.41033 -0.930912 -0.0647913 -0.778207 Si
21 1 1.3798 9.51503 4.18802 -0.770139 1.49409 2.29949 0.490854 0.524387 -1.66661 Si
30 1 2.69008 8.14616 5.47583 0.217736 -7.43179 1.02427 1.09652 -0.403144 -0.110275 Si
44 1 5.38788 -0.0244884 5.48174 0.929904 -7.0793 -4.08942 0.717994 -0.207657 -0.0283367 Si
25 1 4.13778 9.41019 6.82645 2.92218 -1.21318 0.0594907 -0.68148 0.95734 -0.604137 Si
53 1 6.70412 9.48859 4.08522 1.91143 0.400133 0.363763 0.341154 0.879381 -0.026205 Si
57 1 9.55795 9.44307 6.71015 -0.600558 0.876855 2.48882 -0.351253 -0.0662849 0.350527 Si
62 1 8.10892 8.14806 5.37707 -4.25745 -0.763099 2.95778 0.685655 -0.0513396 0.0245545 Si
6 1 2.81887 2.7753 -0.0492849 1.93602 3.6198 3.71574 -0.3267 -0.998141 0.0928968 Si
16 1 2.85358 -0.0215905 8.14568 1.04389 1.50158 0.702016 -1.05604 -0.0312188 -0.411288 Si
36 1 5.57886 -0.0292675 0.0592335 2.14076 -2.92753 -0.245104 -0.926725 0.168261 0.065653 Si
11 1 4.12937 1.24629 9.55691 -5.33205 -2.96073 -2.81373 0.287276 0.492252 0.946121 Si
42 1 5.46793 2.55873 8.24822 1.19339 -0.176516 3.34075 0.274931 1.1631 -1.03805 Si
38 1 8.18631 2.68807 0.0025418 2.97488 -0.386534 4.21479 -0.672706 -0.423642 -1.37683 Si
10 1 -0.0760049 2.71972 8.0659 -2.71118 -2.25322 -0.384017 -0.0886976 0.241438 0.784015 Si
43 1 9.47573 1.26184 9.45172 0.456965 2.831 -0.333161 -0.597494 0.683505 -0.604698 Si
13 1 1.35145 4.01208 9.49019 0.525584 5.70452 -2.97431 0.185406 0.734829 -0.440594 Si
32 1 2.75671 5.49247 8.1819 -3.64576 2.00805 -8.56394 -0.851441 -1.43858 -0.897124 Si
52 1 5.44079 5.55533 0.0163729 2.73286 3.3175 -0.960881 -0.332918 -0.464522 -0.082669 Si
27 1 4.02675 6.82925 9.46764 -0.597641 -0.386478 0.343748 1.52528 0.714048 0.528038 Si
45 1 6.71241 4.0546 9.56073 -3.6147 -0.741953 -3.01612 0.84107 0.198459 0.160533 Si
20 1 0.0268224 5.3904 -0.00364889 2.44196 -4.93496 -1.56046 -0.525557 0.175987 -0.743353 Si
59 1 9.46365 6.73645 9.52056 1.36497 0.361522 -0.944343 0.741827 0.393616 0.288927 Si
64 1 8.02697 5.49353 8.15166 0.588632 -5.14983 1.62324 0.54288 -0.794371 0.458542 Si
22 1 2.7049 8.2485 -0.129591 -2.64637 -0.235158 1.19799 -0.343638 -0.619445 0.782309 Si
29 1 1.37455 9.63056 9.46105 0.512254 0.492674 1.90322 -0.823177 -0.167733 0.424309 Si
58 1 5.51265 8.12961 8.09478 4.94608 -0.89489 5.12387 -1.2055 -0.058753 1.68128 Si
61 1 6.77659 9.46057 9.52898 0.968523 -3.1735 1.64827 1.01898 -0.0446591 -0.23579 Si
48 1 8.10665 -0.152499 8.01384 2.18446 -1.50326 -1.91004 1.05586 0.143505 1.68741 Si
26 1 -0.00208025 8.1628 8.20948 1.15569 4.68502 -0.0438341 -0.349943 0.0293096 -0.269602 Si
ITEM: TIMESTEP
16100
ITEM: NUMBER OF ATOMS
64
ITEM: BOX BOUNDS pp pp pp
0.0000000000000000e+00 1.0887404739999999e+01
0.0000000000000000e+00 1.0887404739999999e+01
0.0000000000000000e+00 1.0887404739999999e+01
ITEM: ATOMS id type xu yu zu vx vy vz fx fy fz element
4 1 0.124238 -0.00466281 -0.0339774 -6.03853 3.02765 3.39343 -0.97436 -0.253282 0.612179 Si
7 1 1.37076 1.39911 1.40842 -0.24106 -4.39754 0.951636 0.202713 -0.474622 -1.01849 Si
34 1 5.43776 2.68111 2.65352 -1.74699 -2.52777 -0.781809 0.228404 0.464487 0.164334 Si
39 1 6.7732 1.3513 1.26666 0.31598 -0.853964 -1.25649 0.127592 -0.337084 0.14248 Si
2 1 -0.00755673 2.72944 2.72165 -2.42679 -3.88935 -2.16952 -0.330863 -0.121667 -0.10318 Si
40 1 8.15643 -0.0434008 2.6593 -3.29946 -3.71903 1.60562 -0.428674 0.510684 -0.203891 Si
23 1 1.38363 6.8339 1.35999 1.64023 -0.473809 -2.29425 -0.795956 0.459794 0.690237 Si
24 1 2.72756 5.51209 2.7142 4.45523 -2.78184 6.65798 -0.18254 -0.777652 0.495795 Si
1 1 4.02995 4.0703 1.39818 1.27006 3.58016 1.77937 0.201666 -0.206985 -0.691902 Si
55 1 6.89367 6.71469 1.29187 3.04677 -5.04399 2.12412 -0.83308 0.841746 -0.0664669 Si
33 1 9.54092 4.14901 1.45741 -1.77905 -0.350464 3.81404 0.0125029 -1.28874 -1.22963 Si
56 1 8.19864 5.3986 2.72027 -4.15874 -0.493771 4.26478 -0.966419 0.654973 1.11586 Si
8 1 2.70219 -0.0482727 2.65514 0.652479 1.22703 -1.95496 0.832561 1.22783 1.14029 Si
18 1 -0.058648 8.17111 2.78148 -4.30315 -3.58112 -2.02273 0.927897 -0.336399 -0.000925102 Si
17 1 4.11965 9.49313 1.44853 1.51215 0.16864 -2.53167 0.217049 -0.162816 -0.760586 Si
50 1 5.55504 8.13101 2.76213 2.02364 0.796098 1.7568 -0.110213 -0.276115 -0.229803 Si
49 1 9.55632 9.50501 1.36148 -5.32781 1.0865 1.38655 -0.0595902 0.336522 -1.13547 Si
54 1 8.12797 8.24945 -0.123643 -3.71605 -3.5487 -5.19428 0.652056 -0.999495 1.269 Si
12 1 -0.0706487 -0.0197508 5.45304 -3.25335 -2.36177 -0.062399 -0.207338 0.191228 -1.19176 Si
14 1 2.6805 2.61468 5.35312 2.97467 -1.76933 7.42519 0.0146336 0.650167 0.584727 Si
15 1 1.34705 1.194 6.76925 -0.389946 3.52599 -0.261387 -0.0170045 2.05348 0.716438 Si
3 1 4.14697 1.36987 4.03827 -0.564196 -3.57273 0.976638 -0.938067 -1.10173 -0.309406 Si
47 1 6.76059 1.38423 6.82963 2.37148 -2.44043 -1.71136 0.934998 0.524386 0.564415 Si
35 1 9.46784 1.35276 3.98217 -1.66978 4.81927 1.26237 0.846293 -0.46956 0.821676 Si
46 1 8.22531 2.66448 5.44029 1.32841 2.44145 -1.32695 -1.26843 0.0917193 -0.340608 Si
5 1 1.33519 4.06153 4.02828 -0.668958 1.01227 0.162722 0.733021 0.365195 0.437256 Si
31 1 1.35708 6.76213 6.75379 5.00137 5.37748 4.42847 0.349878 0.649734 0.264021 Si
9 1 4.01352 4.12443 6.68999 2.79559 2.58889 -1.0368 -0.452614 -0.0898407 0.179673 Si
19 1 4.10057 6.8081 4.11743 2.00324 -3.3017 -2.15146 0.182095 0.61356 -0.212953 Si
37 1 6.78333 4.0196 4.05164 1.27186 0.167881 1.93278 0.484176 0.387496 0.495549 Si
60 1 5.48761 5.49345 5.46163 -4.01134 1.09913 0.752168 0.122881 -0.502603 -0.222401 Si
63 1 6.83757 6.82703 6.90497 3.00556 8.19955 4.12256 -0.875927 -0.072924 -0.914345 Si
28 1 0.045855 5.38313 5.48554 3.2056 2.41749 2.43349 -0.95087 0.0940825 -1.12113 Si
41 1 9.57953 3.98341 6.77844 2.37452 2.82458 -1.50615 0.201705 0.475952 0.381008 Si
51 1 9.46451 6.77972 4.15527 -2.82037 -0.20635 0.138995 0.751233 -0.10439 0.189902 Si
21 1 1.38389 9.59967 4.07597 -0.159117 -4.02818 4.47495 -0.913244 -1.10026 0.341403 Si
30 1 2.71829 8.20591 5.45849 0.920177 0.775643 0.222721 -0.0315452 -0.269096 -0.33524 Si
44 1 5.45736 0.0530477 5.48223 -0.524421 1.83937 0.00657368 -0.37991 -0.87056 -0.327254 Si
25 1 4.02972 9.56578 6.84391 0.0937307 -3.69304 -1.22492 0.690786 -0.18294 -0.355396 Si
53 1 6.86597 9.5546 4.1395 0.803307 -1.99917 1.53176 -0.365551 -0.283447 0.122828 Si
57 1 9.48949 9.60398 6.8631 0.299371 -4.84659 1.83393 -0.0703247 -0.165143 0.612369 Si
62 1 8.17598 8.18005 5.56541 2.03134 3.98143 -6.03876 -0.15063 0.169541 -0.629387 Si
6 1 2.72492 2.68713 -0.0408591 -3.70721 1.17924 0.832458 -0.195739 0.815615 1.08402 Si
16 1 2.66323 -0.0496913 8.21893 0.116263 -2.13493 -3.92351 1.16366 0.905249 -0.328425 Si
36 1 5.2878 0.0171967 -0.0482346 3.51786 2.34488 0.350359 1.44846 -0.194937 0.365371 Si
11 1 4.0931 1.45648 9.47023 0.901268 -0.908229 0.233659 -0.826823 -0.781382 -0.647379 Si
42 1 5.37929 2.85934 8.07876 -3.59378 1.7061 2.00632 0.818502 -0.859524 0.532206 Si
38 1 8.15879 2.81231 0.0104108 -0.0415103 3.24294 -4.28623 1.01189 -0.905134 1.37252 Si
10 1 0.0963609 2.75699 8.22269 0.188063 0.338727 -2.80246 -0.387344 -1.15792 -0.599731 Si
43 1 9.55974 1.44847 9.63111 2.25221 -4.54541 1.44068 0.80272 -0.0737324 -0.252398 Si
13 1 1.36607 4.13106 9.61603 -0.267346 -3.54013 -1.94333 -0.424324 0.113537 -0.00971805 Si
32 1 2.64644 5.42471 8.15855 6.16992 1.60883 1.1034 1.06774 0.472965 0.130709 Si
52 1 5.42649 5.32948 -0.0308894 4.05626 0.660575 0.777357 0.404026 0.869733 0.138455 Si
27 1 4.08812 6.81652 9.53357 -4.73091 -2.59212 -4.23198 -0.580143 -1.08248 0.225275 Si
45 1 6.89294 4.02761 9.52416 -1.71106 -1.23733 1.2227 -1.67313 1.08014 -1.24576 Si
20 1 -0.0643143 5.4961 0.097854 1.68131 2.56745 5.43746 0.783273 0.0239186 -0.951934 Si
59 1 9.52703 6.8132 9.49591 -2.04512 1.84425 -3.32276 -0.271828 -0.213668 -0.729782 Si
64 1 8.16258 5.36052 8.06015 -2.9794 -0.249659 -2.19794 1.09243 0.321985 1.52511 Si
22 1 2.77308 8.17269 0.0622315 3.75733 2.83997 -4.22463 0.0280781 -0.250872 -0.508446 Si
29 1 1.42123 9.42478 9.48563 2.33077 1.0007 -4.57208 -0.669218 0.17163 0.833425 Si
58 1 5.37868 8.15442 8.18201 0.315471 4.16264 -5.94864 0.611388 0.660124 -0.248663 Si
61 1 6.74604 9.57951 9.49097 -5.09036 3.81541 -0.852985 -0.799951 0.166207 0.274564 Si
48 1 8.1738 0.111966 8.33485 -4.26148 -2.54739 -1.33709 -0.302312 -0.234867 -1.69872 Si
26 1 0.0310857 8.15779 8.0693 4.84378 -0.632372 0.325498 -0.512352 -0.161825 0.798089 Si
ITEM: TIMESTEP
16200
ITEM: NUMBER OF ATOMS
64
ITEM: BOX BOUNDS pp pp pp
0.0000000000000000e+00 1.0887404739999999e+01
0.0000000000000000e+00 1.0887404739999999e+01
0.0000000000000000e+00 1.0887404739999999e+01
ITEM: ATOMS id type xu yu zu vx vy vz fx fy fz element
4 1 -0.0350708 0.0189068 -0.0137521 7.68649 2.75892 -5.57304 -0.709912 0.820675 -0.580378 Si
7 1 1.21451 1.3818 1.39271 -3.50465 5.41813 -0.739674 0.598474 -0.516061 0.0893482 Si
34 1 5.42739 2.79455 2.79655 4.40311 0.0977474 -3.16593 0.193665 -0.534878 -0.497434 Si
39 1 6.76324 1.37933 1.38449 0.472903 -3.5213 -0.985625 -0.0356131 0.144871 0.496481 Si
2 1 -0.00732937 2.73956 2.77238 4.16687 1.92371 0.819098 0.197805 -0.0493178 0.594941 Si
40 1 8.21511 0.117424 2.75319 1.38419 4.85315 1.60141 -0.224241 -1.2934 -0.459104 Si
23 1 1.39659 6.74833 1.30524 0.672165 1.33184 0.583106 -1.30559 -0.322661 -0.980059 Si
24 1 2.68289 5.44274 2.59197 -3.25903 3.64467 -4.39217 0.883319 -0.49524 1.36676 Si
1 1 4.01987 4.00231 1.32843 -1.63003 -0.299609 -2.86072 0.618493 0.485049 0.335618 Si
55 1 6.73115 6.77936 1.41679 -2.29377 -0.961595 -0.940611 0.462259 -0.255647 -0.478901 Si
33 1 9.56311 3.94337 1.34831 -0.753935 1.23272 3.37773 0.180232 1.39925 0.128581 Si
56 1 8.28248 5.41972 2.62534 2.56627 -0.565746 -3.47711 -0.954837 -0.0263407 0.22514 Si
8 1 2.65606 0.111927 2.71034 -5.80064 4.04655 -3.85202 -0.345554 -1.24439 -0.886339 Si
18 1 0.0866224 8.0807 2.65421 0.491937 0.500654 4.16289 -0.992177 0.667554 0.140392 Si
17 1 4.00715 9.63392 1.31132 2.6383 0.0950184 5.18317 -0.184528 -1.15954 0.563416 Si
50 1 5.35352 8.18437 2.70189 1.11301 -2.15847 1.45611 -0.126312 0.373919 0.233477 Si
49 1 9.58136 9.56565 1.3432 8.35827 3.82229 1.9939 -0.533279 -0.317411 1.29482 Si
54 1 8.15579 8.17331 0.116596 1.43659 4.30411 -1.33509 0.181787 -0.439274 -1.17219 Si
12 1 0.0779631 0.021618 5.4002 1.23011 1.44643 3.2744 0.216249 -0.71997 0.549255 Si
14 1 2.7346 2.77801 5.45372 -3.58072 -0.642831 -3.69657 -0.072439 -0.414278 0.488946 Si
15 1 1.33887 1.4439 6.86504 1.71341 -4.93518 1.10953 0.483537 -0.729864 -0.955939 Si
3 1 3.98888 1.35369 4.03326 2.80596 5.77204 3.41489 1.25332 0.901477 1.13591 Si
47 1 6.81063 1.36164 6.81606 -3.11936 0.514088 -1.77968 -0.209675 -1.13437 -0.785854 Si
35 1 9.57951 1.37263 4.14928 -2.33534 1.89174 -3.83495 -0.415235 0.685878 -0.0455419 Si
46 1 8.17307 2.73287 5.49602 0.668164 -1.11568 0.290864 0.0980693 0.0629374 -0.436569 Si
5 1 1.41357 4.12684 4.06194 -1.94333 -2.85956 1.85934 -0.839831 0.192761 0.221277 Si
31 1 1.37653 6.80864 6.85415 -1.91903 -5.37002 -2.87054 -0.384177 -0.194789 -0.407285 Si
9 1 4.09028 4.03755 6.95119 -1.01128 -0.172215 -0.295539 0.765036 0.182524 -1.17517 Si
19 1 3.96682 6.79911 4.07262 -3.27551 2.31172 4.57628 1.15942 -0.633337 -0.204255 Si
37 1 6.92859 4.15884 4.07766 0.32476 -0.719658 -1.31282 -0.805822 -0.695635 0.0215719 Si
60 1 5.43288 5.39046 5.43831 2.9563 -0.56455 -4.20554 -0.591929 0.381934 -0.0200955 Si
63 1 6.8205 6.79674 6.71458 0.552161 -1.94719 0.15405 0.0189882 0.262682 1.47808 Si
28 1 -0.0268991 5.49223 5.43277 -0.833146 1.67992 -1.37042 0.845726 -0.973711 0.660241 Si
41 1 9.4587 4.1408 6.83955 -1.68258 -5.8862 1.62718 0.553013 0.342115 -0.110964 Si
51 1 9.56615 6.73115 4.02106 -1.03814 -0.223783 -2.48642 0.112695 1.12341 -0.406102 Si
21 1 1.40252 9.4854 3.987 6.99453 3.3511 -2.75798 -0.0827233 0.295432 0.962571 Si
30 1 2.70651 8.14328 5.47671 1.5104 1.6042 6.02603 -0.129964 0.799502 -0.146633 Si
44 1 5.3921 -0.0600282 5.35685 -2.76341 -1.68147 3.72764 0.538046 1.55802 0.5768 Si
25 1 4.06706 9.59793 6.78987 -1.05174 -0.499959 0.0231457 -0.390887 -0.736577 0.346379 Si
53 1 6.81636 9.53782 4.04002 -1.56874 0.408455 -0.153335 0.103802 -0.282702 -0.47919 Si
57 1 9.58512 9.4418 6.69329 -1.05753 -1.26625 -5.14938 0.110715 0.517547 0.0629158 Si
62 1 8.19918 8.11952 5.34338 1.71044 -3.15216 -0.110603 -0.157154 0.0348233 -0.121938 Si
6 1 2.66531 2.58966 0.0973476 2.40023 -5.2688 -1.2659 0.265356 0.724744 -1.58222 Si
16 1 2.72404 0.0565061 8.21293 1.01538 -2.72304 0.748378 -0.72793 -0.729562 -0.118753 Si
36 1 5.49051 -0.0577474 0.00252847 -3.16493 -2.33816 -1.34904 -0.18363 0.808421 0.0707588 Si
11 1 4.11582 1.30425 9.57542 7.09722 -0.374064 3.70339 0.310857 0.793526 0.1619 Si
42 1 5.5749 2.70561 8.25258 -0.868804 1.20525 -5.76897 -1.34112 -0.153231 -0.0173657 Si
38 1 8.15299 2.72282 0.0830189 -3.42387 -3.09307 3.16849 -0.752993 -0.285473 -1.54491 Si
10 1 -0.0860132 2.73165 8.13358 1.29242 1.54412 3.71991 0.525418 0.817105 0.579477 Si
43 1 9.43285 1.41093 9.45857 1.81551 2.37747 0.0450994 0.292957 -1.19626 0.666848 Si
13 1 1.3982 4.03571 9.51415 2.19145 -1.59151 -1.50041 -0.12629 -0.749016 -0.0600118 Si
32 1 2.7444 5.46772 8.19823 -5.26427 -0.252474 0.389302 0.260585 0.18644 0.703172 Si
52 1 5.40831 5.3848 -0.00910711 -7.12247 0.462192 -2.03421 0.00588538 0.654682 0.535713 Si
27 1 4.1476 6.88063 9.56647 7.34359 -0.752762 0.92013 -0.750091 -0.469423 -0.537107 Si
45 1 6.84443 4.15755 9.54199 2.67065 0.258224 6.09674 0.29245 -0.942919 1.01526 Si
20 1 -0.00696639 5.30479 -0.0444472 -5.66127 -0.462251 -5.77212 0.568518 0.865466 0.721637 Si
59 1 9.61826 6.81249 9.57305 2.73558 -0.69221 1.01854 -0.918952 0.509332 0.879263 Si
64 1 8.2074 5.52082 8.30241 1.48492 0.251388 -0.72495 -0.57641 0.2305 -1.94828 Si
22 1 2.64049 8.15636 -0.014418 -1.29999 -1.81884 -0.711067 1.22835 0.543867 0.184802 Si
29 1 1.28775 9.52419 9.59058 -7.76378 1.97613 0.71885 0.718354 0.470519 -1.29638 Si
58 1 5.46328 8.24972 8.15253 -8.47831 -1.09965 6.00545 0.0443779 -0.931514 -0.714034 Si
61 1 6.82351 9.51202 9.52796 0.919238 -1.40461 2.53533 0.856852 -0.162441 0.0879807 Si
48 1 8.20976 -0.11729 8.05917 4.07312 2.109 5.30906 -0.38684 0.87192 0.600685 Si
26 1 -0.00343763 8.16443 8.16907 -3.42604 -2.77813 -3.167 0.311527 0.0803512 -0.0114202 Si
ITEM: TIMESTEP
16300
ITEM: NUMBER OF ATOMS
64
ITEM: BOX BOUNDS pp pp pp
0.0000000000000000e+00 1.0887404739999999e+01
0.0000000000000000e+00 1.0887404739999999e+01
0.0000000000000000e+00 1.0887404739999999e+01
ITEM: ATOMS id type xu yu zu vx vy vz fx fy fz element
4 1 0.125248 0.063485 0.106846 -2.50334 -0.790786 5.59578 -0.113731 -2.1131 -0.784989 Si
7 1 1.56505 1.31471 1.36061 -3.62094 1.60959 -2.45895 -0.339344 1.13057 0.183785 Si
34 1 5.45532 2.68054 2.73395 1.18806 3.62646 1.58503 -0.115325 0.233272 -0.277417 Si
39 1 6.82233 1.36177 1.32287 -3.70926 5.21034 -0.693567 0.708357 0.469778 0.593115 Si
2 1 0.0139933 2.64339 2.56168 -0.521873 -0.35011 -0.296434 0.129253 0.888001 0.245053 Si
40 1 8.10835 -0.0795335 2.72636 -0.88936 2.55738 -6.84841 0.718577 1.03233 0.0727958 Si
23 1 1.27515 6.8379 1.49517 -2.83545 -1.18405 -0.419957 2.15706 0.646511 0.35093 Si
24 1 2.73783 5.41282 2.82115 0.0886627 -3.52852 0.0511908 -0.426949 0.88137 -1.28266 Si
1 1 4.20598 4.24934 1.38508 1.82304 -5.9115 -1.06631 -0.850974 -1.53443 0.199479 Si
55 1 6.84223 6.80389 1.34084 -0.248856 -1.88333 -0.326862 0.0230681 1.02448 0.85184 Si
33 1 9.51384 4.18503 1.3283 5.26357 -4.95922 -1.31001 -0.427732 -0.65654 0.301133 Si
56 1 8.13395 5.51632 2.83926 2.54908 0.709288 1.91763 0.516473 -0.32279 -1.39472 Si
8 1 2.79195 -0.108649 2.74011 0.304112 -3.53151 1.58376 -0.334822 0.216159 0.840989 Si
18 1 -0.0726912 8.18502 2.8531 -1.20615 -0.586615 2.78178 0.33038 0.784589 -0.975367 Si
17 1 4.09754 9.5232 1.28408 1.02776 4.2032 -4.07549 0.699034 0.133187 0.576527 Si
50 1 5.4225 8.22658 2.72996 0.347756 0.320058 -2.42547 0.974 -0.417785 -0.552331 Si
49 1 9.51847 9.50188 1.34609 -0.399184 -1.22146 -4.33933 0.157415 -0.224286 -0.229909 Si
54 1 8.18735 8.06601 -0.128733 -1.90687 -1.77721 5.28577 -0.480087 1.57657 1.30391 Si
12 1 -0.0701185 0.0210515 5.46806 1.89516 1.28168 -7.03834 0.223822 0.411286 0.540344 Si
14 1 2.75507 2.71483 5.3717 -3.5043 2.95271 -4.95002 -0.483179 -0.0516997 -0.622046 Si
15 1 1.41752 1.41156 6.73996 -1.49122 1.55141 3.33423 -0.44911 -1.12431 0.686749 Si
3 1 4.15909 1.23925 4.1566 -0.951649 -5.15073 -6.32793 -0.507493 0.871839 -0.959858 Si
47 1 6.81267 1.3801 6.75957 3.73917 -0.638794 2.55261 0.316618 0.788722 1.12432 Si
35 1 9.5568 1.42055 4.01894 2.85244 -2.19188 -0.364529 -0.709583 -1.43854 -0.344569 Si
46 1 8.14196 2.72048 5.33037 -0.772705 0.431671 -0.135613 0.518315 -0.143003 1.02835 Si
5 1 1.28028 4.04081 3.99449 0.405866 0.969974 -2.32806 0.280107 -0.298053 0.850306 Si
31 1 1.28723 6.93203 6.73721 1.57485 4.545 -0.171107 0.302167 -1.55129 0.0612154 Si
9 1 4.04617 4.04388 6.74783 -7.15278 0.191799 1.40088 0.14504 0.302916 1.02459 Si
19 1 4.11222 6.83424 4.04326 -1.86607 2.41282 1.0191 -0.424833 -0.167352 0.72285 Si
37 1 6.81095 4.06675 4.06333 3.64825 1.01078 -1.83724 -0.996539 0.498427 0.213405 Si
60 1 5.39131 5.43306 5.4399 1.73519 -0.394898 2.31924 0.987528 0.118212 -0.0441979 Si
63 1 6.80215 6.76186 6.8804 -4.38855 0.519762 -0.226847 0.258036 -0.612579 -1.32252 Si
28 1 -0.084363 5.42107 5.41127 -1.69706 -0.992002 -3.44105 0.754522 1.04221 -0.403941 Si
41 1 9.51722 4.04752 6.7303 1.87385 2.40166 -6.30471 -0.329225 -0.778319 0.219121 Si
51 1 9.4402 6.94196 4.15027 2.00062 -6.13229 4.48012 0.227659 -1.59901 0.513789 Si
21 1 1.30408 9.52155 4.19342 -5.76361 -5.64892 1.61258 0.490286 0.503604 -1.15659 Si
30 1 2.74167 8.18121 5.40447 -1.53019 0.965321 -4.38673 0.114844 -0.327787 0.211723 Si
44 1 5.51078 0.00963201 5.55484 0.816937 -6.77414 -1.35 -0.630038 -1.15601 -0.684022 Si
25 1 4.17848 9.39639 6.78178 -0.0875341 2.79387 2.21428 -0.369082 0.858516 0.181023 Si
53 1 6.79479 9.52095 4.19082 3.36597 3.30885 0.656604 -0.220086 0.0824961 -0.72946 Si
57 1 9.48782 9.56537 6.95488 2.22643 2.21923 4.80735 -0.224884 0.375641 -1.14993 Si
62 1 8.13956 8.21068 5.54194 -1.87169 -0.987598 2.9685 -0.176242 -0.0290023 0.874758 Si
6 1 2.76585 2.87112 -0.00270164 -5.98933 -0.69018 3.69567 0.215516 -0.259779 0.159433 Si
16 1 2.77339 -0.111193 8.08906 1.72463 2.59548 1.62159 -0.00545106 1.2394 0.0883891 Si
36 1 5.49498 0.0632251 0.0129486 -0.00486091 5.04084 2.47266 -1.23637 -0.701201 -0.686208 Si
11 1 4.04372 1.37869 9.53321 -11.1309 -2.06328 -0.952537 -0.381995 -0.894269 0.290501 Si
42 1 5.37918 2.64048 8.20001 3.33332 -0.889095 3.25475 0.127751 0.842947 -1.5814 Si
38 1 8.18233 2.72004 -0.112893 5.70597 -2.44844 2.81426 -0.00413429 0.415918 1.24474 Si
10 1 -0.017619 2.70217 8.13837 -2.67155 -1.44474 -0.170326 0.322632 0.0130218 0.283522 Si
43 1 9.63157 1.27096 9.61627 -1.43289 4.62016 2.39883 -0.987797 0.976611 -1.41096 Si
13 1 1.28269 4.16457 9.5232 0.948296 4.01839 6.59567 0.570435 0.248318 -0.050686 Si
32 1 2.70037 5.51824 8.09596 0.74376 1.58157 2.18869 -1.17288 -1.10194 -0.583799 Si
52 1 5.52824 5.52941 -0.0151721 1.61266 -1.20753 -0.265167 -0.979391 -0.517748 -0.488955 Si
27 1 4.01324 6.72683 9.49995 1.57786 2.51081 -0.227447 1.54835 0.953771 0.331427 Si
45 1 6.67568 4.04332 9.5002 0.364447 4.02596 -2.60828 1.41902 0.0234151 -0.0762916 Si
20 1 0.0283311 5.60952 0.099395 1.81069 -4.87557 -0.197851 -1.28103 -1.30098 -1.87991 Si
59 1 9.47332 6.76821 9.41801 3.29203 -0.975078 -0.522361 1.0887 -0.745004 0.465418 Si
64 1 8.15459 5.30198 8.11805 2.84428 1.00866 4.15387 -0.473294 0.531249 0.45523 Si
22 1 2.78626 8.10822 0.0213365 3.13732 -0.202551 -0.759379 -1.70396 -0.00036519 -0.0830314 Si
29 1 1.40752 9.49851 9.48268 5.56094 -2.61965 3.13024 -0.091589 0.134184 1.38904 Si
58 1 5.48345 8.0833 8.17383 0.745248 0.123516 -5.80525 -1.01332 0.0381447 0.80878 Si
61 1 6.74091 9.51036 9.52752 -4.48212 -0.35564 -5.27898 0.548863 -0.162223 0.198836 Si
48 1 8.06321 0.0425919 8.22532 0.596224 1.46788 -0.385409 1.10311 -0.0355505 0.301578 Si
26 1 -0.0217993 8.18631 8.1904 1.90581 -0.3788 1.80329 -0.036467 -0.0227037 -0.0332325 Si
ITEM: TIMESTEP
16400
ITEM: NUMBER OF ATOMS
64
ITEM: BOX BOUNDS pp pp pp
0.0000000000000000e+00 1.0887404739999999e+01
0.0000000000000000e+00 1.0887404739999999e+01
0.0000000000000000e+00 1.0887404739999999e+01
ITEM: ATOMS id type xu yu zu vx vy vz fx fy fz element
4 1 -0.138379 -0.0512305 -0.0833146 0.590448 2.06295 -0.598041 0.0787995 1.14855 1.36619 Si
7 1 1.25522 1.36229 1.40928 8.363 -0.492099 1.50991 -0.252792 -0.590984 -0.910341 Si
34 1 5.39332 2.67515 2.66558 -0.358149 -2.15473 0.306845 0.169624 0.550229 0.44334 Si
39 1 6.80666 1.34198 1.38881 3.89343 -0.166437 1.89669 -0.316143 -0.433572 -0.777879 Si
2 1 0.0314954 2.75475 2.85857 -4.63693 2.30277 0.506631 -1.32156 -0.118511 -0.42064 Si
40 1 8.16689 0.0091253 2.79424 0.118138 -3.02631 4.38961 -0.447263 -0.258702 -0.305261 Si
23 1 1.462 6.81332 1.29395 -2.04549 -0.81444 -1.78518 -1.24151 -0.833069 -0.058329 Si
24 1 2.7238 5.4296 2.74031 -0.86731 -7.297 3.65639 0.177818 -0.225147 -0.0975286 Si
1 1 4.01244 4.00958 1.31475 0.246365 1.89026 0.133734 0.425357 0.673437 0.468699 Si
55 1 6.77576 6.73793 1.36613 1.28857 1.26128 2.5156 0.412187 -0.0394424 -0.554926 Si
33 1 9.48467 4.10798 1.42293 -4.37076 0.756268 -2.68445 0.676048 -0.646467 -0.53739 Si
56 1 8.10779 5.39192 2.7768 1.22381 -3.69366 -1.07773 0.0622125 0.052499 0.240314 Si
8 1 2.64831 0.02346 2.72858 -0.844286 -1.48693 0.544979 1.36744 0.395481 -0.521583 Si
18 1 0.0695251 8.17962 2.6002 0.867008 1.16803 -0.89213 0.0871485 -0.719649 0.577177 Si
17 1 4.09436 9.49571 1.41872 -6.69019 -3.31673 -2.11566 -0.601399 0.329565 -0.347892 Si
50 1 5.49863 8.11776 2.70011 -4.92818 3.21669 0.459242 -1.10549 0.0151598 0.523499 Si
49 1 9.47303 9.47758 1.39725 -3.56769 1.41101 5.66237 -0.133381 0.670963 -0.614727 Si
54 1 8.12302 8.16455 -0.0170532 3.17872 -3.45057 -2.80199 0.00275204 -0.32055 0.359196 Si
12 1 0.0093949 -0.151194 5.43137 -0.428619 -2.80959 1.04238 -0.257766 1.11599 -0.913821 Si
14 1 2.74818 2.72385 5.55198 2.87926 -0.226952 2.0475 0.161392 0.480112 -0.371077 Si
15 1 1.30812 1.29157 6.75377 3.09305 -0.768933 -1.31712 -0.0654198 0.863157 0.631066 Si
3 1 4.03395 1.441 4.06929 0.878005 -0.527595 0.860489 -0.434186 -0.886215 0.0547648 Si
47 1 6.79264 1.36738 6.75907 1.82586 -1.96642 -3.32313 -0.398847 -0.456929 0.333303 Si
35 1 9.43623 1.38453 4.2048 2.55611 3.27724 0.443544 1.38342 -0.196434 0.0149321 Si
46 1 8.14648 2.76419 5.62403 -1.89443 0.822304 -5.26716 0.0987564 0.135133 -1.68308 Si
5 1 1.3958 4.09726 4.19224 -7.90264 3.25771 -0.58553 0.695056 -0.279873 -0.500393 Si
31 1 1.44883 6.72909 6.85543 0.408046 -1.65135 -4.6488 0.251634 1.11081 0.557637 Si
9 1 4.24588 4.13046 6.81068 7.43032 3.65539 -0.633032 -1.41509 0.0324912 -0.201559 Si
19 1 4.0906 6.79079 4.11187 4.30163 -0.700784 -1.24225 0.258325 0.36095 -0.283896 Si
37 1 6.72522 3.97235 4.14879 -2.40428 0.627868 -0.313144 0.94739 0.563559 -0.535171 Si
60 1 5.55189 5.50534 5.43824 1.94194 3.61293 1.49511 -0.629604 0.12646 0.269341 Si
63 1 6.84358 6.96211 6.78038 1.88793 1.15121 2.5726 -0.70488 -0.319313 0.219448 Si
28 1 0.112582 5.46444 5.4881 1.93164 -1.06009 3.31221 -1.56599 -0.378621 0.239505 Si
41 1 9.49751 4.15045 6.89672 -0.72559 7.6321 3.52554 0.962774 0.524519 -0.352844 Si
51 1 9.6661 6.74379 3.98473 1.37075 4.68494 -2.93086 -0.445056 0.116927 0.331009 Si
21 1 1.42671 9.49174 3.98197 1.68427 2.41973 3.27101 -1.02964 -0.361597 1.17213 Si
30 1 2.73419 8.20992 5.46829 1.61453 3.4199 5.53815 -0.113712 -0.969164 -0.467087 Si
44 1 5.37287 0.0624292 5.42039 -2.69345 4.89462 5.47961 0.601248 -0.111342 -0.536369 Si
25 1 4.06167 9.59663 6.74483 -0.355601 -6.89384 2.08813 -0.15972 -0.0423148 0.689104 Si
53 1 6.73038 9.51676 4.08621 -1.7709 -4.6018 -1.63478 0.905427 0.167241 0.158169 Si
57 1 9.4938 9.44502 6.72578 -3.09375 0.976677 -3.19689 0.4754 -0.0866926 1.01434 Si
62 1 8.24175 8.10296 5.31357 -0.765384 -1.09504 -1.33862 -0.483559 0.549463 -0.16348 Si
6 1 2.7096 2.61762 0.0176323 6.8851 4.45253 -2.07552 -0.387316 -0.0293726 -0.161148 Si
16 1 2.72551 0.050854 8.10945 2.3119 -8.4462 -2.80046 -0.0974411 -0.262299 0.943885 Si
36 1 5.39546 -0.0607731 -0.0179753 5.58137 0.613744 -0.46809 1.08542 0.522079 1.09299 Si
11 1 4.15989 1.34133 9.54834 1.92124 0.863033 0.905308 -0.689342 0.631766 -1.29108 Si
42 1 5.52632 2.75102 8.08347 -0.881592 -7.44674 7.05364 0.0235954 -0.377139 1.89664 Si
38 1 8.09922 2.76677 -0.0155355 -2.63993 2.37101 -0.490028 1.04057 -0.836331 0.325408 Si
10 1 6.71061e-05 2.7362 8.19653 0.845957 1.49741 -0.32453 -0.331793 -0.788661 -0.747005 Si
43 1 9.41163 1.32224 9.4084 -3.82889 -5.35585 -0.105272 0.919306 1.39486 1.51612 Si
13 1 1.39511 4.00752 9.54278 -2.12212 -3.14748 -2.73962 -0.150414 0.442876 0.373982 Si
32 1 2.81727 5.36926 8.25597 0.329629 4.97476 2.50331 0.302572 0.638625 -0.504056 Si
52 1 5.39931 5.39561 -0.028745 -0.154866 3.02055 2.77998 0.605976 0.0153568 0.554879 Si
27 1 4.19591 6.85954 9.53514 -5.77353 3.242 -4.63513 -1.77322 -0.352106 0.207896 Si
45 1 6.86668 4.15043 9.50833 0.799113 -3.64404 2.60701 -1.03382 -0.0877915 -0.624761 Si
20 1 -0.0396212 5.43757 -0.0663759 1.50431 -0.532621 7.15077 1.24257 -0.66978 1.54266 Si
59 1 9.55299 6.80243 9.56759 -7.35159 -1.785 -0.583847 -0.868739 0.831103 -0.679416 Si
64 1 8.13494 5.59405 8.1519 -4.80288 2.11652 -5.40359 0.447983 -0.53725 0.393811 Si
22 1 2.72049 8.20682 -0.0238401 1.98187 1.33205 -1.84247 0.66609 0.302997 -0.449584 Si
29 1 1.29917 9.6037 9.5231 1.86317 4.85157 -5.21064 1.03867 -0.80177 -0.644244 Si
58 1 5.36565 8.28493 8.18162 3.41121 -0.532678 -4.52156 1.59216 -0.00491444 -0.876532 Si
61 1 6.82602 9.6026 9.50601 0.582452 -1.39602 -0.474235 -0.0758386 -0.431247 -0.392053 Si
48 1 8.17216 0.0428076 8.05173 -5.26695 -4.94006 -4.48645 -0.740775 -1.49987 -0.292335 Si
26 1 0.0107021 8.13085 8.19347 1.5758 1.59092 -1.71032 0.106573 0.190752 -0.693963 Si
ITEM: TIMESTEP
16500
ITEM: NUMBER OF ATOMS
64
ITEM: BOX BOUNDS pp pp pp
0.0000000000000000e+00 1.0887404739999999e+01
0.0000000000000000e+00 1.0887404739999999e+01
0.0000000000000000e+00 1.0887404739999999e+01
ITEM: ATOMS id type xu yu zu vx vy vz fx fy fz element
4 1 0.075662 -0.0144357 0.0226562 2.85083 -4.06658 -1.8174 0.154934 0.0580329 -1.32027 Si
7 1 1.41914 1.36564 1.28057 -2.67362 4.51596 4.57228 0.298536 0.408579 1.37871 Si
34 1 5.45071 2.81771 2.74038 -1.40375 -3.29567 -4.47668 0.493984 -1.06855 0.0886654 Si
39 1 6.75401 1.36661 1.35738 1.34599 2.28904 -0.587449 0.076666 0.136284 0.0877616 Si
2 1 0.0319238 2.7708 2.67708 0.952693 -0.751058 -3.57045 0.431064 -0.903565 0.0228935 Si
40 1 8.22216 0.0173528 2.59308 1.75297 4.59535 1.43081 -0.0418305 -0.270443 0.91683 Si
23 1 1.2453 6.83303 1.38334 4.90462 3.0625 0.173688 0.288671 0.108101 -0.330068 Si
24 1 2.66891 5.49636 2.61148 1.5476 9.20913 0.548296 0.471891 -0.162441 1.46168 Si
1 1 4.08243 4.08372 1.41407 -1.43618 -1.2585 0.30382 -0.306556 0.419508 -0.745287 Si
55 1 6.81212 6.9274 1.28534 0.408589 -2.5706 -0.664737 -0.346393 -0.969254 0.633834 Si
33 1 9.58932 4.08019 1.29322 -1.10496 2.7726 3.552 -0.861532 0.332447 0.639114 Si
56 1 8.16905 5.50257 2.63105 0.778657 -2.11944 2.98559 0.280265 -0.0769953 0.0696832 Si
8 1 2.81798 0.0403963 2.74403 1.81706 -0.58149 1.51012 -1.53799 0.36411 -0.265906 Si
18 1 0.0102891 8.22429 2.81478 1.74461 1.59463 0.19503 -0.497064 -0.727855 -0.203077 Si
17 1 4.01926 9.51896 1.43633 4.82481 0.309418 1.60303 0.45664 -0.484735 -1.18954 Si
50 1 5.40764 8.17748 2.72201 5.29354 -1.18086 1.47347 0.552871 0.138259 0.553722 Si
49 1 9.6644 9.52465 1.35099 -1.10452 -1.89943 -2.63244 -0.651585 0.47551 0.503666 Si
54 1 8.26792 8.24988 0.0511511 -5.19386 4.65237 -4.39688 -0.223308 -0.858918 -0.926692 Si
12 1 0.0419821 0.11365 5.41944 -4.18851 -2.28574 1.86726 -0.120533 -1.15623 0.874599 Si
14 1 2.64323 2.69904 5.32007 -2.39962 -3.54242 -1.02202 0.789759 -0.812016 1.72155 Si
15 1 1.38145 1.35674 6.8846 -1.55365 -8.22513 -3.59656 0.201345 0.363761 -0.801147 Si
3 1 4.13281 1.38743 4.07097 2.73778 1.45323 -0.94027 0.497641 0.0272631 0.524897 Si
47 1 6.81315 1.33117 6.93005 -4.69426 2.0577 2.58505 0.0144096 0.124166 -1.58334 Si
35 1 9.58171 1.31726 4.0285 -1.92614 -1.1213 -3.1379 -0.616191 1.10901 -0.585454 Si
46 1 8.14783 2.62246 5.40584 5.81407 -1.29457 6.20263 0.0595061 0.15627 0.152786 Si
5 1 1.41704 4.09048 4.05251 0.549476 -1.00985 -0.543812 -1.37082 0.881893 -1.0071 Si
31 1 1.25019 6.7854 6.75604 -4.14273 -0.956833 -0.9987 -0.324181 0.145852 -0.54951 Si
9 1 3.92011 4.04061 6.7787 2.25881 -1.25087 -0.91325 1.37044 -0.025075 -0.480178 Si
19 1 4.02174 6.8161 4.09721 -4.20933 0.135708 2.52307 0.339861 -0.372036 -0.520099 Si
37 1 6.87265 4.12514 4.05563 -3.22224 -3.10266 -1.06817 -0.119763 -0.375605 0.00244123 Si
60 1 5.41794 5.36627 5.40767 3.35364 3.99983 -1.01682 -0.873047 0.0569789 0.247726 Si
63 1 6.76636 6.59888 6.85317 -1.50656 2.52369 1.41343 0.455355 1.07861 0.0409286 Si
28 1 -0.114652 5.36856 5.35621 1.04735 2.12526 -1.48565 1.30241 0.328484 0.543484 Si
41 1 9.5428 3.97554 6.74247 -2.74958 -4.4546 -0.881211 -0.621039 0.190784 0.327103 Si
51 1 9.46493 6.82075 4.12472 -1.49525 -2.46003 2.24379 -0.406138 0.70916 -0.353841 Si
21 1 1.35447 9.61713 4.06514 3.34168 2.43743 -1.81308 0.640623 0.0813668 0.418767 Si
30 1 2.65127 8.18688 5.41777 -0.885719 -1.05208 -0.732387 0.344343 0.345067 0.89295 Si
44 1 5.50146 -0.0207656 5.46689 -1.16184 -3.82998 -0.972308 -0.471578 0.502528 0.222307 Si
25 1 4.09611 9.5361 6.87625 1.8713 3.10865 -0.286912 -0.0168228 -0.750282 -0.699186 Si
53 1 6.86303 9.58031 4.04435 0.0635257 2.62292 5.6579 -0.283256 -0.715521 0.051929 Si
57 1 9.52722 9.65614 6.84198 -0.812301 -1.30384 -1.49017 0.0627026 -0.708109 -0.799105 Si
62 1 8.07742 8.18072 5.57773 -0.181497 -3.83458 6.61556 0.589004 -0.137964 -0.618674 Si
6 1 2.74631 2.79076 -0.020074 -0.533757 -3.60194 -0.19793 0.245922 -0.472901 0.417542 Si
16 1 2.74336 0.000291361 8.25159 3.41304 5.23896 0.468856 -0.34524 -0.447147 -0.693308 Si
36 1 5.38389 -0.0293607 0.0374114 -8.10278 -3.00915 -3.24903 0.477103 -0.130721 -1.12567 Si
11 1 4.03368 1.41545 9.50004 -0.589623 -2.79053 -2.15823 1.2632 -0.251787 0.830618 Si
42 1 5.44538 2.74266 8.13756 -0.321296 3.66705 -6.12297 -1.03427 0.130114 0.129335 Si
38 1 8.21205 2.65344 0.0432696 1.33691 5.41474 1.15854 -1.05312 1.29683 -0.275906 Si
10 1 0.00641122 2.73983 8.17322 1.5522 0.932261 1.05683 0.783784 0.345711 0.338336 Si
43 1 9.58719 1.4608 9.58294 -1.64812 2.24094 0.672545 0.181067 -1.93944 -0.302794 Si
13 1 1.40552 4.11538 9.56503 1.89162 3.65115 3.15816 -0.873116 -0.332213 -1.07176 Si
32 1 2.60518 5.44352 8.09545 -2.25213 -2.28611 -1.83474 0.771028 0.379579 0.750526 Si
52 1 5.43849 5.39676 0.0460307 -0.0949703 -4.34215 -5.61181 0.405964 0.504767 -0.526672 Si
27 1 4.00926 6.73557 9.59177 5.41744 0.142443 0.473217 0.214342 -0.0612983 -0.749511 Si
45 1 6.8116 4.0415 9.5096 3.9212 -1.20439 -2.53725 0.0599021 -0.402028 1.22525 Si
20 1 0.0209665 5.43018 -0.0394411 -4.9174 1.3289 -2.27439 -0.36517 0.653419 0.179666 Si
59 1 9.48996 6.77932 9.53154 4.62112 -1.55884 -0.759602 0.421793 0.237883 0.021125 Si
64 1 8.22506 5.30733 8.20797 -3.98671 -0.916656 -4.2486 -0.192806 0.462173 -0.801229 Si
22 1 2.65892 8.12654 0.03817 -2.49504 -1.87491 4.50514 0.915553 -0.311393 0.846618 Si
29 1 1.43876 9.41984 9.54825 2.56148 -2.83939 1.09754 -1.58074 1.17497 -0.62924 Si
58 1 5.45946 8.05048 8.19543 -3.28257 0.0105561 5.47376 -0.220924 0.32963 0.265885 Si
61 1 6.91674 9.47489 9.49388 -1.52335 0.617384 -1.21506 -1.65336 0.479861 0.885154 Si
48 1 8.201 0.0415753 8.23563 2.474 5.84679 4.47588 0.528643 0.455317 0.443583 Si
26 1 -0.0723439 8.17598 8.13919 1.34522 -0.684413 -0.742407 0.567161 -0.067752 0.442919 Si
ITEM: TIMESTEP
16600
ITEM: NUMBER OF ATOMS
64
ITEM: BOX BOUNDS pp pp pp
0.0000000000000000e+00 1.0887404739999999e+01
0.0000000000000000e+00 1.0887404739999999e+01
0.0000000000000000e+00 1.0887404739999999e+01
ITEM: ATOMS id type xu yu zu vx vy vz fx fy fz element
4 1 -0.138585 -0.0103948 0.01243 -0.77555 5.27147 2.96196 1.24365 -0.0371225 0.941381 Si
7 1 1.37936 1.31232 1.41469 -5.29721 -4.33335 -4.07161 -1.27264 0.378012 -0.842483 Si
34 1 5.40914 2.689 2.79909 -1.66188 3.90875 5.38166 0.133694 0.44888 -0.684416 Si
39 1 6.86835 1.4727 1.42279 -4.58316 -3.11111 -5.67264 -0.264086 -1.01905 -0.654872 Si
2 1 -0.0477756 2.65872 2.7974 -2.16871 1.63625 1.41713 0.736198 0.597158 -0.732982 Si
40 1 8.16609 -0.0539777 2.73032 -1.53136 2.13852 -0.351847 -0.226233 1.16494 0.246309 Si
23 1 1.44089 6.78452 1.33947 -1.19199 -6.79246 -1.82833 0.546885 0.206675 0.31924 Si
24 1 2.75718 5.3798 2.7176 -5.02836 -2.48525 -7.71813 -0.156827 0.438747 -0.519364 Si
1 1 4.0949 4.04052 1.36174 -1.00712 0.832365 0.489325 0.148154 0.0290894 -0.109847 Si
55 1 6.81411 6.7816 1.39835 -0.42874 1.32039 -1.17717 -0.281378 -0.0558363 0.044386 Si
33 1 9.55608 4.03648 1.32444 7.05286 -5.40282 -1.81543 -0.0121503 0.269712 0.514407 Si
56 1 8.18727 5.41559 2.71223 3.21038 -0.134465 -5.86793 0.10018 -0.201742 0.533841 Si
8 1 2.64937 -0.10005 2.7158 -1.04262 5.68072 -2.22706 0.500419 -0.390255 0.289382 Si
18 1 -0.0443751 8.05517 2.60963 2.78422 -6.11477 1.44018 0.25152 0.742413 0.866722 Si
17 1 4.09211 9.52327 1.28859 -4.52646 4.7293 -0.638226 0.895822 1.30889 1.04128 Si
50 1 5.40342 8.156 2.6912 -6.61952 -1.40588 -0.176865 0.792673 0.18588 -0.413898 Si
49 1 9.431 9.47926 1.38696 7.10513 0.912298 2.21597 0.829944 -0.086919 -0.463008 Si
54 1 8.13795 8.11239 0.0538237 1.87883 -0.0807903 1.37269 -0.586404 0.747341 -0.484826 Si
12 1 0.0332529 -0.0149607 5.43663 3.78991 5.25844 -4.98438 -0.453495 0.359841 0.669246 Si
14 1 2.80845 2.6863 5.47488 1.81661 1.23538 -2.39497 -0.972354 0.89606 -1.16185 Si
15 1 1.3544 1.44383 6.76769 -3.05769 4.13714 6.53068 -0.40789 -0.702888 -0.0756368 Si
3 1 4.04362 1.28019 4.04434 -3.3914 -1.87011 -0.462747 -0.566749 0.629377 -0.158449 Si
47 1 6.85101 1.36426 6.75081 -0.898832 -0.420533 2.11637 -0.692122 0.154948 0.889897 Si
35 1 9.50454 1.33322 4.14336 5.02291 1.38927 4.3453 -0.394746 -0.334559 -0.245753 Si
46 1 8.13291 2.76937 5.4186 -2.74992 -2.00126 -3.65058 0.997912 0.395191 0.672424 Si
5 1 1.34735 4.13507 4.07044 2.81607 -1.61143 -0.851443 0.427018 -1.38753 0.99945 Si
31 1 1.46628 6.8419 6.87724 3.43787 3.50632 4.06092 -0.0702908 -0.216114 -0.037997 Si
9 1 4.11365 4.05065 6.83993 -2.98501 -1.03101 2.92839 -0.335681 0.0382518 0.694109 Si
19 1 4.1684 6.717 3.98258 -1.53971 0.239754 0.0493902 -1.25648 0.609195 0.993081 Si
37 1 6.75243 4.09817 4.1124 6.54581 2.46034 2.15548 -0.071355 0.446343 -0.103699 Si
60 1 5.3668 5.46004 5.51408 -1.08509 -1.76604 0.222028 1.56614 -0.0553439 -0.532146 Si
63 1 6.864 6.8571 6.75179 2.59993 -2.25283 -0.942334 -0.114851 -0.359429 -0.301545 Si
28 1 0.0862359 5.48247 5.54305 -3.91194 -0.17855 -1.31935 -0.0232615 0.582145 -0.910635 Si
41 1 9.53649 4.22368 6.80979 1.77771 2.43262 -0.746567 -0.622358 -1.50652 -0.163984 Si
51 1 9.58111 6.79048 4.10559 1.3134 -1.6692 0.217532 -0.264954 -0.580006 -0.226047 Si
21 1 1.22632 9.42825 4.09025 -1.4268 -1.54075 -0.453494 1.09805 -0.173746 -0.95769 Si
30 1 2.75439 8.11575 5.34609 0.234781 -0.649263 -1.39179 0.0560481 0.0790585 0.301755 Si
44 1 5.44402 0.100847 5.37019 0.814417 2.15276 -3.24055 0.317861 -1.88582 0.665317 Si
25 1 4.02406 9.57484 6.74956 -0.575885 -0.335843 -0.56149 0.423046 0.251271 -0.104282 Si
53 1 6.7975 9.49982 4.03468 0.537486 0.601026 -1.38263 -0.628947 0.487227 0.398052 Si
57 1 9.60322 9.50952 6.84584 3.36658 -2.45415 0.327629 -0.422588 -0.137056 -0.513347 Si
62 1 8.21792 8.21979 5.37303 0.803417 2.89649 -4.72615 0.213604 -0.299195 0.693398 Si
6 1 2.68166 2.7405 -0.00533624 -2.38402 -3.89451 1.87269 -0.169969 -0.304103 0.173442 Si
16 1 2.58541 0.0474288 8.15469 -1.27105 -0.382061 2.63794 1.40394 -0.0773071 0.158029 Si
36 1 5.51335 0.0845071 -0.0375202 3.22344 2.46325 2.27163 -0.880381 0.207144 1.10359 Si
11 1 4.06253 1.4091 9.51528 3.78126 1.82962 1.82074 -0.723967 -1.00725 0.244471 Si
42 1 5.4367 2.67763 8.2196 4.2638 -0.0381808 5.52014 0.82348 0.456869 -1.24687 Si
38 1 8.16529 2.76726 -0.0898155 -0.100695 -2.78672 1.55277 0.413589 -0.668719 0.454836 Si
10 1 -0.0436342 2.74043 8.10367 -3.73295 -0.320643 -2.49988 -0.450618 -0.0767806 0.374581 Si
43 1 9.50995 1.27866 9.46854 1.68332 6.55742 1.50348 -0.618275 1.28406 -0.292583 Si
13 1 1.26139 4.07182 9.51078 -0.837409 -3.27762 2.24844 1.18703 0.138609 0.161245 Si
32 1 2.78122 5.42717 8.25296 2.1823 1.79331 -1.21909 -0.638557 -0.255767 -0.562311 Si
52 1 5.45499 5.46559 0.0215303 -0.0222393 -0.500832 2.08223 -0.530121 -0.0213607 -0.192251 Si
27 1 4.07983 6.87522 9.52434 0.45168 2.7881 3.88249 1.37558 -0.112993 -0.175675 Si
45 1 6.76835 4.10794 9.51656 -2.67021 0.985052 -0.876483 0.36823 0.457572 -0.381339 Si
20 1 0.0762215 5.46065 0.0624559 1.57583 -3.2727 4.24467 -1.21527 -0.219578 -0.781796 Si
59 1 9.52592 6.84266 9.60348 1.35666 -1.05869 -0.299299 0.671467 -0.599274 -0.205615 Si
64 1 8.18026 5.52637 8.1779 2.7425 0.122316 9.60453 -0.384743 -0.162534 0.374365 Si
22 1 2.80059 8.22232 0.0277988 -3.4113 -0.253451 -5.26974 -1.7112 -0.532306 -1.07052 Si
29 1 1.30998 9.58225 9.58442 -1.21285 -1.06123 0.95333 0.49989 -0.371964 0.340477 Si
58 1 5.51799 8.2087 8.04976 1.40305 1.97209 -2.39707 -1.4223 0.187827 1.06178 Si
61 1 6.75828 9.52217 9.57487 0.6436 0.939139 -1.87051 0.974737 -0.503717 -0.690967 Si
48 1 8.13444 -0.0782063 8.13617 -3.5364 -8.67003 -5.03679 0.0805832 0.302715 0.0754157 Si
26 1 0.0517387 8.16667 8.24583 -3.55169 0.968644 -0.30517 -0.234102 -0.138656 -0.297216 Si
ITEM: TIMESTEP
16700
ITEM: NUMBER OF ATOMS
64
ITEM: BOX BOUNDS pp pp pp
0.0000000000000000e+00 1.0887404739999999e+01
0.0000000000000000e+00 1.0887404739999999e+01
0.0000000000000000e+00 1.0887404739999999e+01
ITEM: ATOMS id type xu yu zu vx vy vz fx fy fz element
4 1 0.113465 -0.0539985 -0.0499996 4.10883 0.0580981 -2.19707 -1.16126 1.05197 0.437513 Si
7 1 1.39463 1.40762 1.33747 9.1234 2.60599 6.93517 0.625628 -0.580634 -0.0488377 Si
34 1 5.42784 2.66214 2.66522 2.33506 -1.58147 -2.47028 0.188332 0.768779 0.529377 Si
39 1 6.77673 1.19246 1.39977 3.01391 4.70415 3.42706 0.043143 0.99518 -0.486215 Si
2 1 -0.0122791 2.71841 2.68675 3.40412 -3.50347 -2.75251 -0.405142 0.701328 0.315853 Si
40 1 8.1597 -0.0521043 2.81066 -1.40199 -3.85185 -0.68342 -0.109773 -0.385798 -0.829405 Si
23 1 1.31514 6.84232 1.4034 -4.44989 4.5069 3.09428 -0.254949 -0.898108 0.163166 Si
24 1 2.75713 5.55052 2.82369 0.376042 0.0267807 5.64157 -0.984438 -1.01765 -0.882959 Si
1 1 4.10257 4.18676 1.40217 1.03204 1.87108 0.455947 -0.168141 -0.67162 -0.134178 Si
55 1 6.75949 6.84513 1.35933 2.01836 -3.41149 -0.25837 1.0722 -0.21718 -0.260994 Si
33 1 9.40867 4.17811 1.36287 -2.43818 3.38311 0.180959 1.01396 -0.758181 -0.00767078 Si
56 1 8.10867 5.49765 2.79779 -0.50048 1.29858 1.56599 -0.226152 0.200146 -0.846348 Si
8 1 2.8238 0.0639077 2.75783 -4.60004 -2.62939 -1.54557 -0.366413 0.267244 -0.46726 Si
18 1 0.0488782 8.30324 2.69762 -1.31775 -1.01838 -0.202188 -0.368561 -0.240621 0.375176 Si
17 1 4.10834 9.46469 1.40722 2.18961 -1.22696 -2.96479 -1.27431 -0.408788 -0.502663 Si
50 1 5.50648 8.17907 2.75805 1.43277 3.07386 0.696239 -1.28828 -0.437569 -0.176392 Si
49 1 9.52285 9.56959 1.29688 -1.38992 -0.943394 -1.61211 0.0930975 -0.106948 0.357723 Si
54 1 8.17716 8.16484 -0.0679716 1.29622 -3.86448 -1.97277 0.388958 -0.4403 1.26901 Si
12 1 -0.0769443 -0.0190836 5.53414 -3.0603 -4.56815 1.06466 0.90737 0.276796 -2.23551 Si
14 1 2.74785 2.76142 5.52489 -0.485474 -0.868851 0.174379 0.0985419 0.165042 -0.23657 Si
15 1 1.36197 1.32497 6.73988 6.4951 3.785 -4.50579 0.582358 -0.010476 1.37025 Si
3 1 4.10249 1.45612 4.17085 1.08937 -5.54528 2.17734 0.188616 -0.922906 -0.476379 Si
47 1 6.74648 1.43534 6.78007 4.64387 0.238889 -2.84262 0.932385 -0.863928 -0.125038 Si
35 1 9.48242 1.34744 4.08401 -1.06444 2.42841 -3.99102 0.951685 0.203325 0.362734 Si
46 1 8.21905 2.73643 5.48156 -2.77253 0.24119 0.0702412 -1.52546 -0.30769 -1.0014 Si
5 1 1.38916 4.06265 4.13939 -0.966931 2.32971 -5.67157 -0.351213 0.420749 -0.738521 Si
31 1 1.27243 6.75926 6.73444 -0.377574 2.97301 -2.79202 0.925505 0.270629 0.503198 Si
9 1 4.20463 4.12945 6.78979 -1.05073 -3.82917 -2.65991 -1.55239 0.246396 -0.381595 Si
19 1 4.09581 6.85435 4.12127 0.177067 -2.03255 -3.07708 0.678297 0.242166 0.0392387 Si
37 1 6.74549 4.08047 4.07802 1.89597 0.98926 -1.45519 1.07909 -0.891466 -0.17968 Si
60 1 5.47759 5.45658 5.38016 -5.8155 -1.81057 1.38397 -0.532536 0.31613 0.478825 Si
63 1 6.7762 6.78153 6.77172 1.74227 0.110225 2.68628 0.0697821 0.411819 0.729823 Si
28 1 -0.0580529 5.42342 5.4298 0.717087 -2.33091 0.305442 -0.879104 -0.681421 -0.0961924 Si
41 1 9.50966 3.92853 6.91208 -3.52207 -1.5839 -0.0370998 1.01219 1.81399 -0.631691 Si
51 1 9.51956 6.90761 4.02363 -4.42785 4.72143 -0.728451 0.657593 -0.674833 0.415149 Si
21 1 1.4684 9.61125 4.09962 -1.28782 -0.349273 1.92151 -1.01246 -0.333846 0.742029 Si
30 1 2.73489 8.13034 5.49927 -0.140815 3.17484 -1.99437 -0.102353 0.779201 -0.244596 Si
44 1 5.44278 -0.0227999 5.46 0.91297 1.3193 4.97184 -0.0526053 0.808701 -0.0341023 Si
25 1 4.17305 9.49452 6.82211 0.316519 -0.634265 -2.13694 -0.623628 -0.543515 0.699387 Si
53 1 6.7428 9.49607 4.11964 1.07259 -0.606323 2.77081 1.16436 0.361854 0.269703 Si
57 1 9.42475 9.51827 6.71214 -0.442017 3.45628 3.99561 0.233169 -0.0110386 1.82396 Si
62 1 8.14487 8.1355 5.42457 -0.0887383 2.68761 1.65852 -0.728331 0.0936403 -0.255986 Si
6 1 2.82437 2.74786 -0.0236305 0.537398 3.86761 1.85125 -0.521724 0.269649 -0.0331855 Si
16 1 2.77548 -0.0240644 8.14693 -1.38479 -3.57898 -0.638545 -0.485924 -0.123253 -0.201079 Si
36 1 5.41402 -0.136655 0.00476671 0.571348 -1.95503 -3.07258 0.523499 0.740817 0.19785 Si
11 1 4.16628 1.29769 9.51608 1.42825 1.54047 -0.644225 -0.381148 0.704483 -0.171314 Si
42 1 5.44109 2.76821 8.10034 -2.72824 -1.08467 -1.29379 0.213554 -0.647761 1.4807 Si
38 1 8.09242 2.70158 0.0382606 -1.4989 3.60675 -3.56648 0.382905 -0.48422 -0.0475281 Si
10 1 0.0869216 2.64081 8.20894 1.03118 1.44608 -1.16695 -0.454063 0.0620002 -0.326781 Si
43 1 9.54808 1.35195 9.53948 2.4419 -9.86148 -0.671675 0.0180721 -0.0896924 0.562611 Si
13 1 1.38732 4.101 9.46381 -4.58281 3.6385 0.391116 0.0662257 -0.0335412 1.09757 Si
32 1 2.71207 5.43178 8.07941 -0.319643 0.70306 3.25049 0.203988 0.190785 -0.00309914 Si
52 1 5.44854 5.47364 -0.0157421 0.432657 -0.496653 -1.99969 0.0589786 -0.318785 0.119847 Si
27 1 4.05266 6.74319 9.51418 -2.55527 -4.01457 -1.10421 -0.771295 0.304675 0.456135 Si
45 1 6.79523 4.07355 9.51294 -1.41853 -0.819675 2.06609 -0.333754 0.00538728 0.229314 Si
20 1 -0.0519006 5.51101 -0.051688 1.24321 6.60562 0.340112 0.59453 -0.839922 0.558653 Si
59 1 9.52778 6.82474 9.45739 -1.25801 -0.0997473 0.320887 -0.626806 -0.202216 -0.531311 Si
64 1 8.11737 5.39997 8.12255 1.79635 -4.91227 -3.48974 0.673509 0.271631 0.411541 Si
22 1 2.58837 8.0801 -0.014041 5.90291 -0.0141252 6.01321 1.90291 0.995334 -0.0718829 Si
29 1 1.32505 9.47094 9.45144 -4.16121 -1.41739 0.225033 0.888673 -0.0126801 -0.335101 Si
58 1 5.464 8.1293 8.32352 0.906681 -1.53988 -2.75253 0.354776 0.146922 -1.80295 Si
61 1 6.8673 9.52353 9.57895 -5.57469 0.534433 4.33145 -0.462371 0.392492 -1.03549 Si
48 1 8.14668 0.0654747 8.14907 1.34745 4.55637 4.45478 -0.214613 -0.518334 -0.147152 Si
26 1 -0.0283989 8.16175 8.06259 0.0506351 -0.498023 0.529322 -0.568664 0.195659 -0.0092663 Si
ITEM: TIMESTEP
16800
ITEM: NUMBER OF ATOMS
64
ITEM: BOX BOUNDS pp pp pp
0.0000000000000000e+00 1.0887404739999999e+01
0.0000000000000000e+00 1.0887404739999999e+01
0.0000000000000000e+00 1.0887404739999999e+01
ITEM: ATOMS id type xu yu zu vx vy vz fx fy fz element
4 1 -0.0877574 -0.0180964 0.0542195 -3.5594 -1.95408 1.49409 0.27126 -0.529294 -1.41003 Si
7 1 1.26851 1.26221 1.31287 -6.18347 -0.414314 -2.69075 0.844358 0.887725 1.46589 Si
34 1 5.4644 2.77345 2.71991 -3.36161 -1.42055 0.0670321 -0.407631 -0.81573 -0.636153 Si
39 1 6.80093 1.40111 1.26705 -0.775139 -6.38325 0.959415 0.586389 0.708875 1.51916 Si
2 1 0.0549003 2.73286 2.74241 -0.24069 1.54171 4.10766 -0.499729 -0.692043 -0.0519856 Si
40 1 8.15763 0.0499534 2.67792 1.60219 -0.570577 2.82402 0.213143 0.247516 -0.0107531 Si
23 1 1.42263 6.77027 1.34509 5.10088 0.238335 -1.48471 -1.01242 1.25514 -0.467859 Si
24 1 2.74591 5.45296 2.62859 3.57688 -0.254245 -0.527273 0.453146 -0.510591 1.41274 Si
1 1 4.05628 4.05956 1.29619 -1.20883 0.583839 -1.78712 0.295158 -0.239796 0.19184 Si
55 1 6.829 6.78207 1.36567 -5.3021 -0.860222 1.17603 -0.783341 0.0239671 0.0830989 Si
33 1 9.59899 4.1263 1.40689 -2.59765 1.72411 1.37509 -0.797233 -0.463462 -0.438006 Si
56 1 8.10859 5.43166 2.73496 -1.59942 -1.37386 3.73761 0.719157 -0.606005 0.118372 Si
8 1 2.74299 -0.0153539 2.69155 2.45371 -4.24452 3.14707 -0.717822 0.179299 0.343455 Si
18 1 -0.0488639 8.13122 2.7405 2.86928 5.88521 -2.1014 0.344051 -0.571803 -0.540394 Si
17 1 4.14446 9.5725 1.37652 -0.433171 1.13899 4.76358 0.335661 -0.572666 0.197008 Si
50 1 5.47553 8.13364 2.76279 3.01351 -0.769757 -2.43508 0.184976 0.688616 -0.32539 Si
49 1 9.47719 9.4998 1.38835 -1.17316 0.0156023 1.11357 0.163908 0.144276 0.281839 Si
54 1 8.12234 8.1873 0.0545541 -0.879134 -0.942849 -0.824172 0.315816 -0.189747 -1.33253 Si
12 1 0.0305162 0.0115448 5.41891 1.582 -3.96706 4.29968 -0.846429 -0.745996 0.935396 Si
14 1 2.70096 2.71443 5.44766 1.93751 3.45736 1.39431 -0.463279 -1.09729 -0.0196153 Si
15 1 1.2882 1.38751 6.84525 -4.38591 -3.77528 -3.83825 0.475873 0.214397 -1.07891 Si
3 1 4.07342 1.39231 4.06897 -1.81396 5.698 -0.528329 0.519292 -0.474161 -0.0642016 Si
47 1 6.79327 1.31136 6.83205 -2.49563 -0.174903 -0.71014 0.134093 0.131284 -0.217755 Si
35 1 9.51517 1.36539 4.11129 -4.61896 0.60483 5.21851 0.276733 0.20025 -0.565936 Si
46 1 8.15568 2.69486 5.48239 2.20621 1.64099 6.20434 0.226739 -0.186733 0.171429 Si
5 1 1.44731 4.04616 4.07068 1.32155 -1.52432 6.44666 -0.697273 1.15451 -0.236196 Si
31 1 1.39365 6.84278 6.95138 -0.494483 -3.73346 0.771517 -0.852055 -0.495937 -1.70233 Si
9 1 3.95091 4.04954 6.76875 6.05219 3.02611 3.56877 2.2166 -0.210718 -0.125547 Si
19 1 4.05892 6.81917 4.09453 -2.35654 3.20853 0.994724 0.128914 -0.703556 -0.566859 Si
37 1 6.82734 4.00924 4.12037 -4.5706 -1.65049 1.1267 -0.477355 1.02276 -0.0897359 Si
60 1 5.3758 5.38899 5.42738 7.31996 -0.59532 -1.98602 0.405945 0.140526 0.246876 Si
63 1 6.75324 6.80677 6.7985 -0.942001 2.04834 -2.44939 0.0373578 -0.0910064 0.36217 Si
28 1 0.00413154 5.42994 5.43207 2.21624 -0.0379422 -0.123871 1.3001 0.638426 0.161385 Si
41 1 9.5473 4.1162 6.74396 -4.10271 -1.18429 3.15545 -0.723896 -0.227033 0.789749 Si
51 1 9.47912 6.7415 4.09314 5.76419 -0.00824299 -2.83944 0.0453091 0.770166 0.25296 Si
21 1 1.31567 9.50032 4.05104 6.14181 -1.59955 -6.04612 0.749529 0.143867 0.048374 Si
30 1 2.68937 8.13056 5.42546 1.71895 0.258817 1.91421 -0.494057 0.435235 0.416234 Si
44 1 5.51681 -0.048903 5.36271 -1.25245 -1.0368 -0.109403 -1.349 0.676666 0.937783 Si
25 1 4.00225 9.53836 6.76984 0.868209 2.17859 -1.306 0.669047 0.447895 -0.0696116 Si
53 1 6.90313 9.56352 4.05583 -4.66113 -0.325398 -0.0497265 -0.641395 -0.803067 -0.351196 Si
57 1 9.5876 9.43536 6.90955 -5.99264 -2.88433 -3.9666 -0.114561 1.27016 -1.55862 Si
62 1 8.15653 8.19681 5.46771 3.38149 -4.64361 -1.37303 0.498751 -0.754553 0.172394 Si
6 1 2.60538 2.66304 0.0203826 0.824619 -2.00816 -2.58775 0.860688 0.322623 -0.352167 Si
16 1 2.66263 0.082168 8.14724 3.37514 0.899726 -3.25307 0.673773 -0.773895 0.254773 Si
36 1 5.45241 0.0908676 0.0340191 -1.94638 -1.53037 3.54939 -0.324501 -1.02945 -1.34142 Si
11 1 4.04188 1.38458 9.54139 -1.45027 -1.59648 0.230693 0.186471 0.286126 -0.190855 Si
42 1 5.42151 2.75152 8.14126 4.47965 0.582605 -5.65986 -0.681453 -0.580298 -0.307177 Si
38 1 8.22467 2.7302 -0.0300143 -0.113981 -1.22994 -1.61087 -0.415633 1.14519 0.086782 Si
10 1 -0.0255059 2.77401 8.12814 0.142689 -2.09268 4.46829 0.316781 0.356184 0.341026 Si
43 1 9.57881 1.43597 9.51233 -7.45911 3.47951 -3.60364 -0.48476 -1.21856 -0.102247 Si
13 1 1.39171 4.08072 9.49826 5.49415 -2.70814 -2.09672 -0.421733 -0.340771 -0.216387 Si
32 1 2.7522 5.37371 8.10287 2.92635 -3.53091 -1.20435 -0.400855 1.18235 1.815 Si
52 1 5.49835 5.39608 -0.0112644 -0.0530636 2.59079 1.62181 -0.480124 0.331216 0.10537 Si
27 1 4.0841 6.7545 9.57105 3.47745 3.48948 -0.0564048 0.105313 0.0228571 -0.691047 Si
45 1 6.78521 4.08981 9.4488 2.51456 3.56678 -4.22157 0.998498 -0.320525 0.825268 Si
20 1 0.0450007 5.41512 -0.0323526 -2.73964 -0.150965 -3.25697 -0.0965946 0.695132 0.168368 Si
59 1 9.54672 6.8247 9.52015 0.651827 2.06105 0.0253258 -0.361073 -0.00904961 1.45107 Si
64 1 8.2131 5.46425 8.19929 -2.52306 7.94979 1.07243 -0.605022 0.0593546 -1.27126 Si
22 1 2.80682 8.21298 0.0132592 -6.11251 -3.18691 -1.49855 -0.430541 -0.539494 0.322322 Si
29 1 1.43053 9.57235 9.57922 2.50684 1.60504 0.383924 -0.80979 0.316278 0.319385 Si
58 1 5.36652 8.2024 8.19153 -2.79445 2.89361 5.19403 0.483014 -0.195411 -0.281361 Si
61 1 6.81786 9.59992 9.48789 10.0408 1.6575 -4.63073 -0.69555 -0.685254 1.06852 Si
48 1 8.22129 -0.0310866 8.16649 -3.27115 1.69879 -6.66019 0.234333 0.924862 0.0695553 Si
26 1 0.0261744 8.20237 8.30194 -2.0964 -1.36026 1.11158 0.814925 -0.349827 -0.322073 Si
ITEM: TIMESTEP
16900
ITEM: NUMBER OF ATOMS
64
ITEM: BOX BOUNDS pp pp pp
0.0000000000000000e+00 1.0887404739999999e+01
0.0000000000000000e+00 1.0887404739999999e+01
0.0000000000000000e+00 1.0887404739999999e+01
ITEM: ATOMS id type xu yu zu vx vy vz fx fy fz element
4 1 -0.0265756 0.0266042 -0.0507732 -2.65704 -1.44651 -0.406898 0.698309 0.160704 1.53748 Si
7 1 1.41959 1.40611 1.3347 4.08936 -3.60422 -2.84386 -1.27871 -0.00904933 -0.914271 Si
34 1 5.50138 2.76918 2.76678 0.948481 3.56276 1.99391 -0.737289 -0.33498 0.742604 Si
39 1 6.78959 1.36368 1.46922 -1.25778 6.76674 -2.65268 -0.52698 -0.649727 -1.38358 Si
2 1 0.0084164 2.67021 2.71366 2.06032 1.17839 -1.76542 0.183527 0.4959 -0.0292115 Si
40 1 8.15192 -0.0301617 2.66861 1.65838 0.942675 -1.64846 0.310245 -0.0767596 0.709294 Si
23 1 1.30402 6.80103 1.33616 -3.71163 -0.414099 2.12519 1.49066 -0.70473 0.0133293 Si
24 1 2.65391 5.32546 2.78 -3.0546 1.22709 -4.22426 0.593825 1.50525 -1.30198 Si
1 1 4.10608 4.05809 1.40815 0.985718 -0.596882 0.113759 -0.312877 0.494596 0.185009 Si
55 1 6.82764 6.89809 1.34828 4.75234 8.7934 -3.67035 -0.0710366 -0.283817 -0.192133 Si
33 1 9.50752 3.95147 1.32875 3.6723 1.32695 -3.68185 0.501799 1.27745 0.120938 Si
56 1 8.18979 5.47143 2.61667 -2.80922 3.90218 -0.876907 0.446762 0.0215201 0.387272 Si
8 1 2.63212 0.0433753 2.67229 5.56426 3.44323 1.56209 0.934906 -1.42624 0.726634 Si
18 1 0.0115719 8.07975 2.73117 -1.51541 -0.426022 2.92154 -0.00601971 1.1684 0.421667 Si
17 1 3.99168 9.49086 1.30963 -3.86677 -4.90037 -1.04264 -0.149265 1.21694 -0.0281891 Si
50 1 5.33476 8.17564 2.61967 -3.02714 -1.97969 -0.521242 0.746751 -0.514558 0.702477 Si
49 1 9.62441 9.55855 1.41735 1.13614 -4.42156 -2.83569 -0.373313 -0.399565 -0.634137 Si
54 1 8.29486 8.18424 0.0234603 1.52516 2.38967 4.12635 -1.03029 0.480016 0.340597 Si
12 1 0.0407629 0.082019 5.44545 0.948069 4.59809 -6.99307 0.421013 0.464321 0.124113 Si
14 1 2.71608 2.72732 5.49189 0.451251 -1.55574 -2.44438 0.440183 0.489891 -0.763943 Si
15 1 1.44989 1.46422 6.90475 -0.653019 1.25629 6.66592 -0.983993 -1.53868 -0.616645 Si
3 1 4.02774 1.32087 4.07819 1.45291 -1.00518 1.12269 0.367958 1.206 -0.133652 Si
47 1 6.88293 1.40123 6.81154 -0.633243 -0.0395674 3.26927 -1.13521 0.198144 0.194845 Si
35 1 9.50368 1.35086 4.00994 3.20011 -3.75005 -1.55548 -0.0639033 -0.155026 0.728488 Si
46 1 8.12629 2.76037 5.34542 -3.29002 -4.36705 -2.04589 1.33974 -0.162224 0.898828 Si
5 1 1.32215 4.07472 4.11477 0.469258 -1.2135 -1.01317 -0.281122 -0.997344 0.46501 Si
31 1 1.42939 6.80596 6.76933 -0.450993 0.521179 1.07727 -0.164595 0.213481 0.7533 Si
9 1 4.06187 4.11057 6.83444 -7.24584 -0.952401 -3.18551 -0.299012 0.00630488 0.588223 Si
19 1 4.12899 6.71372 4.02521 3.87931 0.723427 1.53789 -1.00053 0.705486 0.647341 Si
37 1 6.89121 4.19842 4.05409 -0.922761 -3.82784 2.3392 -1.21967 -0.472414 -0.0811205 Si
60 1 5.44921 5.41121 5.48909 -1.71072 1.43301 0.0421278 0.741784 0.50617 -0.434693 Si
63 1 6.95809 6.73439 6.78253 -2.89429 -3.59642 0.713026 -0.518533 0.635991 -0.263484 Si
28 1 0.0519502 5.48465 5.47068 -5.94386 -1.64431 -2.57843 -0.916007 -0.46195 -0.219404 Si
41 1 9.54961 4.07428 6.80904 6.89826 1.40982 -4.02661 -0.073404 -0.12303 -0.748691 Si
51 1 9.51936 6.79523 4.0787 0.759216 -1.0769 0.62053 0.270844 -0.439265 -0.247943 Si
21 1 1.34395 9.49841 4.11676 -8.64734 4.38935 1.63431 -0.290943 0.642823 -0.902213 Si
30 1 2.72871 8.18896 5.40568 -1.93831 -1.07327 -2.08164 1.07179 -0.79 -0.0433095 Si
44 1 5.41428 0.0788739 5.48201 5.15098 3.30885 -0.911595 0.84952 -1.16881 -0.691706 Si
25 1 4.07615 9.54031 6.80733 1.07521 -1.8329 0.216271 0.131511 -0.0869424 -0.0393631 Si
53 1 6.74584 9.49394 3.95677 1.6769 3.0876 -0.48534 -0.466214 0.932589 1.16285 Si
57 1 9.56812 9.62999 6.76323 2.28263 3.39754 5.52102 -0.386828 -1.16833 -0.182902 Si
62 1 8.20187 8.24319 5.33235 -4.49749 1.92464 4.60565 -0.252201 -0.321712 1.02046 Si
6 1 2.75405 2.79344 -0.000335313 -0.296023 5.10589 2.56598 -0.0662041 -0.602384 0.0883168 Si
16 1 2.71149 -0.0334054 8.22928 -0.426848 2.43969 1.61341 -0.0193374 0.411786 -0.0650371 Si
36 1 5.43933 -0.0380083 0.00742175 -1.41548 1.03657 0.922252 -0.403654 0.842214 0.805179 Si
11 1 4.07433 1.3952 9.55979 -2.71092 3.66539 -2.0276 -0.0687586 -0.888217 0.139161 Si
42 1 5.38699 2.72589 8.20255 -0.484221 -3.18246 3.12731 1.36858 0.441101 -0.0913537 Si
38 1 8.11784 2.6295 0.0509546 2.47096 -4.55894 1.27935 0.381952 -0.261228 -0.720268 Si
10 1 -0.00424207 2.73713 8.17025 -0.248295 0.100714 -0.187415 -0.370314 -0.524176 0.344928 Si
43 1 9.5286 1.275 9.50247 6.24097 0.188776 1.00875 -0.504414 1.77366 0.114514 Si
13 1 1.34678 4.04283 9.51527 -1.77151 2.81778 1.96072 0.0355405 0.615418 0.488012 Si
32 1 2.69292 5.4782 8.28051 -3.53031 -0.768368 -3.82316 -0.121379 -0.858755 -1.8371 Si
52 1 5.37295 5.53351 0.100937 0.145055 -2.77014 0.773762 0.620078 -0.505048 -0.510284 Si
27 1 4.03648 6.78933 9.52162 -2.95438 -4.06142 3.23792 1.25581 1.20744 0.0295457 Si
45 1 6.77357 4.09225 9.68498 -4.957 -2.94201 -0.235971 -0.281617 0.0102824 -1.14475 Si
20 1 0.0100115 5.40402 -0.0129298 4.32365 -2.08865 -1.15172 -0.507603 -0.553387 0.376904 Si
59 1 9.53558 6.78179 9.58045 -1.86477 -4.32965 -2.64067 0.667166 -0.031391 -0.977623 Si
64 1 8.24366 5.37035 8.23549 3.31565 -5.41612 1.49023 -0.906193 0.125908 0.281698 Si
22 1 2.67953 8.20431 -0.0899841 4.43191 1.47686 1.22711 -0.981182 -0.605172 0.443819 Si
29 1 1.20245 9.53916 9.50516 2.73641 0.371256 0.517256 1.38193 -0.566132 -0.564695 Si
58 1 5.50796 8.12405 8.06652 1.14216 -5.64318 -0.589492 -0.46166 -0.280727 1.06936 Si
61 1 6.76819 9.46841 9.60695 0.356643 -0.559179 -2.2454 1.15272 0.0772307 -1.38087 Si
48 1 8.1891 -0.014731 8.1687 2.79819 1.47399 3.58356 -0.945453 -0.594185 0.220025 Si
26 1 -0.030986 8.12179 8.08831 -1.21094 1.78484 0.877172 -0.2292 0.228938 0.272343 Si
ITEM: TIMESTEP
17000
ITEM: NUMBER OF ATOMS
64
ITEM: BOX BOUNDS pp pp pp
0.0000000000000000e+00 1.0887404739999999e+01
0.0000000000000000e+00 1.0887404739999999e+01
0.0000000000000000e+00 1.0887404739999999e+01
ITEM: ATOMS id type xu yu zu vx vy vz fx fy fz element
4 1 0.0898045 -0.0134154 0.0190548 -3.72746 -0.208742 -2.76578 -0.558761 -0.191187 -0.421658 Si
7 1 1.36266 1.41194 1.3817 0.473175 1.04621 1.14264 0.696536 -0.63747 0.467831 Si
34 1 5.42387 2.65861 2.67505 -2.72688 -0.959704 -0.662196 0.927831 0.744734 -0.507181 Si
39 1 6.85374 1.34519 1.363 1.43272 0.431704 6.14542 0.325872 0.730436 -0.553107 Si
2 1 -0.0390965 2.76247 2.76748 -2.87334 -3.29674 3.00075 0.124754 0.257802 -0.53405 Si
40 1 8.19631 -0.0185511 2.70749 -0.181021 -3.98113 -1.96776 -0.442174 0.308638 0.672455 Si
23 1 1.3604 6.92128 1.36434 -0.82682 1.94954 -5.01799 -0.740692 -0.78498 0.739198 Si
24 1 2.83532 5.55622 2.72715 1.43886 -2.70937 2.57703 -1.35114 -0.716129 0.0012031 Si
1 1 4.10351 4.04138 1.35085 0.274861 -3.50287 3.26339 -0.456947 0.474497 -0.50555 Si
55 1 6.72515 6.67031 1.39292 -2.11781 -3.54677 -0.0231722 0.928047 0.918662 -0.250462 Si
33 1 9.49702 4.21057 1.40083 -0.731804 -4.9021 -0.549364 0.176575 -1.00648 -0.378724 Si
56 1 8.12721 5.4678 2.8259 0.0881989 -1.55026 -5.07614 -0.250251 -0.419525 -0.416511 Si
8 1 2.78464 -0.105525 2.73412 -5.72243 0.634959 -1.87781 0.182212 2.24786 -0.140599 Si
18 1 -0.124984 8.32286 2.71635 0.149884 -4.92333 -5.72764 1.02966 -1.52736 -0.188794 Si
17 1 4.27022 9.53405 1.45874 2.999 0.175729 1.01323 -0.831529 -0.700142 -0.658246 Si
50 1 5.60878 8.15156 2.7976 -0.427897 1.34813 0.669723 -1.03493 0.0643067 0.0186197 Si
49 1 9.43747 9.54913 1.27034 1.62494 2.29352 5.54316 0.401204 0.105647 -0.0276437 Si
54 1 8.04474 8.11609 0.0106348 4.35779 0.830224 1.23925 0.553479 -0.145365 0.543619 Si
12 1 -0.0765144 -0.0693676 5.46491 0.485288 0.716034 5.00101 0.052675 -0.378122 -1.09581 Si
14 1 2.69867 2.71979 5.36302 -0.629049 -4.6536 3.27614 0.400711 -0.0808255 0.436281 Si
15 1 1.33828 1.23985 6.66018 -0.541048 2.74895 -2.2398 0.363567 1.51713 1.62927 Si
3 1 4.20613 1.39962 4.06511 0.698083 -2.40321 -3.88338 -1.97006 -1.621 0.471223 Si
47 1 6.81714 1.30073 6.78898 4.22707 -2.33437 -1.88639 0.0820073 0.525039 -0.115325 Si
35 1 9.51173 1.36606 4.1129 -0.295834 1.54209 1.46426 0.11343 -0.292538 -0.302887 Si
46 1 8.18646 2.73292 5.45864 0.445937 2.18463 0.102181 -1.36715 -0.399735 -0.634071 Si
5 1 1.31888 4.15489 4.10374 1.86013 5.68498 0.103706 1.26311 -0.163142 -1.26511 Si
31 1 1.29034 6.71093 6.76792 0.325825 -3.6114 0.280151 0.774499 0.914908 0.160441 Si
9 1 4.08351 4.09491 6.77296 3.76675 -0.507399 0.342196 -0.63044 -0.325051 -0.333199 Si
19 1 4.12791 6.90833 4.14838 1.07692 -8.15108 -6.8322 0.0600722 -0.345851 -0.616924 Si
37 1 6.67543 4.04865 4.0621 1.47197 3.79744 -1.50035 1.63494 -0.181357 0.355377 Si
60 1 5.41325 5.44599 5.39886 -4.7717 -1.20749 3.68135 -0.527065 -0.0173601 0.470276 Si
63 1 6.63613 6.83615 6.78902 3.39303 -0.0429024 -1.23994 0.505842 -0.166215 0.0578205 Si
28 1 -0.0283531 5.42757 5.4168 7.43746 3.37897 5.72647 -0.665237 -0.0780882 0.309178 Si
41 1 9.52936 4.03134 6.77862 -2.17062 -0.20145 1.35957 0.367157 0.805772 0.793782 Si
51 1 9.53324 6.83263 4.11159 -0.189955 0.827153 1.96518 -0.279767 0.168019 -0.15032 Si
21 1 1.37772 9.52695 4.04877 0.280526 -3.50358 -0.0292988 -0.629893 -0.247726 1.09037 Si
30 1 2.69865 8.15141 5.4965 -2.41612 -1.09645 -4.72944 -0.378184 0.325146 -0.0775686 Si
44 1 5.43816 -0.071667 5.45971 -4.94067 5.44493 -1.8355 -0.0296806 0.758341 0.26626 Si
25 1 4.04736 9.53789 6.86703 -1.68896 4.69647 0.486713 0.0257958 -0.440757 -0.521861 Si
53 1 6.8593 9.53441 4.17333 0.474151 -4.41803 -4.97256 0.873964 -0.457253 -0.372515 Si
57 1 9.47028 9.48348 6.85212 3.81053 2.76927 -3.20124 0.324113 0.197803 0.60975 Si
62 1 8.15073 8.06512 5.54029 2.70364 2.09875 -6.86992 -0.231875 1.02773 -0.572688 Si
6 1 2.72719 2.70618 -0.0771993 -0.923274 -0.411952 -5.30686 0.0252865 0.224904 0.957353 Si
16 1 2.67897 -0.0168727 8.15415 -5.31557 1.01245 2.29841 0.242822 0.246048 -0.0471915 Si
36 1 5.45803 0.0484651 0.0236942 3.07212 -0.958463 -2.42334 0.726146 -0.858593 -0.491028 Si
11 1 4.07723 1.30906 9.50956 3.07787 3.40129 0.83153 0.266612 0.753331 -0.679613 Si
42 1 5.45944 2.71681 8.07875 -4.16156 3.5149 -1.76052 -0.243458 -0.461647 0.818846 Si
38 1 8.23263 2.75813 -0.067833 0.54055 4.15943 -4.85314 -0.619362 0.380059 1.58957 Si
10 1 0.0639801 2.68227 8.19708 -0.186622 2.97141 -3.51881 -0.22169 -0.095519 -1.22753 Si
43 1 9.57435 1.39609 9.58483 -0.518909 -3.08623 -2.63948 0.692771 -0.773938 -0.474633 Si
13 1 1.369 4.10667 9.5211 -1.43324 -3.5087 -1.63511 -0.347705 0.120068 0.0954668 Si
32 1 2.67855 5.43375 8.12245 0.802556 -1.35991 9.4657 0.677909 0.0878156 0.279431 Si
52 1 5.44108 5.40038 -0.073121 -0.0146503 1.76992 3.19519 -0.112021 -0.551697 -0.0235483 Si
27 1 4.08594 6.81447 9.49194 -3.68001 1.51793 0.129298 -0.936087 -0.93267 0.818402 Si
45 1 6.86971 4.06692 9.43315 2.52664 0.13192 3.33674 -0.550901 0.451556 -0.158725 Si
20 1 -0.0449187 5.52375 -0.0449011 3.06235 2.70583 1.0902 0.697123 0.0540143 0.619437 Si
59 1 9.48691 6.90925 9.52364 -0.292837 4.13245 10.1064 -0.403662 -1.08534 -0.870289 Si
64 1 8.10179 5.53916 8.01664 -1.58635 0.131946 -1.13033 1.03297 -0.657144 1.27713 Si
22 1 2.82191 8.15388 0.0995756 -2.35093 3.57061 -1.31535 0.645271 0.698599 -0.637845 Si
29 1 1.47589 9.45195 9.53976 -6.57906 -0.124492 4.18538 -0.848346 0.268663 0.378347 Si
58 1 5.36601 8.16842 8.22657 4.16453 2.75845 -4.28745 0.813152 0.772851 -0.679985 Si
61 1 6.83626 9.49516 9.52542 -3.76408 -3.3198 6.40916 -1.26559 0.832356 0.219733 Si
48 1 8.16723 0.0635307 8.24629 1.44838 -0.328138 -0.166512 0.408609 -0.831974 -0.481303 Si
26 1 0.0595786 8.12937 8.15074 3.79479 -1.56859 2.49326 -0.49213 0.589437 0.265828 Si
ITEM: TIMESTEP
17100
ITEM: NUMBER OF ATOMS
64
ITEM: BOX BOUNDS pp pp pp
0.0000000000000000e+00 1.0887404739999999e+01
0.0000000000000000e+00 1.0887404739999999e+01
0.0000000000000000e+00 1.0887404739999999e+01
ITEM: ATOMS id type xu yu zu vx vy vz fx fy fz element
4 1 -0.132898 -0.0429709 -0.0314217 7.36357 -2.54077 -1.30035 0.626626 0.889761 -0.291231 Si
7 1 1.28878 1.30345 1.31584 -2.35387 0.027062 -1.746 0.22647 0.397901 0.615161 Si
34 1 5.45145 2.72735 2.73982 0.1252 -1.92295 1.89485 -0.788405 -0.100409 -0.2971 Si
39 1 6.73569 1.35033 1.35054 -0.420592 -8.97529 -0.364592 -0.182316 -1.10254 1.27428 Si
2 1 -0.034374 2.71149 2.71713 -0.825834 1.20214 0.623845 0.0237873 -0.873518 0.498295 Si
40 1 8.14934 0.0375072 2.80874 -0.960326 -1.03032 -0.467112 -0.300085 -0.753587 -1.45829 Si
23 1 1.41133 6.67849 1.39369 4.58174 -0.344936 5.47604 -0.676768 0.771533 -1.11946 Si
24 1 2.72222 5.33674 2.74229 3.83614 8.11591 -2.61876 0.691244 0.34663 0.747999 Si
1 1 4.10063 4.0714 1.29917 -2.19595 4.91035 1.25417 0.384576 0.134748 1.02091 Si
55 1 6.87605 6.95333 1.41922 -2.42704 1.02372 2.63513 -0.815411 -2.02964 -0.195918 Si
33 1 9.49056 4.01534 1.34429 -2.39296 6.98261 1.36521 -0.0540631 0.240614 0.616595 Si
56 1 8.19382 5.41486 2.74143 1.03353 3.24882 3.81687 -0.0884764 0.308935 -0.34154 Si
8 1 2.76841 0.080374 2.76168 2.94776 -4.22483 0.0129728 -1.83503 -1.53462 -1.27612 Si
18 1 0.0768657 8.13041 2.73437 -3.05088 7.41788 0.0707754 -0.171882 0.157548 -0.28518 Si
17 1 3.93716 9.50277 1.2538 1.32965 -1.48883 2.5619 0.864536 0.319071 0.93851 Si
50 1 5.33218 8.15797 2.66481 5.81977 -1.04895 1.50233 0.184421 0.775824 0.190081 Si
49 1 9.51299 9.50452 1.38459 -2.23359 1.08181 -4.3157 0.056548 0.268901 1.086 Si
54 1 8.1631 8.23017 0.0306907 -6.47036 1.05269 -2.70132 0.737519 -0.495643 -1.61566 Si
12 1 0.0640422 0.00284043 5.42328 -2.51076 0.208271 2.44687 -0.574804 -0.0520831 1.27183 Si
14 1 2.7853 2.77208 5.53551 0.952441 3.24276 0.765675 -0.992926 -0.286972 0.447259 Si
15 1 1.30996 1.39051 6.91796 1.2374 -1.73408 -3.10808 0.97254 -0.10767 -1.74752 Si
3 1 3.99021 1.40755 4.08156 0.798255 5.4821 4.67655 1.84056 0.452132 0.683038 Si
47 1 6.71726 1.42411 6.74688 -3.16684 5.18263 1.14293 0.752775 -0.868395 0.128533 Si
35 1 9.52218 1.29307 4.15653 -5.13321 -5.12857 -0.141055 0.295519 1.38755 -0.525851 Si
46 1 8.17401 2.74536 5.45029 2.79455 2.2695 0.404223 0.633944 0.0842455 0.754923 Si
5 1 1.33545 4.01585 4.1521 3.16341 -2.42666 2.96157 0.134378 0.413306 -0.211386 Si
31 1 1.3865 6.82727 6.84397 0.641714 -0.425188 0.981455 -0.623783 0.0474238 -0.190015 Si
9 1 4.16985 4.18532 6.84818 -1.07613 0.643869 1.67257 0.809135 -1.05633 -0.507932 Si
19 1 4.10473 6.80334 4.12573 1.04005 5.63798 3.35005 -0.501372 -0.758396 -0.710213 Si
37 1 6.82569 4.03465 4.09318 -2.15825 1.21464 2.09091 0.158383 0.77785 -0.329791 Si
60 1 5.56331 5.5029 5.41673 1.7116 -1.67355 -5.44632 -1.01046 -0.765998 0.177067 Si
63 1 6.8089 6.85519 6.77566 0.60565 -0.92929 -2.0676 0.835495 -0.325351 0.950741 Si
28 1 0.00491098 5.45702 5.49402 -5.79955 -4.53862 -1.81772 1.09203 -0.0159312 -0.164423 Si
41 1 9.57511 4.18068 6.85478 0.0594832 -7.30943 4.76388 -1.29542 -1.13299 -0.0969623 Si
51 1 9.62392 6.739 4.07117 -1.78616 2.23978 -3.06353 -1.0136 0.626043 -0.0415708 Si
21 1 1.38606 9.54104 4.13222 3.53483 3.13845 -3.41542 1.19663 -0.607519 -0.471741 Si
30 1 2.77617 8.11398 5.53483 4.39943 -2.18201 3.98107 -0.441719 0.782049 -1.04058 Si
44 1 5.4178 -0.0118468 5.37192 4.46961 -5.56551 -4.4792 -0.307247 0.325782 0.269051 Si
25 1 4.16509 9.47052 6.8056 0.17348 -0.968695 0.0124735 -0.498259 1.0401 -0.0649092 Si
53 1 6.75715 9.49413 4.03319 -0.723839 1.78101 3.3126 -0.212226 0.0305441 -0.108447 Si
57 1 9.51981 9.47145 6.7147 -5.025 -3.66424 -1.63818 0.110111 0.389925 -0.186094 Si
62 1 8.12567 8.11454 5.35404 -1.86119 -0.0196407 4.16604 0.926186 0.17433 -0.0885884 Si
6 1 2.72792 2.70195 0.0456433 1.93139 0.577889 1.837 -0.415437 -0.44155 -1.05667 Si
16 1 2.77792 0.030815 8.11028 -2.69809 -0.300063 0.781985 -0.311811 -0.621683 -0.0509964 Si
36 1 5.42351 -0.0601713 -0.0223547 -2.9836 0.0270856 0.0929433 -0.274292 0.367206 -0.136741 Si
11 1 4.04133 1.30915 9.52155 0.464311 -5.08545 -0.535637 0.688216 0.625016 0.703073 Si
42 1 5.47264 2.68931 8.26277 2.56667 3.01796 -3.57832 -0.842543 0.80967 -0.788135 Si
38 1 8.05497 2.68169 0.119783 -4.0552 -3.63817 2.52989 0.634609 0.745675 -2.13625 Si
10 1 -0.0543754 2.71457 8.18499 3.62065 -2.17167 2.83879 0.148733 0.769198 0.597061 Si
43 1 9.40613 1.38544 9.49358 2.39796 3.27267 3.79752 -0.208378 -0.548456 0.336911 Si
13 1 1.44825 4.07004 9.45891 1.2618 1.46376 -2.78823 -0.339794 -0.441429 0.266041 Si
32 1 2.78043 5.49051 8.09042 -0.910685 0.193054 -8.54079 -0.154815 0.0794663 1.3888 Si
52 1 5.47193 5.50415 0.0222854 -1.67526 -0.750929 -1.62724 0.014473 0.718428 0.358643 Si
27 1 4.11568 6.85354 9.49873 3.01301 -1.04407 -1.28639 -0.026211 -0.170385 -0.0739686 Si
45 1 6.76854 4.13085 9.56352 0.440416 0.262501 -2.8037 0.824936 -0.529748 0.490813 Si
20 1 0.016462 5.27986 -0.00473075 -4.3114 -0.591247 -1.54965 0.214405 1.40586 -0.303595 Si
59 1 9.58244 6.76089 9.48315 0.187073 1.5319 -6.2956 0.137219 1.15853 1.77006 Si
64 1 8.17362 5.49285 8.23582 1.9497 1.84481 -3.48714 -0.702918 -0.323274 -1.23907 Si
22 1 2.6247 8.16684 -0.125927 -4.32325 -4.81342 4.02052 -0.00595374 -0.665292 0.846219 Si
29 1 1.3621 9.65574 9.48002 2.988 -2.71964 -3.52009 -0.486226 -0.684751 -0.107415 Si
58 1 5.5186 8.21349 8.17665 -1.8265 -1.64184 6.13783 -0.359438 -0.671347 -0.162696 Si
61 1 6.83753 9.58336 9.45663 7.11533 0.754931 0.404574 0.0699723 -0.469605 1.02953 Si
48 1 8.12852 -0.0434177 8.02902 -2.6801 0.754802 1.63796 0.218544 1.21281 0.0829435 Si
26 1 0.0160904 8.24178 8.16187 -2.51917 1.09355 -7.31826 0.00755028 -0.599512 -0.118317 Si
ITEM: TIMESTEP
17200
ITEM: NUMBER OF ATOMS
64
ITEM: BOX BOUNDS pp pp pp
0.0000000000000000e+00 1.0887404739999999e+01
0.0000000000000000e+00 1.0887404739999999e+01
0.0000000000000000e+00 1.0887404739999999e+01
ITEM: ATOMS id type xu yu zu vx vy vz fx fy fz element
4 1 0.107269 0.0091176 0.0645647 -6.42711 0.727363 3.7633 -0.491579 -0.681237 -0.145631 Si
7 1 1.46248 1.34639 1.37065 -0.991376 -1.71622 -1.56788 -0.603084 0.590956 -0.585745 Si
34 1 5.46571 2.73978 2.6918 4.12202 1.27072 -2.7665 0.209404 -0.217867 0.792631 Si
39 1 6.86729 1.45235 1.31674 0.804271 3.84729 -1.93718 0.117351 0.105027 -0.410194 Si
2 1 0.0378242 2.71332 2.58782 2.32114 -1.42371 -2.47542 0.601746 0.746214 0.420703 Si
40 1 8.15136 0.0378194 2.62363 -0.789223 1.22281 5.32509 0.511265 0.543587 0.962533 Si
23 1 1.30952 6.87507 1.33138 0.360168 -3.10558 -0.0806364 1.53456 0.0631642 0.832476 Si
24 1 2.68667 5.45909 2.73767 -1.41758 -3.2629 1.76887 -0.514857 0.39409 -1.32175 Si
1 1 4.07361 4.11515 1.45236 1.82951 -0.725992 -4.38946 -0.243421 -0.307992 -1.20544 Si
55 1 6.84466 6.72469 1.2939 2.80253 2.57089 2.46355 -0.484225 1.6434 0.593427 Si
33 1 9.54058 4.09253 1.36711 0.685056 -0.724466 0.938043 0.671309 0.644319 -0.377576 Si
56 1 8.15374 5.40286 2.67909 -5.33243 -0.969383 2.34724 0.127193 0.527997 0.463517 Si
8 1 2.7026 -0.00308693 2.69816 3.52808 3.54473 1.27762 0.888902 -0.541281 1.17085 Si
18 1 -0.0621977 8.10881 2.76032 0.715998 -2.38336 0.467617 -0.457245 0.935657 -0.0152615 Si
17 1 4.14991 9.58334 1.37731 2.95162 1.31826 -5.8056 -0.195736 -0.194345 -0.131685 Si
50 1 5.4483 8.19526 2.77222 -2.47275 -0.241683 0.685579 0.713516 -0.915264 -0.881507 Si
49 1 9.50968 9.55266 1.37455 -3.01434 1.21384 -0.401926 0.621941 -0.694492 -0.742931 Si
54 1 8.20176 8.16269 -0.0919929 0.740814 -1.93576 5.59115 -1.07492 0.313988 1.18016 Si
12 1 -0.0392722 0.0851389 5.44961 2.64883 -0.238989 -0.82867 0.267845 0.0244122 -0.38985 Si
14 1 2.65061 2.63264 5.39058 2.7204 2.08551 2.35037 0.746828 0.828104 -1.08891 Si
15 1 1.4203 1.3596 6.80516 -1.85951 4.07482 4.59324 -1.08905 -0.389499 0.524321 Si
3 1 4.1596 1.30509 4.09118 -5.15458 -0.246955 0.225168 -0.871864 0.580227 -0.431876 Si
47 1 6.89331 1.31885 6.87601 -0.975876 -1.73039 -3.05184 -0.546138 0.697877 0.407151 Si
35 1 9.5824 1.47543 3.92404 -0.717949 1.27738 1.47937 -0.794566 -1.68345 1.07608 Si
46 1 8.21254 2.69168 5.39714 -1.13818 0.250029 -0.567895 -0.747926 -0.117055 -0.391597 Si
5 1 1.34106 4.1003 3.97981 2.21664 -1.89887 -1.6313 -0.385814 -0.58176 1.2147 Si
31 1 1.33719 6.83828 6.76899 -1.32132 3.89265 3.19009 0.670764 -0.260662 0.494026 Si
9 1 3.96277 3.99942 6.75342 -2.67744 0.044612 -0.716525 -0.126259 0.678168 1.11746 Si
19 1 4.02054 6.75491 4.0262 -0.5904 0.936875 0.78387 0.649711 1.16551 1.41354 Si
37 1 6.83394 4.1108 4.06173 1.11467 -3.06315 0.297102 -0.969917 -0.371158 0.897121 Si
60 1 5.35467 5.42737 5.52839 -2.96015 1.46256 1.69284 0.875122 0.0731069 -1.12181 Si
63 1 6.84243 6.75735 6.88307 -3.46467 0.937346 -3.63591 -0.361235 0.0895225 -1.05589 Si
28 1 0.0218501 5.50877 5.41963 -0.813716 2.46419 1.37175 -0.891596 -0.615276 -0.825245 Si
41 1 9.52558 4.056 6.68068 0.512201 4.84234 -0.971156 0.816936 0.170095 0.482902 Si
51 1 9.36706 6.83224 4.12878 -0.746803 -0.74778 0.943397 1.42442 -0.58979 -0.385701 Si
21 1 1.28113 9.54478 4.09245 -3.14495 -2.72848 5.45583 -0.305025 0.59036 -0.820731 Si
30 1 2.62466 8.21161 5.35487 -1.20292 -3.04834 -2.23598 1.23369 -0.686214 0.833385 Si
44 1 5.44868 0.0243831 5.53897 1.97388 -2.43191 1.27739 0.774302 -0.864571 -0.604329 Si
25 1 4.01708 9.52453 6.81476 0.402597 -1.62357 -0.93173 0.531534 -0.691806 -0.444005 Si
53 1 6.88133 9.57434 4.0631 3.48081 -0.269069 -1.75734 -0.912513 0.192732 0.917048 Si
57 1 9.61348 9.58007 6.89632 2.59579 -4.71842 4.02194 -0.389214 -0.446996 -0.146325 Si
62 1 8.19183 8.24344 5.5267 -2.12833 -0.0365883 -3.72353 -0.580771 -0.133273 0.428439 Si
6 1 2.69722 2.76865 4.24122e-05 -2.24479 -1.02031 -0.562261 0.410133 0.309953 0.683663 Si
16 1 2.72825 -0.033533 8.19775 1.72514 4.5578 -3.65853 -0.188698 0.643466 0.263886 Si
36 1 5.5 0.0751202 0.0126946 3.61317 0.975529 3.50614 -1.08126 0.267877 0.209468 Si
11 1 4.04202 1.41517 9.57186 -1.307 -1.34153 0.0111486 -0.0517088 -1.0944 0.0120142 Si
42 1 5.32611 2.71538 8.20259 -2.73003 -4.59442 1.88153 1.50669 -0.289964 -0.923408 Si
38 1 8.32666 2.77019 -0.0453104 1.73061 -1.28879 0.0426436 -1.01843 -0.913245 0.503888 Si
10 1 0.0179188 2.78416 8.10499 -3.31521 -1.80448 -4.24655 -0.0195765 -0.866979 0.339061 Si
43 1 9.66201 1.34692 9.58863 1.33622 -1.75674 -4.39242 -0.0518569 0.341848 -0.770787 Si
13 1 1.28282 4.10098 9.58146 1.05784 0.548516 -2.30014 0.20266 0.150802 -0.153916 Si
32 1 2.63171 5.43008 8.22822 3.33806 -4.21501 -2.18235 -0.0355383 -0.511172 -1.61004 Si
52 1 5.44544 5.39371 0.0124477 3.12685 1.46361 -0.402423 -0.293414 -0.229203 -0.525169 Si
27 1 4.00557 6.72503 9.51451 -2.99134 -0.683932 2.53086 1.37613 0.500534 0.39524 Si
45 1 6.82478 3.9674 9.55771 -4.02819 2.95635 -2.4139 -0.774085 0.608562 -0.400546 Si
20 1 0.0164175 5.52063 0.0633584 3.86971 0.212118 -2.43422 -1.07864 -0.837366 -0.751352 Si
59 1 9.4853 6.7586 9.52174 2.3391 -1.53517 -3.31211 0.53469 -0.724933 -1.1503 Si
64 1 8.13695 5.23695 8.09811 0.236845 -0.879025 3.20364 0.520858 1.55677 1.07608 Si
22 1 2.80886 8.19834 -0.0102923 4.7148 3.56056 -3.93972 -0.751733 -0.178391 0.456466 Si
29 1 1.36804 9.49 9.53983 0.307896 1.98136 0.96944 0.642238 0.449309 0.484272 Si
58 1 5.41402 8.09487 8.14311 -0.601473 1.01877 0.0150432 -1.01324 0.0804608 0.26311 Si
61 1 6.62934 9.47989 9.56519 -4.18833 3.78091 -0.674114 2.12045 0.0903737 -0.50416 Si
48 1 8.2312 -0.047999 8.3262 4.05116 -2.816 -2.87546 -0.696681 0.0810429 -0.352452 Si
26 1 0.0711716 8.13194 8.21361 0.773545 2.16723 8.39985 -1.21036 -0.0498746 -0.243477 Si
ITEM: TIMESTEP
17300
ITEM: NUMBER OF ATOMS
64
ITEM: BOX BOUNDS pp pp pp
0.0000000000000000e+00 1.0887404739999999e+01
0.0000000000000000e+00 1.0887404739999999e+01
0.0000000000000000e+00 1.0887404739999999e+01
ITEM: ATOMS id type xu yu zu vx vy vz fx fy fz element
4 1 -0.0195614 0.0748217 -0.0670141 3.04953 0.302785 -3.70673 -0.611736 -0.0777604 0.608044 Si
7 1 1.2273 1.46671 1.37998 1.36476 -0.0755967 -2.50526 0.670909 -1.00208 -0.144618 Si
34 1 5.44715 2.67899 2.71407 0.287028 0.542978 0.0480752 0.10988 0.642078 -0.536027 Si
39 1 6.7732 1.2337 1.37467 -1.69434 -4.02392 1.89481 -0.212052 1.00368 0.183516 Si
2 1 -0.041029 2.75805 2.84986 -0.0835419 -1.3916 2.10282 -0.294878 -0.548229 -0.262595 Si
40 1 8.18139 0.00740632 2.76346 -2.2745 -0.788283 -6.05344 -0.241423 -0.966297 0.188279 Si
23 1 1.40594 6.76617 1.33572 -4.93712 3.87665 -4.38869 -1.41241 -0.409765 -0.155291 Si
24 1 2.73272 5.4436 2.67813 0.486959 -4.59154 5.41896 -0.0732037 -0.70511 0.820873 Si
1 1 4.03262 4.02578 1.2981 0.932282 -0.212646 2.43655 0.757761 0.190017 0.62592 Si
55 1 6.73855 6.73295 1.38604 -0.458999 -1.88715 -3.61173 1.14117 0.24782 -0.582993 Si
33 1 9.54688 4.02013 1.38082 -0.363713 -2.50965 0.171186 -0.721544 -0.325154 -0.0776569 Si
56 1 8.2858 5.44637 2.67147 0.856934 0.62146 -2.26522 -1.39434 -0.290896 0.167504 Si
8 1 2.60869 0.0254704 2.66546 -4.29963 -1.13469 -5.37772 1.19434 0.730101 -0.171394 Si
18 1 0.0774544 8.15255 2.70761 -0.150033 -4.00292 0.727563 0.279142 -0.33382 0.189343 Si
17 1 4.0572 9.54469 1.36057 -2.4885 -2.19832 2.48039 -0.136591 -0.346883 0.11258 Si
50 1 5.45435 8.10966 2.71571 -1.32838 1.55856 -1.08376 -0.9992 0.648001 0.41234 Si
49 1 9.63206 9.57375 1.425 1.67186 1.11267 4.97727 -0.897131 -0.0320232 -0.657532 Si
54 1 8.16069 8.20412 0.0825264 6.9467 -1.40054 -5.4409 0.606627 -0.53468 0.226307 Si
12 1 0.01781 -0.0765569 5.43071 -2.93027 2.93427 1.6701 0.307176 -0.222402 -0.369373 Si
14 1 2.70775 2.74453 5.45918 -5.49095 -1.67002 3.71908 0.568268 -0.184538 0.39042 Si
15 1 1.34417 1.31847 6.77274 1.09523 1.75145 -0.751222 0.0623902 0.342924 0.672289 Si
3 1 4.03384 1.40328 4.03133 4.92953 -0.433815 -0.310963 -0.528853 -0.697011 0.147197 Si
47 1 6.75738 1.39482 6.74531 2.54387 1.05545 1.23871 -0.10713 -0.711489 -0.467311 Si
35 1 9.49345 1.30682 4.17124 2.91965 2.84 -5.67809 0.287285 0.844774 -0.188489 Si
46 1 8.13614 2.77014 5.45416 1.85092 -0.248364 -1.11395 0.326439 -0.299624 0.120963 Si
5 1 1.36277 4.08127 4.13314 -5.3415 -0.686362 1.90947 0.389765 0.48938 -0.575908 Si
31 1 1.42757 6.78505 6.85646 1.76003 -1.52858 -2.46635 -0.70718 -0.123162 -0.565932 Si
9 1 4.14743 4.12245 6.81087 1.4751 1.35864 -4.7247 -0.483541 0.165236 -0.45851 Si
19 1 4.04992 6.78703 4.12317 4.10533 -3.59325 -3.58354 0.697171 -0.0808701 -0.732766 Si
37 1 6.84898 4.10769 4.03325 -0.681035 3.99408 -1.11965 0.13948 -0.306062 -0.566124 Si
60 1 5.50746 5.4366 5.37129 2.04334 -3.45537 0.914544 -0.251058 0.562933 1.02174 Si
63 1 6.82645 6.88908 6.78622 4.9958 -2.03647 2.75741 -0.522986 -0.545432 -0.0242612 Si
28 1 0.00813362 5.39177 5.47922 7.31046 -0.224838 -0.789925 0.139765 0.431266 0.704783 Si
41 1 9.46724 4.09751 6.90249 1.71451 -2.99471 -1.30797 0.332141 0.466868 -0.47625 Si
51 1 9.6187 6.73476 4.03295 -2.26115 0.534609 -0.354289 -0.0116907 0.714053 0.478679 Si
21 1 1.48355 9.48552 4.04076 0.437465 0.299105 -0.730251 -1.08814 -0.302093 1.2197 Si
30 1 2.80764 8.1522 5.53823 -1.19406 3.064 2.2772 -1.19372 -0.254386 -1.0988 Si
44 1 5.35461 -0.0392798 5.35742 -2.74041 4.3402 1.41751 0.300338 0.973438 0.904711 Si
25 1 4.05395 9.53833 6.8055 -3.83608 0.809124 -1.76417 0.194145 0.937786 0.574059 Si
53 1 6.761 9.49144 4.1189 -2.36677 -1.64387 -6.80215 0.752487 -0.101944 -1.01319 Si
57 1 9.48545 9.44739 6.70256 0.555497 5.38434 -2.15861 0.0251073 0.91493 0.907911 Si
62 1 8.1984 8.10079 5.36747 4.83981 2.5404 -0.687924 -0.204673 0.0222532 -0.428288 Si
6 1 2.75058 2.59868 0.00542483 0.518474 0.327816 -1.16848 -0.314871 0.551468 -0.669682 Si
16 1 2.69207 -0.0062597 8.22647 0.58065 -4.36711 2.72862 0.347194 0.0453542 -0.729136 Si
36 1 5.42863 -0.0313808 -0.0378109 -1.74528 1.33412 -0.853292 0.79698 -0.958663 0.780555 Si
11 1 4.21562 1.29517 9.51215 0.138214 5.48634 3.45614 -1.11105 1.52953 -1.00901 Si
42 1 5.55787 2.8235 8.11374 -5.04992 2.35486 2.32348 -0.790785 -0.826545 1.07453 Si
38 1 8.03242 2.72292 0.0703957 1.55054 -1.3991 0.0881434 1.09337 -0.113389 -0.296129 Si
10 1 -0.0134897 2.70576 8.18296 3.41156 3.42159 3.8148 -0.013062 -0.0866001 -0.208635 Si
43 1 9.41394 1.40926 9.5096 1.45213 -0.340136 2.71097 0.0989015 -0.205347 0.0881991 Si
13 1 1.37922 4.03667 9.55021 -2.55192 -2.64105 0.976037 0.304725 0.369235 -0.0855039 Si
32 1 2.80549 5.50164 8.21694 -2.49031 4.38936 6.40377 -0.0321524 -0.637986 0.431703 Si
52 1 5.3762 5.44419 -0.0487583 -1.66011 2.66859 5.24261 0.544503 -0.160691 0.701599 Si
27 1 4.19212 6.93263 9.53607 -2.48513 -3.41847 -1.47535 -1.79362 -0.453366 0.200599 Si
45 1 6.84971 4.17848 9.55118 1.34011 -3.35106 5.38397 -0.0832835 0.11374 -0.458099 Si
20 1 -0.0937636 5.37323 0.00384385 -0.955274 0.104087 0.0231751 1.81707 0.509126 -0.0524995 Si
59 1 9.57331 6.85593 9.5642 -1.85191 0.570659 5.30516 -0.465843 0.56901 0.826966 Si
64 1 8.21329 5.64597 8.22868 1.2625 -2.5613 -0.54366 -0.831152 -1.67993 -0.573779 Si
22 1 2.64878 8.17398 0.0288788 -1.60065 0.953365 -2.21676 0.999256 0.485872 -0.961086 Si
29 1 1.26945 9.52149 9.50354 -5.21808 2.16845 -0.838478 0.289318 -0.31851 0.00208322 Si
58 1 5.43113 8.26011 8.14315 1.25935 -1.81744 -2.5351 1.31729 -0.029364 0.0215686 Si
61 1 6.87857 9.53538 9.55202 -3.71045 -0.230488 3.52467 -0.929535 0.051681 -0.458287 Si
48 1 8.10788 0.00934623 8.09823 1.6089 3.22849 2.28709 0.720638 -0.19523 -0.218201 Si
26 1 -0.0628759 8.1246 8.08946 2.94502 -3.06984 -2.02197 0.847805 0.514779 0.468398 Si
ITEM: TIMESTEP
17400
ITEM: NUMBER OF ATOMS
64
ITEM: BOX BOUNDS pp pp pp
0.0000000000000000e+00 1.0887404739999999e+01
0.0000000000000000e+00 1.0887404739999999e+01
0.0000000000000000e+00 1.0887404739999999e+01
ITEM: ATOMS id type xu yu zu vx vy vz fx fy fz element
4 1 0.0713776 -0.0549709 0.0498019 -0.0883819 -0.352535 -0.401627 0.326045 -0.365634 -1.10318 Si
7 1 1.40561 1.31054 1.42607 -3.84337 6.17306 2.65216 0.491023 0.137318 -0.229321 Si
34 1 5.46334 2.75583 2.73984 1.32586 -0.879999 0.239374 -0.595274 -0.60248 0.581892 Si
39 1 6.7637 1.42762 1.3317 2.39271 2.88778 1.1492 0.341926 -0.690061 0.518961 Si
2 1 0.0176483 2.72272 2.65858 0.683993 3.46695 1.70326 -0.32348 -0.168125 0.493318 Si
40 1 8.13165 0.0143029 2.70551 4.40633 3.34531 -0.0499575 0.373684 -0.112567 -0.870555 Si
23 1 1.29322 6.80754 1.45106 4.03765 1.05043 -0.294588 0.686159 0.914194 -0.454908 Si
24 1 2.7224 5.47435 2.76953 1.25136 5.61821 -5.75339 0.781163 0.476111 -0.046743 Si
1 1 4.15886 4.1425 1.38372 -2.9542 -5.96441 -1.88173 -0.846768 -0.170311 0.0862338 Si
55 1 6.83247 6.81393 1.36614 -3.7826 -0.463564 2.47007 -0.973442 -0.305935 0.269746 Si
33 1 9.52915 4.1422 1.37862 1.59488 1.85896 1.27798 -0.28676 -0.0381287 -0.266835 Si
56 1 8.10602 5.44008 2.80074 1.44545 0.965263 -0.13151 0.969752 0.505811 -0.376089 Si
8 1 2.84258 -0.0419285 2.78789 -0.077823 -1.91089 1.61938 -1.49937 -0.326028 -0.237974 Si
18 1 -0.09196 8.25221 2.77261 -3.59853 7.28465 0.388538 0.156325 -0.443646 -0.89295 Si
17 1 4.13323 9.52304 1.32179 4.51753 0.138185 1.3322 -0.490683 -0.351042 0.5131 Si
50 1 5.45568 8.23618 2.74979 6.3168 -2.84159 -0.650396 0.671736 -0.433957 -0.00502055 Si
49 1 9.44058 9.47309 1.20576 0.588049 0.538312 -3.74065 -0.0122847 0.418475 1.47507 Si
54 1 8.06675 8.08615 -0.120211 -7.83951 3.69643 6.70944 0.857169 0.472631 -0.545541 Si
12 1 -0.0151302 0.0133778 5.41416 1.05982 -1.76803 -2.1742 -0.341537 0.182585 0.959323 Si
14 1 2.76291 2.7915 5.34013 -0.416995 0.336671 -5.54569 -0.603922 -0.974226 1.66161 Si
15 1 1.3891 1.3512 6.78487 1.24427 -6.9128 -1.08471 0.136847 0.478758 -0.707009 Si
3 1 4.09294 1.31623 4.17241 1.02883 3.24058 -3.3392 1.61452 0.285154 -0.47501 Si
47 1 6.79693 1.33329 6.84244 -0.30498 -2.63203 1.86215 0.877664 0.685365 0.0775739 Si
35 1 9.53015 1.35509 4.04223 -3.30488 -3.96899 1.91091 0.182717 0.0752058 -0.377584 Si
46 1 8.17146 2.66171 5.4122 -2.41792 1.08036 -1.39783 -0.0836512 0.360562 0.73249 Si
5 1 1.36969 4.05873 4.01918 -0.375463 3.21608 1.06014 -0.649997 0.741253 0.218453 Si
31 1 1.28867 6.8804 6.67912 -1.45497 -4.61471 1.46962 0.179408 -0.59797 0.744933 Si
9 1 4.08386 4.04829 6.83604 -3.48919 1.49369 3.9838 0.515313 0.0527323 -0.663128 Si
19 1 4.10467 6.92192 4.17549 -2.82973 3.96667 6.37352 -0.255919 -1.02747 -1.37659 Si
37 1 6.79145 4.06837 4.1412 -0.616568 -0.95664 -1.05255 -0.219583 0.25378 0.0931807 Si
60 1 5.4301 5.49983 5.47467 0.882505 1.71702 -1.84985 -0.65258 -1.43112 -0.333525 Si
63 1 6.7273 6.72979 6.82343 -5.34586 1.43493 -2.80076 1.01722 0.882108 0.613281 Si
28 1 -0.0633632 5.45209 5.3643 -3.842 0.307911 -0.67768 0.846481 -0.320014 0.233481 Si
41 1 9.5537 4.05789 6.77413 0.12834 2.27121 -0.840161 -0.4394 -0.468681 -0.00387607 Si
51 1 9.49384 6.88846 4.13695 1.48648 -5.39442 0.797662 -0.996181 -0.493241 -0.399748 Si
21 1 1.30411 9.5247 4.14354 2.49689 1.65176 -3.53209 0.899662 0.654885 -1.23573 Si
30 1 2.71127 8.22928 5.42378 0.817716 -1.66427 1.00938 0.213277 0.235678 0.908543 Si
44 1 5.54006 -0.0441652 5.57023 0.699626 -6.80102 -2.35722 -0.915419 0.458587 -1.49467 Si
25 1 4.18632 9.49281 6.82046 -1.36916 0.773928 3.85932 -1.11598 -0.277084 -0.450327 Si
53 1 6.86355 9.56308 4.14533 1.22235 1.7337 6.11303 -0.601391 -0.29049 -0.400346 Si
57 1 9.49998 9.57353 6.86553 0.495318 -3.97146 0.250788 0.0615985 -0.166519 -1.07171 Si
62 1 8.08752 8.16301 5.54206 -3.74957 -4.03378 1.69608 0.796151 0.086877 0.0279132 Si
6 1 2.71536 2.77771 0.061099 0.405182 -0.660688 -0.143486 0.0944892 -0.232992 -0.193064 Si
16 1 2.79018 -0.0368325 8.06723 -2.17354 1.82459 4.06571 -0.717671 -0.215675 0.867414 Si
36 1 5.41556 0.0202139 0.0162233 -1.88608 -0.453827 1.07094 0.272821 0.190367 -1.13898 Si
11 1 3.98373 1.34206 9.51646 -0.299108 -8.01804 -2.29679 0.600088 0.0715783 0.760058 Si
42 1 5.43701 2.6259 8.21963 5.77238 3.48068 -5.40581 -0.463878 0.851879 -0.508454 Si
38 1 8.17104 2.73025 0.0152739 -1.67176 0.258475 0.979887 0.0848687 0.642049 -0.436929 Si
10 1 -0.0116152 2.66124 8.18489 0.471285 0.083865 0.931861 0.848287 1.04194 0.198885 Si
43 1 9.56298 1.33331 9.59285 -0.747601 1.04069 0.13921 -0.255178 -0.272546 -0.0963664 Si
13 1 1.38832 4.1799 9.55256 2.7475 1.0902 0.24527 -0.589928 -0.975903 -0.579404 Si
32 1 2.68314 5.45672 8.03141 -1.47461 -3.00807 -2.84789 -0.0168145 0.685758 1.00989 Si
52 1 5.50125 5.41119 -0.043236 -0.921506 -3.6074 -3.33211 -0.14818 0.668345 0.620938 Si
27 1 4.10867 6.74788 9.52167 2.51348 3.22693 -0.176929 -0.348575 -0.47822 -0.753962 Si
45 1 6.78272 4.08304 9.46708 3.26264 0.00643308 -1.0795 0.468074 -1.18042 0.79715 Si
20 1 -0.00944727 5.53877 -0.0113135 -3.21835 -4.3302 -2.3341 -0.143731 -0.708893 0.217383 Si
59 1 9.55095 6.76692 9.39858 0.33967 2.16956 -2.98283 -0.991022 0.278947 0.733133 Si
64 1 8.12587 5.36518 8.12713 0.754476 6.04355 -1.81094 0.660523 0.510386 -0.488374 Si
22 1 2.80067 8.07748 -0.00990867 3.35536 2.84682 6.01848 -0.614982 -0.0460965 1.12354 Si
29 1 1.50048 9.41086 9.50313 4.45989 -2.63565 -0.864784 -0.996951 1.387 -0.0139117 Si
58 1 5.42406 8.12252 8.1706 -4.93442 0.554882 -0.335767 0.125509 -0.389928 0.001982 Si
61 1 6.74288 9.54506 9.42096 6.72338 -3.0001 -0.627657 0.136346 -0.0375546 1.31575 Si
48 1 8.16156 0.0166799 8.17405 -0.349769 -0.13652 3.73135 0.205153 0.36334 0.599317 Si
26 1 -0.0214473 8.21548 8.14816 -1.54955 -1.89309 -3.31633 0.698538 -0.456712 -0.226736 Si
ITEM: TIMESTEP
17500
ITEM: NUMBER OF ATOMS
64
ITEM: BOX BOUNDS pp pp pp
0.0000000000000000e+00 1.0887404739999999e+01
0.0000000000000000e+00 1.0887404739999999e+01
0.0000000000000000e+00 1.0887404739999999e+01
ITEM: ATOMS id type xu yu zu vx vy vz fx fy fz element
4 1 -0.117622 0.0611205 0.0415123 -1.41265 0.27636 2.70669 0.186455 0.27585 0.495731 Si
7 1 1.42351 1.37477 1.34282 2.17887 -5.89192 -0.646382 -1.39241 0.216255 -0.314444 Si
34 1 5.40711 2.71154 2.66734 -0.176783 1.02132 0.327275 0.647688 -0.0910585 0.0347563 Si
39 1 6.93296 1.42238 1.38249 -1.61999 0.686943 -1.54537 -0.441847 -0.331273 -0.511757 Si
2 1 0.013358 2.71955 2.69731 -5.47181 -1.07611 -2.27276 0.505525 0.0986663 -0.6368 Si
40 1 8.20805 0.0230013 2.82568 -4.24753 -1.72745 2.90237 -0.357999 0.746225 0.308909 Si
23 1 1.4402 6.78513 1.28952 -0.787546 -5.23503 4.38982 0.0590979 -0.819402 0.42258 Si
24 1 2.68182 5.27903 2.71816 0.715433 -5.72719 2.43587 -0.366018 1.04003 -0.926472 Si
1 1 4.09291 4.08872 1.3213 4.80982 2.2319 1.67311 -0.273354 -0.507108 -0.268529 Si
55 1 6.83962 6.81964 1.36358 6.90022 3.70089 2.8004 -0.0712297 0.54004 0.272783 Si
33 1 9.54289 4.01013 1.31319 -4.04882 -4.89599 -0.271943 0.178942 0.752613 0.253466 Si
56 1 8.18872 5.39433 2.68618 -0.843762 -2.23598 -0.231441 -0.225043 -0.108815 0.274808 Si
8 1 2.63752 -0.00218675 2.71704 5.53073 3.55686 0.886863 1.11834 0.136795 0.403102 Si
18 1 0.130851 8.07572 2.68978 0.139421 -2.59341 2.99139 -0.955436 0.726845 0.787409 Si
17 1 3.98684 9.56517 1.33872 -2.9345 2.07414 -1.05083 1.07654 0.562228 -0.338847 Si
50 1 5.31214 8.16867 2.66235 -5.89282 2.32768 -0.624265 0.968271 -0.418041 -0.0284477 Si
49 1 9.5302 9.54435 1.55021 -2.14083 -1.39165 -2.41453 0.9498 -0.502514 -1.45271 Si
54 1 8.29297 8.18001 0.0501786 -0.505259 -0.918105 -2.14896 -1.66259 0.754333 0.625718 Si
12 1 0.0172149 -0.0315426 5.45489 1.42731 0.0642305 -0.638701 0.0642799 0.647897 0.104278 Si
14 1 2.69978 2.71506 5.52424 6.19232 2.42473 -1.02398 0.488715 0.275089 -1.89778 Si
15 1 1.37141 1.37693 6.808 -0.78761 2.09298 4.76463 -0.646386 -0.51269 0.511349 Si
3 1 4.10049 1.34708 4.03997 -4.96908 -5.53484 0.987989 -1.74764 0.828938 0.0290058 Si
47 1 6.83831 1.33406 6.76074 -1.25998 0.592212 -3.12669 -0.970004 -0.00610606 0.337331 Si
35 1 9.64824 1.47168 4.10819 0.892497 -0.578668 1.83003 -1.51759 -1.37599 0.737463 Si
46 1 8.14654 2.73801 5.48122 2.76355 0.821981 -2.65767 0.452922 0.418663 -1.02518 Si
5 1 1.2644 4.06632 4.09378 -1.34917 -2.32342 0.363281 1.4256 -0.800326 0.505576 Si
31 1 1.38275 6.8162 6.91283 2.68076 2.4576 -2.7811 0.228136 -0.0121122 -0.147904 Si
9 1 4.14903 4.05666 6.78205 1.81881 2.58515 2.66054 -1.12063 0.115716 1.45351 Si
19 1 4.03044 6.66666 3.94693 4.19197 0.807773 -0.274798 -0.0797477 1.22685 2.15672 Si
37 1 6.75071 4.0448 4.05729 0.558537 1.01477 -0.302265 0.55995 0.231052 0.134356 Si
60 1 5.43296 5.40875 5.46597 2.05665 2.47562 0.40783 0.733592 1.22259 -0.652426 Si
63 1 6.86323 6.87608 6.84386 1.83392 -1.78031 0.936839 -0.683926 -0.894403 -1.27801 Si
28 1 0.0955147 5.4677 5.47546 -0.876027 2.63175 2.20506 -1.32413 0.565878 0.0950311 Si
41 1 9.44127 4.2286 6.7592 0.360831 1.06508 0.507261 0.590785 -0.844485 0.714772 Si
51 1 9.57143 6.75954 4.05087 2.83823 2.9138 4.04265 0.458796 -0.0606564 0.00804485 Si
21 1 1.3702 9.52105 4.10785 -1.57367 -3.18117 7.4785 -0.321254 -0.375061 -0.308027 Si
30 1 2.6776 8.17192 5.47584 -0.155086 -0.0573662 2.64718 0.665114 -1.4259 -0.979181 Si
44 1 5.33207 0.0704369 5.44048 -2.0827 3.12258 2.1113 1.46964 -1.51462 0.0288124 Si
25 1 4.02537 9.50298 6.77901 4.39352 -1.20967 2.1653 0.993288 0.211564 0.291996 Si
53 1 6.72455 9.50457 4.04231 0.674729 -2.44542 -3.42624 0.0877607 0.298808 0.886448 Si
57 1 9.55577 9.48588 6.80983 -3.31408 0.85408 -0.823443 0.491358 -0.381081 0.212228 Si
62 1 8.23452 8.15383 5.40252 -0.345009 -0.46226 -0.894147 -0.733688 0.205188 -0.205579 Si
6 1 2.72088 2.72413 -0.0606615 0.288564 0.741496 -1.27965 0.32653 0.096016 0.602244 Si
16 1 2.74778 -0.00821301 8.13904 3.1053 -2.53129 -7.48024 -0.130671 1.00856 0.547016 Si
36 1 5.55695 0.01189 -0.00541573 2.44034 -0.28493 -0.48818 -1.21044 0.475458 0.979151 Si
11 1 4.11678 1.38673 9.54729 -3.67646 3.27798 -1.49152 -0.0109463 -1.11312 -0.361895 Si
42 1 5.45783 2.66563 8.1714 -3.41924 -6.51518 5.47083 0.416518 0.400238 -0.47224 Si
38 1 8.22175 2.7749 -0.12834 -0.854417 -0.63535 4.65257 -0.573436 -1.0415 1.06118 Si
10 1 -0.0597431 2.77227 8.11229 -3.56467 -2.66625 -1.65429 -0.635334 -0.624492 -0.195517 Si
43 1 9.40413 1.29217 9.42123 -1.95956 2.35898 2.71728 1.44343 0.983616 0.189303 Si
13 1 1.31684 4.02449 9.51338 5.1107 1.01162 -2.08961 0.474298 0.443011 -0.242955 Si
32 1 2.7469 5.43982 8.26159 -0.03442 4.47324 -3.84352 -0.0978829 -0.930944 -1.31517 Si
52 1 5.4512 5.50495 0.039901 1.05157 3.77837 0.697714 -0.237865 -0.346601 -0.782632 Si
27 1 4.04253 6.83938 9.52032 -0.720717 1.56266 -2.79539 1.10178 0.651184 0.540104 Si
45 1 6.76105 4.05166 9.55234 -0.914162 3.44489 -0.914434 -0.454287 0.819983 -0.363867 Si
20 1 0.0534152 5.37601 0.0121564 1.67848 0.726437 2.14334 -0.585891 0.399052 0.0833777 Si
59 1 9.4772 6.74651 9.64391 0.957072 -0.391054 -0.687654 1.35748 -0.0527805 -1.12523 Si
64 1 8.07058 5.4723 8.22297 -3.7572 -1.41915 0.446657 0.713572 -0.0279001 0.111252 Si
22 1 2.6777 8.25768 -0.0356233 -2.83128 -2.73068 -10.0656 -0.0537715 -0.184204 -0.498699 Si
29 1 1.30579 9.72742 9.56669 1.82298 -0.626532 0.0537366 0.324371 -1.51002 -0.0297986 Si
58 1 5.49307 8.18248 8.13516 5.36833 3.00385 -0.251087 -1.11015 0.346388 0.650013 Si
61 1 6.82686 9.53059 9.54744 -3.71222 0.835231 -4.8883 0.820112 -0.770157 -0.280999 Si
48 1 8.13767 -0.0647944 8.07911 -4.40977 -4.66959 -5.23285 -0.287877 -0.249555 0.218667 Si
26 1 0.0523156 8.165 8.31044 1.86739 4.72075 -0.0864639 -1.09921 0.111296 -0.427403 Si
ITEM: TIMESTEP
17600
ITEM: NUMBER OF ATOMS
64
ITEM: BOX BOUNDS pp pp pp
0.0000000000000000e+00 1.0887404739999999e+01
0.0000000000000000e+00 1.0887404739999999e+01
0.0000000000000000e+00 1.0887404739999999e+01
ITEM: ATOMS id type xu yu zu vx vy vz fx fy fz element
4 1 0.0931102 -0.0621453 -0.0596727 3.52406 -0.484236 -1.07958 -0.361477 0.226505 0.107261 Si
7 1 1.28505 1.37642 1.37862 3.47366 2.15419 2.11444 0.978377 -0.521702 -0.0370948 Si
34 1 5.39346 2.71604 2.74404 -1.56313 -3.88583 -1.72531 0.720324 0.66371 -0.342961 Si
39 1 6.68517 1.31744 1.31492 1.75752 3.27705 -1.31564 -0.149772 -0.0951853 0.100715 Si
2 1 0.00978406 2.74846 2.74799 2.69006 -1.60463 -4.75091 -0.53862 -0.0861623 0.202069 Si
40 1 8.1913 0.00495504 2.56913 1.76822 2.68518 -0.264473 -0.71203 -1.19167 0.517051 Si
23 1 1.28838 6.83243 1.38751 -2.19244 4.6189 -2.01733 -0.231812 -0.134232 0.0482246 Si
24 1 2.69206 5.57183 2.69996 0.74784 2.26908 3.64487 0.427569 -0.598954 0.932373 Si
1 1 3.9635 4.08005 1.43156 -0.576283 0.565062 0.685292 1.54589 0.59999 0.326357 Si
55 1 6.76148 6.77511 1.2347 0.307414 -6.43843 -3.04162 1.15866 -0.502541 0.51853 Si
33 1 9.53602 4.10822 1.39791 0.904624 4.21824 -0.111865 -0.139648 -0.642855 0.303523 Si
56 1 8.21148 5.46672 2.6902 2.96015 -0.169771 2.51103 -0.918826 0.360087 -0.0214266 Si
8 1 2.72717 0.0281 2.71444 -6.84209 0.555976 0.0313765 0.206788 0.444248 -0.844122 Si
18 1 -0.0255261 8.20092 2.72129 2.00491 -1.79953 -3.85027 0.0812783 -0.33911 -0.214015 Si
17 1 4.04593 9.42816 1.44069 0.55619 1.63149 -3.22945 0.296647 0.136803 -0.281851 Si
50 1 5.57721 8.08326 2.71674 0.455431 -0.630438 2.59205 -1.49776 0.852289 0.669916 Si
49 1 9.60934 9.45842 1.24053 -2.4316 0.698035 3.73993 -1.08021 0.797983 0.357628 Si
54 1 8.11952 8.21098 -0.092269 1.76612 -1.98091 -5.24616 1.04004 -1.40793 0.758457 Si
12 1 -0.0694816 0.0341914 5.38256 -3.2822 -0.199329 0.145564 0.690408 -0.651326 -0.700929 Si
14 1 2.66942 2.64665 5.36634 -5.05367 -3.5684 5.21948 0.323535 0.764263 1.61993 Si
15 1 1.3124 1.24941 6.78484 1.02636 0.925159 -4.75328 0.560348 1.25971 0.732148 Si
3 1 4.06685 1.39934 4.05767 8.69518 1.16886 1.42199 0.533206 -1.28427 0.551067 Si
47 1 6.7666 1.43331 6.91558 2.21103 1.11329 -1.43261 0.583397 -0.365477 -1.03994 Si
35 1 9.44693 1.30904 4.00777 4.81414 6.80796 -4.03654 0.849219 0.850709 0.00964738 Si
46 1 8.20044 2.64182 5.46064 0.496881 -0.239985 3.63737 -0.312863 0.38566 0.262942 Si
5 1 1.4384 4.10661 4.05189 -2.7932 -0.164224 -3.01506 -0.948913 0.115758 -0.11886 Si
31 1 1.36715 6.70756 6.71227 -1.72642 1.72654 1.86385 0.189276 1.16726 0.26645 Si
9 1 4.02786 4.12609 6.79023 2.02159 -2.96219 -5.65165 0.399061 -0.273731 -1.05282 Si
19 1 4.08768 6.85523 4.15545 -3.89507 -3.17054 -3.06884 1.16776 -0.77321 -1.40739 Si
37 1 6.90183 4.05495 4.07589 -1.52608 -2.86206 -0.438868 -0.670217 0.0949804 -0.0636829 Si
60 1 5.54505 5.47779 5.44056 -4.81758 -1.54482 2.22638 -1.06917 -0.747576 4.77904e-06 Si
63 1 6.82764 6.79253 6.84479 -1.59894 6.62574 4.67191 0.406904 0.265464 0.485227 Si
28 1 -0.0118076 5.39133 5.41164 1.86001 -0.618028 -0.659383 0.0104033 -0.435126 -0.200251 Si
41 1 9.60936 3.96345 6.84195 0.297886 1.00869 -3.40052 0.0118687 0.38332 -0.586635 Si
51 1 9.53853 6.8183 4.07471 -5.52559 -1.15899 -5.0263 -0.184147 0.147748 0.432512 Si
21 1 1.36261 9.59621 3.93717 0.653378 2.95685 -1.9555 -0.428287 -0.654371 2.2309 Si
30 1 2.74381 8.19201 5.38529 -1.95832 2.77262 -0.145102 -0.981287 1.02026 0.839543 Si
44 1 5.50683 0.0339093 5.45718 -3.64599 1.08625 -1.05026 -0.833617 0.747161 0.130168 Si
25 1 4.10579 9.59897 6.81016 -2.64089 -4.35224 -3.00197 -0.547038 -0.5216 0.0949989 Si
53 1 6.82347 9.54761 4.12537 0.0547521 2.92615 2.92808 0.969591 -0.138004 -1.11343 Si
57 1 9.50201 9.67421 6.79929 5.2117 -1.22362 1.96406 -0.422177 -0.807017 0.482909 Si
62 1 8.19192 8.18587 5.50192 2.31386 0.317114 1.62983 -0.103764 0.129745 -0.328484 Si
6 1 2.72482 2.74009 0.125957 -1.33812 -2.3927 1.7082 -0.930316 -0.502253 -1.51779 Si
16 1 2.70967 -0.0017176 8.27388 0.904906 -0.848748 1.86544 -0.0795472 -0.254144 -1.78282 Si
36 1 5.26878 -0.0822428 -0.0474896 3.7192 2.7632 -3.52901 1.38262 0.195594 0.0186728 Si
11 1 4.04181 1.43184 9.48912 1.989 -0.703982 5.85832 0.511693 0.703613 0.669452 Si
42 1 5.48386 2.89278 8.14112 -1.97529 0.217399 2.46049 -1.11151 -1.24894 0.758796 Si
38 1 8.15489 2.70978 0.124699 4.3056 3.62118 -5.11652 0.195491 -0.0480518 -0.549765 Si
10 1 0.0849535 2.72315 8.28771 2.05773 4.01189 -1.55357 0.21244 -0.354133 -0.801242 Si
43 1 9.59217 1.43724 9.64554 0.924132 -4.46062 -0.271519 -0.291436 -0.566291 -0.0610387 Si
13 1 1.3767 4.15632 9.63544 -6.33769 -0.71729 2.37199 -0.0306569 -0.511667 0.207773 Si
32 1 2.69491 5.43247 8.18299 0.153762 2.84678 4.9241 0.23175 0.527125 0.16762 Si
52 1 5.40547 5.31076 -0.00477477 -1.07436 -0.0766451 -1.05553 0.040164 0.493777 -0.025766 Si
27 1 4.1123 6.78157 9.55803 -0.891152 -3.37896 -3.18138 -0.789696 -0.486309 0.0804905 Si
45 1 6.90286 4.04302 9.55907 0.596623 -7.51238 3.4561 -0.130416 0.720962 -0.0336591 Si
20 1 -0.0773637 5.47181 0.0799441 -1.41237 -2.02122 2.01311 0.565496 0.440095 -1.09583 Si
59 1 9.52321 6.82599 9.47385 -2.03294 -1.36232 1.29389 0.0671858 -0.15313 0.367385 Si
64 1 8.2827 5.37639 8.13938 -0.227007 -3.78899 -2.63253 -1.03903 0.243494 0.239643 Si
22 1 2.68861 8.07821 0.067086 3.11108 0.505503 4.17281 0.389695 0.461367 -0.835977 Si
29 1 1.38317 9.39634 9.45969 -2.65893 6.85219 -1.03375 -0.300063 -0.0846322 0.382436 Si
58 1 5.39097 8.16851 8.19883 -1.53852 -4.35544 -0.0494096 0.989018 0.0839547 -0.564139 Si
61 1 6.85715 9.5144 9.50239 -7.32658 0.0227913 4.40566 -1.88817 1.21981 -0.322808 Si
48 1 8.1732 0.142176 8.27721 5.00871 0.721904 5.87905 0.306781 -0.555582 -0.484248 Si
26 1 -0.0532195 8.1167 8.00819 3.53878 -2.99379 1.25502 0.6796 0.433739 0.556152 Si
ITEM: TIMESTEP
17700
ITEM: NUMBER OF ATOMS
64
ITEM: BOX BOUNDS pp pp pp
0.0000000000000000e+00 1.0887404739999999e+01
0.0000000000000000e+00 1.0887404739999999e+01
0.0000000000000000e+00 1.0887404739999999e+01
ITEM: ATOMS id type xu yu zu vx vy vz fx fy fz element
4 1 -0.0642944 0.0975127 0.0491228 -0.433258 2.71815 2.00858 0.546428 -0.914054 -0.895762 Si
7 1 1.36495 1.37836 1.37757 -9.1688 4.07156 -1.83499 0.114177 0.287818 0.358738 Si
34 1 5.45415 2.7593 2.7631 1.60144 0.949231 0.317433 -0.176251 -0.571532 -0.341474 Si
39 1 6.86603 1.43696 1.39108 -2.39565 -7.00679 -3.1211 0.554995 -0.476612 0.498676 Si
2 1 -0.0239127 2.73842 2.77792 1.07888 3.14966 2.56033 0.342063 -0.0697794 -0.0580817 Si
40 1 8.19854 -0.0234412 2.84638 1.34695 3.23062 -3.0648 0.310761 0.972754 -0.945294 Si
23 1 1.39252 6.79203 1.3537 0.950997 -4.83718 -2.49105 -0.271469 0.906651 -0.356775 Si
24 1 2.75973 5.46942 2.60944 -4.08654 -0.280112 -5.12125 -0.0165008 -0.826184 0.761796 Si
1 1 4.14256 4.06288 1.30047 -6.24852 -1.38563 -3.58716 -0.736338 -0.247245 -0.309663 Si
55 1 6.78932 6.82805 1.44545 -5.12538 -0.972244 -1.94085 -1.32933 -0.0346845 -0.3901 Si
33 1 9.55571 4.06926 1.31011 2.06402 -2.00625 1.30817 -0.154591 0.521971 -0.0383276 Si
56 1 8.13933 5.46134 2.67525 1.58808 -4.02169 -3.50466 0.837199 -0.629242 0.870768 Si
8 1 2.76569 0.0259618 2.75428 -0.731705 1.81342 0.534072 -1.34807 -0.92174 -0.171575 Si
18 1 -0.000131028 8.15532 2.73247 3.39908 0.989584 4.93972 0.351586 -0.0552737 -0.388281 Si
17 1 4.17156 9.63417 1.37011 -0.760017 1.9258 0.651666 -0.647721 -0.979244 -0.10737 Si
50 1 5.3696 8.1945 2.8186 3.89712 -3.15013 -1.24051 0.965388 0.133967 -0.954523 Si
49 1 9.54776 9.53728 1.3777 8.92876 1.89224 0.194733 -0.237823 0.456482 0.964243 Si
54 1 8.13527 8.17012 0.164056 0.801616 5.17096 1.61406 0.347181 0.10848 -1.76949 Si
12 1 0.102149 -0.0450855 5.462 2.3373 -0.901458 0.0447993 -1.24349 0.335914 1.23154 Si
14 1 2.82253 2.77043 5.39105 -1.88708 -1.69624 -5.97743 -1.7266 -0.467063 0.249045 Si
15 1 1.37916 1.42264 6.81483 -3.35032 -4.0837 0.442906 0.506239 -0.264616 -1.20659 Si
3 1 4.08653 1.30924 4.09046 -7.76207 4.82308 -3.54947 0.854317 1.00285 0.0241288 Si
47 1 6.83175 1.23733 6.73569 -3.68446 -1.58588 3.34353 0.0534204 0.748708 0.463985 Si
35 1 9.56367 1.36611 4.25566 -3.41575 -2.4379 0.923832 0.00158718 -0.16422 -1.42441 Si
46 1 8.12658 2.73107 5.47056 -0.147386 0.0874271 -3.62832 -0.523245 -0.0511733 -0.354184 Si
5 1 1.37429 4.18044 4.06824 3.64216 -1.12061 -0.683539 0.0781139 -0.452351 0.0553451 Si
31 1 1.34501 6.86336 6.86028 0.315424 -1.13935 -1.94443 -0.477118 -0.952947 -0.0466548 Si
9 1 4.08363 4.00976 6.84676 -2.63026 2.04679 2.26341 0.725119 0.425298 -0.215916 Si
19 1 4.03521 6.78079 4.05201 -6.13743 2.63898 8.03269 -0.747404 0.467525 0.249623 Si
37 1 6.76021 4.13422 4.11176 5.24042 2.27586 -1.95079 0.446506 -0.085191 -0.167713 Si
60 1 5.306 5.44406 5.40991 8.61295 0.731691 -4.03676 0.867557 -0.451472 0.742709 Si
63 1 6.71041 6.78584 6.76071 -0.706712 -2.77082 -0.756964 -0.0059088 0.235593 0.0493056 Si
28 1 -0.0906599 5.47778 5.45477 0.555534 -0.206984 -1.24364 1.34889 0.122641 0.309014 Si
41 1 9.41562 4.12033 6.76038 -2.71077 -1.63063 5.00418 0.020485 0.514484 0.850926 Si
51 1 9.54224 6.82354 4.07168 3.56341 -1.38838 0.0948384 -1.0889 -0.283271 -0.42056 Si
21 1 1.31846 9.46089 4.15078 3.83618 -1.45068 -4.18509 1.39006 0.635353 -1.55473 Si
30 1 2.69088 8.1417 5.45883 2.76643 -1.33667 -0.863198 0.663921 -0.00444951 0.230318 Si
44 1 5.44383 -0.0324377 5.4362 1.13966 -4.71556 1.77981 -0.401044 -0.354146 -0.0270307 Si
25 1 4.10465 9.50408 6.82941 1.60076 1.53094 0.422339 -0.530692 0.109398 -0.411899 Si
53 1 6.81064 9.52493 4.11845 -1.66296 -0.248025 2.18701 -0.492331 -0.322419 -0.0982968 Si
57 1 9.52876 9.40619 6.75862 -2.38118 0.285149 -2.96954 0.343045 0.831095 -0.173182 Si
62 1 8.10444 8.11754 5.41582 1.64128 -1.47103 -0.793609 0.450501 -0.265818 0.160059 Si
6 1 2.73318 2.6444 -0.0958594 1.77287 -2.28461 3.08847 0.53345 0.470574 0.68457 Si
16 1 2.69809 0.0149167 8.12821 2.94981 0.281232 3.62592 0.32356 -0.677408 1.1477 Si
36 1 5.60824 0.018426 0.0198211 -2.95166 -1.74485 2.71848 -0.613643 -0.036472 -0.267293 Si
11 1 4.19841 1.28699 9.50332 3.01575 -2.32829 -2.75729 -0.773401 -0.127508 0.0372389 Si
42 1 5.51643 2.60399 8.12345 4.03012 6.85121 -3.96746 -0.187683 0.809518 -0.105712 Si
38 1 8.16677 2.74781 -0.0994943 -2.60844 -1.3086 8.62387 -0.308354 0.465616 0.208601 Si
10 1 -0.11278 2.69365 8.03017 -0.430545 -1.2688 3.91844 0.63425 0.883818 1.09731 Si
43 1 9.46855 1.34523 9.4244 1.11002 7.0233 0.527802 -0.202934 -0.605088 0.00927905 Si
13 1 1.36231 4.02814 9.45444 1.44434 -0.193934 1.04507 -0.424497 0.0921976 -0.365676 Si
32 1 2.76926 5.4329 8.14984 3.18129 -3.61521 0.204081 -0.458538 0.393195 0.436996 Si
52 1 5.45399 5.47058 -0.0497156 0.583359 -2.26551 -1.20936 0.0977741 0.45172 0.992991 Si
27 1 4.114 6.85885 9.54128 4.63013 6.16009 4.06287 -0.399508 -0.618863 -0.46727 Si
45 1 6.73443 4.16162 9.44939 0.652103 5.61585 -1.10996 0.607727 -1.39975 0.368285 Si
20 1 0.0711464 5.48508 -0.0542915 -3.04679 0.677363 2.4697 -0.35763 -1.05705 0.38234 Si
59 1 9.51979 6.83482 9.60247 2.95798 0.551431 -1.92489 -0.773422 0.191655 -0.215508 Si
64 1 8.07005 5.53237 8.18719 3.56893 3.53052 3.66127 1.09558 -0.194017 -0.535276 Si
22 1 2.76256 8.17846 0.00869484 -4.25303 -2.21411 -1.08874 0.376162 0.359583 0.95117 Si
29 1 1.35091 9.48426 9.6166 -2.17352 -4.7775 -0.86651 -0.120238 1.87152 -0.484795 Si
58 1 5.46903 8.17738 8.18772 -4.14057 5.85101 3.61465 -0.468424 -0.384592 -0.505748 Si
61 1 6.82873 9.46867 9.49505 4.78554 -0.8522 -2.56506 0.509431 0.00764292 1.24176 Si
48 1 8.13226 -0.157478 8.06996 -4.34236 -0.0515141 -2.49237 0.80804 0.959178 0.480269 Si
26 1 -0.0284043 8.21407 8.25305 -6.21754 -2.12409 0.242079 0.137593 -0.827732 -0.333581 Si
ITEM: TIMESTEP
17800
ITEM: NUMBER OF ATOMS
64
ITEM: BOX BOUNDS pp pp pp
0.0000000000000000e+00 1.0887404739999999e+01
0.0000000000000000e+00 1.0887404739999999e+01
0.0000000000000000e+00 1.0887404739999999e+01
ITEM: ATOMS id type xu yu zu vx vy vz fx fy fz element
4 1 0.0224185 -0.089787 -0.00977841 0.654336 0.752091 1.30978 -0.54088 0.904841 1.08212 Si
7 1 1.4707 1.26831 1.35269 2.97951 -2.7522 3.72255 -1.43553 0.804482 -0.68291 Si
34 1 5.43446 2.70476 2.72891 2.76231 4.3484 1.35874 -0.0244186 0.00293017 0.458154 Si
39 1 6.75516 1.29841 1.37198 -0.917701 5.91021 0.946489 -0.256459 0.54296 -0.778726 Si
2 1 0.00331311 2.63198 2.6378 -0.155604 0.530284 1.77332 0.182812 0.367876 0.246262 Si
40 1 8.08534 -0.071169 2.68072 -1.98915 -2.99394 2.21179 0.437711 0.342961 0.435944 Si
23 1 1.35633 6.78841 1.47914 -0.0740649 0.663515 3.99525 0.718466 -0.925542 -1.05456 Si
24 1 2.72049 5.37683 2.85793 1.34207 0.993975 1.07154 -0.0573726 0.677038 -0.935749 Si
1 1 4.13755 4.19828 1.42425 5.31831 2.74583 3.26136 -0.670652 -1.00691 -0.111808 Si
55 1 6.87067 6.8149 1.33965 6.30217 -0.0417926 1.92578 0.10004 0.527613 0.179639 Si
33 1 9.48492 4.10301 1.3725 1.47156 -0.269624 0.703007 0.0486473 -0.418604 -0.0182214 Si
56 1 8.17086 5.46208 2.83934 -0.733518 2.3994 -0.718891 -0.156534 -0.0575232 -1.16243 Si
8 1 2.65803 -0.0931217 2.74449 2.55492 -3.31727 -0.99473 1.85032 0.225461 0.154614 Si
18 1 0.0116316 8.1423 2.69024 -2.50635 -0.190749 -0.360896 -0.713022 0.764758 1.23682 Si
17 1 4.00168 9.44425 1.25664 0.581303 0.178828 -0.448983 0.216741 1.08737 0.541386 Si
50 1 5.41231 8.19818 2.63019 -5.10807 2.78066 1.44326 0.699074 -0.563064 0.0767448 Si
49 1 9.45921 9.47471 1.37645 -5.16644 -2.57288 -3.92096 0.562004 -0.417134 -1.25689 Si
54 1 8.18654 8.12975 -0.192792 -2.8379 -4.01936 -0.129863 -0.557597 0.661978 2.01324 Si
12 1 -0.0627614 0.0286976 5.49101 2.0175 -0.93864 -3.98886 0.839866 0.364932 -0.935752 Si
14 1 2.72678 2.72371 5.54067 2.88852 5.78091 -1.12076 1.06893 0.169736 -1.24736 Si
15 1 1.34999 1.44852 6.7784 5.66671 2.92745 1.39816 -0.427436 -1.39612 0.788177 Si
3 1 4.08616 1.31265 4.1545 0.907225 -8.02548 4.09128 -1.07093 0.697202 -1.15336 Si
47 1 6.80051 1.49545 6.78027 1.69093 -1.26888 0.547859 -0.199706 -1.00811 0.837901 Si
35 1 9.49344 1.32134 3.99456 0.0612326 -0.736987 -1.59958 -0.343942 0.0145873 0.672034 Si
46 1 8.16569 2.75081 5.42249 -1.00856 -2.17997 1.57837 1.22292 -0.32848 0.0492916 Si
5 1 1.36674 3.95544 4.10194 -1.58326 0.290781 -1.96086 -0.550731 0.345299 0.167683 Si
31 1 1.39913 6.8576 6.76122 4.04806 6.26701 -2.01677 -0.0452764 0.0331231 -0.136101 Si
9 1 4.17798 4.09342 6.79894 -0.63521 -4.09761 -0.837294 -1.77687 0.278387 0.925004 Si
19 1 4.17667 6.77689 4.01738 3.23662 -1.31209 -3.57745 -0.520311 0.284855 1.13575 Si
37 1 6.81615 4.0582 4.12582 -2.71716 1.22575 2.25101 -0.522363 0.236039 -0.529395 Si
60 1 5.48454 5.42178 5.48158 -4.88847 0.611902 2.64635 0.730556 0.873082 -0.567223 Si
63 1 6.93223 6.78995 6.81048 1.92769 -0.601864 2.64356 -0.377562 -0.123938 -0.15999 Si
28 1 0.043486 5.40057 5.47264 -1.50158 -2.88948 -2.90984 -0.457049 0.402516 -0.462714 Si
41 1 9.5823 4.02933 6.86651 -1.0168 1.60377 -4.60556 -0.117336 0.0208561 -1.22375 Si
51 1 9.50706 6.867 4.11819 -2.17624 0.799944 -0.248742 1.07777 -0.594104 0.38735 Si
21 1 1.35428 9.50504 4.12559 -5.0115 -2.52792 5.77114 -1.026 0.0250501 0.042403 Si
30 1 2.80493 8.20447 5.39658 -1.1202 7.05408 1.02663 -0.0916434 -1.05661 -0.25087 Si
44 1 5.46501 0.0795219 5.46377 1.3421 1.72939 4.34999 0.721907 -1.00577 -0.0358828 Si
25 1 4.15226 9.50866 6.73665 -1.12283 -0.858581 -0.475809 -0.0213774 0.525095 0.817727 Si
53 1 6.75765 9.50548 4.0665 4.57002 3.13794 -0.911481 -0.24835 0.482701 0.280048 Si
57 1 9.49843 9.64347 6.87005 -2.0973 0.422906 2.95902 -0.164575 -0.740067 -0.335923 Si
62 1 8.2021 8.26959 5.45241 -3.26399 2.04151 5.0888 -0.295706 -0.370469 0.301743 Si
6 1 2.69976 2.85177 0.0490187 -2.64987 0.846594 -0.704953 0.258463 -0.390453 0.378247 Si
16 1 2.72143 -0.00328137 8.0769 -0.361013 -2.34654 -5.42379 0.243017 0.673989 0.419321 Si
36 1 5.35885 0.0220206 -0.0739318 1.43064 0.987623 -0.343614 -0.594844 0.203215 1.29629 Si
11 1 3.97278 1.45124 9.56378 -1.32144 1.44466 -2.02581 -0.0517453 -0.916821 -0.622695 Si
42 1 5.36885 2.70685 8.21688 1.1026 -6.93955 1.75219 0.785897 0.431582 -0.286549 Si
38 1 8.1062 2.70207 -0.0273442 0.179658 0.63328 -2.94763 0.712763 -0.536782 0.865287 Si
10 1 0.0420625 2.73984 8.20655 -1.56298 -2.03353 -3.39465 -0.582171 -0.956712 0.338687 Si
43 1 9.54097 1.28643 9.54668 -3.81841 -5.17086 -0.418578 0.32259 1.35208 0.261404 Si
13 1 1.32038 4.11903 9.52826 0.263802 2.77593 3.38628 0.701365 0.57476 0.242136 Si
32 1 2.70203 5.50456 8.15739 -0.646773 3.01817 -0.846438 0.316009 -1.2434 -0.576302 Si
52 1 5.4281 5.54396 0.0431076 -1.61918 -2.57766 -1.82594 0.709599 -1.09646 -0.625181 Si
27 1 4.09416 6.76567 9.47931 1.45956 -1.82955 -0.947291 0.168046 1.09971 0.149696 Si
45 1 6.755 4.04203 9.55772 -0.968161 2.02548 -1.47621 -0.199528 0.986565 -0.16623 Si
20 1 0.00920175 5.46121 0.0393295 0.0680312 3.04585 -1.43101 -0.308089 0.0641695 0.161196 Si
59 1 9.54901 6.75233 9.47646 -1.26084 -3.02179 -0.606829 0.823044 0.136685 -0.543917 Si
64 1 8.22985 5.33089 8.16683 -3.94145 1.41089 0.980787 -0.881309 0.597018 0.483522 Si
22 1 2.67287 8.07135 -0.0373305 4.42132 -0.228366 1.1104 -0.390073 0.314302 -0.392662 Si
29 1 1.36424 9.60171 9.50296 4.01928 -4.5617 0.814525 0.489597 -1.8086 -0.577526 Si
58 1 5.51345 8.15042 8.12437 3.10629 -2.16547 -6.70771 -0.396482 0.0656938 0.333244 Si
61 1 6.73552 9.60949 9.55165 -3.6342 0.654404 -4.83471 0.887002 -0.756646 -1.43229 Si
48 1 8.13663 0.0937763 8.18628 0.811111 -2.72717 1.11728 -0.852561 -0.265843 -0.202443 Si
26 1 0.00365429 8.21432 8.10395 0.230824 3.15806 -2.47401 0.0312757 -0.179345 0.706335 Si
ITEM: TIMESTEP
17900
ITEM: NUMBER OF ATOMS
64
ITEM: BOX BOUNDS pp pp pp
0.0000000000000000e+00 1.0887404739999999e+01
0.0000000000000000e+00 1.0887404739999999e+01
0.0000000000000000e+00 1.0887404739999999e+01
ITEM: ATOMS id type xu yu zu vx vy vz fx fy fz element
4 1 -0.044931 0.0449228 0.00693839 -1.6221 -1.7499 -2.97571 0.832265 -0.206534 -0.629089 Si
7 1 1.27892 1.44706 1.33407 4.0827 2.33936 2.11299 0.833919 -1.07906 0.473795 Si
34 1 5.43057 2.7207 2.62887 -6.0697 -4.41634 -2.09193 0.432994 0.316194 0.163482 Si
39 1 6.89913 1.3336 1.37141 4.92373 -0.750463 2.68041 -0.459833 0.840821 -0.310023 Si
2 1 0.0518492 2.8146 2.74731 -2.02419 0.0229626 -1.49356 -0.702079 0.158117 0.191566 Si
40 1 8.25426 0.0847802 2.73969 2.76411 0.601686 2.38304 -0.454257 -0.615618 0.853233 Si
23 1 1.3672 6.83609 1.21989 -0.0338246 -0.168885 -0.0377378 -0.699717 0.365892 1.35219 Si
24 1 2.69651 5.5151 2.60856 -2.83984 -5.33953 2.74992 0.0774974 -0.327158 0.637938 Si
1 1 3.95348 4.00671 1.31074 -0.376391 0.411332 -0.880031 1.49137 0.836431 0.248145 Si
55 1 6.70715 6.73195 1.3496 -4.72055 -0.916053 -1.14033 0.972432 0.217695 -0.0216578 Si
33 1 9.55233 4.15683 1.3606 -0.0172884 -1.59215 -2.75721 0.0321457 -0.694102 -0.0876062 Si
56 1 8.08901 5.39921 2.69892 2.22787 0.12306 1.0419 0.711092 0.60905 -0.0475644 Si
8 1 2.76552 0.0748871 2.67264 -5.50723 0.314884 2.38972 -0.612156 0.787744 0.206109 Si
18 1 0.0288427 8.24915 2.66007 4.17041 -0.148625 -3.36205 0.0973994 -1.19833 -0.393624 Si
17 1 4.14603 9.57194 1.45098 -1.75644 -3.30941 -1.85431 -0.0922509 -0.908633 0.0652419 Si
50 1 5.52522 8.13725 2.7671 -1.77262 1.05344 -2.32143 -1.544 0.179207 0.458828 Si
49 1 9.547 9.60376 1.38366 1.10341 1.62771 6.21166 -0.227595 -0.219771 -0.000674336 Si
54 1 8.18563 8.16952 0.1295 3.50559 -2.00623 -3.26421 -0.118129 -0.532574 -0.698089 Si
12 1 -0.0121014 -0.0342109 5.41916 -3.61174 0.45458 3.91641 0.0553402 -0.317456 -0.234441 Si
14 1 2.6223 2.70888 5.45654 -2.55938 -1.13915 1.72999 0.689799 0.210389 0.156365 Si
15 1 1.3136 1.28151 6.80921 -0.917148 -2.23612 -5.46389 0.206203 0.80782 0.134947 Si
3 1 4.06881 1.5134 4.0464 2.95655 2.54911 -0.490175 0.365007 -2.01532 0.807372 Si
47 1 6.83302 1.27145 6.87414 2.00808 -0.407008 -2.82439 -0.6282 0.867634 -1.36745 Si
35 1 9.54969 1.45362 4.13918 6.06739 3.37129 2.22992 0.472236 -0.223859 -0.323396 Si
46 1 8.17157 2.73102 5.5201 -3.23539 -1.9319 -0.484696 -0.722299 -0.276134 -0.346028 Si
5 1 1.43327 4.16713 4.08445 0.560356 -1.33885 -1.00157 -0.596034 -0.156611 -0.44755 Si
31 1 1.29669 6.70396 6.87882 -4.28069 -5.20827 0.591205 0.563668 0.225573 -0.271795 Si
9 1 4.02416 4.06115 6.8024 7.52764 0.30548 1.15833 1.01484 -0.324906 -1.04957 Si
19 1 3.95211 6.83369 4.12921 -1.16744 0.232259 -2.30874 1.79112 -0.493129 -1.42289 Si
37 1 6.79515 4.03633 4.05245 0.724803 -2.50565 -0.350579 -0.228625 -0.137862 0.422704 Si
60 1 5.42815 5.44311 5.38097 -1.9717 1.39965 3.64546 -0.836149 -0.273089 0.545388 Si
63 1 6.7182 6.82752 6.78832 -1.42355 0.687601 -1.29406 0.0315074 0.299976 0.26536 Si
28 1 -0.0245773 5.4418 5.38305 3.88035 2.30187 0.768908 -0.0149622 -0.140005 0.681873 Si
41 1 9.51755 4.09158 6.82492 -2.43462 2.9769 3.97523 0.413425 0.367933 -0.13368 Si
51 1 9.56587 6.78589 3.97633 1.65068 2.40573 1.46682 -0.608008 0.295638 0.108102 Si
21 1 1.39671 9.56897 3.96567 5.4303 1.4193 -0.844026 -0.13119 0.0720214 1.16861 Si
30 1 2.61467 8.11615 5.42373 2.21477 -1.74227 -0.81019 -0.4232 1.05314 1.22234 Si
44 1 5.45408 -0.0762028 5.42776 -4.48351 3.43198 1.14443 -0.982138 1.58529 0.335701 Si
25 1 3.98151 9.5479 6.8359 2.63576 -1.82963 1.05976 0.347862 -0.614292 -0.29483 Si
53 1 6.84849 9.5548 4.09762 -4.76711 -4.55528 2.32202 0.766892 -0.342304 -0.59969 Si
57 1 9.55747 9.42556 6.79319 -0.137006 3.01805 0.955882 0.0329204 0.293541 0.155732 Si
62 1 8.18238 8.1047 5.40006 0.12716 -2.90687 -3.34918 -0.0872447 0.0983831 0.153963 Si
6 1 2.71281 2.64768 -0.0143197 4.39025 1.96034 -1.6124 -0.157173 -0.19798 -0.848254 Si
16 1 2.72486 0.0745267 8.23547 0.800517 -1.25996 -0.0797527 -0.339008 -1.00093 -0.647113 Si
36 1 5.4809 -0.0341274 0.116504 1.49991 -0.424178 -2.8275 1.07265 0.0143826 -1.48485 Si
11 1 4.16996 1.29442 9.54495 0.556324 0.30859 0.9879 0.218898 1.22837 0.245195 Si
42 1 5.48523 2.77377 8.11273 -0.00673777 -0.252722 -0.578289 -0.435283 -1.23259 0.60832 Si
38 1 8.2675 2.70798 -0.0150687 0.59516 3.64031 -6.56285 -0.672761 0.520329 -0.161946 Si
10 1 0.0261946 2.7252 8.16679 -1.30423 0.458274 0.880112 0.143622 0.221907 -0.940056 Si
43 1 9.60913 1.41012 9.46127 -4.08817 -3.59614 -2.16387 -1.03054 -0.901529 0.481879 Si
13 1 1.36593 4.0193 9.53323 -1.1346 -1.75343 -1.70226 -0.0119155 -0.211498 0.256668 Si
32 1 2.73284 5.28353 8.20024 0.66618 1.11452 -0.241035 -0.526539 2.08366 0.29845 Si
52 1 5.44701 5.31755 -0.0265763 1.076 6.18608 2.17723 -1.03182 0.59412 0.230553 Si
27 1 3.99641 6.77317 9.63285 -0.766221 1.82677 -0.663648 0.411747 -0.500184 -0.509921 Si
45 1 6.84568 4.08546 9.4735 0.16051 -5.19829 -0.0909115 0.491164 -0.428273 0.386249 Si
20 1 0.0211717 5.43693 -0.0617596 0.350557 -0.646205 1.63231 -0.209629 0.0564123 0.0571805 Si
59 1 9.50925 6.81734 9.55455 -1.19239 0.964734 4.00048 -0.784204 -0.47783 0.57269 Si
64 1 8.14383 5.49724 8.12342 -2.18419 -0.870081 -0.515107 0.103839 0.0243401 0.26707 Si
22 1 2.74058 8.25796 0.080396 -2.81835 0.827668 0.604168 0.328372 -0.00868057 -0.736529 Si
29 1 1.37623 9.53377 9.53439 -0.111409 8.64513 0.891796 -0.345673 0.435578 0.662745 Si
58 1 5.33016 8.17834 8.28235 1.18363 0.246745 -0.118555 0.853805 0.0285997 -0.764251 Si
61 1 6.92337 9.50459 9.55233 2.32205 -0.780386 3.76182 -1.35203 0.221883 0.363584 Si
48 1 8.22732 -0.00818561 8.13034 -0.490248 3.99423 -4.47392 0.70285 -0.669016 0.778022 Si
26 1 -0.0115141 8.09302 8.27966 -0.336734 -0.241679 3.56029 0.505769 0.80718 -1.24501 Si
ITEM: TIMESTEP
18000
ITEM: NUMBER OF ATOMS
64
ITEM: BOX BOUNDS pp pp pp
0.0000000000000000e+00 1.0887404739999999e+01
0.0000000000000000e+00 1.0887404739999999e+01
0.0000000000000000e+00 1.0887404739999999e+01
ITEM: ATOMS id type xu yu zu vx vy vz fx fy fz element
4 1 0.00172038 -0.0288377 -0.0336116 -0.295529 1.16525 0.527306 -0.241482 0.122701 0.120559 Si
7 1 1.35471 1.31184 1.32643 -7.78394 0.378516 -3.42069 0.350885 0.619534 0.517997 Si
34 1 5.47885 2.77838 2.76231 -3.76911 0.192693 -0.442067 -1.06087 -0.747562 0.000274461 Si
39 1 6.65246 1.35677 1.34772 -1.61859 0.170871 -5.82182 0.963245 -0.810874 0.73296 Si
2 1 -0.026791 2.66476 2.79608 1.42765 0.73489 0.298583 -0.115874 -0.491782 -0.995078 Si
40 1 8.09883 -0.0958972 2.66998 1.05195 2.76333 -3.37324 0.355506 0.662771 -1.32389 Si
23 1 1.35634 6.78047 1.42089 0.923813 -0.818299 -1.51666 0.25839 -0.00984993 -0.468498 Si
24 1 2.75927 5.40914 2.74246 1.27612 5.93935 -3.05956 -0.275069 -0.0279075 0.177347 Si
1 1 4.14784 4.10247 1.35565 -6.70628 0.673885 -0.360452 -0.930746 -0.47188 0.281509 Si
55 1 6.87196 6.98469 1.36175 -0.639424 1.95317 -1.95569 -0.853133 -1.85509 -0.150854 Si
33 1 9.5461 4.0318 1.36007 1.33621 1.1418 0.189148 -0.281989 0.318611 0.222792 Si
56 1 8.21626 5.541 2.65574 -1.07269 -0.964275 -1.32912 -0.570164 -1.03375 0.718765 Si
8 1 2.76684 -0.0479771 2.70355 5.90701 1.37388 0.262819 -1.58921 -0.453258 0.11033 Si
18 1 -0.0430131 8.05109 2.82008 -0.571783 1.55545 1.57165 0.582369 1.08706 -0.338925 Si
17 1 4.04051 9.43674 1.36461 -0.25534 -1.08766 4.51457 -0.02535 0.710887 -0.797066 Si
50 1 5.38626 8.14202 2.70074 6.71626 -4.88712 -0.848416 1.10326 0.564409 -0.229391 Si
49 1 9.60651 9.46881 1.36126 3.07559 -4.51145 -6.8536 -0.290351 0.487294 0.679851 Si
54 1 8.22446 8.22841 0.0206828 -4.03225 3.43114 -0.310166 -0.172362 0.0793528 -1.45143 Si
12 1 0.043267 0.0563385 5.43787 -2.19391 -0.659213 -5.61192 -0.730095 0.0873851 0.824131 Si
14 1 2.7715 2.71401 5.39844 -0.851978 -2.70898 -2.35532 -1.1873 -0.28216 0.437135 Si
15 1 1.37529 1.41548 6.90904 -3.17981 -2.37634 0.809435 0.455116 -0.537945 -1.5089 Si
3 1 4.06187 1.28541 4.05098 -3.2135 2.80749 -0.152356 0.943565 1.28572 -0.0356138 Si
47 1 6.75469 1.44597 6.79447 -3.33737 1.65318 7.49052 0.946161 -0.928597 0.25884 Si
35 1 9.43765 1.21422 4.03629 -0.804093 -0.910297 0.343404 0.795623 0.832583 0.165894 Si
46 1 8.18171 2.64668 5.38023 5.75348 -2.81708 3.76253 -0.207428 0.923264 0.397906 Si
5 1 1.29393 4.06856 4.11016 1.05389 0.63259 1.56278 1.13547 -0.084945 -0.194974 Si
31 1 1.41025 6.85513 6.78104 -0.0737503 0.267507 -0.0752795 -0.923493 -0.412663 0.0457447 Si
9 1 4.02746 4.13076 6.74226 -4.61085 0.120904 0.205923 0.737848 -0.0924905 0.702691 Si
19 1 4.21659 6.75929 4.04313 -0.77218 -0.1844 2.08216 -1.90151 0.118249 1.14638 Si
37 1 6.81857 4.12032 4.09546 -0.108475 -1.79286 2.60427 1.24546 0.0153374 -0.660742 Si
60 1 5.50298 5.43127 5.45072 4.62675 2.1055 -5.57884 -0.147061 0.0974911 0.239047 Si
63 1 6.89476 6.74858 6.79842 0.883145 1.48977 3.29642 -0.22886 0.221627 0.338928 Si
28 1 0.00125001 5.41195 5.49481 -1.59518 -3.83435 -5.27355 0.357407 0.692734 -0.140806 Si
41 1 9.56442 4.03326 6.76803 3.85412 -4.31854 -1.81783 -0.830215 -0.115135 0.781148 Si
51 1 9.49416 6.76973 4.18164 5.62548 -1.40512 -1.81195 -0.0258747 0.00737704 -0.069739 Si
21 1 1.29732 9.52024 4.15028 -5.37968 2.82367 -5.54327 1.35942 -0.520264 -0.881224 Si
30 1 2.77894 8.17128 5.4844 -2.50754 -2.18379 -3.20422 0.400544 -0.0181088 -1.40079 Si
44 1 5.50776 0.0494519 5.39741 4.66297 -1.677 -3.14535 -0.32987 -0.983723 -0.0441432 Si
25 1 4.11681 9.57348 6.7935 1.49196 5.09392 -1.09298 0.381292 -0.0890253 0.221649 Si
53 1 6.81316 9.47393 3.97632 -2.49286 2.34393 2.37458 -0.900465 0.0752115 1.50314 Si
57 1 9.48538 9.60057 6.76505 0.270759 -0.0738145 -2.21334 0.382586 0.180261 0.404538 Si
62 1 8.13769 8.2048 5.46409 2.83639 1.66884 3.35001 0.183046 -0.249015 -0.466586 Si
6 1 2.72176 2.75947 -0.0326069 -2.9321 -0.193592 6.66412 -0.0740419 0.0463916 0.847008 Si
16 1 2.68434 -0.037159 8.20848 0.446296 3.87527 3.59793 0.438806 0.286569 -0.127639 Si
36 1 5.33417 0.00487066 -0.0218425 -7.27724 -1.34192 0.88865 0.0558718 -0.337671 -0.259717 Si
11 1 4.03992 1.44163 9.48506 -1.1861 0.321787 -3.15576 -0.055171 -1.08537 0.190981 Si
42 1 5.40729 2.74902 8.14599 2.3083 4.6693 -0.998327 -0.0173566 1.2907 0.0735351 Si
38 1 8.06825 2.66894 0.0870846 3.14492 -1.8834 5.10637 0.464168 0.96766 -0.741211 Si
10 1 0.00591147 2.72386 8.19424 1.15641 -1.59859 5.8234 -0.327823 0.554948 0.559556 Si
43 1 9.48143 1.41018 9.57711 5.91063 5.74923 5.85985 0.400599 -0.37663 0.0328945 Si
13 1 1.3832 4.13264 9.52136 1.01368 3.15877 4.33514 -0.415923 0.00057609 -0.174116 Si
32 1 2.70355 5.51563 8.14462 1.30782 -4.34723 0.515804 0.449611 -0.597947 0.135579 Si
52 1 5.44423 5.48702 0.0642628 1.30838 -7.94452 -1.96617 0.93746 0.865493 -0.369603 Si
27 1 4.1103 6.80174 9.51852 -0.569063 -1.38029 2.73727 0.105014 0.260845 -0.245591 Si
45 1 6.79522 4.13817 9.56884 0.219485 0.80548 0.656597 -0.106871 -0.734144 -0.0472656 Si
20 1 -0.00382888 5.46076 0.00329357 -0.673926 -0.214408 3.209 0.236119 -0.444111 0.304381 Si
59 1 9.5393 6.78964 9.52424 1.86433 -0.551204 -2.27413 0.570638 1.31286 0.252148 Si
64 1 8.24372 5.44461 8.24038 1.12603 0.294236 -0.759125 -0.522799 -0.953653 -1.24607 Si
22 1 2.69068 8.14 -0.0505311 -3.56144 -3.76842 1.12969 0.0685651 -0.661203 0.880996 Si
29 1 1.3223 9.45018 9.52994 1.45103 -4.87999 -1.37271 -0.0156908 0.747093 -0.499011 Si
58 1 5.51712 8.1304 8.10376 -2.35357 0.89675 5.67916 -0.542224 0.359688 0.411368 Si
61 1 6.79262 9.56472 9.50004 5.01893 0.465205 -4.74714 -0.0448812 -0.362358 0.677962 Si
48 1 8.15498 0.0524847 8.2162 -3.452 3.49369 1.84935 -0.331545 0.402637 -1.04906 Si
26 1 -0.0156702 8.20215 8.07848 0.821775 -0.897093 -0.857384 -0.390949 -0.516201 0.52196 Si
ITEM: TIMESTEP
18100
ITEM: NUMBER OF ATOMS
64
ITEM: BOX BOUNDS pp pp pp
0.0000000000000000e+00 1.0887404739999999e+01
0.0000000000000000e+00 1.0887404739999999e+01
0.0000000000000000e+00 1.0887404739999999e+01
ITEM: ATOMS id type xu yu zu vx vy vz fx fy fz element
4 1 0.00640948 -0.0518647 -0.0239165 -0.201134 2.19727 2.73339 -0.240221 0.895339 1.00636 Si
7 1 1.44278 1.33368 1.39724 3.00454 -2.13028 0.246347 -1.18545 0.177271 -0.835064 Si
34 1 5.44712 2.6742 2.80124 5.46735 5.396 3.19135 0.767645 0.620367 -0.235048 Si
39 1 6.90043 1.44689 1.43832 -1.5075 4.12854 1.03507 -0.259293 -0.300146 -1.11083 Si
2 1 -0.0256748 2.69374 2.70877 2.50414 1.45212 1.41927 0.829335 0.861069 -0.0320569 Si
40 1 8.15778 0.0224068 2.78152 -0.0498961 -6.52581 6.11104 -0.0859755 0.224377 0.550073 Si
23 1 1.37091 6.88156 1.33103 0.629219 -0.527747 2.35486 0.584487 -0.689956 0.0680214 Si
24 1 2.75791 5.44345 2.75449 -1.14882 0.0209938 -3.39125 -0.30934 0.466944 -0.885548 Si
1 1 4.1452 4.03074 1.43399 2.51637 2.20252 -1.24882 -0.685478 0.624452 -0.935731 Si
55 1 6.706 6.72805 1.41191 2.55421 2.9863 0.514129 1.09087 1.05611 0.406257 Si
33 1 9.47013 4.06482 1.32471 0.582531 -0.429693 0.19834 0.777781 0.599216 0.181962 Si
56 1 8.12369 5.42775 2.79598 0.26689 2.81312 -4.90314 0.290825 0.0793679 -0.663887 Si
8 1 2.70019 -0.0547298 2.76229 -2.36808 1.2586 0.257361 1.55087 0.268343 -0.0298615 Si
18 1 -0.0785626 8.20594 2.6449 2.21737 -4.8871 -0.253568 -0.139627 -0.0290157 0.439222 Si
17 1 4.20053 9.56004 1.32521 0.069607 1.157 -0.383196 -0.78645 0.871514 0.673404 Si
50 1 5.4684 8.26206 2.74049 -7.73425 0.411163 4.39048 -0.0953679 -1.32889 -0.608658 Si
49 1 9.37031 9.57327 1.32671 1.81681 1.05455 4.12962 0.898804 -0.815413 -0.41464 Si
54 1 8.07537 8.04935 -0.0157256 2.28307 1.66164 7.31542 -0.0636343 0.861422 1.04155 Si
12 1 -0.0195967 0.032642 5.49643 7.51621 -0.331914 3.21511 0.410599 -0.483977 -1.01864 Si
14 1 2.78446 2.74814 5.48718 5.01257 1.33176 -0.873589 0.338645 0.250579 -0.886226 Si
15 1 1.4253 1.37417 6.7099 0.75088 2.39614 4.01721 -0.940647 0.246565 1.44219 Si
3 1 4.17355 1.32789 4.14546 -0.779542 -5.32748 2.37561 -1.94264 0.0399313 -0.461973 Si
47 1 6.87483 1.29466 6.74388 -0.0278955 -2.39642 -6.26551 -0.419653 0.448509 1.31878 Si
35 1 9.542 1.43208 4.12969 -2.78309 0.307191 1.54467 -0.557743 -0.667145 0.0645599 Si
46 1 8.14365 2.79335 5.46789 -4.1857 -1.0848 -0.225331 0.255711 -0.331747 -0.383262 Si
5 1 1.37518 4.12979 4.1118 -0.232533 3.80931 -3.92072 -0.482515 -0.430506 0.160579 Si
31 1 1.32877 6.7495 6.81624 2.09798 1.27188 1.66128 1.55747 1.65033 0.11431 Si
9 1 4.12662 4.04599 6.92708 -2.45299 -1.38928 -2.02665 -1.07135 0.0612953 -0.142201 Si
19 1 4.13102 6.85131 4.02808 -0.813394 -2.04691 -6.88333 -0.46491 -0.371058 0.583679 Si
37 1 6.75046 4.11648 4.13973 1.61871 1.66656 -1.05819 -0.656875 0.0252244 0.513104 Si
60 1 5.30649 5.46701 5.55764 -5.54292 -2.0642 4.51006 1.06526 -0.290537 -1.73897 Si
63 1 6.77669 6.80543 6.69171 -0.684588 -0.798429 -3.12652 0.323689 -0.118949 0.955646 Si
28 1 0.008639 5.568 5.48911 -2.07654 0.99226 5.34951 -0.774754 -1.5837 -1.37819 Si
41 1 9.49404 4.18034 6.76118 -3.09727 2.83118 -2.46704 0.586395 -0.611382 0.0297107 Si
51 1 9.49067 6.85753 4.11657 -6.53176 0.46047 -1.72538 0.521602 -0.39912 -1.04889 Si
21 1 1.31061 9.4931 4.07213 -1.73237 -0.963624 3.55638 -0.493406 0.370654 0.130626 Si
30 1 2.71579 8.13777 5.36289 -0.0768653 3.0709 0.0815089 -0.174095 0.132734 1.27736 Si
44 1 5.4451 -0.00263885 5.4636 0.540146 3.20322 2.40915 0.341157 -0.646944 0.380898 Si
25 1 4.06447 9.55009 6.81576 -0.0829699 -2.10938 -1.16271 -0.206798 -0.683956 -0.511667 Si
53 1 6.75992 9.51178 4.11905 4.0094 -0.386285 -3.72182 0.846203 1.00632 -0.119074 Si
57 1 9.60649 9.47149 6.82693 -0.334973 -0.491362 0.778199 -0.640006 -0.326605 -0.417992 Si
62 1 8.14295 8.16773 5.39977 -2.72144 1.08535 -2.83006 0.339582 0.602633 0.923907 Si
6 1 2.73872 2.74246 -0.0374239 0.168644 -2.10326 -7.19726 0.00082559 -0.124306 0.846751 Si
16 1 2.67757 0.00397723 8.1543 -2.3828 -2.59139 -0.959453 0.558365 0.355922 -0.0551386 Si
36 1 5.56624 0.0480228 0.00422315 8.08101 -2.96253 -1.44231 -0.791488 0.513677 0.681089 Si
11 1 4.05773 1.31655 9.56386 4.63927 3.61248 3.03209 0.305769 -0.207128 -0.202225 Si
42 1 5.4375 2.62238 8.21274 1.05957 -4.09448 -2.14489 0.661185 -0.385406 -0.681512 Si
38 1 8.2166 2.73309 -0.135465 -1.35422 0.726659 -4.22261 -0.278057 -0.761428 1.28283 Si
10 1 -0.0339358 2.75756 8.08172 -2.36451 1.86178 -7.54106 0.110463 -0.939867 -0.094637 Si
43 1 9.52851 1.26699 9.46869 -6.10163 -2.86186 -8.15293 0.658743 0.850455 -0.257017 Si
13 1 1.33926 4.05096 9.46198 1.34819 -3.03384 -2.4775 0.152662 0.10565 0.445855 Si
32 1 2.68216 5.44683 8.17651 -0.329841 -0.601508 1.5904 0.422502 -0.498526 -0.125599 Si
52 1 5.42533 5.49509 0.00147467 -1.87498 2.71644 2.53751 -0.407161 -1.74608 -0.570829 Si
27 1 4.06874 6.81327 9.46599 1.22323 0.920159 1.13858 0.249997 0.167111 0.409421 Si
45 1 6.7839 4.0115 9.4962 -0.476316 1.43872 0.557081 -0.322004 1.33984 0.0052545 Si
20 1 0.0464365 5.43721 -0.0486636 3.32191 0.962221 -1.06169 -0.770994 0.286251 0.546768 Si
59 1 9.53346 6.87615 9.52867 -3.28686 -1.05144 2.15421 -0.254894 -1.81087 -0.810359 Si
64 1 8.09773 5.41887 8.07757 -0.126275 -2.82109 4.00027 0.284311 1.12526 1.30573 Si
22 1 2.83526 8.24515 -0.00384579 3.31528 2.91859 -0.763598 -0.959639 -0.501609 -0.367702 Si
29 1 1.3787 9.57 9.5336 -4.27344 -0.915086 3.32305 0.506403 -0.884484 0.0885421 Si
58 1 5.46559 8.12167 8.08495 1.94072 -1.57353 -1.39815 -0.696416 0.43342 0.451273 Si
61 1 6.70884 9.43463 9.59109 -2.37318 -0.837002 0.687885 1.48685 0.338179 -1.53437 Si
48 1 8.20647 -0.111243 8.14852 4.50264 -8.24496 1.9717 -1.10275 -0.211849 0.377955 Si
26 1 0.0895051 8.15121 8.20178 -2.9479 3.25961 -0.559871 -0.515373 0.22426 -0.145891 Si
ITEM: TIMESTEP
18200
ITEM: NUMBER OF ATOMS
64
ITEM: BOX BOUNDS pp pp pp
0.0000000000000000e+00 1.0887404739999999e+01
0.0000000000000000e+00 1.0887404739999999e+01
0.0000000000000000e+00 1.0887404739999999e+01
ITEM: ATOMS id type xu yu zu vx vy vz fx fy fz element
4 1 0.0598662 0.0228169 -0.00552247 0.602469 -4.15069 -2.60968 -0.00344398 -0.29871 -0.065463 Si
7 1 1.35824 1.4446 1.28628 5.82349 -1.00716 1.79371 0.115242 -0.75364 1.08116 Si
34 1 5.411 2.65912 2.59415 -3.53954 -2.44378 0.71834 0.556917 0.674424 0.178737 Si
39 1 6.81646 1.21671 1.32419 0.333764 -7.66744 4.84794 -0.723035 1.02111 0.627685 Si
2 1 -0.0367223 2.75496 2.65123 -1.33512 -4.9412 -0.43397 0.186611 -0.371587 0.995065 Si
40 1 8.17433 -0.00492207 2.7304 -3.17689 -0.535273 -6.92891 0.248765 -0.714954 0.34677 Si
23 1 1.35506 6.77157 1.37418 -1.7338 2.74336 2.26036 -1.15372 0.0404693 0.283951 Si
24 1 2.72695 5.44125 2.72532 3.02788 -2.16925 5.65119 -0.20866 -0.364638 0.457528 Si
1 1 4.02184 4.08775 1.27721 -0.283562 -0.0231818 3.0591 1.13307 0.328701 0.89612 Si
55 1 6.82944 6.82453 1.38401 -1.67235 -4.95242 -0.465607 0.429784 -0.595029 -1.11763 Si
33 1 9.46788 4.12497 1.35899 -3.16658 1.45597 -0.15419 0.159302 -0.476991 0.218306 Si
56 1 8.18565 5.45748 2.74822 -2.55254 -0.367682 8.12482 -0.0692276 0.28589 -0.192097 Si
8 1 2.78182 0.0922959 2.67121 -3.14249 -4.06343 -0.93009 -1.32145 -0.0785716 -0.0312822 Si
18 1 0.0556734 8.25807 2.7691 -1.66124 1.57763 -0.515056 0.759316 -1.00382 -0.0829949 Si
17 1 4.00027 9.50513 1.38995 0.735488 -1.48239 -3.20323 0.502577 -0.8434 -0.673665 Si
50 1 5.50433 8.13616 2.67494 5.73854 4.15503 -1.6905 -1.6846 0.554602 1.22845 Si
49 1 9.62482 9.56189 1.38991 -5.20909 0.117558 0.030693 -0.668169 0.322876 -0.0977268 Si
54 1 8.20876 8.24949 0.0371315 -1.54162 -3.54167 -7.11195 0.725508 -1.15339 -0.0649057 Si
12 1 -0.0528128 -0.0719406 5.43399 -6.90058 0.177641 3.53202 0.773744 0.280502 0.270876 Si
14 1 2.6763 2.70039 5.49193 -3.65942 -0.369514 4.18042 0.162055 -0.00747208 0.0618057 Si
15 1 1.27483 1.32246 6.84618 -0.442332 4.77224 -4.95689 0.709151 -0.272626 -0.535764 Si
3 1 4.03491 1.44794 4.01302 2.82653 -1.55775 -0.588905 0.55733 -0.531843 0.863164 Si
47 1 6.75389 1.46097 6.77516 3.92801 0.930195 1.08897 -0.440608 -0.45389 -1.07887 Si
35 1 9.54075 1.32287 4.10093 -1.17881 -3.15509 -1.35592 -0.101281 0.813619 -0.633393 Si
46 1 8.20829 2.7812 5.41202 -0.17886 3.99699 1.58736 -0.252739 -1.21524 0.369144 Si
5 1 1.3467 4.03943 4.13089 5.43526 -2.95143 2.05098 0.0706476 0.111177 -1.17842 Si
31 1 1.28812 6.75222 6.87597 1.82808 -0.027748 -2.39683 -0.347493 -0.584855 -1.07774 Si
9 1 4.06659 4.15296 6.76501 3.75631 0.130424 1.73315 0.71425 -0.592965 -1.07638 Si
19 1 4.05761 6.79988 4.14327 1.87266 1.61573 2.2476 0.538928 0.221263 -1.04338 Si
37 1 6.8389 4.00515 3.99513 2.82835 5.3354 0.985365 -0.0650432 -0.119697 -0.783899 Si
60 1 5.53881 5.38089 5.27016 0.125056 -2.85779 -0.952083 -0.815337 0.898111 2.35487 Si
63 1 6.78558 6.81004 6.87837 3.32452 -1.17163 -0.440544 -0.359036 -0.0120617 -1.06104 Si
28 1 -0.0618267 5.32635 5.43152 1.63931 0.185631 -0.530709 0.83814 0.772288 1.09704 Si
41 1 9.57195 3.96936 6.88453 -1.84494 -6.09877 5.68008 -0.507107 1.05104 -0.318418 Si
51 1 9.62711 6.7767 4.07308 -0.891347 2.94736 2.71341 -1.02477 0.585575 0.176283 Si
21 1 1.49998 9.59653 4.10047 2.69145 -4.26994 -0.274983 -0.62196 -0.605547 0.489498 Si
30 1 2.68511 8.08415 5.59527 4.83837 -1.0536 -2.96813 0.471435 0.92185 -1.0502 Si
44 1 5.38268 -0.0354435 5.33769 1.08679 -1.81493 -0.0927245 -0.0284112 1.21478 1.36567 Si
25 1 4.11333 9.49737 6.85979 0.683325 1.21345 -1.87891 -0.253573 0.335704 -0.14491 Si
53 1 6.78501 9.51629 4.10465 -4.12547 -0.757761 2.01627 0.693387 -0.385954 -0.83692 Si
57 1 9.46533 9.47189 6.78353 -3.33268 6.23072 1.52549 0.0438591 1.07861 0.832687 Si
62 1 8.17222 8.13555 5.43659 3.21344 3.51235 1.9271 -0.369411 -0.655512 -0.178339 Si
6 1 2.72829 2.73179 0.00414386 1.32648 4.84748 4.69174 0.145587 -0.243177 -1.33392 Si
16 1 2.73118 0.0266355 8.17679 1.8779 0.969695 -1.91429 -0.0310126 -0.452787 -0.657842 Si
36 1 5.3613 -0.0315482 0.0380776 -3.6189 1.21956 -2.84514 0.85856 -0.733295 -0.75998 Si
11 1 4.07923 1.3184 9.52819 -4.88318 1.01548 -1.73456 0.2556 1.36833 -0.0607085 Si
42 1 5.41157 2.82064 8.13775 -1.42278 1.51495 1.87434 -0.0584714 -0.665331 0.708579 Si
38 1 8.11233 2.69905 0.114777 -0.978515 -0.481943 -0.855362 0.417925 0.360988 -1.29298 Si
10 1 0.0584881 2.68692 8.2509 1.32968 0.719561 2.19082 -0.109446 0.351808 -0.24048 Si
43 1 9.60435 1.43962 9.63628 4.8671 -1.89185 -0.833818 -1.61816 -0.774464 -0.706254 Si
13 1 1.44433 4.08306 9.48843 -4.6472 0.454936 -1.99026 -0.638205 0.0472177 0.553544 Si
32 1 2.73029 5.43103 8.09353 0.915578 4.66755 1.39289 -0.336922 0.307196 0.754222 Si
52 1 5.46099 5.42842 -0.0439893 -0.521357 5.05718 0.416689 -0.486626 0.816562 0.582161 Si
27 1 3.97813 6.77352 9.52324 0.00450803 -1.09286 -4.23749 0.82575 0.45496 0.465984 Si
45 1 6.83761 4.10935 9.53843 -2.59657 -0.1188 -4.83072 0.176334 -0.477932 -0.282092 Si
20 1 -0.0277903 5.3723 -0.0078812 1.96882 1.82706 -1.4216 0.569362 0.923431 -0.543556 Si
59 1 9.53681 6.80509 9.47054 1.3975 3.90354 0.728563 0.132712 0.471497 1.3538 Si
64 1 8.20752 5.46919 8.14724 2.05068 -2.32509 -4.42536 -0.212292 -0.908826 0.0986199 Si
22 1 2.56715 8.14006 -0.0175227 1.14199 -4.95488 2.72509 1.63393 0.253183 0.191413 Si
29 1 1.37829 9.5465 9.47122 1.35119 0.684414 -0.0641764 -0.636295 0.130737 0.362436 Si
58 1 5.44902 8.2229 8.32942 1.32896 1.6225 -2.5679 0.327131 -0.549245 -0.811159 Si
61 1 6.9459 9.61146 9.56111 -3.29016 0.914784 2.94792 -2.00541 0.0797057 0.333799 Si
48 1 8.09672 0.135716 8.13294 -2.43864 5.40361 -3.63492 1.99123 -0.326483 0.325816 Si
26 1 0.0105554 8.18019 8.15364 0.0670888 -1.62305 -2.887 -0.572227 0.145733 0.0872173 Si
ITEM: TIMESTEP
18300
ITEM: NUMBER OF ATOMS
64
ITEM: BOX BOUNDS pp pp pp
0.0000000000000000e+00 1.0887404739999999e+01
0.0000000000000000e+00 1.0887404739999999e+01
0.0000000000000000e+00 1.0887404739999999e+01
ITEM: ATOMS id type xu yu zu vx vy vz fx fy fz element
4 1 -0.0467994 -0.0247442 0.0530635 -2.90488 5.72407 2.38232 -0.236303 -0.393788 -1.24913 Si
7 1 1.29798 1.24231 1.38373 -6.78546 4.23047 -4.63928 0.420944 1.05374 0.00269876 Si
34 1 5.51107 2.79878 2.76162 1.30219 -0.314621 -3.22671 -1.67224 -1.14625 0.229107 Si
39 1 6.72525 1.46933 1.34416 1.13637 -1.60245 -1.11078 1.10789 -0.928591 0.0322685 Si
2 1 0.0596193 2.6792 2.73925 1.15362 2.66106 0.885058 -0.910388 0.188163 -0.115781 Si
40 1 8.1205 0.0288724 2.63871 3.44972 2.55201 5.67747 0.383132 0.775244 -0.79547 Si
23 1 1.38639 6.80748 1.32794 1.58164 -3.51669 -4.73524 0.373622 0.612157 -0.305569 Si
24 1 2.72903 5.44488 2.68411 -0.00218758 4.45215 -4.85733 0.269922 0.0400384 0.458358 Si
1 1 4.08477 4.02317 1.38318 -1.42499 -1.89303 -4.54012 -0.677748 0.0408489 -0.24517 Si
55 1 6.91993 6.77357 1.34582 -2.96828 0.175216 3.6116 -2.18973 0.264887 0.161148 Si
33 1 9.56035 4.10601 1.46089 4.33456 4.92778 0.807314 0.319168 -0.713097 -1.39099 Si
56 1 8.12588 5.37815 2.70885 -2.06696 0.803374 -0.712585 0.102048 -0.0516073 0.605882 Si
8 1 2.693 -0.0161985 2.70575 4.35241 1.12821 -1.98222 0.38368 -0.437209 0.432219 Si
18 1 -0.0903789 8.07346 2.67633 -1.44632 6.6915 -3.23211 0.171427 0.639565 -0.217247 Si
17 1 4.11478 9.55464 1.35602 1.03979 1.92698 0.924503 -0.131469 -0.130465 0.282576 Si
50 1 5.41081 8.14497 2.74433 0.73293 -3.23192 -2.20068 1.65489 0.380659 -0.663101 Si
49 1 9.44035 9.49249 1.31875 1.81519 1.18129 -0.60392 0.518636 0.0850619 0.463649 Si
54 1 8.14598 8.16403 -0.0493359 0.240762 0.550276 5.2844 -0.242667 -0.115348 -0.732354 Si
12 1 0.05793 0.0574897 5.41873 1.50723 -1.52544 -2.99203 -1.12619 -0.019167 0.0670812 Si
14 1 2.7468 2.71005 5.40373 -0.588115 0.875827 1.10325 -0.968618 0.160901 0.577281 Si
15 1 1.35901 1.39272 6.8853 -3.32667 -1.53407 3.54544 0.180429 0.379924 -1.2502 Si
3 1 4.07749 1.34499 4.09542 -1.94112 8.23162 0.632373 0.821566 0.0640253 -0.613728 Si
47 1 6.79439 1.35292 6.84931 -1.28199 -0.0411461 2.15546 1.04698 -0.1537 0.848289 Si
35 1 9.44228 1.37852 4.00607 0.216041 1.31942 3.41648 1.3102 -0.455304 0.753374 Si
46 1 8.20694 2.70071 5.46824 1.04596 0.909348 -1.28713 -0.416227 0.414065 0.249025 Si
5 1 1.35749 4.09611 4.04677 -1.89019 0.720057 2.58376 0.299669 0.260717 0.801607 Si
31 1 1.45857 6.859 6.78753 -3.55153 -0.0871534 3.28202 -0.786474 -0.0873706 0.592967 Si
9 1 4.02007 4.09691 6.7885 -0.0495287 -0.15169 2.12651 0.760268 -0.0899443 0.562904 Si
19 1 4.0876 6.82077 4.10619 -3.25281 1.13184 2.82092 -0.420199 -0.414864 0.0291377 Si
37 1 6.81421 4.05257 4.12386 -4.70499 -6.7312 0.662697 0.241388 0.950249 0.856153 Si
60 1 5.46975 5.49146 5.51923 1.10158 1.63462 -7.3309 -0.462022 -0.83201 -0.998438 Si
63 1 6.83072 6.82943 6.79275 -3.17202 1.85298 0.817897 0.464486 0.244726 0.786679 Si
28 1 0.0497476 5.53769 5.48547 -4.90456 -4.4701 -2.26295 -0.0770956 -0.456011 -1.35834 Si
41 1 9.59523 4.15657 6.76482 7.12161 1.26373 0.123066 -0.544499 -0.706402 0.0471758 Si
51 1 9.43883 6.72925 4.02773 5.6472 -1.41938 -3.89041 1.02588 0.29427 0.779361 Si
21 1 1.25766 9.5078 4.01108 1.91589 3.86677 -0.899408 0.375217 0.082856 -0.159115 Si
30 1 2.66316 8.22907 5.36647 -3.7843 -2.5013 2.52533 0.57373 -0.262232 -0.0852751 Si
44 1 5.50378 0.0139016 5.46928 0.0950182 -2.0763 -2.87769 -0.255877 -0.533577 -0.933578 Si
25 1 4.0208 9.54699 6.73375 -1.39413 -1.8971 1.74536 0.347111 0.0776071 0.314911 Si
53 1 6.9363 9.58212 3.99277 3.06596 1.63219 1.50838 -2.1548 -0.91763 1.24401 Si
57 1 9.64664 9.49932 6.83191 2.34619 -9.17961 -2.96211 -0.603081 0.252406 -1.14388 Si
62 1 8.2174 8.18233 5.38967 -1.50215 -2.51987 -3.69637 0.0268728 0.150605 0.624501 Si
6 1 2.61389 2.64438 0.0299769 -1.72878 -2.38526 -3.4464 0.573351 0.724452 0.7821 Si
16 1 2.69545 -0.00589501 8.15736 -1.14865 5.46721 0.243743 0.358833 0.110195 0.908979 Si
36 1 5.43761 0.0474213 0.017866 -1.77724 2.70839 7.28644 -0.361466 0.132862 -0.0865167 Si
11 1 4.03906 1.40959 9.60595 4.33504 -6.04243 3.07162 -0.215757 -1.12081 -0.915984 Si
42 1 5.38243 2.72072 8.2238 0.223651 -1.22252 -2.26935 0.591661 0.592961 -0.40716 Si
38 1 8.19673 2.72184 0.0233015 -0.734149 -4.40976 -1.18107 0.220487 0.461282 0.286635 Si
10 1 -0.0153034 2.80542 8.15289 0.709308 -2.0727 1.92902 0.248925 -0.476788 0.537954 Si
43 1 9.52715 1.38412 9.50352 4.41272 1.44631 -1.28764 0.619407 -0.0393473 0.672447 Si
13 1 1.35775 4.08938 9.5787 2.6213 -2.96242 0.0866454 -0.540407 -0.113184 -0.23099 Si
32 1 2.67724 5.4224 8.2006 -0.252531 -7.65815 -0.385394 0.84486 0.511933 0.00750871 Si
52 1 5.42424 5.39217 0.0453966 -0.213109 -4.54697 -1.15467 0.986436 0.405899 0.0308716 Si
27 1 4.12682 6.77262 9.56716 -4.39467 -0.563073 5.2358 -0.650335 -0.64941 -0.684633 Si
45 1 6.85347 4.08775 9.57103 -1.07675 1.36527 1.94461 -0.693634 -0.358129 -0.412781 Si
20 1 0.000719209 5.4806 0.00428462 0.742359 -2.03912 -3.24667 0.0658322 -0.770307 0.601656 Si
59 1 9.56391 6.77172 9.52129 1.44187 -3.77155 -2.65801 -0.504508 0.620969 -0.244694 Si
64 1 8.22106 5.39269 8.17296 0.652297 7.23929 0.81744 -0.586062 0.919418 -0.273108 Si
22 1 2.83883 8.20118 -0.0595323 -1.0397 1.66706 0.915303 -1.24451 -0.402727 1.02028 Si
29 1 1.34817 9.49148 9.55292 2.92699 0.381963 -1.46207 0.201315 0.688824 -0.0373343 Si
58 1 5.31861 8.12796 8.12263 -3.84799 -0.871329 4.83436 1.07991 0.476515 -0.268809 Si
61 1 6.67348 9.53247 9.50131 9.55618 1.90559 -1.04424 1.07162 -0.461829 -0.0982386 Si
48 1 8.28853 -0.102383 8.23241 -1.66717 1.43279 -0.141277 -1.83528 0.789035 -0.8474 Si
26 1 0.0362223 8.1506 8.17377 -1.99966 -0.818314 3.33019 0.465795 -0.60997 0.114231 Si
ITEM: TIMESTEP
18400
ITEM: NUMBER OF ATOMS
64
ITEM: BOX BOUNDS pp pp pp
0.0000000000000000e+00 1.0887404739999999e+01
0.0000000000000000e+00 1.0887404739999999e+01
0.0000000000000000e+00 1.0887404739999999e+01
ITEM: ATOMS id type xu yu zu vx vy vz fx fy fz element
4 1 0.0108213 0.0314714 -0.0111611 1.82017 -5.85964 -1.33122 0.187199 0.661374 0.718418 Si
7 1 1.46319 1.44173 1.35184 2.81808 -5.57158 0.0786508 -0.769638 -0.632943 -0.385556 Si
34 1 5.514 2.7141 2.77022 4.00547 3.4353 -2.44974 0.0252688 0.470572 -0.597511 Si
39 1 6.83288 1.30243 1.46582 -3.04753 3.22248 0.959757 0.0112898 0.791333 -1.37085 Si
2 1 -0.0155774 2.70694 2.69499 0.101294 -1.08792 0.816238 0.593122 0.5782 -0.100856 Si
40 1 8.1846 0.011631 2.75002 -4.8601 -0.852076 -2.82305 -0.25142 -0.618259 1.4061 Si
23 1 1.32465 6.86524 1.32877 -1.05049 0.702635 2.55637 0.454531 -1.36901 0.50865 Si
24 1 2.71779 5.40656 2.75212 -2.23966 -4.80467 1.35773 -0.460349 0.331708 -0.940083 Si
1 1 4.18086 4.07964 1.37371 2.77628 0.741184 1.09875 -0.575644 0.375498 -0.108655 Si
55 1 6.72781 6.85113 1.34261 5.22973 7.20937 -2.08783 1.38217 0.630182 0.912534 Si
33 1 9.5106 4.02576 1.28595 -1.35848 -3.55742 -0.0451427 0.0577376 1.07217 0.767369 Si
56 1 8.17386 5.50741 2.71448 -0.567941 0.608748 -2.19212 0.339083 0.113542 -1.19898 Si
8 1 2.6961 0.00364764 2.76111 0.767931 -0.291566 -0.669848 0.467915 -0.164399 -0.371867 Si
18 1 0.0532376 8.13689 2.84273 0.484548 -8.59098 3.78258 -0.615252 0.580195 -0.375255 Si
17 1 4.07007 9.5884 1.30861 1.09508 -4.94769 1.36576 -0.102015 -0.156053 0.635276 Si
50 1 5.37226 8.21268 2.73624 -4.79673 1.59228 1.19685 -0.327812 -0.717234 -0.359243 Si
49 1 9.60812 9.6201 1.48834 0.682877 -0.190461 1.05671 0.18146 -1.29833 -0.822727 Si
54 1 8.27183 8.16737 0.0771176 2.66771 1.16859 -1.23168 -1.02747 0.815026 0.561396 Si
12 1 0.00449457 0.01847 5.48722 0.697629 3.69734 1.29937 0.462502 -0.310872 -0.300826 Si
14 1 2.70736 2.72156 5.44465 0.240348 -1.07984 -2.99926 0.893653 0.00779032 -1.03224 Si
15 1 1.43718 1.37123 6.78605 0.57007 -0.413053 5.15661 -0.265972 -0.937914 0.880263 Si
3 1 4.1682 1.32292 4.03196 -0.17159 -3.88138 -0.527715 -1.46939 0.558877 1.09878 Si
47 1 6.83241 1.31946 6.73843 -1.58587 3.56292 -2.04292 -0.680708 0.209186 0.117885 Si
35 1 9.58399 1.36401 4.07087 -2.63151 -1.76268 -5.45912 -0.944701 0.215347 0.439236 Si
46 1 8.08598 2.7721 5.35043 2.66758 -4.17053 -1.63291 0.567656 -0.643588 -0.221217 Si
5 1 1.29283 4.10646 4.12024 -2.38882 -1.42273 -1.88676 0.29486 -0.383105 -0.379563 Si
31 1 1.33869 6.84467 6.78609 2.19151 -2.70423 -1.7291 0.423513 -0.485695 0.38821 Si
9 1 4.09588 4.05874 6.79415 -3.40431 1.98352 -4.00261 -0.83215 0.0453558 0.782102 Si
19 1 4.05059 6.75788 4.11121 8.34534 0.729659 -3.97498 0.382919 0.410823 -0.138129 Si
37 1 6.81081 4.23097 4.01303 0.250292 -0.0932007 -0.275283 -0.276698 -1.6475 0.441446 Si
60 1 5.40254 5.35695 5.434 2.8847 0.788971 5.71541 0.460991 1.44373 0.0495299 Si
63 1 6.81231 6.74689 6.78024 4.22133 -3.72986 -4.27841 -0.478642 -0.388536 -0.248864 Si
28 1 -0.0351041 5.50631 5.45205 4.1682 4.85251 3.46878 -0.407145 -0.806253 0.448672 Si
41 1 9.39697 4.08157 6.7462 -1.20167 0.108301 -1.97458 1.16656 0.385816 0.411458 Si
51 1 9.46566 6.83562 4.16565 -4.5834 0.685911 5.0122 0.391047 0.0999065 -0.789884 Si
21 1 1.42465 9.4736 4.19811 -5.32234 -0.296954 1.28035 -0.475278 0.894756 -0.466557 Si
30 1 2.78554 8.15275 5.50741 -2.12637 0.332829 -0.654841 -0.52933 -0.637875 -0.32349 Si
44 1 5.3605 -0.0580945 5.47657 2.38412 2.75201 0.546365 0.849958 0.372578 -0.130631 Si
25 1 4.088 9.45484 6.84179 -0.221803 3.34046 -0.936165 0.437647 0.442637 0.226267 Si
53 1 6.71005 9.50135 4.10647 2.32007 -3.45693 -8.20231 1.18146 0.436943 0.0336441 Si
57 1 9.48077 9.53924 6.7783 0.63069 4.89841 2.50883 0.489047 -0.454945 0.727992 Si
62 1 8.10881 8.15969 5.50117 -0.809917 0.546887 0.841924 -0.170482 0.403289 -0.735391 Si
6 1 2.83128 2.75508 -0.0689767 -0.303008 2.28231 -3.73838 -0.451922 0.0804249 0.0339071 Si
16 1 2.81253 -0.0620384 8.21835 -1.55463 -2.49025 0.843242 -1.2854 0.432668 -0.481206 Si
36 1 5.54611 -0.021571 -0.00600698 -1.29537 -1.94384 -2.81492 -0.861236 0.367827 0.533968 Si
11 1 4.1802 1.31635 9.49984 -3.1609 7.09982 0.894964 -0.061911 0.201934 0.427355 Si
42 1 5.47077 2.68666 8.12673 -5.81144 -0.832288 1.22975 0.0194192 -0.0652334 -0.359822 Si
38 1 8.14636 2.66944 -0.0010989 1.21299 0.241205 3.98787 -0.64315 -0.0695771 -0.491223 Si
10 1 -0.0174501 2.70825 8.06656 1.21855 3.07568 -0.0424405 -0.613821 -0.0455512 0.129295 Si
43 1 9.50824 1.32255 9.47109 -0.815228 1.7681 0.797425 0.0752431 0.383207 0.107983 Si
13 1 1.29678 4.05814 9.45736 -0.221284 3.1003 1.37743 1.34471 0.269097 0.0518126 Si
32 1 2.7364 5.53624 8.18963 -6.09725 0.7081 -1.59267 -0.555562 -1.49422 -0.929076 Si
52 1 5.43917 5.56426 -0.00751386 -0.695564 2.36366 3.76168 -0.378294 -1.51713 -0.467151 Si
27 1 4.10873 6.85257 9.46693 1.99589 -2.43013 1.57968 -0.0298929 0.707825 0.661339 Si
45 1 6.72627 4.08414 9.50868 1.77734 -0.126568 1.61878 0.714595 0.0234915 0.73914 Si
20 1 -0.0108357 5.42862 -0.0809536 0.508362 2.75528 -1.68585 -0.225344 0.268637 0.853612 Si
59 1 9.48294 6.83938 9.5493 1.65995 -1.93686 2.79547 0.282936 -1.05389 -0.462396 Si
64 1 8.11518 5.4516 8.18822 1.20508 -6.55958 -0.130595 0.265387 -0.257689 0.0817293 Si
22 1 2.71105 8.19577 -0.00478828 0.261638 3.21609 -4.23332 0.0147585 0.141986 -0.639594 Si
29 1 1.27647 9.53437 9.5251 -2.63262 0.0312335 3.2103 0.937927 -0.5006 -0.318394 Si
58 1 5.53585 8.13586 8.08875 0.736767 -1.78492 -1.2795 -0.855126 -0.0991705 0.852 Si
61 1 6.77504 9.42787 9.58804 -8.45872 2.00027 3.81629 1.50749 0.303391 -0.662761 Si
48 1 8.11413 -0.0433884 8.15686 7.14929 -1.33171 2.5686 -0.031485 -0.241333 0.360949 Si
26 1 -0.0441075 8.09485 8.15941 1.66762 2.59917 0.344547 -0.210813 1.46957 -0.178325 Si
ITEM: TIMESTEP
18500
ITEM: NUMBER OF ATOMS
64
ITEM: BOX BOUNDS pp pp pp
0.0000000000000000e+00 1.0887404739999999e+01
0.0000000000000000e+00 1.0887404739999999e+01
0.0000000000000000e+00 1.0887404739999999e+01
ITEM: ATOMS id type xu yu zu vx vy vz fx fy fz element
4 1 0.0515262 -0.0405963 -0.0295548 -0.469217 -1.52627 -3.23484 -0.40392 -0.663432 -0.101841 Si
7 1 1.24492 1.33956 1.40732 1.96198 3.01899 0.0984878 1.19876 -0.0914087 0.24568 Si
34 1 5.39728 2.65803 2.7019 -1.96901 -3.79142 4.2237 0.294405 0.353436 0.0408974 Si
39 1 6.75291 1.3516 1.27598 0.121156 -1.82917 1.69957 -0.0247198 0.121308 1.12071 Si
2 1 -0.0530282 2.72977 2.79175 -2.40359 -1.04089 1.08347 0.0513487 -0.336022 -0.340551 Si
40 1 8.154 0.024366 2.67277 0.409294 -0.0739933 -0.352491 -0.152238 -0.529418 -0.418771 Si
23 1 1.32755 6.76698 1.40267 1.07366 4.28919 -4.0624 0.179801 1.00141 0.334861 Si
24 1 2.76548 5.47317 2.75717 4.56511 1.78335 1.41932 -0.0486755 -0.103913 0.385129 Si
1 1 4.05448 4.05153 1.37192 -1.10167 -4.3979 3.07376 0.370991 0.291476 0.295397 Si
55 1 6.79317 6.67323 1.36652 -6.58364 -1.90274 2.78966 0.495048 0.111031 -0.573524 Si
33 1 9.53709 4.11437 1.40924 -1.9134 -2.36087 -2.38866 -0.702083 -1.08672 -0.0641807 Si
56 1 8.2 5.3845 2.796 0.277613 0.998838 1.2566 -0.58308 0.286389 0.229969 Si
8 1 2.73571 -0.0622804 2.70103 0.0552887 -1.62533 0.132003 -0.222023 1.23576 -0.0558693 Si
18 1 -0.0740821 8.28386 2.66407 -1.65126 1.59728 -1.32769 0.868566 -1.38882 -0.0127593 Si
17 1 4.11028 9.49369 1.36671 2.48822 2.93263 -1.28707 0.281622 -0.286851 0.0203739 Si
50 1 5.57883 8.13471 2.69119 4.79956 2.84397 0.53429 -1.0262 0.59148 0.853868 Si
49 1 9.43434 9.46622 1.20788 -3.24402 2.85196 2.70261 -0.0503557 0.941532 0.503821 Si
54 1 8.02006 8.11689 -0.119835 -1.51943 -2.79825 2.22737 1.06168 -0.532869 0.596721 Si
12 1 -0.0538616 -0.0697987 5.37819 -2.59873 0.223573 0.425232 0.281188 0.370532 0.310438 Si
14 1 2.74558 2.7345 5.44185 -0.529775 0.886629 5.05356 -0.242845 -0.0283199 0.931261 Si
15 1 1.3063 1.30791 6.73181 3.63661 0.36816 -3.79957 -0.0696042 0.836339 0.365673 Si
3 1 4.02955 1.39207 4.09317 4.94659 -0.329679 -2.88784 0.501759 -1.20791 -0.365708 Si
47 1 6.75713 1.42483 6.82727 3.36104 -3.59515 -0.673685 0.310376 -0.0719366 -0.326363 Si
35 1 9.4659 1.33843 4.10411 0.211565 0.395669 3.17239 0.381128 -0.00283091 -0.415256 Si
46 1 8.18743 2.72081 5.45245 -1.06379 4.50537 2.76648 0.119041 0.0929564 1.23029 Si
5 1 1.39865 4.02757 4.07941 1.52277 3.95959 4.07926 0.169632 0.492733 -0.274766 Si
31 1 1.37353 6.77612 6.75829 -0.848603 0.109743 4.82863 0.0526945 -0.1073 0.104186 Si
9 1 4.13292 4.12213 6.83672 -0.387609 2.08236 1.75128 0.0756322 -0.199154 -1.04996 Si
19 1 4.14442 6.87768 4.16258 -0.833844 -2.09865 -0.932226 0.0994959 -0.436552 -1.36 Si
37 1 6.7595 3.966 4.13492 2.29795 5.55692 1.02013 0.421816 1.12474 -0.810598 Si
60 1 5.52149 5.50379 5.43819 -4.52445 -2.73538 1.67157 -0.84507 -1.06514 0.350617 Si
63 1 6.76051 6.8414 6.8265 0.541848 3.53243 0.406802 0.739374 0.647657 -0.026194 Si
28 1 0.0456013 5.33138 5.43432 -0.869286 0.850306 1.68223 0.124648 1.03674 0.0870804 Si
41 1 9.61613 4.08102 6.8932 -3.14346 2.58914 -3.75617 -0.835232 -0.529387 -0.51169 Si
51 1 9.63901 6.80003 4.0778 -2.00714 -2.02363 0.797706 -0.971074 -0.10963 0.295932 Si
21 1 1.38033 9.53341 4.02848 1.14861 -0.86524 -1.23307 -0.373462 -0.504045 0.514968 Si
30 1 2.7323 8.17926 5.4547 2.0205 -1.49453 -1.16951 -0.303773 0.377984 -0.143128 Si
44 1 5.45035 0.023995 5.44693 0.969042 -4.11655 -4.4532 -0.301678 0.233704 -0.0248054 Si
25 1 4.05942 9.57163 6.80447 -3.84504 1.37718 2.05755 0.0841897 0.0377017 -0.379486 Si
53 1 6.87457 9.55013 4.14114 -4.33454 -0.826154 2.36783 -0.266588 -0.192835 -0.794581 Si
57 1 9.52603 9.51874 6.82939 0.87128 -3.87992 -2.88709 -0.419409 0.592312 0.141564 Si
62 1 8.20475 8.14107 5.47013 -1.02331 1.96524 -0.731493 0.10737 -0.188526 -0.120648 Si
6 1 2.67834 2.71811 0.0916754 1.5515 -1.53555 1.19414 -0.378115 -0.455981 -0.880037 Si
16 1 2.66901 0.0183817 8.10539 0.136858 -1.32137 6.43273 0.501637 0.0564087 -0.262974 Si
36 1 5.33384 0.0675675 -0.0099061 2.9496 0.851118 2.80827 0.813854 -1.21505 -0.966783 Si
11 1 3.98016 1.35779 9.47515 -0.237476 -5.61742 -1.40762 0.322254 1.04456 0.539607 Si
42 1 5.45303 2.77951 8.20846 3.41511 3.20246 0.814358 -0.425828 -0.513487 -0.0144764 Si
38 1 8.10457 2.74936 0.0273692 0.353395 -0.334346 -1.4259 1.13873 0.323592 0.205806 Si
10 1 0.0455576 2.68126 8.29154 0.171116 2.03434 -3.96478 0.191077 0.223773 -0.767974 Si
43 1 9.53906 1.37861 9.65421 -3.06757 -0.273999 -0.202724 -0.478647 -0.165206 -0.942096 Si
13 1 1.40124 4.14923 9.57966 -0.294551 -0.925118 -2.0459 -0.326334 -0.588783 0.252972 Si
32 1 2.74555 5.42582 8.12614 4.00207 3.1902 2.83948 -0.211813 0.837957 0.605434 Si
52 1 5.44095 5.32564 -0.04937 0.685143 0.595742 0.19978 -0.397648 1.13922 0.100769 Si
27 1 4.08293 6.84581 9.49626 -4.64715 0.837059 -5.7693 0.333873 -0.988149 0.311189 Si
45 1 6.88741 4.10665 9.48124 1.40749 -2.59794 -1.37648 -0.174013 0.27143 -0.155132 Si
20 1 -0.0319568 5.44206 0.08855 0.558735 -5.55091 -0.352955 0.19201 0.47371 -1.42752 Si
59 1 9.55793 6.83144 9.46936 -2.33843 6.26761 -1.51196 0.295123 0.284006 0.931662 Si
64 1 8.21829 5.55548 8.11716 -2.40943 2.15905 -2.62399 -0.306419 -1.23545 0.153386 Si
22 1 2.73929 8.11368 0.0408765 1.20197 4.02828 2.32546 -0.201159 0.225193 -0.250961 Si
29 1 1.48182 9.5012 9.45744 0.344094 1.36018 -4.65632 -1.08267 -0.127465 1.05828 Si
58 1 5.40862 8.25144 8.15973 3.96522 -1.65936 -6.21828 0.347075 -0.284326 -0.0371621 Si
61 1 6.83693 9.60221 9.45563 0.673209 -3.72973 0.825201 -1.95957 0.177499 0.874172 Si
48 1 8.12193 0.0992413 8.18077 -3.00424 -2.35413 -2.05314 1.4875 -0.153645 -0.352113 Si
26 1 0.064752 8.19315 8.11925 4.16849 -4.03294 -1.97454 -0.109437 -0.444013 0.235198 Si
ITEM: TIMESTEP
18600
ITEM: NUMBER OF ATOMS
64
ITEM: BOX BOUNDS pp pp pp
0.0000000000000000e+00 1.0887404739999999e+01
0.0000000000000000e+00 1.0887404739999999e+01
0.0000000000000000e+00 1.0887404739999999e+01
ITEM: ATOMS id type xu yu zu vx vy vz fx fy fz element
4 1 -0.0214785 0.0428139 0.0472959 6.46521 2.00549 0.690135 0.146681 0.656787 -0.282283 Si
7 1 1.40879 1.41706 1.37396 -1.42514 1.18905 -1.43009 -0.537168 -0.0944289 -0.768471 Si
34 1 5.44535 2.75704 2.64117 2.86052 -2.30655 -1.22286 -0.434709 -0.549083 0.874383 Si
39 1 6.92572 1.45625 1.38875 1.83108 -2.0345 -3.55265 -0.598618 -1.36804 -0.218902 Si
2 1 0.016579 2.77225 2.64052 -0.992382 1.57456 -1.50386 0.0436585 -0.455665 0.531339 Si
40 1 8.22326 0.0340143 2.82038 -1.30757 0.758196 1.29102 0.125147 0.112324 -0.843889 Si
23 1 1.37993 6.77254 1.3416 -0.506285 -3.26774 2.53465 -0.391505 0.257153 -0.845703 Si
24 1 2.63722 5.38899 2.6651 -0.72641 1.20563 -0.526272 0.851888 0.213257 0.182921 Si
1 1 4.06698 4.1019 1.33242 -1.22331 0.377718 -4.84045 -0.0561946 -0.188215 -0.469333 Si
55 1 6.8885 6.91098 1.38038 0.377756 -0.685625 3.11375 -1.59308 -0.545271 -0.10506 Si
33 1 9.51715 4.03487 1.3204 -3.24013 3.68643 1.79495 0.857756 1.44078 -0.0197903 Si
56 1 8.1681 5.42172 2.62192 2.97607 -1.30455 0.188193 0.0200044 0.0247168 1.10659 Si
8 1 2.7168 0.112987 2.74843 2.70126 1.25823 -1.39499 -0.212642 -1.31438 -0.123154 Si
18 1 0.119455 8.14392 2.70391 -3.4656 4.65725 2.76842 -1.01659 0.508404 0.302724 Si
17 1 4.01607 9.5648 1.36503 -1.64979 -1.23603 0.257337 -0.182709 0.115905 -0.414335 Si
50 1 5.28744 8.16873 2.72297 1.99388 -1.40359 0.220923 1.50242 -0.0079468 -0.284889 Si
49 1 9.60132 9.5574 1.41765 2.1237 -0.0807075 -3.97107 -0.0466011 0.078282 0.623938 Si
54 1 8.28576 8.21422 0.0704571 -1.12873 2.73683 -1.07527 -0.521498 -0.230751 -1.00564 Si
12 1 0.0766603 0.0229273 5.45379 0.409511 -2.29572 2.0878 -0.6977 0.116678 0.476475 Si
14 1 2.71621 2.78757 5.42724 3.46826 -1.91452 -3.25857 -0.625885 -0.668491 0.0176762 Si
15 1 1.42357 1.34382 6.86368 -2.64099 -1.63428 0.293888 -0.358341 0.781305 -0.902863 Si
3 1 4.0479 1.39438 4.08884 -4.77094 2.68959 1.49876 0.943227 0.738424 -0.0268632 Si
47 1 6.8416 1.34305 6.78398 -2.81594 3.21828 -2.97967 -0.132242 -0.463682 0.204923 Si
35 1 9.65343 1.42298 4.08205 -3.0123 -1.88878 -0.38136 -0.44833 -0.438635 0.209659 Si
46 1 8.21689 2.68568 5.44133 -0.0409529 0.456596 -5.98565 -0.827685 0.561768 -0.800822 Si
5 1 1.30321 4.09833 4.02401 -1.68782 -1.63122 -0.926391 0.200901 0.025612 0.824406 Si
31 1 1.30993 6.81079 6.85595 -3.04477 -2.23168 -1.74566 -0.378334 0.341459 -0.0315355 Si
9 1 4.08138 4.05594 6.7981 -1.30973 0.738431 3.08545 0.262243 0.144837 0.188535 Si
19 1 3.97564 6.75735 4.02721 1.31026 4.2764 4.29644 -0.296833 0.323934 1.07774 Si
37 1 6.7723 4.06368 4.03832 -1.2908 -5.01468 -1.3427 0.605242 0.427589 0.541083 Si
60 1 5.39544 5.46106 5.44563 4.21368 2.38659 -4.78669 0.192439 -0.383127 -0.587607 Si
63 1 6.798 6.76197 6.81815 -3.9999 -4.20965 -1.09327 -0.503517 0.217792 0.382423 Si
28 1 -0.0170923 5.49418 5.41108 -2.4039 -2.45658 1.95469 -0.310338 -0.362431 0.156845 Si
41 1 9.45006 4.12513 6.76324 3.55497 -1.87123 5.21861 0.856724 -0.145383 0.387746 Si
51 1 9.53395 6.81553 3.99988 2.98215 1.54232 0.603308 -0.141643 -0.165901 0.0744372 Si
21 1 1.35224 9.57931 4.09988 3.6989 3.80686 -0.0488917 0.809412 -0.254551 -0.453678 Si
30 1 2.63498 8.18063 5.49417 0.150245 -3.89827 6.40051 0.998741 -0.259019 -0.387077 Si
44 1 5.38145 0.012656 5.4707 -1.2929 0.989515 0.551164 0.755263 -0.364036 -0.433461 Si
25 1 4.11617 9.47866 6.86731 3.33863 -1.33096 1.3427 -0.476565 -0.150017 -0.386458 Si
53 1 6.7743 9.52077 4.03915 2.50991 0.746702 1.70525 -0.642084 0.0138319 0.766549 Si
57 1 9.5553 9.48436 6.76136 -0.355499 -2.39659 0.283103 0.063267 -0.186063 -0.358429 Si
62 1 8.11759 8.10222 5.40696 0.0353259 -1.8262 -0.866089 0.513673 0.557275 -0.0380579 Si
6 1 2.75024 2.69262 -0.0663947 1.66367 -0.0657895 0.296367 0.368611 0.206115 0.81146 Si
16 1 2.74527 -0.0259565 8.16623 -1.7201 0.520783 -2.15267 0.229307 -0.133841 0.936774 Si
36 1 5.54178 -0.0548515 0.0373516 -3.49985 2.71742 1.28574 -0.393398 1.09285 0.858754 Si
11 1 4.14075 1.2932 9.57737 -0.127407 -0.315392 0.659431 -0.12011 -0.260674 -0.549538 Si
42 1 5.43347 2.64699 8.1639 -3.06789 -1.29393 -0.397167 0.505034 0.640653 0.302485 Si
38 1 8.23456 2.77641 -0.00465188 -4.00547 -1.42889 4.53622 -0.802514 -1.09623 -0.473134 Si
10 1 -0.0530607 2.71249 8.12018 0.191884 -2.45691 3.90309 0.297451 0.253148 0.512438 Si
43 1 9.44328 1.33771 9.49834 4.72217 2.96086 4.8156 1.2749 0.175181 0.183135 Si
13 1 1.40864 4.05846 9.52104 4.59966 0.26721 -4.16288 -1.20894 -0.197104 -0.64805 Si
32 1 2.68203 5.39982 8.10866 -1.97371 -2.12741 -5.77085 0.747757 0.461053 0.799833 Si
52 1 5.4729 5.46611 0.0175785 -0.159423 -1.59951 -2.99164 0.305876 0.23643 0.665025 Si
27 1 4.05819 6.75223 9.57888 -1.29673 1.66814 0.464061 -0.733683 0.293947 -0.614768 Si
45 1 6.80148 4.04223 9.60045 0.444271 1.18673 0.619102 -0.867398 -0.273083 -0.698752 Si
20 1 0.00107875 5.42877 -0.0351171 -2.38976 1.61142 1.71634 0.658797 -0.851028 0.815839 Si
59 1 9.53911 6.71293 9.56922 0.997492 -1.29033 -5.94373 -0.914973 1.14768 -0.626206 Si
64 1 8.07861 5.36485 8.21775 5.1717 1.84424 -1.29057 0.845516 0.798519 -0.312302 Si
22 1 2.61974 8.21543 -0.0586194 0.315477 -3.04623 -1.33905 1.24822 -0.653348 0.9267 Si
29 1 1.30082 9.58878 9.56264 0.737009 -3.06347 -1.09674 0.205 0.39454 -0.493589 Si
58 1 5.44304 8.11443 8.26682 -2.98112 2.52722 7.23583 0.240851 -0.107985 -0.677636 Si
61 1 6.81932 9.51083 9.55794 2.71498 2.3564 -0.720096 1.15978 -0.503486 -0.272639 Si
48 1 8.2262 -0.0758287 8.11222 -2.32998 2.8217 1.71859 -1.26308 0.288763 0.284634 Si
26 1 -0.0341705 8.21421 8.27117 -0.6764 2.82472 -0.633573 -0.100887 -0.975101 -0.872551 Si
ITEM: TIMESTEP
18700
ITEM: NUMBER OF ATOMS
64
ITEM: BOX BOUNDS pp pp pp
0.0000000000000000e+00 1.0887404739999999e+01
0.0000000000000000e+00 1.0887404739999999e+01
0.0000000000000000e+00 1.0887404739999999e+01
ITEM: ATOMS id type xu yu zu vx vy vz fx fy fz element
4 1 -0.0178291 -0.0694108 -0.00117997 -5.03364 -0.44743 3.93577 0.0595633 0.0176851 0.441689 Si
7 1 1.3725 1.24394 1.37575 -0.796173 -3.48766 0.77433 -0.275266 0.678117 -0.107384 Si
34 1 5.40548 2.72956 2.78407 1.87837 2.4622 -2.70854 1.19642 0.407434 -0.501698 Si
39 1 6.72779 1.36627 1.2644 -0.86247 4.81833 3.6287 0.159851 0.600926 0.586295 Si
2 1 0.00653044 2.66974 2.69044 1.82458 -3.51542 -3.43633 0.598697 0.0366495 0.290425 Si
40 1 8.11526 0.00141957 2.58973 -1.21376 1.55816 -0.807161 -0.106244 -0.12208 1.23321 Si
23 1 1.38526 6.84633 1.41818 1.25365 1.60592 -1.47995 0.168732 -0.919872 0.028207 Si
24 1 2.75274 5.45943 2.78303 -0.0505609 -2.37935 1.50496 -0.612539 -0.012011 -0.31676 Si
1 1 4.0849 4.15713 1.43013 3.93878 -2.39099 2.1917 0.00967047 -0.808147 -0.411952 Si
55 1 6.80783 6.77752 1.26529 9.07992 -2.27522 -0.741117 0.817633 0.517306 1.16172 Si
33 1 9.55484 4.04553 1.38571 0.158628 -3.13318 2.40168 -0.715993 0.304276 0.384511 Si
56 1 8.18983 5.45535 2.7444 -2.89323 -2.26074 3.75107 -0.188858 0.0551841 -0.750943 Si
8 1 2.68368 -0.0900418 2.76524 -1.76147 3.57796 -0.853879 0.615895 0.118973 -0.1316 Si
18 1 -0.0446385 8.04394 2.77892 2.90681 -4.34782 -2.61113 -0.178488 0.98924 -0.1253 Si
17 1 4.0901 9.4947 1.38042 1.07387 2.95154 -2.44865 0.26736 0.273538 -0.300771 Si
50 1 5.49698 8.12867 2.7199 -6.36098 1.29764 -0.924895 -0.0891508 -0.0161231 -0.330807 Si
49 1 9.52164 9.45152 1.41328 -3.70758 2.30973 -1.06786 -0.341662 -0.301149 -1.30739 Si
54 1 8.12172 8.16352 -0.1327 2.14296 -2.00879 -0.641829 0.000958578 0.633522 1.83065 Si
12 1 -0.0926115 0.0374721 5.41682 2.45683 1.26195 -2.61592 0.968342 -0.460389 -0.0374347 Si
14 1 2.68217 2.62577 5.40648 -0.962987 2.8141 2.03716 1.33357 0.371059 -0.202485 Si
15 1 1.34192 1.35328 6.74372 -0.190486 4.46136 4.05065 -0.218676 -0.586315 1.15572 Si
3 1 4.15248 1.26411 4.08289 0.989433 -3.15535 -0.962895 -1.44357 0.6023 -0.118068 Si
47 1 6.76042 1.35449 6.86506 -0.712388 1.53863 0.167026 0.432844 0.341344 -0.140539 Si
35 1 9.50122 1.34895 4.00982 1.69526 2.20571 -3.22105 -0.857524 -0.00487406 -0.0096695 Si
46 1 8.13093 2.66733 5.4463 4.07463 2.10419 4.65564 0.54812 0.157454 0.0717635 Si
5 1 1.4052 4.02348 4.07951 -2.68462 -1.68584 0.999545 -0.750917 0.389822 -0.312433 Si
31 1 1.43784 6.85275 6.7923 1.94436 4.3393 0.675316 0.259031 -0.209616 -0.760468 Si
9 1 4.04723 4.07298 6.73196 2.43 -1.0398 -2.36291 -0.578832 0.0118268 1.09616 Si
19 1 4.15698 6.7504 4.07044 -1.13519 -2.27115 -2.13869 0.140497 0.47145 0.233663 Si
37 1 6.88307 4.14868 4.1432 -1.80492 1.03095 -2.42891 -1.2141 -1.14909 -0.526067 Si
60 1 5.44859 5.40794 5.49776 -0.977792 -0.958129 1.54524 0.916714 0.998013 -0.191261 Si
63 1 6.8727 6.8339 6.85914 3.08321 3.76192 0.756662 -0.131307 -0.684902 -1.23165 Si
28 1 0.0558011 5.46322 5.43173 2.68265 4.50718 -1.13387 -0.0854338 -0.325436 0.157552 Si
41 1 9.52339 4.08341 6.75005 0.879117 1.64865 -4.39642 0.1149 0.014758 0.276318 Si
51 1 9.45884 6.79847 4.16472 -0.833837 -5.83509 -2.85913 0.560766 0.0470917 0.15836 Si
21 1 1.26876 9.46976 4.07449 -3.18261 -4.47047 1.71619 0.0567549 0.393788 0.325336 Si
30 1 2.79735 8.19597 5.31265 -5.86626 3.34127 -1.72691 -0.697063 -0.47067 0.965047 Si
44 1 5.50607 0.0189839 5.43377 -2.30177 -0.137563 -0.303823 -0.318215 -0.449215 0.45902 Si
25 1 4.08149 9.55469 6.71715 -0.25125 -0.656133 -3.42749 0.214271 0.0831025 0.304082 Si
53 1 6.79834 9.52907 4.09595 1.89137 3.55086 -3.76425 0.976958 0.0469366 -0.387658 Si
57 1 9.56908 9.63332 6.91202 3.43327 -2.06212 2.59753 -0.358646 -0.403976 -0.274705 Si
62 1 8.23226 8.2785 5.55259 2.13469 -1.61974 -1.97995 -0.638366 -0.519568 -0.547815 Si
6 1 2.67918 2.75783 0.0928725 -7.17157 -3.03424 -1.65187 -0.0909842 0.322846 -0.387965 Si
16 1 2.74344 -0.0199509 8.18706 1.08895 1.92375 -3.67192 -0.439467 0.624871 -0.838584 Si
36 1 5.38043 0.0340024 -0.096987 2.79147 -0.187812 -0.667624 -0.530489 -0.373666 0.285565 Si
11 1 4.01291 1.50351 9.48413 -1.15073 0.503261 4.44181 0.263155 -0.768379 0.421691 Si
42 1 5.44156 2.81046 8.15936 -1.04997 -3.18216 2.6427 -0.593425 -0.658286 -0.538855 Si
38 1 8.18809 2.73777 -0.00851058 4.67656 1.7307 -1.35711 -0.419327 -0.112017 0.399713 Si
10 1 0.0146559 2.76461 8.14076 -0.653605 1.44705 -1.29155 -0.222822 -0.40096 0.391883 Si
43 1 9.54152 1.3799 9.59242 -1.37434 -1.77961 -1.70712 0.178148 -0.17499 -0.975627 Si
13 1 1.28334 4.15978 9.5993 -1.59894 -1.19613 4.88616 0.989508 0.0539984 -0.317902 Si
32 1 2.78183 5.5441 8.21828 -2.5782 2.4917 2.97565 -1.03356 -1.79153 -0.829052 Si
52 1 5.4483 5.46057 0.0150192 -2.00458 2.25339 -0.733258 -0.129578 -0.863094 -0.987372 Si
27 1 4.15171 6.82428 9.47654 3.03343 -2.57312 1.85494 0.410176 0.623473 0.720369 Si
45 1 6.82175 4.04527 9.50647 -0.496917 1.16043 1.91768 -0.0720267 1.08224 0.721502 Si
20 1 -0.0503372 5.49116 0.133791 0.467161 -0.311676 -5.02397 0.0850428 0.636294 -1.29138 Si
59 1 9.48699 6.87245 9.51264 5.52783 -2.13185 4.6594 1.10914 -1.57303 -0.159207 Si
64 1 8.17878 5.42105 8.17858 -3.07852 -2.77063 3.09544 0.315126 0.109521 -0.0202857 Si
22 1 2.76586 8.11815 0.0129956 -1.24234 1.80125 -4.42156 -0.16895 0.490248 -0.356773 Si
29 1 1.37988 9.50813 9.53555 -2.21242 1.45576 4.80164 -0.0250771 -0.687534 -0.162133 Si
58 1 5.46348 8.17091 8.02757 -2.45297 -2.53307 -0.739891 -0.801375 0.255207 1.0018 Si
61 1 6.72626 9.48606 9.46945 -8.81831 1.46376 2.13701 -0.0531299 0.64559 0.0486016 Si
48 1 8.1115 0.0148792 8.25096 6.98821 -2.3227 -1.02573 0.503329 0.408695 -0.130069 Si
26 1 0.0221222 8.12035 8.11361 2.94139 -1.21764 2.53358 0.109867 1.03214 0.869198 Si
ITEM: TIMESTEP
18800
ITEM: NUMBER OF ATOMS
64
ITEM: BOX BOUNDS pp pp pp
0.0000000000000000e+00 1.0887404739999999e+01
0.0000000000000000e+00 1.0887404739999999e+01
0.0000000000000000e+00 1.0887404739999999e+01
ITEM: ATOMS id type xu yu zu vx vy vz fx fy fz element
4 1 -0.0117561 0.113115 -0.0460797 1.13207 -0.911287 -2.53559 0.0340483 -0.998223 -0.113341 Si
7 1 1.27601 1.48987 1.38167 3.42896 -0.291872 -0.581237 0.689502 -0.983721 0.083297 Si
34 1 5.44671 2.70558 2.80185 -0.227895 -0.38701 4.20192 -0.371994 0.118835 -1.14256 Si
39 1 6.82726 1.29776 1.42991 -1.71361 -5.62507 -0.162767 -0.132793 0.0467608 0.201705 Si
2 1 0.0183372 2.78967 2.85475 0.301117 3.38138 -0.555349 -0.896863 0.168462 -0.6321 Si
40 1 8.24733 -0.0303976 2.83403 1.54703 0.0260042 -5.68191 -0.487419 0.0929978 -0.584215 Si
23 1 1.33339 6.77058 1.30391 -1.90689 0.631193 -2.5391 -0.247629 1.0979 0.400959 Si
24 1 2.70529 5.51548 2.65759 -2.09848 -1.43892 -0.64021 0.47814 -0.65837 0.353662 Si
1 1 4.0407 4.03774 1.32333 0.595548 0.903222 0.778148 0.901447 0.391428 0.861126 Si
55 1 6.67723 6.72439 1.38647 -6.09712 -0.184816 -4.05399 0.779725 0.435643 -0.535995 Si
33 1 9.51657 4.10692 1.36219 2.96199 2.53143 -0.909902 0.269767 -0.987266 -0.457487 Si
56 1 8.17076 5.45904 2.64915 -0.625362 0.902832 -1.95368 -0.207445 0.0280517 0.948209 Si
8 1 2.69951 0.0887096 2.70463 -2.76283 -1.62764 0.989456 0.336338 0.312279 -0.215117 Si
18 1 0.0411121 8.28921 2.68614 -2.03661 0.525939 3.46937 0.53727 -1.24045 -0.128209 Si
17 1 4.06772 9.56212 1.35037 -4.01802 0.455907 0.44146 0.401671 -0.430498 0.926728 Si
50 1 5.45561 8.14161 2.78588 2.4528 -0.404188 -0.397067 -1.21716 0.631629 -0.00980111 Si
49 1 9.56527 9.55365 1.30092 4.72091 1.6244 9.05369 -0.183601 0.880813 0.859781 Si
54 1 8.14182 8.15704 0.129519 3.65974 0.787489 -1.03039 0.0238282 -0.785615 -1.10498 Si
12 1 0.0762845 -0.0946053 5.44146 -2.62143 0.973965 -0.1455 -0.672126 0.750263 -0.108491 Si
14 1 2.76548 2.75885 5.48099 -4.96787 -2.93738 -2.8324 -0.910401 0.682099 0.26548 Si
15 1 1.37574 1.32487 6.75214 1.06485 -3.66879 -2.53649 0.116329 0.368845 0.549658 Si
3 1 4.0316 1.42725 4.1561 6.01439 2.9676 -2.49761 0.679907 -1.06785 -0.661196 Si
47 1 6.78674 1.2959 6.76888 1.38516 -3.98817 1.18315 -0.226543 0.698161 -0.144609 Si
35 1 9.53565 1.37432 4.22057 1.83719 0.568454 -1.10781 0.473598 -0.00511029 -0.492159 Si
46 1 8.07672 2.73156 5.48377 -7.81453 -0.304162 -7.04001 0.954356 0.3942 0.164329 Si
5 1 1.4199 4.18801 4.0879 0.319818 0.44975 0.701859 0.0480789 -0.748515 0.478734 Si
31 1 1.32851 6.78825 6.77887 0.376097 -0.51149 -1.03907 0.340053 -0.504927 0.852811 Si
9 1 4.15266 4.05476 6.87368 -1.34025 1.76634 -1.58689 0.284509 0.474883 -1.19175 Si
19 1 3.98446 6.82567 4.16103 -2.94464 1.50219 7.34846 1.09813 -0.229573 -1.52266 Si
37 1 6.79871 4.10851 4.06348 5.69935 2.7839 -0.326739 0.298931 0.329981 0.0996763 Si
60 1 5.43035 5.49186 5.3952 1.39312 -4.09307 -0.393025 -0.694173 -1.09472 0.586127 Si
63 1 6.6777 6.83587 6.77293 -1.13512 -1.12397 3.21224 1.2497 0.320642 0.576019 Si
28 1 -0.0463134 5.4141 5.43032 -0.923913 0.653144 -0.118841 0.252252 0.414699 0.244634 Si
41 1 9.49873 4.09974 6.89275 -1.09465 0.883541 0.675053 -0.289078 -0.312577 -0.853728 Si
51 1 9.59602 6.82112 3.99946 -4.0975 2.82316 2.58546 -0.672879 0.000544556 -0.0139762 Si
21 1 1.47146 9.56239 4.06735 5.96388 0.715798 0.677574 -0.394924 -0.583287 0.0541545 Si
30 1 2.7426 8.15464 5.49567 5.42454 1.95638 0.791652 -0.690454 0.742986 0.228116 Si
44 1 5.38275 -0.0118426 5.48685 -0.267471 -1.3142 1.70236 -0.148225 0.389785 -0.373168 Si
25 1 4.11502 9.50651 6.84623 -3.20854 -6.00883 1.73597 -0.717101 0.157854 0.12904 Si
53 1 6.76835 9.55313 4.1823 -0.956231 -1.65482 2.39606 0.281024 -0.31727 -1.22914 Si
57 1 9.47992 9.47365 6.68889 -1.61228 2.50098 0.482278 -0.0482945 0.113687 0.560788 Si
62 1 8.12505 8.09525 5.35931 -1.34395 1.94108 2.3857 0.120762 -0.0488269 0.555897 Si
6 1 2.79493 2.62874 0.0146415 4.89191 2.09594 1.23005 -0.341266 0.0293924 -1.34671 Si
16 1 2.73971 0.0141538 8.15684 4.24573 -6.93006 4.57496 -0.0777033 -0.567941 0.272725 Si
36 1 5.53235 -0.0996775 0.00311313 2.25926 1.11807 1.53813 0.399311 0.347953 -0.0944818 Si
11 1 4.27514 1.27914 9.47478 3.08323 1.30541 -0.710509 -1.1674 0.67573 0.464949 Si
42 1 5.58016 2.73432 8.12415 1.63074 5.07696 -0.25175 -0.637202 -0.503046 0.548278 Si
38 1 8.07924 2.69385 -0.00985945 -2.50385 -3.27717 0.778635 1.11029 0.190405 0.00312468 Si
10 1 -0.0243387 2.63813 8.15818 0.705102 3.13927 -1.3864 0.498596 0.612111 -0.688689 Si
43 1 9.47582 1.32662 9.42264 2.48268 0.504163 1.33771 -0.75832 0.320523 0.946933 Si
13 1 1.39651 3.99239 9.46801 -3.47557 0.833318 -1.47571 0.104747 0.148068 0.851324 Si
32 1 2.81377 5.39606 8.19365 2.30352 3.76296 -0.405119 -0.902593 1.27187 -0.0230931 Si
52 1 5.41035 5.36816 -0.0929285 1.81187 1.81584 3.35229 -0.723426 0.989071 1.36464 Si
27 1 4.12618 6.91214 9.56832 -0.834122 1.66189 -2.66962 -0.629815 -1.64972 -0.284085 Si
45 1 6.79542 4.14268 9.51576 0.205351 -3.53609 -1.53308 1.07402 -0.673499 -0.592952 Si
20 1 0.00547462 5.42775 -0.056791 -2.28079 -1.98884 3.46911 -0.0748971 -0.535543 -0.307976 Si
59 1 9.49884 6.83191 9.52801 -7.15028 2.95158 -2.24664 -0.157248 0.157549 0.877056 Si
64 1 8.14991 5.55351 8.16831 -0.0711051 -0.365479 -1.02526 -0.74073 -0.626377 -0.264474 Si
22 1 2.74072 8.15419 0.0433448 1.48649 0.757266 1.12076 -0.988427 0.695015 -0.703619 Si
29 1 1.2772 9.47577 9.47202 0.503718 2.85082 -2.37821 0.989796 0.778903 0.725512 Si
58 1 5.44006 8.22362 8.24805 0.250067 0.679609 -5.6434 0.522995 -0.330597 -1.00618 Si
61 1 6.93281 9.47306 9.48413 4.42699 -4.34628 -1.59675 -0.717698 0.332629 0.927735 Si
48 1 8.11665 -0.0185484 8.05778 -5.94559 -0.430835 1.79195 1.18525 -0.661761 0.235584 Si
26 1 -0.102544 8.14753 8.12283 -2.48871 -5.45875 -2.01746 0.591453 -0.0473593 -0.371838 Si
ITEM: TIMESTEP
18900
ITEM: NUMBER OF ATOMS
64
ITEM: BOX BOUNDS pp pp pp
0.0000000000000000e+00 1.0887404739999999e+01
0.0000000000000000e+00 1.0887404739999999e+01
0.0000000000000000e+00 1.0887404739999999e+01
ITEM: ATOMS id type xu yu zu vx vy vz fx fy fz element
4 1 0.065324 -0.0326215 0.120319 -0.257391 0.70664 -1.96356 -0.102275 0.289066 -1.49571 Si
7 1 1.44257 1.31599 1.37672 -6.92618 3.64659 3.84959 -0.11694 0.737893 0.139561 Si
34 1 5.41067 2.76193 2.60428 0.829661 -0.778039 -0.555811 -0.362926 -1.06264 1.28092 Si
39 1 6.82549 1.42338 1.32709 0.542894 5.55721 -0.2786 0.125201 -0.343858 -0.725626 Si
2 1 0.000630876 2.68166 2.63016 -1.74825 -1.94101 6.70812 -0.208255 -0.363083 0.107005 Si
40 1 8.1524 -0.0496096 2.6605 0.84244 3.12543 2.14969 0.278721 0.629103 -0.519934 Si
23 1 1.35068 6.80671 1.50105 -1.38324 0.229578 1.61644 0.497026 -0.628609 -0.943456 Si
24 1 2.72283 5.36479 2.76688 2.58588 2.26734 0.314082 -0.288127 0.820194 -0.289006 Si
1 1 4.1236 4.20061 1.35023 -1.19351 -4.11418 -0.786405 -0.933985 -1.03944 -0.512405 Si
55 1 6.97037 6.83309 1.32653 -0.130471 -2.16666 2.05993 -1.80389 -0.121295 0.506604 Si
33 1 9.54334 4.13657 1.35729 -2.22877 -1.82842 0.653013 0.156113 0.266146 0.0666381 Si
56 1 8.16273 5.44086 2.80844 2.44566 -2.80862 -2.9749 0.0944353 -0.26618 -0.771306 Si
8 1 2.74434 -0.0569675 2.75929 2.0873 -1.89197 1.97902 -0.875537 -0.590998 -0.254536 Si
18 1 -0.00443438 8.16556 2.72712 0.142262 4.20781 -0.468572 -0.963567 0.539746 0.299536 Si
17 1 4.06542 9.49328 1.37361 2.97742 0.545103 0.790534 -0.162607 -0.0122787 -0.965216 Si
50 1 5.44285 8.17141 2.67788 4.48461 -2.72988 0.701853 1.27486 -0.189933 0.125664 Si
49 1 9.51005 9.49726 1.26438 -1.71038 -4.54052 -10.267 0.103306 -0.413005 1.24579 Si
54 1 8.16888 8.17939 -0.11507 -5.76806 1.51768 2.13169 0.11055 0.317622 0.0274353 Si
12 1 -0.004294 0.0324542 5.49645 0.883282 -5.89607 -2.55149 -0.40028 0.103064 -0.352897 Si
14 1 2.69682 2.76104 5.35283 6.01932 0.323298 -0.980662 0.186516 -1.25507 0.55132 Si
15 1 1.3215 1.47405 6.80599 4.23069 -2.67747 -1.38814 0.750112 -0.987489 -0.672284 Si
3 1 4.03147 1.28489 4.05093 -5.81667 -0.324848 0.792108 1.35849 1.51589 0.302207 Si
47 1 6.84256 1.44128 6.85095 -0.0379735 2.2393 1.498 0.555385 -1.15146 -0.364845 Si
35 1 9.54498 1.29353 3.98889 -5.34651 -1.08085 1.42861 0.0596416 0.296764 0.585659 Si
46 1 8.25437 2.68228 5.4367 2.43232 -1.41262 3.08116 -1.25976 -0.163387 -1.07412 Si
5 1 1.32368 3.97699 4.00462 0.932629 2.24995 -1.79309 0.00361652 0.851021 0.108533 Si
31 1 1.36066 6.85006 6.7257 3.58713 1.5651 -2.72362 -1.03291 -0.270424 0.772914 Si
9 1 4.07201 4.00912 6.75759 -1.40202 -0.964221 2.74361 -0.381089 0.668669 0.561021 Si
19 1 4.07305 6.80914 4.0026 0.209189 -0.129072 2.4406 -0.108575 0.0936426 1.58423 Si
37 1 6.73469 4.01842 4.05634 -4.87527 -2.96665 1.24617 1.11158 0.00899386 0.500399 Si
60 1 5.4292 5.38886 5.42863 4.37518 5.91317 1.16958 0.00435321 0.814796 0.0433795 Si
63 1 6.83784 6.73867 6.868 -3.01029 0.540532 -1.09385 -0.472184 0.154635 -0.26316 Si
28 1 0.0242582 5.34942 5.38937 2.39634 -3.79693 -0.00343285 -0.518806 0.667036 0.437109 Si
41 1 9.54905 3.9604 6.81052 -3.6911 1.09886 1.59423 0.477196 1.27669 0.427503 Si
51 1 9.50876 6.82678 4.10392 5.5455 -1.1166 -0.525918 0.463607 -0.207533 0.647013 Si
21 1 1.30269 9.51303 4.13202 -1.45032 -0.145337 -1.55469 0.293484 0.612348 -0.352955 Si
30 1 2.69368 8.23653 5.46693 -1.03751 -0.169622 1.27589 1.07074 -0.956417 -1.09389 Si
44 1 5.47177 0.0584802 5.51736 -3.22104 -2.53389 2.08334 0.428576 -0.29226 -1.20693 Si
25 1 4.14231 9.51374 6.77419 0.449695 5.76289 0.268079 -0.341576 0.0954148 0.597441 Si
53 1 6.85453 9.56131 4.06396 2.13122 1.29526 2.45816 -0.921484 -0.708367 1.01995 Si
57 1 9.46364 9.64148 6.89153 -1.27776 -0.691274 -2.26867 1.18488 -0.875079 -0.40358 Si
62 1 8.19248 8.18189 5.55574 0.117897 -3.00397 3.121 -0.457872 0.121309 -0.768903 Si
6 1 2.65065 2.84204 9.35478e-05 0.12436 -1.02568 4.16923 0.831584 -0.420314 0.951172 Si
16 1 2.68894 -0.0113052 8.04759 -0.453359 1.95435 -2.67483 -0.0296085 0.158432 1.25083 Si
36 1 5.35888 0.0694151 -0.0272748 -3.39234 -2.11214 -2.79094 -0.159778 0.207892 0.488234 Si
11 1 3.90638 1.4363 9.52032 -0.614195 -4.12402 -7.91215 0.783111 -1.0233 -0.261208 Si
42 1 5.3931 2.61243 8.15405 0.912295 0.434878 -2.24934 -0.295571 1.7545 0.483188 Si
38 1 8.24361 2.80852 -0.0610937 -2.52486 2.4718 4.44011 -1.02986 -0.485329 0.421636 Si
10 1 0.021462 2.68574 8.23776 -1.37022 -4.19435 3.38868 -0.311033 0.674822 0.163614 Si
43 1 9.5724 1.33153 9.58304 -4.16698 -1.62872 0.873491 0.713438 0.209739 0.671775 Si
13 1 1.32552 4.13927 9.56557 4.11618 4.26074 0.100832 -0.372683 0.186723 -0.745525 Si
32 1 2.63206 5.4436 8.10911 2.34161 -4.48197 0.968114 1.14985 -0.455942 -0.0215074 Si
52 1 5.47252 5.48737 0.0169656 -1.04937 -7.67954 -5.03043 0.959058 0.0137115 -0.00681126 Si
27 1 4.08863 6.69469 9.53161 2.62664 4.11421 -2.00755 -0.678921 0.97649 -0.544319 Si
45 1 6.73821 4.09211 9.48752 2.9895 6.39209 -0.834992 -0.0642988 -0.905843 0.531044 Si
20 1 0.0421307 5.53867 0.0210358 -1.47935 2.71269 0.387373 -0.112331 -0.936401 1.00352 Si
59 1 9.55445 6.72996 9.55582 1.22085 -1.78402 0.00378274 -0.15163 1.37303 -1.2949 Si
64 1 8.17874 5.34063 8.21835 0.95702 7.70414 -1.28108 0.558052 0.429323 -0.869234 Si
22 1 2.68364 8.03476 0.0121574 1.89348 -1.36745 2.34542 1.2379 0.355099 0.856273 Si
29 1 1.46381 9.51255 9.65132 -0.334932 -4.07884 -2.89593 -0.905785 0.569283 -1.49204 Si
58 1 5.43846 8.14972 8.21426 -0.848663 4.03392 0.0977641 0.0813128 -0.236185 -0.357524 Si
61 1 6.74194 9.63082 9.51698 -0.162657 0.473571 -3.83968 0.439812 -0.64292 -0.0146239 Si
48 1 8.21156 0.0794911 8.24183 -0.54938 2.02037 -0.398744 -1.40828 0.152113 -0.193894 Si
26 1 0.0207779 8.26189 8.20184 2.02856 2.82095 -0.835171 -0.110072 -0.936161 0.0732113 Si
ITEM: TIMESTEP
19000
ITEM: NUMBER OF ATOMS
64
ITEM: BOX BOUNDS pp pp pp
0.0000000000000000e+00 1.0887404739999999e+01
0.0000000000000000e+00 1.0887404739999999e+01
0.0000000000000000e+00 1.0887404739999999e+01
ITEM: ATOMS id type xu yu zu vx vy vz fx fy fz element
4 1 -0.212437 -0.0115859 -0.0392596 2.29519 0.761973 5.82581 1.29668 0.230451 1.05257 Si
7 1 1.31321 1.30212 1.33818 2.38827 -0.674267 -1.43622 -0.585763 0.294396 -0.416482 Si
34 1 5.37931 2.74222 2.77528 -1.68429 -0.210845 -1.47561 1.63968 0.46776 -0.604912 Si
39 1 6.82272 1.37355 1.40554 1.39749 2.73418 -2.67511 0.134845 0.223619 -0.0130807 Si
2 1 0.0485853 2.72667 2.73565 -3.1321 3.06589 -4.86628 0.192802 0.101868 0.113085 Si
40 1 8.23 0.0480609 2.78382 3.01522 -1.84296 3.95448 -1.06276 0.0359045 0.755356 Si
23 1 1.42672 6.72893 1.26144 -1.25611 -2.80062 3.29447 -0.600292 0.732658 0.246652 Si
24 1 2.66973 5.39723 2.66086 -1.65411 -2.39852 -0.611181 0.695444 0.234765 0.892544 Si
1 1 4.04175 4.06076 1.39343 2.6423 6.21292 3.18783 0.324651 0.0758816 -0.195344 Si
55 1 6.74859 6.80326 1.32686 3.15106 2.29998 -2.88834 0.787081 0.326615 1.04757 Si
33 1 9.57785 4.03785 1.35082 2.63312 -4.41298 -3.54535 -1.05348 -0.252053 0.1987 Si
56 1 8.13922 5.44568 2.68524 2.48961 0.199857 0.583848 0.595677 -0.22437 -0.0639703 Si
8 1 2.64241 0.00150708 2.72996 -1.46 3.13994 2.96673 1.46014 0.41511 -0.00232257 Si
18 1 0.056801 8.10658 2.61711 6.31356 -0.983383 -2.02188 0.19823 -0.34142 0.589911 Si
17 1 4.02262 9.53771 1.31431 -1.71664 0.942165 0.209208 0.698168 0.95702 0.760564 Si
50 1 5.36599 8.15456 2.64476 -9.76021 -0.0856206 -0.0745138 0.105412 -0.100407 0.215667 Si
49 1 9.49177 9.49496 1.51707 1.99905 2.54676 1.32909 0.0096376 0.0704369 -1.96796 Si
54 1 8.18884 8.12422 0.0613401 4.0822 -3.45509 -4.34153 -0.159949 0.572062 0.219886 Si
12 1 0.00902098 0.0362928 5.37843 3.98006 5.12104 1.08147 0.440309 -0.913035 0.776411 Si
14 1 2.70231 2.7164 5.56042 1.47207 5.61786 -0.606019 0.941096 0.353059 -0.780646 Si
15 1 1.35266 1.34015 6.81557 -0.625252 0.0367576 -1.99739 -0.584584 0.440248 0.439489 Si
3 1 4.11747 1.4404 4.11153 -0.950653 -1.43943 1.34372 -1.83777 -1.20907 0.209303 Si
47 1 6.82799 1.27662 6.78918 -1.31757 1.32847 -4.31383 -0.795248 1.18627 0.290787 Si
35 1 9.5826 1.46688 4.15217 9.52289 2.27085 0.0408145 -0.712611 -0.458434 -0.649276 Si
46 1 8.14562 2.73641 5.49695 5.27944 -1.68609 -1.48104 0.838806 0.284126 0.374032 Si
5 1 1.42612 4.07158 4.12673 -3.92421 -5.95355 -3.49163 -0.840203 0.139918 0.0127517 Si
31 1 1.38616 6.76882 6.89416 -3.68759 0.334556 1.71186 0.54282 0.870898 -0.777022 Si
9 1 4.10297 4.11275 6.86842 3.98665 -0.288788 -2.06721 0.0154513 -0.269497 0.088367 Si
19 1 4.05379 6.76989 4.01905 -0.420556 -0.752568 -8.85606 0.200971 -0.259518 -0.179501 Si
37 1 6.86307 4.07532 4.12205 -4.59871 0.136816 -1.38785 -1.43239 0.562798 -0.196858 Si
60 1 5.42093 5.49262 5.48829 -6.19642 -3.35291 3.65153 0.862073 -0.154903 -0.490967 Si
63 1 6.8967 6.89162 6.78189 0.609179 -2.58113 1.83499 -0.658618 -0.864177 -0.566251 Si
28 1 0.0297757 5.51291 5.43695 0.876883 0.170828 -0.750799 0.376467 -0.359106 -0.223112 Si
41 1 9.52652 4.23333 6.79186 -2.31512 -0.339758 -3.45866 -0.419278 -1.10656 -0.189455 Si
51 1 9.57731 6.80839 4.00817 0.16382 4.14935 -4.06313 -0.283571 -0.149754 -0.104503 Si
21 1 1.33535 9.4815 4.00624 -3.97513 0.476798 2.03847 -0.278141 0.3324 0.409229 Si
30 1 2.74272 8.1658 5.31803 -1.8014 3.13711 1.22079 -0.958968 -0.5711 1.59423 Si
44 1 5.44979 0.0134725 5.38154 -1.8791 6.1729 3.02283 -0.575368 -0.749681 0.791014 Si
25 1 4.00501 9.51062 6.79334 3.47313 -2.79523 2.46501 1.069 0.470619 -0.604081 Si
53 1 6.72975 9.47154 4.02987 -3.62983 2.00032 -2.07242 0.794853 0.868959 -0.322817 Si
57 1 9.58479 9.49645 6.78621 0.420023 1.49787 0.60345 -0.158535 -0.116208 -0.749238 Si
62 1 8.20594 8.1893 5.32857 -0.791846 -2.39686 1.10894 0.251475 0.0384956 0.576811 Si
6 1 2.7201 2.70656 0.0344279 0.611281 -0.164149 -5.72952 -0.319831 -0.504035 -0.310026 Si
16 1 2.74972 0.0512674 8.18981 -2.13802 -2.50061 -0.960603 0.0128685 0.159777 -0.401408 Si
36 1 5.53488 -0.0209459 0.017258 5.82687 2.95067 0.564584 -0.483239 -0.301951 -0.171671 Si
11 1 4.1264 1.35616 9.57955 -3.1267 0.811525 5.10138 0.171796 0.20633 -0.074858 Si
42 1 5.48067 2.75492 8.22745 0.505679 -6.50558 1.67538 -0.163033 -1.17426 -0.930522 Si
38 1 8.19939 2.65895 -0.0789298 5.97173 3.01764 -4.66381 -0.206271 0.342112 1.14567 Si
10 1 -0.0496645 2.81751 8.12734 -0.686029 -2.40107 -0.782542 0.0855117 -1.31398 -0.279481 Si
43 1 9.46719 1.31433 9.39961 -5.72396 -0.556208 2.7113 0.0876182 0.692232 -0.148049 Si
13 1 1.32381 4.02613 9.53643 0.421232 -1.31277 3.1144 1.07783 0.072337 -0.0270686 Si
32 1 2.77386 5.4237 8.27482 -2.15179 2.43554 -4.32602 -0.690408 0.00948125 -0.313902 Si
52 1 5.41581 5.47608 0.104655 0.312297 6.11626 3.86722 -0.411204 -1.08664 -1.53829 Si
27 1 4.08631 6.84747 9.57344 0.641262 -3.70405 0.368713 0.50709 0.236293 -0.0665717 Si
45 1 6.78845 4.0536 9.58289 -0.147244 -4.48885 1.89823 0.240292 1.24429 0.146984 Si
20 1 0.0486522 5.32632 0.0254526 0.224292 -0.488921 1.42109 -0.735244 1.33133 -0.65258 Si
59 1 9.52084 6.80522 9.60364 1.3029 -1.6616 1.36083 0.249404 -1.26231 -0.0378686 Si
64 1 8.13245 5.46874 8.17632 -5.2608 -4.03032 5.38608 0.133997 0.31353 0.756705 Si
22 1 2.70113 8.25555 0.00109421 -8.30468 -2.86137 -4.26554 -0.764965 -0.362896 -1.31407 Si
29 1 1.30921 9.72028 9.50399 2.18173 2.82013 1.62404 -0.199527 -2.25167 0.540212 Si
58 1 5.47051 8.15365 8.08654 3.98831 -4.09918 2.45785 -0.442564 0.433616 1.09326 Si
61 1 6.89236 9.45841 9.51377 -1.17938 1.28007 1.27733 -0.817287 0.203316 -0.0127731 Si
48 1 8.1596 -0.0838319 8.07779 3.08762 -3.67616 1.02449 0.274234 -0.0888095 0.410245 Si
26 1 -0.0323925 8.12391 8.24197 -1.77099 3.11441 3.88182 0.918702 0.914864 -0.371067 Si
ITEM: TIMESTEP
19100
ITEM: NUMBER OF ATOMS
64
ITEM: BOX BOUNDS pp pp pp
0.0000000000000000e+00 1.0887404739999999e+01
0.0000000000000000e+00 1.0887404739999999e+01
0.0000000000000000e+00 1.0887404739999999e+01
ITEM: ATOMS id type xu yu zu vx vy vz fx fy fz element
4 1 0.153623 -0.0165393 -0.0929699 -2.93803 -2.98372 -4.47855 -0.360874 -0.0577968 0.965068 Si
7 1 1.39187 1.47176 1.35342 0.43536 -1.8652 3.37929 0.550703 -1.08851 0.297346 Si
34 1 5.44863 2.73854 2.67939 -3.46649 -0.897884 0.0108688 -0.0346811 -0.0872307 0.465609 Si
39 1 6.74339 1.28018 1.32804 2.9665 0.101318 -3.27886 -0.345408 0.0470489 0.121614 Si
2 1 -0.0388064 2.76093 2.78187 3.0135 0.116476 -3.08743 0.162438 0.269917 -0.543824 Si
40 1 8.13012 -0.0375689 2.68843 0.258866 4.65406 -3.14165 0.666177 -0.790726 -0.28329 Si
23 1 1.27323 6.90191 1.43144 1.67598 -0.206737 0.0212201 0.528103 -0.534955 -0.0297602 Si
24 1 2.76185 5.5831 2.73845 -3.25187 0.548591 0.675869 -0.410526 -0.850002 -0.450533 Si
1 1 4.06141 4.12164 1.3338 -5.79476 0.847211 -1.68592 0.428661 0.268871 0.709861 Si
55 1 6.68434 6.90319 1.34798 -0.407736 -1.11914 -2.49203 1.69168 -1.45661 -1.21585 Si
33 1 9.50195 4.14066 1.3386 1.23029 1.90576 0.394301 0.328193 -0.0248603 0.273772 Si
56 1 8.13991 5.55057 2.64297 -1.09755 -2.39359 -0.854307 -0.135357 -0.225957 1.18685 Si
8 1 2.84507 0.0149956 2.74046 -4.66502 0.501785 0.0562151 -1.32884 0.0521641 -0.516852 Si
18 1 -0.0409809 8.20265 2.86222 -0.933737 -1.66297 -1.17433 0.360083 0.187254 -0.416693 Si
17 1 4.21405 9.44192 1.48764 -2.17948 -1.84908 -2.43143 -1.34816 -0.0135484 -0.978307 Si
50 1 5.57535 8.12399 2.82648 7.20844 -2.4619 0.102532 -1.62194 0.493002 0.450038 Si
49 1 9.66659 9.48538 1.30746 -0.67646 -5.17152 4.26839 -1.03389 1.25809 0.554492 Si
54 1 8.1433 8.24801 0.0253502 -2.65511 0.427359 -2.50796 0.306444 -1.19561 -0.303827 Si
12 1 -0.08583 -0.0342501 5.44793 -7.00762 -1.97494 -1.80163 0.768102 0.725915 -0.166374 Si
14 1 2.67573 2.61762 5.35975 -5.5465 -4.95971 0.786936 -0.358829 0.888893 0.569766 Si
15 1 1.36241 1.25406 6.81537 -2.14424 -1.2995 -4.65655 0.0646663 0.300694 -0.285491 Si
3 1 4.13932 1.33813 4.10636 2.46429 0.452645 1.87647 0.508642 0.261732 -0.404038 Si
47 1 6.79288 1.37216 6.86769 0.208953 -3.35301 3.47407 -0.488955 -0.202726 -1.00407 Si
35 1 9.46388 1.29745 4.07128 1.96397 -0.151997 -0.527264 0.411809 0.375699 -0.306074 Si
46 1 8.126 2.61963 5.42702 -6.11745 -2.13419 0.0503179 0.0356662 0.48379 0.149961 Si
5 1 1.3746 4.20036 4.08468 6.61922 -1.61953 -1.74133 -0.00319735 -1.1643 -0.379779 Si
31 1 1.33725 6.75765 6.74692 -0.325032 0.211865 2.45374 -0.316918 -0.358064 0.24183 Si
9 1 3.99491 4.07241 6.69001 -0.0137119 -1.14993 -2.12878 0.519737 0.117398 -0.51238 Si
19 1 4.16402 6.8013 4.13622 -0.166471 -3.31658 5.20165 -0.596945 0.808353 -0.260524 Si
37 1 6.83803 4.08576 4.10075 6.12824 1.3765 3.66689 0.302488 -0.0839661 -1.27171 Si
60 1 5.49213 5.4411 5.39002 -0.956962 2.0276 -2.39463 -0.956944 -0.933236 0.795164 Si
63 1 6.71241 6.74474 6.81936 -1.39067 1.45546 2.33563 0.592661 0.934487 0.40593 Si
28 1 -0.103731 5.39226 5.4179 2.17452 0.614885 -4.05855 0.414128 0.177996 0.833724 Si
41 1 9.51072 3.9163 6.80118 0.95257 1.85169 3.36909 0.192692 0.890143 -0.328887 Si
51 1 9.46274 6.87481 4.20039 1.46949 -0.770129 -0.831463 -0.577015 -0.509925 -0.88572 Si
21 1 1.36346 9.60716 4.11393 -1.37697 0.323376 -2.34483 0.588154 -0.681304 0.0607827 Si
30 1 2.71418 8.1427 5.47902 3.13661 -1.37733 -7.25531 0.7403 1.00709 -0.174384 Si
44 1 5.47889 -0.0404292 5.45946 3.64778 -0.687565 -3.51418 0.374405 0.931783 0.163894 Si
25 1 4.15948 9.59443 6.84555 -0.701812 -1.08049 -3.00641 -1.26359 -1.32648 0.0749429 Si
53 1 6.8298 9.48703 4.14937 -2.62601 -1.89682 3.17741 0.388526 0.775333 -0.373018 Si
57 1 9.45385 9.59859 6.78347 5.37854 2.6489 3.91714 -0.246055 -0.326768 1.47977 Si
62 1 8.08029 8.19349 5.56363 2.28892 5.39019 2.25784 0.256251 -0.558843 -0.218099 Si
6 1 2.79901 2.77694 -0.0349527 -0.555421 1.59423 10.1907 -0.581432 -0.42559 -0.545576 Si
16 1 2.75313 -0.0127665 8.24395 0.972563 2.40887 0.139413 -0.462743 -0.737126 -0.846385 Si
36 1 5.35719 -0.0987961 -0.0521975 -1.0158 -2.08942 -3.42771 1.03755 0.590866 0.452489 Si
11 1 4.15305 1.3609 9.44138 1.1089 3.23257 -2.67469 -0.575378 0.739683 0.901052 Si
42 1 5.38711 2.79943 8.02976 0.589707 6.51421 2.31535 0.860084 -0.0528833 1.39431 Si
38 1 8.12328 2.68765 0.0916846 -0.811671 1.89235 0.523952 0.65189 0.456374 -1.19623 Si
10 1 0.0699803 2.66552 8.16383 0.457606 2.71464 -0.656909 0.171202 0.724481 0.144706 Si
43 1 9.62916 1.42193 9.58802 4.24526 -1.69431 1.74288 -1.04207 -0.552563 0.0686331 Si
13 1 1.39397 4.15412 9.50726 -4.92426 3.05747 1.59564 -0.73013 -0.51126 0.470307 Si
32 1 2.73015 5.40571 8.11715 5.80622 1.83114 2.43885 -0.119158 0.823628 -0.218572 Si
52 1 5.47055 5.36119 -0.0587834 1.85379 -1.68499 -1.66168 -0.366558 1.3751 0.639557 Si
27 1 4.07246 6.75615 9.52952 -0.782887 0.980528 -0.214616 0.0579148 -0.123795 -0.036671 Si
45 1 6.8676 4.10729 9.49662 -0.783797 -2.73972 -1.31905 -0.299539 -1.08254 -0.66038 Si
20 1 -0.0450019 5.58502 -0.0301427 -1.78362 -0.855478 6.19835 0.347166 -1.19876 0.0782793 Si
59 1 9.42376 6.79928 9.4559 0.0450158 2.74338 0.0507492 0.597821 1.24646 0.241082 Si
64 1 8.19367 5.43955 8.05848 1.39843 0.113432 -0.620705 -0.446314 -0.848351 0.410982 Si
22 1 2.7383 8.1027 0.0531923 3.67776 -0.0262965 4.43554 0.503755 0.360287 0.397134 Si
29 1 1.38157 9.33562 9.47508 -1.67808 4.01228 0.104874 0.563014 1.41394 0.19355 Si
58 1 5.43717 8.17519 8.23214 -0.531725 1.78013 -1.19008 -0.0504927 -0.490131 -0.624761 Si
61 1 6.81966 9.51924 9.52643 0.454685 -2.16956 -0.51373 -0.247839 0.545891 0.0742325 Si
48 1 8.12808 0.109148 8.25397 -3.5266 1.53696 -1.39931 1.08837 -0.697414 -0.111861 Si
26 1 -0.0289192 8.14656 8.06076 -0.998408 -2.22466 1.8597 -0.70969 -0.340516 0.283195 Si
ITEM: TIMESTEP
19200
ITEM: NUMBER OF ATOMS
64
ITEM: BOX BOUNDS pp pp pp
0.0000000000000000e+00 1.0887404739999999e+01
0.0000000000000000e+00 1.0887404739999999e+01
0.0000000000000000e+00 1.0887404739999999e+01
ITEM: ATOMS id type xu yu zu vx vy vz fx fy fz element
4 1 -0.0808535 0.0516283 0.045097 -0.587623 5.06637 2.55128 -0.55292 -0.377396 -1.42341 Si
7 1 1.31775 1.30891 1.35126 -4.99199 3.66909 -1.15859 0.0757948 0.598433 0.633447 Si
34 1 5.43311 2.71836 2.76554 1.01695 4.28545 3.073 -0.440315 -0.433293 -0.199053 Si
39 1 6.79488 1.40462 1.36488 -1.6316 -4.1312 3.75063 0.847346 0.144257 0.435973 Si
2 1 -0.0228115 2.65472 2.8075 1.12214 0.803459 5.58577 0.0318898 -0.0886612 -0.558443 Si
40 1 8.11009 -0.0519176 2.79262 -0.19798 -5.54858 1.85772 0.593706 1.66255 -1.13956 Si
23 1 1.4545 6.7534 1.35109 1.71906 -0.90856 -2.10476 -0.237775 0.218094 -0.552894 Si
24 1 2.77955 5.3693 2.68664 1.73832 4.54218 0.401338 -0.596974 0.135992 0.557736 Si
1 1 4.08518 4.02086 1.34639 0.0392787 0.937729 0.581413 -0.297891 -0.425443 -0.723321 Si
55 1 6.85599 6.76262 1.4421 -1.71217 -1.66804 1.84199 -1.14824 0.426586 -0.192671 Si
33 1 9.54495 4.02559 1.37945 -1.34015 0.811353 3.53691 0.274598 0.217059 -0.237242 Si
56 1 8.2035 5.38346 2.76792 -1.59826 1.98428 -6.22372 -0.578096 -0.530791 -0.282768 Si
8 1 2.67834 -0.0747912 2.6757 2.63883 0.17174 -0.591863 0.0583807 0.41355 0.546758 Si
18 1 0.00740951 8.1073 2.62359 1.10342 1.91003 -0.489437 -0.601128 0.391653 0.028503 Si
17 1 4.118 9.56688 1.30992 0.880342 1.04893 5.08301 -0.494359 -0.053998 -0.145567 Si
50 1 5.36773 8.21082 2.7147 -3.45824 -2.00748 1.31213 1.7377 -0.18706 -0.929763 Si
49 1 9.4133 9.55508 1.33561 2.41383 0.157135 -2.96421 0.736712 -0.897609 0.353643 Si
54 1 8.10233 8.10741 -0.00787387 1.43719 4.33886 2.90428 0.354607 0.751499 -0.000568094 Si
12 1 0.107481 0.0473201 5.5034 3.42662 -3.08871 2.09612 -1.2669 -0.718508 -0.538003 Si
14 1 2.80824 2.82394 5.48704 1.99696 0.672834 -0.0831819 -0.569189 -0.858205 -0.127915 Si
15 1 1.36393 1.47349 6.80937 1.03499 -1.21203 1.73443 0.340661 0.0914106 -0.261247 Si
3 1 4.02285 1.32344 4.09867 -3.39884 -0.0880884 2.81776 0.241058 0.343448 -0.408734 Si
47 1 6.80118 1.38194 6.71857 -1.42399 -0.909486 4.71273 1.06739 -0.421729 1.24563 Si
35 1 9.48656 1.31975 4.18954 -2.48582 -0.746816 1.60789 0.467397 -0.110644 -0.436291 Si
46 1 8.24935 2.79216 5.51098 -1.53662 -1.18034 2.79423 -1.42234 -0.129669 -0.847386 Si
5 1 1.35815 4.05085 4.1056 1.92224 5.30947 0.763623 0.436448 0.540967 0.0561059 Si
31 1 1.41166 6.81296 6.87624 3.677 4.20859 -2.2933 -0.178322 0.537397 -0.405752 Si
9 1 4.14075 4.12091 6.89849 0.463518 -2.93548 0.245006 -0.18223 -0.519187 0.342921 Si
19 1 4.12478 6.80781 3.96658 -3.73693 -2.37297 -0.126964 -0.985712 -0.586201 1.81896 Si
37 1 6.7265 4.08686 4.13069 0.277743 1.93421 -1.3408 1.08912 0.137462 0.521896 Si
60 1 5.39512 5.47863 5.52406 2.75585 1.37591 -1.34161 0.591726 0.372774 -1.15095 Si
63 1 6.86989 6.8445 6.73691 -1.48808 1.23577 0.154223 -0.306796 -0.100791 0.719785 Si
28 1 0.068339 5.44061 5.54164 -1.51599 -2.07769 -0.919981 -0.18868 0.465737 -1.30127 Si
41 1 9.54037 4.16421 6.82419 -1.17189 -3.83782 0.178811 -0.0321264 -0.0925131 0.847377 Si
51 1 9.57967 6.72802 4.01323 -3.15479 -1.64313 -0.479789 0.6401 0.270052 0.893521 Si
21 1 1.27804 9.47447 4.05706 4.79755 1.89654 1.49752 0.869754 0.167237 0.0185045 Si
30 1 2.73444 8.15762 5.40685 -0.994009 1.37689 1.50635 -0.0310052 -0.201769 -0.145683 Si
44 1 5.48872 0.0331058 5.40011 -2.36015 -1.70574 4.00829 -0.930199 -0.577916 0.0110728 Si
25 1 4.04892 9.58434 6.77868 3.61315 2.20695 0.171494 0.310555 -0.153211 0.0232033 Si
53 1 6.7883 9.53458 4.02754 3.68819 2.25911 1.2004 -0.621723 -0.897658 0.965196 Si
57 1 9.57881 9.46712 6.76413 -3.96561 0.186926 -4.37304 0.0258781 0.336275 -0.788762 Si
62 1 8.20951 8.13938 5.30883 -0.975128 0.982058 -1.86084 0.175898 0.279634 0.443465 Si
6 1 2.65575 2.62569 -0.0715219 -1.1965 -3.06089 -3.19389 0.48883 0.840526 1.86868 Si
16 1 2.59587 0.0384625 8.12975 1.88108 0.0934431 -1.70572 1.56767 0.032952 0.544656 Si
36 1 5.46987 0.097883 0.00715917 -0.29725 -5.91038 -0.198359 -0.461993 -0.730843 0.0690029 Si
11 1 4.03179 1.34771 9.57794 7.54723 0.218451 -3.16133 0.307122 -0.667205 -1.59406 Si
42 1 5.48679 2.63579 8.2176 2.87272 1.97494 -8.12382 -0.583171 0.741271 -0.34764 Si
38 1 8.15103 2.78049 -0.0782177 -2.4799 -0.691035 0.0180788 -0.381691 -0.408313 1.18123 Si
10 1 -0.0492805 2.73125 8.1407 -0.0118179 -4.49301 -1.30872 -0.255917 0.0957764 0.353014 Si
43 1 9.38125 1.38169 9.44368 -3.74776 1.12152 -5.0886 1.59041 -0.549223 0.373532 Si
13 1 1.37312 3.98651 9.51363 4.76344 -2.43885 0.375634 -0.483839 0.632871 -0.399568 Si
32 1 2.69805 5.42255 8.21341 2.66673 -4.16844 1.96538 0.810937 0.200476 0.387254 Si
52 1 5.39326 5.49896 0.0397032 0.11649 -2.99267 -2.80929 0.85442 -0.683386 -0.0563565 Si
27 1 4.11658 6.85337 9.51683 3.14996 3.47081 3.60114 -0.609226 -0.353205 -0.212494 Si
45 1 6.77925 4.11516 9.51603 0.754459 5.01239 1.97178 -0.414247 0.443822 0.285488 Si
20 1 0.0901186 5.3781 -0.0075692 -1.31628 4.80837 -2.309 -0.512149 0.124815 0.527212 Si
59 1 9.63047 6.84447 9.58589 -3.93313 -1.53139 1.46648 -0.731398 -0.493598 -0.368774 Si
64 1 8.16743 5.49387 8.22003 -1.87253 2.70952 1.52912 0.460429 0.418846 -0.38113 Si
22 1 2.73488 8.20392 -0.0432625 -1.48522 -2.41931 -2.89793 0.241559 -0.213289 0.474361 Si
29 1 1.3535 9.56977 9.55396 -2.65953 -10.1166 -1.94904 -0.749307 0.428321 0.212443 Si
58 1 5.46123 8.1785 8.12857 -2.31108 2.17147 2.57597 -0.0550933 0.551118 -0.245101 Si
61 1 6.75628 9.57764 9.54565 6.35006 -2.3893 -4.64627 0.589931 -0.746289 -0.464646 Si
48 1 8.20122 -0.113259 8.08377 -2.21509 -0.237289 -2.93635 -1.35575 1.12048 -0.0291053 Si
26 1 0.024358 8.23654 8.18306 -4.61341 1.55855 -4.79153 0.378662 -0.925737 0.155551 Si
ITEM: TIMESTEP
19300
ITEM: NUMBER OF ATOMS
64
ITEM: BOX BOUNDS pp pp pp
0.0000000000000000e+00 1.0887404739999999e+01
0.0000000000000000e+00 1.0887404739999999e+01
0.0000000000000000e+00 1.0887404739999999e+01
ITEM: ATOMS id type xu yu zu vx vy vz fx fy fz element
4 1 0.0975301 -0.0647528 0.0270206 1.06333 -1.37696 1.88036 0.108433 0.968375 0.932668 Si
7 1 1.52083 1.41129 1.33115 4.37031 -4.40051 2.36967 -1.38104 -0.500874 -0.671949 Si
34 1 5.49094 2.68657 2.65711 -0.0830656 1.28335 0.0127826 -0.0753833 0.887052 0.305497 Si
39 1 6.89632 1.31467 1.37313 -0.0219346 3.42349 -0.886337 -1.10049 0.284258 -0.421997 Si
2 1 0.0451503 2.74661 2.50914 0.82261 -0.386414 -0.649553 -0.380292 0.0731291 1.58511 Si
40 1 8.20431 0.0342753 2.70928 1.21747 -1.77795 -0.225541 -0.500521 -0.906216 0.854958 Si
23 1 1.32054 6.7931 1.36863 0.757546 0.4188 5.10465 -0.544081 -0.118117 0.39024 Si
24 1 2.64068 5.44282 2.7768 -0.127275 -3.70493 -2.57875 0.790344 0.364124 -0.612733 Si
1 1 4.06836 4.15301 1.36544 1.84234 4.17344 0.250097 0.905434 0.288441 1.07588 Si
55 1 6.81265 6.85379 1.35558 4.08627 1.03046 -2.8278 0.484637 -0.238958 0.204452 Si
33 1 9.46862 4.15358 1.31773 3.36076 1.14183 -1.9825 0.143962 -0.236995 0.392108 Si
56 1 8.15267 5.50105 2.79941 0.570816 2.06989 4.18861 0.611708 0.701391 -1.64858 Si
8 1 2.74518 0.049023 2.70157 -1.92028 -1.37461 1.05917 0.235754 -0.789102 0.414262 Si
18 1 -0.0179997 8.2087 2.76079 -0.535831 -1.63948 1.03857 0.406342 -0.113113 0.236094 Si
17 1 3.98614 9.50152 1.28416 -2.03213 -3.45483 -1.26623 1.19254 0.671379 1.50186 Si
50 1 5.46483 8.24228 2.659 -1.79821 -0.437098 -0.310696 -1.22835 -0.749529 0.283739 Si
49 1 9.52312 9.56538 1.41239 -2.27032 2.59325 -3.50457 0.593461 -0.566475 -0.848481 Si
54 1 8.2458 8.14318 -0.00369422 -3.06587 -3.77903 -0.898941 -0.416244 0.346585 -0.0505208 Si
12 1 -0.0676999 0.024595 5.45658 0.727483 3.57409 2.3596 0.882366 0.132034 -0.133709 Si
14 1 2.63688 2.70685 5.4881 -0.284799 2.5017 -4.27712 0.914114 0.146388 -1.00477 Si
15 1 1.31865 1.39673 6.82994 0.322995 5.23672 -0.478738 0.354103 -1.17206 0.107906 Si
3 1 4.09269 1.38414 4.05544 -0.234818 -3.1223 0.235744 0.0294568 0.142427 0.719537 Si
47 1 6.85386 1.37965 6.79559 -0.0477423 1.23179 -2.05241 -0.748682 0.243357 0.117656 Si
35 1 9.59118 1.3772 3.96299 -0.0385417 -2.12192 -0.859704 -0.132066 0.790259 0.557739 Si
46 1 8.16731 2.75295 5.35334 1.03849 -1.54995 -0.416449 1.0118 -0.755556 0.576888 Si
5 1 1.31349 4.05142 4.05351 -1.48982 -5.4279 -3.0396 -0.509403 -0.0508704 0.192737 Si
31 1 1.20892 6.78183 6.76829 1.62545 -2.32022 -2.55512 1.39489 0.144179 -0.143678 Si
9 1 4.04147 4.0401 6.83427 -0.379028 -2.62522 0.4032 0.0247656 0.205941 -0.254715 Si
19 1 4.04524 6.84405 4.07119 2.64375 4.34929 -4.30085 0.699114 -0.377865 -0.676422 Si
37 1 6.89136 4.11112 4.01091 -3.4908 -0.928566 -0.139337 -1.89545 -0.919013 0.315901 Si
60 1 5.38325 5.34938 5.3425 -4.83082 -3.77549 2.18441 0.618425 0.758885 1.013 Si
63 1 6.83609 6.71393 6.80389 1.92175 -1.41759 -1.45759 -0.511632 -0.286777 -0.156379 Si
28 1 -0.0895374 5.45714 5.3721 1.23854 -1.59 0.755632 0.311723 -0.744475 0.451113 Si
41 1 9.57335 4.02553 6.80764 0.361919 -1.63714 0.669006 -0.393101 0.00804906 -1.04965 Si
51 1 9.46927 6.88267 4.14064 -1.92291 1.67568 -0.610177 0.173473 0.146455 -0.554423 Si
21 1 1.41106 9.57856 4.1324 -4.17298 -1.35283 0.635937 -0.540573 -0.20009 -0.259726 Si
30 1 2.72224 8.11288 5.46659 3.20686 2.52227 0.604704 -0.748011 0.460148 0.363154 Si
44 1 5.46068 -0.00749714 5.44049 2.94454 4.00799 3.35636 -0.49662 0.0602076 0.36783 Si
25 1 4.10426 9.43696 6.83668 -1.56321 -2.37625 -2.43522 0.383877 0.743229 0.0313155 Si
53 1 6.76871 9.52723 4.06638 0.325472 1.5852 -0.446596 0.979912 0.676142 0.00203073 Si
57 1 9.51242 9.55732 6.84903 -3.10469 4.13829 5.3493 -0.0561889 -0.152452 0.277453 Si
62 1 8.13553 8.22561 5.49578 1.16494 -0.83392 4.5831 -0.346762 -0.337281 0.0424799 Si
6 1 2.75856 2.87138 0.0516877 0.0139781 3.96809 -1.50338 -0.511222 -0.869953 -1.38511 Si
16 1 2.79019 0.0351025 8.18503 -3.43619 -1.26833 -3.45105 -1.01612 -0.51589 -0.545765 Si
36 1 5.41944 -0.00515419 0.0679131 0.71595 5.10247 -3.04626 -0.0637789 0.379065 -0.515438 Si
11 1 4.00762 1.38065 9.60302 -4.81048 3.71301 0.904178 0.890902 0.0151024 0.538063 Si
42 1 5.37504 2.66522 8.24069 1.9998 -6.70652 1.89507 0.332045 -0.182474 -1.22462 Si
38 1 8.21489 2.66067 0.0295189 3.39412 1.89378 -5.38302 0.052085 0.219669 -1.00563 Si
10 1 0.0527496 2.76192 8.17295 0.827718 -0.397045 1.33897 -0.49826 -0.814135 -0.0295003 Si
43 1 9.71487 1.32322 9.56134 0.824144 -2.78925 -1.7458 -1.4823 0.507634 -0.0523671 Si
13 1 1.33471 4.08889 9.47995 -6.55579 -0.6843 -0.299933 0.990968 0.406905 0.700728 Si
32 1 2.65373 5.47088 8.12014 -4.06782 1.9003 -2.07504 -0.412295 -0.652262 -0.431302 Si
52 1 5.46762 5.48503 0.0181824 -3.00066 4.9322 1.79902 -0.461313 -0.501092 -0.591528 Si
27 1 3.95782 6.72941 9.52636 3.65931 -2.45335 0.720567 1.47311 0.930683 0.407176 Si
45 1 6.74465 3.98037 9.53246 -5.29184 -2.49103 -4.0816 0.890065 0.591492 0.821928 Si
20 1 1.35321e-05 5.39383 -0.0385001 3.52829 0.155211 -1.70888 -0.289787 1.09749 -0.0875557 Si
59 1 9.53607 6.76186 9.43411 2.46517 0.122683 2.01092 -0.241293 -0.503757 1.09139 Si
64 1 8.20422 5.27253 8.16188 0.745231 -2.79251 1.46218 -0.846974 1.01704 0.07994 Si
22 1 2.6908 8.12626 0.0579504 3.91722 -2.44124 3.61687 -0.566465 -0.304383 -1.32324 Si
29 1 1.40846 9.5521 9.55204 3.99362 5.11304 6.963 0.238448 -1.07953 -0.675233 Si
58 1 5.48927 8.09345 8.23263 -0.757934 -1.13425 -0.941246 -0.456855 -0.15387 -0.0644848 Si
61 1 6.79788 9.55143 9.6062 -3.01639 2.18251 1.4496 0.445994 -0.342233 -0.535184 Si
48 1 8.18221 0.0604691 8.22071 5.28987 -1.86368 3.09197 0.244895 -0.400929 0.275397 Si
26 1 0.000157107 8.14136 8.19217 -2.63591 2.39177 0.142749 0.0424106 1.1288 -0.273536 Si
ITEM: TIMESTEP
19400
ITEM: NUMBER OF ATOMS
64
ITEM: BOX BOUNDS pp pp pp
0.0000000000000000e+00 1.0887404739999999e+01
0.0000000000000000e+00 1.0887404739999999e+01
0.0000000000000000e+00 1.0887404739999999e+01
ITEM: ATOMS id type xu yu zu vx vy vz fx fy fz element
4 1 -0.0862969 0.0556144 -0.0149569 -6.28742 -0.345467 -4.38062 -0.168122 -1.5889 -0.83023 Si
7 1 1.20669 1.31328 1.33997 -2.38353 3.50563 -1.14326 1.44374 0.442455 1.29649 Si
34 1 5.44136 2.74744 2.70465 -5.372 -3.91762 -1.72541 0.0225595 -0.674009 0.0601475 Si
39 1 6.71905 1.3011 1.36493 0.0187843 -0.587477 1.78534 0.581029 1.03462 -0.0556839 Si
2 1 -0.0111338 2.70265 2.89025 0.341658 -1.95675 -2.28039 0.0332106 0.579688 -1.14286 Si
40 1 8.09341 0.011248 2.7156 3.76931 2.33738 2.75376 0.890088 0.143152 -0.0756388 Si
23 1 1.39489 6.85688 1.26233 -3.0879 -4.2415 -4.35947 0.306105 0.0379839 1.10662 Si
24 1 2.79996 5.48203 2.6968 -2.17757 -1.07281 2.30785 -0.797102 -0.500915 -0.137779 Si
1 1 4.07106 3.97852 1.30891 -0.925038 -2.55606 -1.31545 -0.650956 0.578753 -0.217692 Si
55 1 6.77309 6.70076 1.40133 -6.25107 -0.45871 -0.95989 0.178049 0.862022 -1.04314 Si
33 1 9.53044 4.10409 1.45413 0.600686 -0.438305 -2.22084 0.278946 -0.9032 -0.998385 Si
56 1 8.1302 5.4112 2.72312 -1.22336 0.055082 1.52832 0.270921 -0.360217 0.906238 Si
8 1 2.76549 -0.0340797 2.65449 0.32023 1.24766 0.0255685 -0.746469 1.12438 0.578391 Si
18 1 -0.0505088 8.12604 2.71325 2.02132 2.36317 -5.15608 0.826609 -0.0480335 -0.244404 Si
17 1 4.19945 9.54201 1.45953 -0.267956 1.27164 -5.11489 -0.696584 -0.913835 -1.1204 Si
50 1 5.51407 8.10616 2.75472 5.19641 2.42211 -5.09222 -0.275416 0.185005 0.551547 Si
49 1 9.48035 9.52534 1.38447 0.269682 -3.43948 3.26604 0.0958795 0.45273 -0.113053 Si
54 1 8.11908 8.19343 0.0370105 1.11326 -3.07754 3.11034 -0.331108 -0.658329 0.15186 Si
12 1 -0.0521766 -0.0939698 5.41243 -1.56252 -1.49495 -3.06644 0.370194 0.626973 -0.31044 Si
14 1 2.72324 2.648 5.46542 -1.69466 -0.581446 7.03122 -0.182324 0.665171 0.230852 Si
15 1 1.27253 1.30753 6.83564 -4.53106 1.36594 -0.281508 0.301597 0.325724 -0.472628 Si
3 1 4.11667 1.38145 4.05083 -1.00662 4.26442 -2.58025 -0.461895 -0.713598 -0.0827232 Si
47 1 6.71973 1.35271 6.84267 4.67913 -3.37782 -1.61503 0.282228 0.0235573 -0.8498 Si
35 1 9.41033 1.38594 4.13022 3.43904 3.2184 3.05327 0.603847 -0.91274 0.260846 Si
46 1 8.14398 2.74329 5.53252 0.92385 2.41792 1.45028 -0.260945 -0.149644 0.0124865 Si
5 1 1.39384 4.15247 4.17448 3.00005 1.23014 1.38382 0.652145 -0.861019 -0.980115 Si
31 1 1.43771 6.77503 6.83031 -6.20505 -1.49263 2.20453 -0.603687 -0.530744 0.515269 Si
9 1 4.09441 4.13336 6.76185 1.20313 1.67486 2.69753 0.0983754 0.238655 -0.326617 Si
19 1 4.10192 6.79891 4.15364 -2.67431 -2.3279 -0.580491 0.304484 0.294662 -0.604492 Si
37 1 6.80126 4.02108 4.09664 4.01746 -1.04032 -0.191336 0.456063 0.723097 -0.0268711 Si
60 1 5.59533 5.52514 5.42965 0.024526 2.89508 -2.00593 -1.58384 -0.985439 0.320109 Si
63 1 6.79313 6.94421 6.78598 0.455629 2.67874 -0.705402 0.478331 0.185728 0.184913 Si
28 1 0.040985 5.44845 5.48973 -0.151982 -0.845481 -3.54603 0.214548 0.294156 0.135132 Si
41 1 9.57584 4.13499 6.8043 2.09269 0.963505 1.12177 -0.766202 -0.0127233 0.422204 Si
51 1 9.55831 6.69104 4.09398 8.03264 2.12023 0.683529 -0.0376088 0.483607 -0.625151 Si
21 1 1.42185 9.48834 4.01543 0.342751 -2.0454 -0.239558 -1.13153 0.0478471 0.238858 Si
30 1 2.6574 8.13192 5.45619 0.0984451 -2.35127 -4.84272 1.14964 0.539335 -0.324206 Si
44 1 5.44395 -0.0698507 5.37688 -0.409546 -0.24448 -3.93745 0.487195 0.806775 0.131674 Si
25 1 4.01917 9.59189 6.73729 -0.625329 0.593025 2.75662 -0.0858211 -0.801322 0.242438 Si
53 1 6.92055 9.48187 4.06873 -6.24186 -5.68896 0.112639 -1.2656 -0.0566107 0.0310451 Si
57 1 9.54218 9.40202 6.76749 0.814266 1.06452 -4.3595 0.0265457 1.06306 0.635889 Si
62 1 8.26901 8.13299 5.35463 -0.462093 0.743929 -5.21413 -0.752821 -0.412302 0.70295 Si
6 1 2.63688 2.57438 -0.0498675 0.0372684 2.82578 3.91555 0.862845 0.683945 0.623989 Si
16 1 2.73375 0.0295591 8.15586 3.48543 5.05474 1.36425 -0.291817 -0.0751402 0.323278 Si
36 1 5.40669 -0.0103019 0.0279989 -0.452016 -3.7935 3.87985 0.870533 -0.341223 -0.919326 Si
11 1 4.17862 1.37645 9.49658 -2.85163 -2.71568 -0.748735 -1.17184 -0.0953519 -0.0904901 Si
42 1 5.42951 2.83138 8.12784 -0.563779 2.09583 4.30648 0.656828 -0.330328 0.642699 Si
38 1 8.09939 2.71159 0.0136853 1.81219 -3.3996 -1.16327 0.597386 0.549202 0.393877 Si
10 1 -0.0115324 2.77624 8.18811 -1.66967 1.18744 1.95652 0.400677 -0.0950544 -0.305807 Si
43 1 9.50364 1.44224 9.48936 2.05783 -2.11204 -1.0292 -0.68651 -0.699912 0.124139 Si
13 1 1.40892 4.06459 9.54963 0.446527 -0.283325 -1.15042 -0.938902 0.107508 0.173308 Si
32 1 2.76188 5.40793 8.24679 4.24184 -0.633361 6.45479 0.270501 0.697931 -0.700215 Si
52 1 5.43623 5.38297 -0.0340298 2.59824 0.30582 4.20245 -0.356406 0.662837 0.319669 Si
27 1 4.07051 6.87827 9.57015 -5.70619 -1.62407 -1.1507 0.571328 -1.17252 -0.441629 Si
45 1 6.8767 4.18115 9.48937 -1.68883 1.90123 2.79277 -0.283519 -0.569902 -0.507533 Si
20 1 0.00807479 5.47729 0.00109842 4.31208 -5.296 2.31541 -0.0916411 -0.872851 0.182345 Si
59 1 9.4948 6.83432 9.59579 1.74523 0.454232 2.90332 0.652687 0.46784 -0.714823 Si
64 1 8.20292 5.60073 8.09711 0.0772386 -0.276057 -0.486643 -0.158397 -0.876493 0.410809 Si
22 1 2.80567 8.26105 -0.0319579 -3.96812 0.376047 1.85953 -0.598526 0.154529 1.09008 Si
29 1 1.34642 9.49253 9.49041 -2.28691 5.83874 -2.02399 0.10226 1.38413 0.53962 Si
58 1 5.33255 8.24542 8.16592 5.77062 0.190643 0.14764 0.906793 0.021701 -0.407487 Si
61 1 6.82207 9.54053 9.49029 3.49406 1.22542 0.0693177 -0.754233 0.218677 0.46252 Si
48 1 8.15638 0.00191275 8.10277 -3.25975 5.41238 -3.91127 0.63713 -0.197052 0.254555 Si
26 1 0.0554622 8.1146 8.14697 3.13429 -1.58568 5.13822 -0.751488 -0.298023 0.412786 Si
ITEM: TIMESTEP
19500
ITEM: NUMBER OF ATOMS
64
ITEM: BOX BOUNDS pp pp pp
0.0000000000000000e+00 1.0887404739999999e+01
0.0000000000000000e+00 1.0887404739999999e+01
0.0000000000000000e+00 1.0887404739999999e+01
ITEM: ATOMS id type xu yu zu vx vy vz fx fy fz element
4 1 0.0558834 -0.0200303 -0.0431211 6.36251 0.380341 -0.815179 -0.0330723 1.22393 0.445772 Si
7 1 1.47859 1.38524 1.35593 0.263153 -0.235588 -2.77922 -1.13812 0.193185 -0.398304 Si
34 1 5.52818 2.72725 2.79535 0.880591 5.2252 -2.31465 -1.28553 -0.0389988 -0.384021 Si
39 1 6.72363 1.36487 1.42111 -0.0403237 -4.11801 -4.41562 1.02833 -0.750826 -0.669809 Si
2 1 -0.00506966 2.72244 2.73072 -1.93767 3.69021 6.00341 -0.107845 -0.75883 -0.419333 Si
40 1 8.12441 -0.0494646 2.6962 -5.64215 -3.05706 0.426586 0.409493 0.273291 -0.0868853 Si
23 1 1.34607 6.82331 1.39503 -0.428203 3.60975 2.9354 -0.182566 -0.528402 -0.960433 Si
24 1 2.70134 5.41796 2.70498 3.45201 4.3988 -2.8981 0.375622 0.209575 0.912959 Si
1 1 4.1702 4.05044 1.39695 -2.13613 2.92649 -1.1864 -0.729782 0.330836 -0.248557 Si
55 1 6.82616 6.95046 1.3575 -2.32306 2.8931 3.67744 -0.819802 -0.872607 0.239625 Si
33 1 9.53651 4.0528 1.33283 -2.53798 4.00865 0.867469 -0.357164 0.855976 0.247124 Si
56 1 8.14884 5.53116 2.70197 0.116444 3.65166 -5.34294 -0.0937544 -1.09051 -0.301112 Si
8 1 2.73002 0.0192073 2.76365 4.37423 -3.55567 0.755181 0.140471 -0.683805 -0.406933 Si
18 1 0.00259888 8.11548 2.8269 -2.47987 -0.876259 4.19116 -0.37468 0.850717 -0.689318 Si
17 1 4.03874 9.52318 1.31122 5.82017 -4.13354 11.1647 -0.17529 0.607706 0.343792 Si
50 1 5.34811 8.22856 2.73065 0.213798 -3.11392 4.36822 1.11918 -0.0603969 -0.308223 Si
49 1 9.62238 9.56408 1.35053 1.97158 -2.49393 0.896863 -0.571638 -0.794461 0.61332 Si
54 1 8.20614 8.21343 0.00147043 -0.914389 6.38419 -2.85328 0.448679 -0.0546485 -0.751435 Si
12 1 0.0839814 0.100975 5.46336 -1.25231 -0.628859 1.66015 -0.730311 -0.675641 0.683349 Si
14 1 2.75815 2.78734 5.36541 -0.976409 -3.84278 -2.62643 -0.427552 -0.612965 0.794423 Si
15 1 1.51021 1.35803 6.90178 0.575074 -5.47972 1.37232 -0.589181 0.577545 -1.03176 Si
3 1 4.13537 1.34025 4.07094 3.40119 -0.182436 3.58454 -0.257444 0.593986 0.389144 Si
47 1 6.85163 1.41005 6.76693 -0.640275 2.04335 2.01062 0.0629605 -0.984724 0.727859 Si
35 1 9.50911 1.28121 4.06531 -3.53009 0.874295 -0.688581 0.258152 0.85557 -0.313698 Si
46 1 8.17876 2.71096 5.38097 1.22873 -4.1226 1.22648 -0.0392196 0.120005 -0.270446 Si
5 1 1.22034 4.11743 4.11991 -1.88508 3.40771 0.416557 1.1567 0.449142 -0.144542 Si
31 1 1.40829 6.81812 6.75522 4.66124 -3.62158 0.324402 -0.912923 0.910101 0.0291176 Si
9 1 4.04037 4.12297 6.82391 -4.30426 0.987669 -4.82024 0.269708 -0.937841 -0.0229454 Si
19 1 4.12773 6.85134 4.12358 5.37963 1.2168 -3.55615 -1.14598 -0.883845 0.130113 Si
37 1 6.78712 4.11292 4.0873 -2.8905 -4.12765 3.90116 0.93455 0.435109 0.191969 Si
60 1 5.43791 5.39857 5.50995 4.88424 2.2847 0.356998 0.149745 0.859765 -0.769315 Si
63 1 6.86199 6.75381 6.78862 -1.54831 -1.43336 0.483694 -0.848555 -0.598258 0.56165 Si
28 1 -0.071053 5.53785 5.51944 -3.45193 -1.8272 1.68966 0.0632874 -0.679 -0.979049 Si
41 1 9.50979 4.04768 6.73726 0.149569 -3.90814 -1.56275 0.256677 -0.101516 0.667913 Si
51 1 9.42579 6.82366 4.13021 -5.31984 2.14342 0.743606 0.611208 0.144208 0.0195872 Si
21 1 1.32919 9.55459 4.1369 -1.51856 4.96241 -4.19792 0.844156 -0.112276 -0.120005 Si
30 1 2.76518 8.25085 5.51726 -4.10452 0.275615 3.47422 -0.298338 -0.734307 -1.19244 Si
44 1 5.44768 0.0207909 5.48222 1.98857 -1.84072 -1.00051 0.0935947 -0.173667 0.0699668 Si
25 1 4.12452 9.49958 6.85973 2.05034 4.47112 0.00998104 0.0318043 0.774391 0.0558914 Si
53 1 6.75738 9.55114 4.08279 5.11117 -0.419191 -0.889973 -0.327081 -0.250395 0.0158026 Si
57 1 9.48129 9.57668 6.75744 -2.1394 -1.48967 -0.638706 0.366257 -0.272971 -0.530349 Si
62 1 8.04632 8.14831 5.44383 -1.23186 0.961988 2.0585 1.1072 1.05986 -0.132147 Si
6 1 2.80356 2.74586 -0.0817781 1.71116 0.32814 -4.68889 -0.26275 0.182592 1.1327 Si
16 1 2.72868 -0.102589 8.26354 -2.29123 -2.27792 1.0473 0.769499 0.62405 -0.421189 Si
36 1 5.43918 -0.00384378 -0.0220141 -2.05587 0.117166 -1.85596 -0.114927 -0.180372 1.2566 Si
11 1 4.11276 1.30137 9.57462 3.57178 0.445313 2.68845 -0.227466 0.357966 -1.33656 Si
42 1 5.43793 2.67232 8.14013 -3.51515 0.72609 -5.85694 -0.3058 0.601646 0.515501 Si
38 1 8.12625 2.67256 0.0599206 -1.30765 -1.28899 1.81245 0.148608 -0.0373788 -0.344897 Si
10 1 0.00137337 2.71596 8.13441 2.58747 0.490001 0.603072 0.0127148 -0.181558 0.143596 Si
43 1 9.49222 1.34955 9.5033 2.77253 4.56507 0.975417 0.884307 0.349622 0.822268 Si
13 1 1.35898 4.08506 9.49522 3.72656 1.15628 -0.494695 0.070682 -0.113927 -0.382031 Si
32 1 2.63833 5.47163 8.08589 -4.99971 -4.11778 -5.03164 1.26365 -0.343986 1.47662 Si
52 1 5.43907 5.49362 0.023585 -0.784916 -4.11609 0.413832 1.12361 -0.583955 0.81741 Si
27 1 4.17589 6.72368 9.49546 0.39041 -1.66292 2.43739 -2.12669 0.921612 -0.511949 Si
45 1 6.76212 4.03756 9.60273 5.37329 0.684596 0.986478 0.105696 0.0250163 -0.675997 Si
20 1 -0.0237954 5.43929 -0.104703 -1.19123 6.42032 -0.0018958 0.446412 0.127643 1.44572 Si
59 1 9.52937 6.76653 9.43277 -7.02994 -4.39944 -1.47713 -0.789119 0.538408 0.212521 Si
64 1 8.15016 5.32415 8.14621 1.80903 1.47806 -6.54457 -0.043894 0.438195 0.358571 Si
22 1 2.71327 8.15712 -0.043839 1.71814 0.728369 -1.17767 0.227154 -0.862883 -0.0562167 Si
29 1 1.31291 9.4769 9.50958 2.77037 -6.19971 -3.14892 -0.138176 -0.710589 -0.3645 Si
58 1 5.46312 8.08524 8.1034 -3.67482 -0.584405 4.38672 0.518745 0.267325 0.828524 Si
61 1 6.72655 9.50854 9.55363 0.330691 -0.24806 -1.08369 1.15726 -0.316937 -0.854334 Si
48 1 8.20119 -0.0225633 8.21231 0.00136606 -1.26589 4.18384 -1.51135 0.100182 -0.715737 Si
26 1 -0.0515983 8.15393 8.04282 0.436576 2.73221 -4.18566 0.509905 0.123333 0.645061 Si
ITEM: TIMESTEP
19600
ITEM: NUMBER OF ATOMS
64
ITEM: BOX BOUNDS pp pp pp
0.0000000000000000e+00 1.0887404739999999e+01
0.0000000000000000e+00 1.0887404739999999e+01
0.0000000000000000e+00 1.0887404739999999e+01
ITEM: ATOMS id type xu yu zu vx vy vz fx fy fz element
4 1 0.00535339 -0.0200886 0.0236152 -6.13962 -1.54503 -0.705661 0.0825954 -0.0180683 0.569977 Si
7 1 1.37308 1.32677 1.38098 4.61113 0.222482 1.51513 -0.00916513 -0.0240441 -0.357089 Si
34 1 5.41216 2.66448 2.64499 2.87149 -0.945989 1.79616 0.990588 0.782094 0.969418 Si
39 1 6.88275 1.46125 1.29482 -2.46109 1.64054 3.75476 -0.386793 -0.322219 0.549881 Si
2 1 -0.0463546 2.67346 2.61571 0.424227 -3.6865 -1.02708 1.05903 0.56787 1.24636 Si
40 1 8.18782 0.131064 2.69767 -2.26562 0.0315374 2.65387 -0.54884 -0.960585 0.7834 Si
23 1 1.31504 6.81697 1.36875 7.31756 0.384485 0.185463 0.737253 -0.0569615 0.429408 Si
24 1 2.72788 5.37564 2.69762 1.67533 -2.51127 -2.21676 -0.0985115 0.991592 -0.0596255 Si
1 1 4.0856 4.04027 1.35948 -1.59666 -4.04124 1.35079 0.155955 0.596803 -0.0937436 Si
55 1 6.77675 6.68779 1.37304 3.20725 3.86443 2.60505 0.773304 0.307109 0.496364 Si
33 1 9.53775 4.04744 1.31495 0.785823 -6.58192 -0.108174 -0.213393 0.461102 0.623727 Si
56 1 8.21636 5.34747 2.80112 -0.468807 -1.01169 3.03897 0.423449 1.48174 -0.988949 Si
8 1 2.71479 -0.0547475 2.72812 -2.13623 0.810626 -1.41458 -0.203195 0.18606 -0.0165562 Si
18 1 -0.0457336 8.2248 2.7025 1.8627 -5.74987 0.39151 0.314145 -0.766642 -0.219817 Si
17 1 4.14096 9.63039 1.32546 1.77958 0.630369 -6.82193 -0.138242 -1.0777 0.481536 Si
50 1 5.54116 8.23488 2.66505 -4.67505 4.01425 0.281998 -1.3759 -1.07182 0.307606 Si
49 1 9.45691 9.54425 1.39098 -1.39124 4.3739 1.59423 -0.0696291 -0.132354 -0.872145 Si
54 1 8.10699 8.07192 0.00284482 -2.80892 -1.28894 4.25683 0.321348 1.01703 0.441505 Si
12 1 -0.0596357 -0.031975 5.41035 3.13198 4.83256 1.23861 0.659425 0.24124 0.241868 Si
14 1 2.73669 2.70072 5.44675 0.890941 2.07584 1.34231 0.282339 0.160644 -0.37901 Si
15 1 1.32239 1.40832 6.73305 3.51669 3.32838 3.82747 -0.389793 -0.710284 0.643708 Si
3 1 4.06235 1.3371 4.01965 -1.54792 -3.7228 -0.395776 0.174092 -0.0900339 0.710224 Si
47 1 6.84929 1.30002 6.75248 -1.3983 -0.300124 -3.65252 -0.666778 1.09371 0.571461 Si
35 1 9.54083 1.44924 4.09422 -3.76103 -6.728 3.23181 -0.185711 -0.623438 -0.217202 Si
46 1 8.18556 2.81163 5.41157 1.58837 1.97061 2.97407 -0.275011 -0.911212 0.862886 Si
5 1 1.40591 4.01831 4.04207 1.40379 0.268866 2.88369 -0.977361 -0.103693 -0.0793417 Si
31 1 1.27362 6.75672 6.85762 0.315142 0.408297 4.13764 1.43683 0.243761 -0.595557 Si
9 1 4.03076 4.06227 6.89116 -0.0706295 1.52593 3.49321 0.443671 -0.271513 -0.405572 Si
19 1 4.0735 6.79128 4.05779 1.42172 -0.295083 -1.77942 0.440918 0.279285 -0.611481 Si
37 1 6.81832 4.08401 4.07715 2.60617 5.59207 -0.820939 -1.51718 -0.715626 -0.1464 Si
60 1 5.37024 5.38391 5.44935 -4.25476 -0.458464 3.60468 0.524358 0.294044 0.146141 Si
63 1 6.78067 6.75783 6.80832 5.89083 3.21684 -2.69889 0.0967765 0.384135 -0.712459 Si
28 1 0.0370544 5.41343 5.4215 0.109472 4.69152 5.75485 0.0296022 -0.384577 0.122513 Si
41 1 9.49026 4.15939 6.8099 -1.60531 3.13805 -0.942428 0.455671 -0.345292 -0.324865 Si
51 1 9.6441 6.82747 4.11157 -1.44364 -4.94221 0.838666 -1.37493 -0.5532 -0.366065 Si
21 1 1.32848 9.45678 4.06416 -4.06062 -3.74069 2.46476 -0.046995 1.05 0.0803636 Si
30 1 2.64009 8.09616 5.39193 4.69432 -1.14153 -4.87447 0.423871 0.0453647 1.19751 Si
44 1 5.42478 -0.0235002 5.41445 3.79076 -1.69605 -2.07634 -0.289909 -0.100826 0.109237 Si
25 1 3.99606 9.53329 6.81445 -0.390113 0.88328 0.0696359 0.623814 -0.418941 -0.899434 Si
53 1 6.8285 9.51305 4.0911 -1.86906 -0.451238 -2.3038 1.06356 0.712081 -0.0165271 Si
57 1 9.59981 9.48388 6.89415 2.82792 -1.34996 0.739623 -0.270188 -0.0180179 0.153195 Si
62 1 8.23106 8.13331 5.4894 -2.1989 -0.435845 -4.1055 -0.363734 0.0859512 -0.0824277 Si
6 1 2.69539 2.78225 0.0604464 -1.03471 -2.36163 -3.7632 -0.623237 -0.911747 -0.864522 Si
16 1 2.70373 0.0548032 8.14094 -2.95291 4.44741 3.45637 -0.78843 -0.0642461 -0.71794 Si
36 1 5.48028 0.121857 0.0421939 0.122839 -0.804007 -1.89274 -0.601874 -0.295528 -1.33668 Si
11 1 3.9258 1.35682 9.52514 -0.912064 -1.63172 0.408284 1.70407 0.52403 1.26522 Si
42 1 5.39828 2.65678 8.25479 2.27579 -0.537707 -0.0378426 0.588674 -0.0537791 -1.46546 Si
38 1 8.2326 2.7485 -0.0420466 -1.4345 2.43651 1.08934 -0.587018 0.410715 -0.331984 Si
10 1 -0.0391323 2.77052 8.14211 -1.17269 2.37771 -5.83286 0.177585 -0.453826 0.190402 Si
43 1 9.5753 1.36169 9.61251 -6.72965 1.30499 -5.89775 -0.370044 -0.253216 -1.73027 Si
13 1 1.36489 4.09884 9.49874 -0.752921 -3.88484 -0.10244 -0.0600324 -0.264518 0.523427 Si
32 1 2.7103 5.476 8.20341 0.761473 1.38854 3.32493 -0.912233 -0.699546 -1.04665 Si
52 1 5.41054 5.41346 -0.0057367 -3.6914 4.95841 -1.18033 -0.362529 0.146066 -1.32398 Si
27 1 3.96588 6.8568 9.43259 2.92328 1.08207 -1.1822 2.30784 0.393422 1.57357 Si
45 1 6.85244 4.07438 9.45202 -1.33292 -1.0796 -0.180319 -0.673932 0.0996173 1.08224 Si
20 1 0.0467419 5.38101 0.052365 1.10194 -4.41433 -4.95063 -0.571291 0.950816 -0.958142 Si
59 1 9.59693 6.85517 9.55923 6.93511 3.74195 -1.83644 -0.22767 -1.1911 0.207904 Si
64 1 8.16824 5.49198 8.16072 -0.364431 -1.9153 1.40872 0.495334 0.325678 0.442007 Si
22 1 2.72331 8.19872 0.0400808 1.8816 4.34245 -0.349554 0.316987 0.122161 -0.00829298 Si
29 1 1.46864 9.63518 9.58511 -1.52351 1.41824 1.296 -0.584811 -0.732048 0.00640802 Si
58 1 5.49724 8.21153 8.11203 1.85549 -0.770936 -6.12583 -1.38003 -0.329424 0.467286 Si
61 1 6.7647 9.53783 9.5699 -5.28818 0.644176 3.56434 0.208753 -0.0779289 0.175444 Si
48 1 8.13781 -0.0337396 8.20561 3.02784 -3.78695 -3.76644 1.07922 0.3201 0.183516 Si
26 1 0.167488 8.17031 8.30334 -3.87516 -2.23585 -1.53094 -1.24667 0.729736 -0.627514 Si
ITEM: TIMESTEP
19700
ITEM: NUMBER OF ATOMS
64
ITEM: BOX BOUNDS pp pp pp
0.0000000000000000e+00 1.0887404739999999e+01
0.0000000000000000e+00 1.0887404739999999e+01
0.0000000000000000e+00 1.0887404739999999e+01
ITEM: ATOMS id type xu yu zu vx vy vz fx fy fz element
4 1 0.044446 -0.00319655 -0.0222015 8.43558 2.00608 0.664941 -0.971137 -0.268745 -0.152983 Si
7 1 1.29342 1.43645 1.3319 1.80972 1.70189 -3.10812 0.182445 -0.616839 0.733566 Si
34 1 5.44874 2.67801 2.72756 0.100201 -4.60867 -1.66732 -0.510151 0.00590743 -0.778546 Si
39 1 6.80879 1.26497 1.38064 2.00832 -5.58304 -1.71076 -0.703833 -0.0213923 0.591129 Si
2 1 -0.0327756 2.78708 2.76587 -1.07352 0.129121 -4.48057 -0.0609977 -0.229151 -0.769075 Si
40 1 8.18565 -0.0507277 2.75972 0.497568 1.42943 -4.97126 0.266031 0.257529 -0.663987 Si
23 1 1.33048 6.75963 1.36187 -4.80394 -2.08246 -3.52052 -0.112495 0.199402 -0.404968 Si
24 1 2.71489 5.50152 2.75841 -2.07495 0.866281 4.42285 -0.254591 -1.21955 -0.390607 Si
1 1 4.04336 4.06626 1.3691 1.26031 0.944905 -1.40093 0.521621 0.143855 0.436334 Si
55 1 6.8404 6.79073 1.39164 -4.37245 -4.87599 -0.61923 -0.172177 0.541743 -1.17583 Si
33 1 9.414 4.09167 1.40582 -0.179292 6.07287 -0.964668 1.59387 -0.776879 -0.536968 Si
56 1 8.2287 5.45798 2.68899 1.62507 -0.260095 3.11815 -1.72566 -0.244792 1.24473 Si
8 1 2.70163 0.0529129 2.66406 3.28147 -0.338079 -5.85502 0.302403 0.67498 -0.00725472 Si
18 1 0.0757431 8.21029 2.67487 -7.27659 4.09498 -0.245983 -0.105911 -0.286239 0.515458 Si
17 1 3.98308 9.47335 1.33995 -2.21403 2.47163 -1.10179 0.483721 0.0647508 -0.0245264 Si
50 1 5.3831 8.11572 2.7203 4.28464 5.799 -0.838532 0.468198 0.740376 -0.112812 Si
49 1 9.54432 9.48783 1.35207 -2.89967 1.26487 2.45083 0.574122 1.0584 0.0151544 Si
54 1 8.25656 8.21262 -0.0543561 2.50851 -6.12897 -2.91707 -1.29147 -1.08769 0.321196 Si
12 1 0.0438094 -0.0668665 5.38065 -5.04069 0.0065084 2.50647 -0.587804 0.545328 0.0969519 Si
14 1 2.73872 2.73462 5.56418 -3.36459 -0.74065 1.14845 -0.766796 0.367148 -1.03383 Si
15 1 1.32613 1.27679 6.80562 -6.07262 3.28883 -3.01833 0.265353 0.806647 0.542798 Si
3 1 4.02411 1.45009 4.0924 1.19816 1.51714 -2.18133 -0.203521 -0.777979 -0.299934 Si
47 1 6.74794 1.48749 6.77304 1.33538 -0.325917 0.0832744 -0.00668227 -1.12646 -0.0673419 Si
35 1 9.55399 1.35708 4.05764 3.22768 2.52181 -2.92113 -0.0688177 -0.351678 0.556698 Si
46 1 8.20764 2.72113 5.43985 0.000348147 3.41253 -5.96817 -0.00886949 0.273789 -0.0889524 Si
5 1 1.33954 4.10103 4.107 -2.67794 0.37 -0.598364 0.896232 -0.217285 0.471515 Si
31 1 1.34834 6.82008 6.82241 -7.30357 -0.281911 -3.01921 -0.46196 -0.65264 -0.128799 Si
9 1 4.1645 4.17029 6.7458 1.1886 -2.83048 3.33456 0.00812133 -0.0798514 0.362685 Si
19 1 4.06449 6.78582 4.10313 0.636206 2.01971 1.46268 0.124258 0.688932 0.772496 Si
37 1 6.78668 3.99269 4.04314 4.14792 1.87251 -0.982205 1.38588 1.47379 0.127799 Si
60 1 5.58108 5.52251 5.38966 -2.54908 -3.25041 -6.25868 -1.10108 -0.862829 4.00758e-05 Si
63 1 6.80034 6.85487 6.8345 -2.27008 -5.21902 1.21261 0.6076 0.0867564 0.0598479 Si
28 1 -0.017832 5.41748 5.45345 -1.4256 -2.39054 -5.13653 0.271175 0.898245 -0.12939 Si
41 1 9.56379 4.09119 6.84005 5.60371 -3.13232 2.85702 -0.146799 -0.606929 0.158486 Si
51 1 9.58772 6.79989 3.9861 1.66304 3.94015 5.05864 0.141707 0.229682 0.868755 Si
21 1 1.46155 9.58339 4.03425 4.29009 2.47274 3.38379 -0.369235 -1.23575 0.571485 Si
30 1 2.7148 8.16621 5.55546 -1.67644 -4.27253 2.02599 0.513723 0.312667 -1.56923 Si
44 1 5.35351 0.0508048 5.40336 0.933174 1.38096 -0.249111 1.04271 -0.0566216 0.484095 Si
25 1 4.14398 9.50275 6.84193 -1.69936 -2.05934 1.4928 -0.258655 0.114426 0.206428 Si
53 1 6.78468 9.55112 4.06963 -0.221124 -0.252885 -0.569408 -0.763059 -0.598134 0.165004 Si
57 1 9.51596 9.47151 6.70786 0.553814 0.617986 -2.15972 -0.424907 0.94208 0.532569 Si
62 1 8.1612 8.12104 5.35957 2.82021 2.98356 -0.0651968 -0.0703352 0.161804 0.127781 Si
6 1 2.73527 2.66218 0.0325443 0.328105 2.39026 2.59278 0.29275 0.636409 -0.489777 Si
16 1 2.73368 -0.0360752 8.15581 3.03679 0.225511 0.516154 0.342056 0.238123 0.248261 Si
36 1 5.4215 -0.0706595 0.0155003 -2.18342 4.19105 6.59571 0.466726 -0.177696 0.363166 Si
11 1 4.14776 1.31998 9.58565 -3.45758 4.53724 1.86276 -0.858922 0.407573 -1.05873 Si
42 1 5.43295 2.80477 8.18466 -3.60438 -3.42149 7.97428 0.301768 -0.0850808 0.642582 Si
38 1 8.09212 2.69238 0.123238 -0.406348 -5.23767 0.316915 0.570829 -0.0199607 -0.717027 Si
10 1 0.0307131 2.69973 8.26947 2.67888 0.423423 2.33317 -0.0770965 0.157043 -0.685663 Si
43 1 9.46283 1.38633 9.6038 11.8511 1.60407 6.25632 0.417221 -0.22788 -0.247914 Si
13 1 1.46236 4.10625 9.55974 -1.10074 -2.16956 -1.76208 -0.999981 -0.255079 0.106362 Si
32 1 2.74545 5.44316 8.10401 -2.34504 3.84274 0.523275 0.338536 0.534403 0.730675 Si
52 1 5.45392 5.39543 -0.011499 1.90249 -1.38015 0.933431 -0.257325 0.833461 0.902004 Si
27 1 4.07199 6.82049 9.564 -8.76701 0.822688 -1.3792 -0.278105 -0.938284 -0.139064 Si
45 1 6.87651 4.09632 9.61785 -1.68095 -1.85761 -3.93298 -0.36103 -0.0927434 -1.40832 Si
20 1 -0.0869951 5.40522 0.022926 1.03069 -1.00923 1.3538 0.799012 -0.185228 -0.326723 Si
59 1 9.50604 6.74931 9.47505 -0.075232 1.46758 -1.61593 0.870873 1.10315 0.706297 Si
64 1 8.20335 5.48707 8.14959 1.76735 -3.50898 0.136806 -1.06135 -1.08016 -0.0934991 Si
22 1 2.61923 8.13372 -0.0446981 -0.563071 -4.34631 0.897905 -0.00992606 0.222569 -0.0859423 Si
29 1 1.27702 9.48115 9.38411 3.65579 -3.84653 1.22262 0.939359 0.639424 1.54708 Si
58 1 5.45499 8.15168 8.29347 1.53757 -0.771964 2.94191 0.30005 0.485034 -1.19001 Si
61 1 6.85421 9.57598 9.50707 0.327794 1.8161 1.84181 -0.0902107 -0.159833 0.287625 Si
48 1 8.14068 0.0875313 8.10898 -3.88705 1.97895 0.510525 0.398473 -0.520735 -0.355173 Si
26 1 -0.0494545 8.15929 8.11916 5.74005 -0.302338 1.18614 -0.545935 -0.785314 -0.36416 Si
ITEM: TIMESTEP
19800
ITEM: NUMBER OF ATOMS
64
ITEM: BOX BOUNDS pp pp pp
0.0000000000000000e+00 1.0887404739999999e+01
0.0000000000000000e+00 1.0887404739999999e+01
0.0000000000000000e+00 1.0887404739999999e+01
ITEM: ATOMS id type xu yu zu vx vy vz fx fy fz element
4 1 0.0213412 -0.0455835 0.0671717 -0.440744 -0.406484 1.98396 0.394129 1.05405 -0.961283 Si
7 1 1.42686 1.28953 1.42942 -4.59349 1.18134 -0.070588 -0.178377 0.656468 -0.704298 Si
34 1 5.50641 2.79438 2.7082 3.94228 1.41899 -1.78876 -0.746448 -0.328481 0.612853 Si
39 1 6.80266 1.45538 1.3245 0.815068 1.24212 2.57904 0.621195 -0.0297248 -0.377026 Si
2 1 0.0379925 2.71787 2.69056 3.02088 -0.612748 6.52889 -0.406569 -0.415147 0.446599 Si
40 1 8.10965 0.0589704 2.6745 -1.9414 0.0607419 6.62197 0.419251 -0.46035 0.0178585 Si
23 1 1.41323 6.92702 1.35306 1.47768 2.09102 -1.92791 -0.17929 -0.858167 0.310598 Si
24 1 2.73106 5.44901 2.71716 1.27936 0.69074 -0.78133 -0.026857 0.605855 -0.0157179 Si
1 1 4.08851 4.09536 1.34694 -0.00951169 -4.25222 -3.29437 0.0750776 -0.0324846 -0.543859 Si
55 1 6.87008 6.87303 1.31623 2.65 -1.73492 5.85335 -1.21935 -0.95719 0.77801 Si
33 1 9.58523 4.09488 1.34756 -2.35147 1.48661 3.03214 -0.514865 0.783447 0.18825 Si
56 1 8.08378 5.38881 2.74051 0.659386 1.13332 1.30734 0.964366 0.623816 -1.0649 Si
8 1 2.77148 0.0211942 2.83649 -2.05371 -1.30767 -1.36973 -0.452798 -1.47141 -0.617097 Si
18 1 -0.058649 8.08058 2.81893 2.84266 0.194529 -1.96371 -0.40834 1.09673 -1.07865 Si
17 1 4.1761 9.5512 1.43854 1.99368 -1.7516 -0.921517 -0.506487 0.240685 -0.203013 Si
50 1 5.43824 8.12216 2.82699 0.344861 -4.52206 -1.71885 0.954199 0.404196 -0.599903 Si
49 1 9.53269 9.57973 1.35537 -2.84309 1.45853 -3.50711 -0.615511 -1.26275 0.962584 Si
54 1 8.1398 8.22973 -0.042302 0.734247 4.2265 2.82947 0.781097 -0.135348 0.0842808 Si
12 1 -0.0469639 0.0571004 5.5049 0.24072 -4.72892 -1.01536 0.207324 -0.613524 -0.300111 Si
14 1 2.70762 2.68159 5.26231 1.08722 0.233297 2.65611 0.568782 -0.229246 1.63229 Si
15 1 1.42692 1.34465 6.7823 -0.465198 -2.09045 2.39239 0.0205759 0.196436 -0.222955 Si
3 1 4.19026 1.29479 4.08851 0.27721 1.80375 -1.95837 0.536843 1.02434 0.0147878 Si
47 1 6.77699 1.28541 6.88456 -3.09286 6.18632 -0.180249 1.54501 -0.287369 -0.281995 Si
35 1 9.49051 1.32383 4.05452 -3.81453 0.43016 -2.63595 0.349798 0.8836 0.0134516 Si
46 1 8.1006 2.64206 5.4442 1.26621 0.954722 2.84101 -0.120185 0.45356 -0.161667 Si
5 1 1.35187 4.09892 4.05886 -4.83358 1.05979 1.06845 -0.531108 0.651639 -0.185435 Si
31 1 1.40542 6.87354 6.75931 1.94119 -0.983861 -0.444602 -0.0849365 -0.195297 0.566476 Si
9 1 4.06326 4.01522 6.71967 2.14585 2.57708 -0.868753 -0.808706 -0.100073 0.497105 Si
19 1 4.05727 6.8083 4.183 -2.20631 1.87824 -0.614135 -0.00329354 -0.622512 -1.15408 Si
37 1 6.77719 4.1726 4.15151 -6.42337 -7.47813 -2.68148 -0.197156 -1.56866 0.00260809 Si
60 1 5.38526 5.43024 5.50474 7.14417 3.8849 0.162926 0.282636 0.424193 -0.366302 Si
63 1 6.73777 6.77881 6.82833 0.120167 5.92601 -3.63257 0.281736 0.0750474 0.0968022 Si
28 1 0.0125096 5.56294 5.44927 0.914205 -1.14705 3.39365 -0.619764 -1.57422 -0.379207 Si
41 1 9.44549 4.08574 6.72992 1.4796 4.9563 -1.46049 0.779754 0.258025 0.313253 Si
51 1 9.36888 6.75866 4.116 0.117737 -6.82405 -2.48115 0.885738 0.383984 0.228048 Si
21 1 1.24811 9.52284 4.13094 3.70222 0.205403 -3.54127 0.736628 0.601113 -0.278948 Si
30 1 2.72122 8.21944 5.38478 -3.34103 -1.03478 7.1606 -0.431957 0.0796893 0.608199 Si
44 1 5.51934 -0.0531058 5.51801 -3.87534 -4.17748 -2.83062 -0.468438 0.393456 -0.873593 Si
25 1 4.10532 9.5034 6.73477 -0.525763 0.456415 -3.72749 -1.04953 0.455759 0.637535 Si
53 1 6.86096 9.5605 4.11571 4.49193 1.07143 -0.294378 -0.177207 -0.768231 0.00424662 Si
57 1 9.58874 9.53529 6.90343 -0.539874 -7.73276 -0.873258 -0.365304 -0.54956 -1.06333 Si
62 1 8.15864 8.16813 5.55761 2.57373 -4.09718 -3.62033 -0.0756798 0.308546 -0.3915 Si
6 1 2.72195 2.67419 -0.0438315 -2.78207 -4.71904 -1.76221 -0.13268 0.532215 0.530009 Si
16 1 2.74076 -0.0503633 8.19375 -1.14663 0.469581 -1.26785 0.110448 -0.0446787 -0.329634 Si
36 1 5.49583 0.033285 -0.0119913 -1.40723 -0.127193 -0.678732 -0.569409 -0.171203 0.237499 Si
11 1 4.13796 1.36649 9.48103 4.38952 -5.54356 1.18168 -0.356138 -0.242493 0.110994 Si
42 1 5.46455 2.70404 8.08122 1.59567 1.08922 -2.01166 -0.871741 0.0108204 0.431718 Si
38 1 8.21301 2.81081 -0.0465046 -4.49062 2.84253 0.854206 -0.211844 -0.885881 -0.0130437 Si
10 1 0.00554188 2.71416 8.05193 -0.832626 2.75569 3.32767 -0.190195 0.533976 0.796705 Si
43 1 9.55172 1.37587 9.49804 -3.90311 -1.22762 -3.33025 0.385552 -0.445927 0.486133 Si
13 1 1.27513 4.12157 9.55939 1.93822 1.97783 -0.293844 0.646297 -0.219778 -0.8021 Si
32 1 2.71835 5.44286 8.11835 -3.23784 -3.75448 -0.556052 0.0639353 -0.3432 0.433021 Si
52 1 5.48345 5.45236 -0.0655355 -0.441867 -1.49857 -4.2135 0.472583 -0.467756 0.934585 Si
27 1 4.15047 6.77263 9.52327 0.852387 1.50343 4.10086 -1.4817 0.117182 -0.589463 Si
45 1 6.78013 4.02495 9.43888 -0.0641488 2.88114 2.86804 -0.0503146 0.471891 0.915142 Si
20 1 -0.0330306 5.59599 -0.00429322 0.64731 -0.655019 -2.9917 0.596775 -0.882445 0.568144 Si
59 1 9.49881 6.83049 9.49557 0.638688 -5.09996 2.02732 -0.964665 -0.151817 -0.0126975 Si
64 1 8.08997 5.40661 8.17839 4.0185 4.91327 -0.860006 0.85519 0.536383 -0.585994 Si
22 1 2.8384 8.2167 -0.0180507 3.44771 4.23349 0.436457 0.248421 -0.464751 0.817875 Si
29 1 1.3837 9.45952 9.60742 -2.98455 2.57344 -1.55328 -0.416491 0.53212 -1.08053 Si
58 1 5.32708 8.12832 8.08399 -5.34447 -0.35446 3.95063 0.957086 -0.200671 0.551134 Si
61 1 6.6654 9.41954 9.50726 -0.744931 3.21477 3.05391 1.00456 0.998688 -0.384297 Si
48 1 8.21889 -0.11989 8.23097 5.33031 1.14201 -1.89583 -1.41809 1.00563 0.422229 Si
26 1 -0.0103696 8.11306 8.17109 0.610823 1.45763 -0.59282 1.10644 0.58681 0.3716 Si
ITEM: TIMESTEP
19900
ITEM: NUMBER OF ATOMS
64
ITEM: BOX BOUNDS pp pp pp
0.0000000000000000e+00 1.0887404739999999e+01
0.0000000000000000e+00 1.0887404739999999e+01
0.0000000000000000e+00 1.0887404739999999e+01
ITEM: ATOMS id type xu yu zu vx vy vz fx fy fz element
4 1 -0.108082 0.0565007 -0.0441579 -1.33107 -3.53944 1.17343 0.627196 -1.12182 0.628627 Si
7 1 1.27979 1.33974 1.3308 2.80838 -4.54222 0.211458 0.351051 0.0550213 -0.324466 Si
34 1 5.41214 2.68881 2.85811 2.78609 1.07013 1.64733 0.76714 0.416903 -1.12994 Si
39 1 6.74678 1.33042 1.41532 -6.9847 -0.827799 0.97287 0.0585776 0.00585669 -0.0353971 Si
2 1 0.027564 2.65022 2.73596 -2.43259 1.61428 -4.01373 0.0852147 0.752798 0.326506 Si
40 1 8.22898 -0.00696691 2.68629 -2.74182 0.46582 -5.0122 -1.01259 0.275929 1.3105 Si
23 1 1.38801 6.65749 1.31303 0.633267 1.75452 -0.741159 -0.642795 1.14085 0.349889 Si
24 1 2.6942 5.3947 2.7434 -0.0644043 -4.12015 -0.0028803 0.745164 -0.216716 -0.0192699 Si
1 1 4.13663 4.06195 1.42822 3.26259 0.438708 4.35748 -0.707087 -0.112527 -0.221359 Si
55 1 6.77397 6.7509 1.32266 0.672578 5.34326 -5.81734 0.354124 0.971258 0.899267 Si
33 1 9.56773 3.98696 1.38077 0.813355 -5.73952 -0.082662 -0.816756 -0.0524286 -0.304241 Si
56 1 8.22028 5.43907 2.66123 -5.15698 -1.54031 2.30951 0.24122 0.342162 0.501614 Si
8 1 2.62714 -0.0069758 2.65 4.06094 1.24447 3.23081 0.622544 0.293141 0.996897 Si
18 1 0.0546205 8.15929 2.669 -0.349657 -4.77825 7.39764 0.695589 -0.755905 0.865341 Si
17 1 3.93815 9.58499 1.23616 -0.508483 1.85271 2.56637 0.953801 -0.651692 0.511809 Si
50 1 5.36506 8.22168 2.64129 -2.77129 3.75587 1.1097 -0.0701384 -0.71467 0.0373136 Si
49 1 9.5511 9.515 1.41691 3.78691 2.57277 2.10822 0.0757631 -0.0838138 -1.26309 Si
54 1 8.21664 8.1033 0.0559785 -1.23789 0.493025 -1.35453 -0.52408 1.08971 -0.213665 Si
12 1 0.0658389 -0.0195957 5.40754 0.0956234 4.45742 -2.03106 -0.0620996 0.279323 0.630826 Si
14 1 2.7515 2.7575 5.52414 1.32025 1.68053 -5.67783 -0.0587894 -0.240281 -0.497333 Si
15 1 1.38333 1.39038 6.79949 4.948 -3.16618 4.82857 -0.432331 -0.405231 0.350077 Si
3 1 4.01851 1.36345 4.10652 1.54101 -1.11945 -3.37454 -0.739509 -0.4218 -0.0970069 Si
47 1 6.76302 1.3484 6.76857 0.738517 -3.48048 0.327854 -0.485562 1.34495 -0.223356 Si
35 1 9.58334 1.3676 4.11016 -1.5408 -1.29447 -0.51102 -0.884996 -0.307869 -0.14446 Si
46 1 8.12779 2.77067 5.40519 1.88875 0.103378 -1.70465 0.966799 -0.441546 0.800617 Si
5 1 1.39019 4.03382 4.10403 -1.47354 -0.295945 3.03303 -0.124839 -0.299591 -0.153559 Si
31 1 1.3947 6.86152 6.82933 2.52919 0.226091 -1.93372 0.145598 -0.734871 -0.243252 Si
9 1 4.10487 4.07609 6.88884 -4.14977 2.80332 1.16095 0.0879502 0.791619 -0.187276 Si
19 1 4.08743 6.73591 4.08299 1.64208 3.536 3.32708 0.209935 0.755559 -0.662309 Si
37 1 6.85928 4.1385 4.0446 5.11053 4.20122 0.336709 -0.697828 -0.368854 0.0971389 Si
60 1 5.43665 5.39481 5.43047 0.565414 -4.10162 4.05504 0.705545 0.493583 0.733667 Si
63 1 6.87855 6.79617 6.80892 6.23134 -1.69378 2.15583 -0.432827 -0.242522 -0.82378 Si
28 1 0.0606342 5.3911 5.43483 -0.399004 7.63939 3.86413 0.0393141 0.912463 0.74705 Si
41 1 9.53543 4.13856 6.83742 -3.79883 -1.65895 -4.7417 -0.71796 -0.409356 -0.211531 Si
51 1 9.606 6.8023 4.11503 -4.74712 3.37537 4.08448 -0.566519 0.126446 -0.778214 Si
21 1 1.44533 9.47329 4.13764 -3.33082 -3.57211 1.84746 -0.809718 0.259691 -1.3966 Si
30 1 2.81151 8.16083 5.42396 2.29551 4.36604 -1.70132 -0.630904 -0.788254 0.536509 Si
44 1 5.36698 0.0263932 5.43986 3.57106 -0.483509 3.57382 0.0429503 -0.691549 0.136596 Si
25 1 4.01808 9.51357 6.83026 -0.427934 0.382723 2.80162 1.39242 0.449596 -0.501541 Si
53 1 6.73785 9.5373 4.06559 -0.999276 -1.20048 -1.04816 0.489072 0.387929 -0.366243 Si
57 1 9.52558 9.57035 6.76495 -2.37589 3.46443 1.24196 0.0318007 0.052089 0.350656 Si
62 1 8.18021 8.22422 5.42035 -3.42046 0.669721 1.90285 -0.014225 -0.754482 -0.23152 Si
6 1 2.70075 2.72085 0.0525669 2.68758 1.22065 -3.02759 0.514832 -0.0497571 -0.349908 Si
16 1 2.73914 0.00619359 8.16066 3.87305 -4.45061 4.21835 -0.55753 0.529753 0.327739 Si
36 1 5.45073 -0.00959374 -0.0466873 1.06363 0.334091 1.71255 -0.100239 0.145849 -0.339921 Si
11 1 4.10946 1.43613 9.47427 -3.14384 0.395657 -0.491379 -0.422431 -0.735862 1.0188 Si
42 1 5.49507 2.7857 8.22649 -2.34934 0.786025 -0.740096 -0.0672709 -0.80701 -1.15891 Si
38 1 8.0865 2.66889 0.0182737 3.41214 -3.02717 2.74751 0.395168 0.487054 0.469408 Si
10 1 -0.0399028 2.72369 8.16943 -0.945572 1.81071 -2.4458 0.114491 -0.372732 0.140805 Si
43 1 9.43593 1.3436 9.53583 -0.930341 2.79865 1.13699 -0.40774 0.543762 -1.22129 Si
13 1 1.35721 4.0528 9.52928 1.37365 2.12392 -0.426705 0.493698 0.300589 -0.194779 Si
32 1 2.80091 5.52669 8.25494 0.292062 2.88267 -2.91686 -1.0369 -0.763409 -0.80436 Si
52 1 5.42766 5.45557 0.0181801 1.315 3.8405 4.21285 -0.629678 -0.0864942 -0.584647 Si
27 1 4.12892 6.92955 9.49973 1.40309 -6.20247 -2.47734 0.761242 -0.264199 0.466305 Si
45 1 6.78089 4.09665 9.57025 0.811653 -0.710286 -1.03437 0.415586 0.228031 0.556426 Si
20 1 -0.0137116 5.33543 0.00751657 -1.4773 1.99168 0.0146638 -0.0773683 0.596514 -0.326345 Si
59 1 9.57068 6.85144 9.57864 -0.528333 2.57954 -5.78303 -0.0608498 -1.26753 -0.0960357 Si
64 1 8.1441 5.46427 8.27168 -4.11395 -5.70011 -2.80454 0.822861 0.173539 -0.58045 Si
22 1 2.62279 8.13438 -0.0452486 -2.44704 1.04267 -4.67686 0.168644 0.391355 -0.272024 Si
29 1 1.29054 9.5788 9.49941 3.17682 -1.74708 -1.53159 0.178916 -0.0883882 0.217524 Si
58 1 5.55895 8.23088 8.06231 0.243577 0.142428 -7.02228 -0.820756 -0.242489 0.995422 Si
61 1 6.9172 9.52881 9.47967 -3.31472 -2.73366 -3.51026 -0.982351 -0.471425 1.00374 Si
48 1 8.06207 0.0240428 8.07859 -1.11213 -2.94625 1.47557 1.92597 -0.0394421 0.421557 Si
26 1 -0.0318703 8.18234 8.16992 -0.348752 -4.78808 -2.50749 0.114489 0.411196 -0.470556 Si
ITEM: TIMESTEP
20000
ITEM: NUMBER OF ATOMS
64
ITEM: BOX BOUNDS pp pp pp
0.0000000000000000e+00 1.0887404739999999e+01
0.0000000000000000e+00 1.0887404739999999e+01
0.0000000000000000e+00 1.0887404739999999e+01
ITEM: ATOMS id type xu yu zu vx vy vz fx fy fz element
4 1 0.172354 -0.0376697 0.0378051 1.36319 3.63956 -7.09056 -0.960622 0.578599 0.0982198 Si
7 1 1.35246 1.44674 1.44088 -0.0465003 1.82189 1.34123 0.464891 -0.515859 -0.408607 Si
34 1 5.40879 2.71752 2.60395 -2.6787 -2.28285 -0.207046 0.0419492 -0.375766 0.58876 Si
39 1 6.93639 1.42449 1.32953 2.71849 5.41373 -2.23271 -1.23258 -0.667374 -0.250976 Si
2 1 -0.0325798 2.82008 2.70318 -0.93321 -2.78642 0.898271 -0.388322 -0.416012 -0.66583 Si
40 1 8.22698 0.00781012 2.71507 2.46463 5.261 -0.989865 -0.0394995 -0.268715 -0.662103 Si
23 1 1.23117 6.88299 1.46559 -3.25242 0.461614 1.66106 1.19441 -0.651451 -1.10132 Si
24 1 2.68025 5.51762 2.70605 -0.644366 1.80135 -3.48633 0.162469 -0.0637788 -0.255895 Si
1 1 4.06115 4.15823 1.34504 1.15468 -5.21647 -2.72592 -0.0716747 -0.324842 0.348989 Si
55 1 6.78491 6.72687 1.34537 -2.87683 -4.40923 2.0985 0.575705 0.183171 -0.794167 Si
33 1 9.51006 4.18592 1.32788 1.92988 0.895463 -1.59648 0.547511 -0.587459 0.0358963 Si
56 1 8.18316 5.45297 2.70755 5.61167 -0.177209 -4.23323 -0.915374 -0.352354 0.745407 Si
8 1 2.73091 0.043883 2.75884 -4.14821 -0.908982 -1.16926 0.578466 0.165395 -0.835444 Si
18 1 -0.0228566 8.31925 2.66039 -2.45859 3.14381 -2.35022 -0.751534 -0.255458 0.865654 Si
17 1 4.11947 9.4561 1.46436 0.565649 4.45321 -2.49318 0.12397 0.621171 -0.463912 Si
50 1 5.56495 8.08061 2.74573 3.4442 1.17589 0.0823554 -0.820922 1.06936 0.751614 Si
49 1 9.50927 9.51711 1.18116 0.175127 -2.43959 4.24763 0.136415 0.733761 1.44406 Si
54 1 8.12948 8.14058 -0.064835 -0.33481 -3.1815 2.93028 -0.121334 -0.909097 0.671266 Si
12 1 -0.0620881 -0.0481121 5.43673 -0.189204 -3.65693 -2.9058 0.254091 0.816836 -0.617887 Si
14 1 2.69624 2.74395 5.37783 1.39574 -2.5766 2.04889 -0.113293 -0.153373 0.257735 Si
15 1 1.34438 1.33785 6.73309 1.7636 1.28108 -1.95956 -0.0902165 0.0924655 0.429826 Si
3 1 4.06764 1.39931 4.08182 3.96748 -0.390678 1.20445 0.619703 -0.148888 -0.173114 Si
47 1 6.88532 1.41576 6.8709 2.79584 -1.9646 -3.82943 -0.640044 -1.34585 -0.317691 Si
35 1 9.53886 1.4239 4.02231 0.068233 4.60228 2.15915 0.190966 -0.667907 0.814515 Si
46 1 8.16343 2.69728 5.43224 -4.50347 1.22578 -2.21861 0.227898 0.4793 0.0373935 Si
5 1 1.38149 4.07202 3.95462 -0.140286 0.825596 -0.966488 0.0550387 0.441112 1.19913 Si
31 1 1.31691 6.74566 6.74541 0.829908 -0.629596 4.83109 -0.686593 0.192168 0.464335 Si
9 1 4.09373 4.02227 6.77266 -2.38706 -0.343122 0.182928 -0.266589 0.30731 -0.24266 Si
19 1 4.01693 6.85441 4.06967 1.7092 -4.39947 1.86081 0.55595 -0.145554 0.711999 Si
37 1 6.72866 3.97142 4.04715 0.421052 -1.39262 2.09198 0.922727 1.50533 0.0317161 Si
60 1 5.42751 5.44526 5.42477 -3.31679 -0.556329 -0.720492 -0.71512 -0.55726 -0.586491 Si
63 1 6.68715 6.7695 6.83472 -4.81821 -0.87215 1.60795 0.827183 0.65209 0.543699 Si
28 1 -0.0128986 5.34429 5.35283 -0.745015 -2.75211 -1.87833 -0.349009 0.64856 0.380602 Si
41 1 9.53839 4.01506 6.87265 0.236563 2.94653 0.439174 0.504007 -0.132063 -0.943925 Si
51 1 9.54307 6.86618 4.02319 5.27997 -1.3603 -0.989053 0.0342167 -0.287951 0.556219 Si
21 1 1.39078 9.61088 4.01535 1.75911 -0.127121 -0.163046 -0.883706 -0.817296 1.32055 Si
30 1 2.62698 8.19155 5.50271 -4.40124 -1.37413 1.2274 0.917101 0.288838 -1.16753 Si
44 1 5.39948 0.0332985 5.50584 -3.00026 0.803598 -4.02982 1.4544 0.44746 -0.554693 Si
25 1 4.10732 9.52678 6.79874 -5.76831 -1.18388 1.4985 -0.657292 -0.680491 0.51138 Si
53 1 6.87899 9.55778 4.14763 -0.196134 -0.148701 1.63241 -0.656374 -0.259452 -0.149548 Si
57 1 9.48765 9.53244 6.85362 4.35395 -3.26424 0.84818 0.298531 -0.172135 0.0727458 Si
62 1 8.16001 8.10828 5.52338 0.335048 -0.986198 1.51945 -0.16362 0.274324 -0.326593 Si
6 1 2.72582 2.77275 0.0646462 1.39442 -0.064216 3.63515 -0.226314 -0.373148 -0.830441 Si
16 1 2.70827 -0.0334721 8.0958 -0.801227 0.555707 1.29051 -0.047614 0.26335 0.392579 Si
36 1 5.42622 0.00224919 0.0156212 1.6373 1.9652 -2.24813 0.393856 0.0754821 0.713161 Si
11 1 4.00842 1.30927 9.52341 1.56455 -1.45186 -0.432726 0.321716 0.574514 0.23327 Si
42 1 5.41216 2.6607 8.15019 -0.756841 -0.237062 3.3089 0.307236 0.623625 0.81524 Si
38 1 8.25432 2.78618 -0.045659 -2.41104 -1.86922 0.401328 0.0851213 -0.542432 -0.0555582 Si
10 1 0.0389867 2.6332 8.26135 -1.72777 0.745483 -2.63183 0.330978 0.767419 -0.785013 Si
43 1 9.63114 1.27105 9.60301 0.862984 -2.16149 4.73109 0.173875 0.991113 0.659968 Si
13 1 1.3791 4.14205 9.55468 -0.229416 -0.492377 -0.705937 -0.645521 -0.881976 0.335978 Si
32 1 2.65256 5.35608 8.07085 1.17247 4.09572 2.55216 1.04318 0.87503 0.601052 Si
52 1 5.4497 5.3485 -0.0474491 -3.89441 -3.88773 -0.730918 0.118277 0.917756 0.245657 Si
27 1 4.02742 6.71011 9.57037 -2.89345 4.67095 -6.21592 -0.449712 -0.103289 -0.477651 Si
45 1 6.84941 4.08439 9.49005 4.27501 -1.34152 -0.269761 -0.267213 -0.562256 -0.710983 Si
20 1 -0.0114619 5.52962 0.0148741 -1.48197 -3.93643 0.933114 0.226563 -0.468286 -0.06564 Si
59 1 9.4671 6.73387 9.52485 -0.312193 1.03131 2.4706 1.14353 1.71812 -0.526421 Si
64 1 8.21264 5.46009 8.11417 0.678473 5.06326 -0.421854 -1.27526 -0.574885 0.0285774 Si
22 1 2.73134 8.08662 0.11207 2.25361 2.21207 1.80327 -0.0736862 0.437475 -0.363913 Si
29 1 1.45367 9.51683 9.57337 -1.33443 3.65925 -0.297826 0.25546 -0.708935 -0.441411 Si
58 1 5.35619 8.16844 8.29473 1.56391 -0.105756 -1.51391 0.715761 -0.111071 -0.85223 Si
61 1 6.83144 9.54311 9.57774 0.985527 0.0941322 1.74092 -0.695713 0.323889 -0.775121 Si
48 1 8.25765 0.0551236 8.27369 -3.14174 0.712979 2.23187 -1.17003 -0.819071 -0.798252 Si
26 1 0.032979 8.21247 8.18157 5.09267 0.370248 2.19364 -0.42837 -1.16329 0.293828 Si
