ITEM: TIMESTEP
10000
ITEM: NUMBER OF ATOMS
64
ITEM: BOX BOUNDS pp pp pp
0.0000000000000000e+00 1.0887404739999999e+01
0.0000000000000000e+00 1.0887404739999999e+01
0.0000000000000000e+00 1.0887404739999999e+01
ITEM: ATOMS id type xu yu zu vx vy vz fx fy fz element
2 1 0.0757065 2.73136 2.70811 -6.61414 -4.23989 -0.75783 -0.462042 0.0698524 -0.387071 Si
7 1 1.47028 1.37406 1.3331 -0.204993 0.23887 -0.752789 -0.758649 -0.196746 0.494377 Si
34 1 5.47268 2.71071 2.75449 -5.3163 -4.20723 3.1726 -0.848568 0.0763161 -0.0606501 Si
36 1 5.38235 0.00676256 0.0155126 3.52549 -3.87799 -3.61497 0.24286 -0.284051 0.193299 Si
39 1 6.76674 1.26564 1.43507 2.40112 0.927308 2.73505 0.25649 0.746269 -0.316709 Si
38 1 8.12015 2.65168 0.0793323 -0.365115 1.6943 -3.87383 0.620682 0.529971 -0.413901 Si
40 1 8.28276 0.0551473 2.74694 -1.99401 3.81992 -0.461881 -1.25443 -0.608412 -0.554271 Si
23 1 1.26302 6.92282 1.3212 -3.48355 1.74679 1.78706 0.391953 -1.73072 -0.0943775 Si
24 1 2.67064 5.47059 2.70462 0.617783 4.03469 4.17826 0.501555 0.790359 -0.855615 Si
1 1 4.05767 4.06352 1.31235 -2.89294 2.75485 -1.85462 0.225513 -0.393322 0.58455 Si
55 1 6.85562 6.75013 1.39537 1.55881 -1.63344 -3.90365 -0.952402 0.625499 -0.581604 Si
33 1 9.53538 4.11136 1.33117 2.90604 -2.05157 -0.447454 0.271988 -1.70784 0.26834 Si
56 1 8.24898 5.42568 2.66252 1.38356 -0.530153 -2.54498 -0.795255 0.262531 1.54737 Si
4 1 0.158445 -0.0914242 0.105532 3.63967 2.64452 1.4379 -1.32825 0.984793 -2.02227 Si
8 1 2.70702 -0.0276541 2.674 1.23277 0.076667 -2.18719 0.311338 0.501615 0.93176 Si
18 1 0.00648819 8.28111 2.71117 0.0116399 -0.276955 7.01172 -0.875943 -0.877514 0.719958 Si
17 1 4.05842 9.54618 1.41133 1.70106 -1.36508 1.38774 0.4112 -1.01116 -0.977961 Si
50 1 5.45881 8.17078 2.7523 -2.04328 -1.23285 -5.8172 0.0486235 0.0346425 0.112765 Si
49 1 9.49448 9.54497 1.32499 2.4344 -3.70566 -5.90247 0.704322 0.0776919 0.545192 Si
54 1 8.16126 8.16559 0.0103058 -4.88737 0.966181 -1.88976 -0.340676 -0.327841 -0.233319 Si
14 1 2.68043 2.71945 5.4906 0.136816 1.77887 1.62731 1.16775 0.629437 -0.343923 Si
15 1 1.28623 1.46169 6.82372 -0.245272 -2.71253 0.258045 -0.0914181 -1.27031 -0.121228 Si
3 1 4.02609 1.31554 4.07693 3.62854 0.464437 1.91659 0.44666 0.623027 0.349204 Si
47 1 6.83186 1.31558 6.86786 -5.78201 2.12055 0.47178 0.256023 0.657885 -0.924166 Si
35 1 9.52116 1.4051 4.07952 3.05136 -7.87893 2.30527 0.805476 1.00436 0.920323 Si
46 1 8.18142 2.85453 5.52116 -1.16815 -2.33107 3.92676 0.170593 -1.52143 -0.0363247 Si
5 1 1.42756 4.09829 4.05105 -5.98545 4.8399 -0.892118 -0.372609 -0.887017 0.125481 Si
28 1 0.0237801 5.34631 5.36363 0.308388 -0.167867 -1.12858 -0.323875 1.38579 0.410741 Si
31 1 1.34511 6.65591 6.81086 -1.02872 -3.66088 0.564176 -0.0023503 0.801192 -0.288076 Si
9 1 4.1405 4.11616 6.86329 -4.93103 5.64592 -0.30697 -0.617494 -0.886846 0.349607 Si
19 1 4.00218 6.85207 4.13959 7.16947 -3.10628 -4.60893 0.740701 -0.571459 -0.792477 Si
37 1 6.82297 4.11035 4.10413 3.85109 -0.992539 0.316975 -0.0219304 0.451111 -0.412897 Si
60 1 5.41517 5.46498 5.46264 2.91294 -1.46265 4.22903 -0.196479 -0.211475 -0.782222 Si
63 1 6.76713 6.75994 6.77467 0.919163 -3.5777 -0.89891 -0.0847929 1.46078 0.149952 Si
41 1 9.58863 4.19379 6.86187 -2.26083 0.868215 4.87855 -0.59402 -0.745666 -0.874863 Si
51 1 9.49466 6.83264 4.11797 -1.62496 2.51745 -1.6739 0.899833 0.112157 -0.691445 Si
21 1 1.44024 9.52146 4.08317 4.805 1.74994 -2.2333 -1.48195 0.683359 -0.0879784 Si
30 1 2.62098 8.14029 5.45941 -3.37683 -0.546407 4.16568 0.266744 -0.559778 0.511497 Si
44 1 5.42871 -0.00664521 5.47148 -0.179713 6.29175 -2.89824 -0.305891 0.157069 -0.07958 Si
25 1 3.95261 9.51422 6.76285 1.69723 -2.80547 4.2296 1.61376 -0.347683 -0.324696 Si
53 1 6.84266 9.63764 4.0582 3.96636 -0.994244 0.0785049 -0.21467 -1.01177 0.350961 Si
12 1 -0.014334 -0.0103717 5.43134 -3.26714 -4.76407 0.981799 -0.191892 0.0268914 0.390122 Si
57 1 9.41335 9.48015 6.80916 -4.02383 1.32494 2.44421 1.40321 1.17599 0.184793 Si
62 1 8.12022 8.19926 5.47236 0.34231 -0.938317 -0.621258 -0.740212 -0.660876 -0.90939 Si
6 1 2.80784 2.58499 -0.0855754 -2.69167 0.781859 3.92182 -0.141496 1.31803 0.281244 Si
11 1 4.1399 1.31021 9.4113 -5.59184 2.32483 -1.05093 -0.21765 -0.38588 0.360749 Si
42 1 5.5621 2.69333 8.22129 3.59724 2.9748 -4.06102 -0.335878 1.10779 -0.515685 Si
10 1 -0.065362 2.78765 8.18848 2.6076 -2.75019 3.58051 0.378768 -0.626728 0.542894 Si
43 1 9.52127 1.34664 9.5589 0.0977325 -4.15147 -0.50996 0.751661 -0.616469 0.888909 Si
13 1 1.37485 4.00512 9.56958 3.96259 2.37601 1.72152 0.0240868 0.281411 -0.0584278 Si
32 1 2.7254 5.44439 8.28381 0.606644 -2.37671 -0.449793 -0.449412 -1.23985 -1.36967 Si
52 1 5.44001 5.40944 -0.0216673 -0.810727 -2.71123 -1.59021 0.694106 0.331162 -0.0628082 Si
27 1 4.03598 6.77226 9.52606 -2.13021 9.77381 1.37403 1.46993 1.08931 0.37999 Si
45 1 6.97134 4.14701 9.49956 1.70007 0.574429 -5.6173 -1.55579 -0.987216 0.800496 Si
20 1 -0.065963 5.38604 -0.0544055 1.71373 1.36493 1.93554 0.818246 1.34253 0.00128166 Si
59 1 9.46486 6.79915 9.46457 1.44194 -5.19536 -0.46434 0.898023 0.567197 0.250552 Si
64 1 8.1651 5.50072 8.08064 -3.83521 0.624092 -2.07319 0.232698 0.0267906 0.500421 Si
22 1 2.72116 8.15936 -0.0200366 -2.88141 1.01385 2.88649 -0.0494943 0.728544 -0.10316 Si
16 1 2.71202 -0.00635033 8.0595 -1.55893 1.28036 -4.1559 -0.466658 1.21536 0.466298 Si
26 1 0.00530983 8.145 8.06107 7.26958 7.02518 -3.44272 -0.402987 -0.352527 0.755228 Si
29 1 1.40883 9.52948 9.39777 3.45932 -4.2601 -2.93018 -0.379499 -0.620465 0.99227 Si
58 1 5.42145 8.2077 8.1219 1.77218 3.00197 4.45394 -0.417129 -0.570013 0.507135 Si
61 1 6.76535 9.54801 9.59234 0.597783 -2.6717 1.81418 -0.247144 -0.644042 -0.34451 Si
48 1 8.12967 -0.0301748 8.24542 -1.85179 3.55435 -0.176277 0.494144 -0.021612 -0.246488 Si
ITEM: TIMESTEP
10100
ITEM: NUMBER OF ATOMS
64
ITEM: BOX BOUNDS pp pp pp
0.0000000000000000e+00 1.0887404739999999e+01
0.0000000000000000e+00 1.0887404739999999e+01
0.0000000000000000e+00 1.0887404739999999e+01
ITEM: ATOMS id type xu yu zu vx vy vz fx fy fz element
2 1 -0.0502887 2.68786 2.68849 -0.178645 -0.449987 1.42328 -0.415919 0.123543 1.02466 Si
7 1 1.32966 1.38329 1.46554 -3.97979 4.68488 -0.666485 0.0245937 -0.72458 -1.25409 Si
34 1 5.4937 2.68036 2.67003 -1.6644 -1.07001 1.58319 -0.337179 0.313649 0.418503 Si
36 1 5.46759 0.0468331 0.0356707 -2.67135 -2.37573 2.57112 -0.290786 0.119679 -1.1839 Si
39 1 6.83691 1.40516 1.2748 -1.60854 2.31592 -5.04984 0.178672 -0.248533 0.395842 Si
38 1 8.131 2.8082 -0.0623124 1.23132 -4.19633 -1.25585 0.0239834 -0.502431 -0.329803 Si
40 1 8.07877 -0.0797667 2.61494 5.05388 -0.272096 7.74601 0.14989 1.20536 1.25966 Si
23 1 1.48639 6.77908 1.3963 0.0784296 4.45825 -0.676974 -0.752818 0.74547 -0.105719 Si
24 1 2.68893 5.40293 2.80934 -1.03029 -0.940036 -2.57056 0.430017 -0.305687 0.570144 Si
1 1 4.03838 4.02114 1.45192 0.530889 -1.05625 -0.589772 0.606781 1.37939 -1.14193 Si
55 1 6.86153 6.85428 1.32681 -4.03781 1.1162 4.26997 0.23724 -0.651987 0.0347303 Si
33 1 9.50424 4.02046 1.38164 -1.28754 0.608298 -2.56899 -0.00116965 1.02418 -0.334025 Si
56 1 8.18879 5.45388 2.73426 5.74144 6.45227 0.505702 -0.520115 -0.578531 -0.322428 Si
4 1 -0.0764678 0.0898922 -0.00567364 3.67766 0.645276 1.02654 0.362851 -0.506012 1.40597 Si
8 1 2.72282 0.00577197 2.77807 2.07405 2.80999 -5.64222 -0.811217 -0.600237 -0.813407 Si
18 1 -0.0114392 8.05548 2.79036 1.51747 -3.80494 -1.91434 0.389754 0.558168 -0.677406 Si
17 1 4.09828 9.61711 1.35482 -0.43253 -2.08868 -0.323232 0.6045 -0.220466 0.970571 Si
50 1 5.47747 8.14885 2.63092 1.15669 4.40237 3.43322 -0.879268 0.312908 0.479183 Si
49 1 9.50766 9.5083 1.45853 3.6882 -2.13907 -2.34273 0.855607 -0.631176 -1.78014 Si
54 1 8.17101 8.19731 -0.047032 -0.834464 -1.20678 -1.41095 0.473816 0.216418 0.373634 Si
14 1 2.77022 2.6964 5.38979 7.28694 -5.62282 2.00921 -1.22237 -0.0736873 0.352439 Si
15 1 1.4446 1.29195 6.85766 -3.62939 1.51435 -7.43872 0.0901962 0.837661 -0.316549 Si
3 1 4.06325 1.3688 3.98231 -3.80791 -3.29629 -1.2285 0.905244 0.221223 0.886165 Si
47 1 6.76276 1.33709 6.76785 0.426376 0.0589814 0.506059 -0.434362 0.234712 0.670139 Si
35 1 9.50084 1.29533 3.99778 2.57314 5.85357 3.65808 0.230774 -0.927735 0.561619 Si
46 1 8.15461 2.59783 5.41711 0.501209 2.98519 -2.44825 -0.1804 1.1467 -0.572963 Si
5 1 1.20552 4.02314 4.13441 3.57847 -4.94206 -0.0867252 0.910381 0.937417 0.40847 Si
28 1 -0.05793 5.56301 5.55719 -2.37614 5.3755 -3.36393 0.438608 -2.0874 -0.908653 Si
31 1 1.3649 6.92681 6.71782 -4.07646 -4.30005 2.92131 0.0441793 -0.105494 0.70959 Si
9 1 4.02078 4.11936 6.74789 6.78942 -3.67321 2.18191 -0.234242 0.597474 -0.310088 Si
19 1 4.15895 6.80295 4.09062 -1.93319 5.07952 3.2631 -0.268867 -0.179787 -0.922267 Si
37 1 6.77667 4.07802 4.07526 -2.14601 -3.94817 0.122079 0.765013 -0.50628 -0.0233176 Si
60 1 5.47026 5.45532 5.43674 -3.91441 -0.398776 5.43405 0.183226 -0.122063 0.713682 Si
63 1 6.8812 6.7411 6.88703 -4.06551 2.23063 2.24692 -0.096211 -0.461157 -0.803943 Si
41 1 9.472 4.04444 6.749 2.81221 1.4 -6.34077 0.707593 -0.394526 0.517616 Si
51 1 9.52783 6.71862 4.12942 3.98816 0.387467 4.55435 -0.490195 0.910728 -0.352729 Si
21 1 1.33178 9.48788 4.09789 -3.7051 1.84947 -1.18217 1.36093 -0.59772 -0.48965 Si
30 1 2.83528 8.16872 5.4006 -1.86601 0.130938 -0.613703 -0.301088 1.17476 0.575144 Si
44 1 5.42732 0.0308693 5.36064 -1.4759 -1.52897 -1.74772 0.0317863 -0.11475 0.0711243 Si
25 1 4.17615 9.60558 6.84266 2.5286 0.352481 3.76594 -0.496475 -1.10096 0.0743752 Si
53 1 6.74784 9.49347 4.02702 -5.59625 -1.58552 2.41579 0.712713 -0.302736 0.592053 Si
12 1 0.123152 -0.0373025 5.43569 2.01049 2.83155 -3.46934 -1.45112 1.0583 -0.159325 Si
57 1 9.6086 9.52313 6.7339 1.81228 -2.75361 -4.24279 -0.636513 -0.802394 0.731346 Si
62 1 8.16055 8.08361 5.43974 4.67992 -2.46932 -0.85136 0.0245291 1.04197 -0.0954487 Si
6 1 2.58868 2.78845 0.0714132 -1.68486 -2.52207 -3.00035 0.993194 -0.613504 0.0468846 Si
11 1 4.01762 1.43448 9.62767 6.6576 1.86328 -2.93511 0.409696 0.175193 -0.17393 Si
42 1 5.29845 2.78734 8.10583 -0.289496 1.16791 0.271549 0.84515 -1.25142 0.463534 Si
10 1 0.060603 2.76874 8.14238 -2.58262 0.0741558 1.24345 -0.513062 -0.486429 -0.465912 Si
43 1 9.52918 1.43824 9.47995 -2.09391 3.07583 2.56288 -0.629236 -0.220277 -0.400449 Si
13 1 1.34399 4.12298 9.53377 -1.27635 0.266448 0.403242 0.0657445 0.20134 -0.448066 Si
32 1 2.58685 5.49735 8.04812 1.28813 -0.0303838 2.32185 1.43864 -0.0805137 1.07726 Si
52 1 5.48327 5.50436 0.000935546 -2.07752 -1.00874 -0.667997 -1.51075 -0.741846 0.557007 Si
27 1 4.09268 6.82095 9.4658 1.87153 -1.64152 -4.21755 -0.559237 -0.0373055 0.342095 Si
45 1 6.67425 4.09981 9.4792 1.38554 -0.735443 1.48819 0.475572 -0.492196 0.388184 Si
20 1 0.0759833 5.38964 0.0980465 -0.832885 -3.59057 -3.47789 -1.05167 0.850068 -0.440674 Si
59 1 9.51966 6.75342 9.5533 -0.538109 3.22637 -1.65589 0.526313 -0.570779 0.256221 Si
64 1 8.17686 5.28863 8.2172 -1.27833 1.26787 1.18183 0.0952062 1.30534 -0.252908 Si
22 1 2.82313 8.27639 0.0447663 -0.403544 -0.945126 1.93445 -0.750437 -1.46207 -0.53625 Si
16 1 2.75529 -0.013496 8.31173 -4.06622 -5.00182 2.142 0.401887 0.270755 -1.00099 Si
26 1 0.0256147 8.12389 8.2134 -1.09323 -2.48176 1.9174 0.175838 1.3783 0.181072 Si
29 1 1.3849 9.61587 9.65857 -3.64444 2.74373 4.39225 -0.881016 -1.2255 -0.771329 Si
58 1 5.55613 8.11686 8.17442 6.91863 0.355306 -3.47283 -1.01814 0.878222 -0.286087 Si
61 1 6.81004 9.56747 9.4921 -3.89082 -0.827561 -3.28023 0.0494479 -0.100588 0.580576 Si
48 1 8.17207 -0.0366063 8.10529 0.211268 1.31969 5.23686 0.514305 0.809811 -0.0151054 Si
ITEM: TIMESTEP
10200
ITEM: NUMBER OF ATOMS
64
ITEM: BOX BOUNDS pp pp pp
0.0000000000000000e+00 1.0887404739999999e+01
0.0000000000000000e+00 1.0887404739999999e+01
0.0000000000000000e+00 1.0887404739999999e+01
ITEM: ATOMS id type xu yu zu vx vy vz fx fy fz element
2 1 0.0787774 2.72652 2.64234 3.0769 -4.20672 -1.09991 0.614106 0.566241 0.354206 Si
7 1 1.4132 1.27512 1.27478 4.8657 -7.31154 3.27561 0.104073 0.937833 0.603629 Si
34 1 5.39461 2.66345 2.75956 2.05037 3.23733 -2.22901 0.861184 1.20898 -0.400366 Si
36 1 5.45603 -0.120767 0.011435 -3.06315 0.530889 2.0612 -0.301607 0.910969 0.968685 Si
39 1 6.74188 1.37718 1.36849 -0.432669 1.80421 -3.40762 0.256858 -0.65849 0.169976 Si
38 1 8.19697 2.71088 0.110318 -0.0727218 4.41483 -0.996044 -0.0769701 -0.523367 0.220073 Si
40 1 8.12066 0.140344 2.83297 -0.819681 -0.324883 -3.12738 0.62965 -1.55185 -1.08304 Si
23 1 1.24282 6.80758 1.26911 -1.62816 -0.408478 -1.75595 1.10808 -0.0688151 0.552374 Si
24 1 2.80233 5.48531 2.60513 -3.47261 -3.13332 -2.87611 -1.05977 -0.587656 0.0149913 Si
1 1 4.18163 4.02556 1.26919 -1.69015 -4.73215 2.58088 -1.02714 0.0352065 0.90554 Si
55 1 6.73527 6.8858 1.46033 3.06704 0.674037 0.879851 0.423335 -0.839615 -0.385359 Si
33 1 9.52177 4.094 1.37827 -1.15981 -1.86273 -0.576468 0.18445 0.377775 0.389497 Si
56 1 8.1826 5.49012 2.77241 2.19376 -3.91676 4.31894 -0.360435 -0.0505563 -0.7018 Si
4 1 0.0157362 -0.00333676 -0.0515832 -2.84371 1.99888 -2.19646 0.16608 -0.761492 -0.14664 Si
8 1 2.75304 0.0174252 2.74269 -1.46659 -2.58606 6.10839 0.0569185 -0.0947199 0.154636 Si
18 1 -0.048995 8.1584 2.72601 -2.11284 -0.40191 2.5502 0.847381 0.782357 -0.959396 Si
17 1 4.07836 9.47861 1.42942 -3.12321 5.56592 2.18418 -1.15072 0.580184 -1.41554 Si
50 1 5.3347 8.21521 2.78315 1.25603 -0.709698 -2.74968 1.48347 -0.459301 0.163673 Si
49 1 9.55457 9.56633 1.32446 2.04682 3.70066 4.36577 -1.33474 0.497586 1.16436 Si
54 1 8.08827 8.19438 0.0440555 2.47952 0.956156 -4.19283 0.836802 -0.40818 0.251359 Si
14 1 2.76212 2.72367 5.45388 -2.70193 7.77401 -2.45667 -0.399865 0.276875 -0.0225835 Si
15 1 1.32146 1.42601 6.78492 2.53578 4.32293 2.98291 0.0937026 -0.584637 -0.108838 Si
3 1 4.14647 1.36578 4.14923 -4.04806 0.36941 -1.21707 -1.32241 -0.475156 -0.452025 Si
47 1 6.81457 1.39928 6.83933 0.422488 0.0127987 -2.47084 1.03028 -0.753999 -0.5965 Si
35 1 9.6059 1.493 4.06533 -2.89428 2.66331 -3.38076 -1.21457 0.12291 -0.701016 Si
46 1 8.22687 2.78916 5.40599 5.58966 -5.24169 0.359481 -0.703037 0.39128 0.868942 Si
5 1 1.40134 4.16015 4.1214 -2.92606 -0.567214 3.02898 0.969573 -1.10205 -1.82335 Si
28 1 0.0336523 5.43367 5.39327 -1.34009 -2.85947 -0.702504 -0.204815 0.88772 0.743516 Si
31 1 1.3593 6.72236 6.84284 1.92335 1.48345 -3.24099 0.254708 -0.0872013 -0.25426 Si
9 1 4.12295 4.01156 6.84538 -6.39175 -1.38724 1.46135 0.957353 -0.174372 -0.218889 Si
19 1 4.07037 6.81788 4.04168 3.29106 -1.06123 -3.29669 -0.796515 -0.251951 1.3374 Si
37 1 6.76462 4.13433 4.06907 1.68075 5.18658 1.93657 0.154482 -0.45986 0.368762 Si
60 1 5.41564 5.47037 5.49841 3.94428 1.51582 -2.60613 -0.220109 -0.177261 -0.806504 Si
63 1 6.74854 6.90785 6.74837 3.78612 2.88083 -0.827288 0.0666588 -0.337797 0.640621 Si
41 1 9.58182 4.18933 6.81077 -4.00904 0.90815 0.428202 -0.875468 -0.694685 -0.0669941 Si
51 1 9.59621 6.81903 4.05585 -4.28429 0.785883 0.967168 -0.673663 -0.620118 0.499214 Si
21 1 1.31406 9.56627 4.05313 -2.32704 0.737853 -2.60449 -0.324179 0.133793 0.61581 Si
30 1 2.61469 8.13965 5.46537 5.69901 1.46499 -1.45959 0.404355 -0.300584 -1.03853 Si
44 1 5.43318 -0.00584295 5.4616 0.279263 -2.54365 2.04567 0.669454 -0.448987 0.674946 Si
25 1 4.04638 9.43925 6.7383 3.36442 1.97803 -4.83147 -0.358377 1.38024 0.42784 Si
53 1 6.78933 9.46771 4.12702 -1.89102 -1.14497 -0.943128 -0.0215746 1.34705 -0.534899 Si
12 1 -0.118783 0.124477 5.39526 2.23663 0.321591 -0.906923 1.8465 -1.46726 0.897154 Si
57 1 9.55634 9.5235 6.81918 -1.64834 -0.337092 -2.7951 -0.792636 0.145337 -0.476745 Si
62 1 8.19583 8.12581 5.36604 -8.09963 -2.30641 0.821769 0.35876 0.664901 1.15474 Si
6 1 2.77346 2.67224 -0.0570571 3.87603 -1.17504 4.38586 -0.14076 0.0927277 0.0445857 Si
11 1 4.16562 1.28519 9.55404 0.117177 0.568179 3.3583 -0.332148 0.104179 -0.756739 Si
42 1 5.56325 2.7088 8.2494 -3.33238 3.23683 1.33178 -1.10102 -0.156559 -0.135576 Si
10 1 -0.0424774 2.72093 8.17687 -1.39925 0.954438 -1.68481 -0.133214 0.183182 0.202025 Si
43 1 9.49028 1.38063 9.637 4.84311 -0.745357 3.61014 0.388291 -0.177639 -1.16847 Si
13 1 1.38319 4.05521 9.47742 0.72116 -0.340638 1.14686 -0.288607 -0.0600755 0.60675 Si
32 1 2.80293 5.33159 8.13447 -1.22935 0.521207 -4.47185 -0.884282 1.08118 0.547841 Si
52 1 5.54019 5.38856 0.0107499 2.96855 1.77805 -1.7784 0.129218 0.746724 -0.417955 Si
27 1 4.07234 6.75202 9.53872 -0.792978 -1.91331 -1.60641 0.28981 -0.45134 0.0597032 Si
45 1 6.95785 3.97498 9.59461 -2.32999 -2.03824 -0.369531 -0.655532 2.04538 -0.877653 Si
20 1 -0.0874632 5.42822 -0.0680979 1.18445 3.3436 5.54316 0.804517 -0.576618 0.105743 Si
59 1 9.48684 6.82861 9.55447 1.58548 -0.613454 0.912907 -0.510019 0.576678 -0.66005 Si
64 1 8.11691 5.55012 8.11026 1.23895 -3.78318 0.954454 0.289605 -0.871585 0.692973 Si
22 1 2.68318 8.15956 -0.0662967 6.2134 2.99214 -0.516358 0.225677 -0.302622 0.93029 Si
16 1 2.72766 0.021347 8.1036 6.21651 -0.0305118 0.628979 -0.306053 -0.758993 0.379444 Si
26 1 0.0226168 8.13031 8.14374 -3.75206 -4.45352 1.53605 -1.13649 -0.854669 -0.272839 Si
29 1 1.30066 9.41952 9.44707 -0.827082 1.46109 2.52182 1.19908 2.16632 0.346552 Si
58 1 5.3323 8.1816 8.17689 -3.58867 -4.79673 0.785759 0.903013 -0.533616 -0.055074 Si
61 1 6.7474 9.45858 9.56526 -3.33851 1.79397 1.16804 0.310663 0.226715 -0.939881 Si
48 1 8.16351 -0.033061 8.26009 0.283314 -5.00486 -0.866747 -0.211353 0.21335 -0.580343 Si
ITEM: TIMESTEP
10300
ITEM: NUMBER OF ATOMS
64
ITEM: BOX BOUNDS pp pp pp
0.0000000000000000e+00 1.0887404739999999e+01
0.0000000000000000e+00 1.0887404739999999e+01
0.0000000000000000e+00 1.0887404739999999e+01
ITEM: ATOMS id type xu yu zu vx vy vz fx fy fz element
2 1 -0.13954 2.73607 2.82578 3.63816 5.07764 -2.85211 0.401898 -0.917505 -0.809611 Si
7 1 1.30205 1.38481 1.39452 -2.43652 1.21625 -0.0591394 0.010812 0.188919 0.396854 Si
34 1 5.45712 2.73567 2.67711 1.94784 -5.5244 0.158448 -0.250882 -0.395374 0.24619 Si
36 1 5.47943 0.0984949 -0.0439888 0.162566 1.51824 -2.84446 -0.143577 -0.569865 -0.391888 Si
39 1 6.85704 1.37578 1.30368 2.06756 -8.66758 2.90075 -0.250103 -0.134559 0.754221 Si
38 1 8.16104 2.67212 -0.0929919 -1.89454 -1.49952 2.09592 -0.12304 1.07145 0.418722 Si
40 1 8.18249 -0.0795989 2.66167 -7.35159 -2.69854 -0.90403 -0.0831751 0.354104 0.07276 Si
23 1 1.38498 6.81835 1.47017 2.04002 -3.2732 1.62331 -0.636532 -0.557755 -0.292212 Si
24 1 2.6983 5.44282 2.88723 1.07872 1.1911 5.77303 0.472864 0.628584 -0.680148 Si
1 1 4.02004 4.15329 1.41716 -1.18449 7.54186 -3.9673 0.187098 -0.536685 -0.0203908 Si
55 1 6.82829 6.68939 1.29163 -0.922816 -1.28096 -3.10553 -0.725164 1.10785 -0.626566 Si
33 1 9.48598 4.06485 1.29371 1.08755 1.02585 5.04424 0.457735 -0.373908 -0.109179 Si
56 1 8.16459 5.4126 2.61289 -5.17202 0.161955 -1.61005 0.188129 -0.299369 1.29439 Si
4 1 0.0246115 -0.00274946 -0.00569961 -2.02278 1.99781 7.50589 -0.378629 0.337971 -0.0194056 Si
8 1 2.79316 -0.0128359 2.62914 -2.53977 -0.396651 -6.52831 -0.565637 0.48834 0.533486 Si
18 1 0.0201373 8.20544 2.78374 1.19442 3.65228 0.075832 -0.242362 -0.348952 0.121496 Si
17 1 4.1842 9.56417 1.29482 1.67164 3.36256 0.0896085 -0.0872656 -0.138121 0.34199 Si
50 1 5.52894 8.17558 2.65425 -2.80856 5.66314 0.385175 -0.227104 -0.625906 0.0613848 Si
49 1 9.56111 9.46686 1.28055 -1.68597 -0.897218 -0.829667 0.01466 -0.0298212 0.573206 Si
54 1 8.22852 8.06785 -0.0731389 2.11715 -0.0600212 6.08078 -0.423622 0.374103 0.0157014 Si
14 1 2.6572 2.71164 5.45485 -1.12002 -3.79221 -1.37239 0.374041 0.288703 -0.370636 Si
15 1 1.38258 1.30117 6.74622 1.72244 -3.69948 3.47806 -0.574491 0.123633 1.17269 Si
3 1 4.01811 1.37691 4.07184 1.28474 -1.97501 0.0395037 0.86 0.0723255 -0.416915 Si
47 1 6.72362 1.37182 6.78738 -2.5237 3.77133 1.66797 -0.376718 0.387135 0.158764 Si
35 1 9.48463 1.19668 4.18412 -0.517086 -0.355552 -2.07943 0.152115 0.83754 -0.391901 Si
46 1 8.16925 2.72414 5.49307 -5.7496 6.07477 0.258286 0.170779 -1.27729 -0.25927 Si
5 1 1.29499 4.05172 4.11472 -1.58696 4.02705 -0.470198 -0.561137 0.635408 0.786109 Si
28 1 -0.0771366 5.49827 5.49664 2.98618 -4.75129 3.12322 0.380811 -1.28071 -0.521627 Si
31 1 1.32599 6.76056 6.8399 0.971164 2.06954 0.564467 0.168407 1.30568 -0.76566 Si
9 1 3.97015 4.17221 6.76758 1.06132 3.21815 -2.98905 -0.0650651 -0.476169 0.317962 Si
19 1 4.18151 6.86277 4.13889 -5.92933 -1.7496 2.26816 -0.456274 -0.457074 -0.59865 Si
37 1 6.90233 3.99923 4.0397 1.90783 -0.774576 -0.631196 -1.14185 1.14397 0.187112 Si
60 1 5.43521 5.38706 5.45169 3.13668 -2.5929 5.0475 1.21624 0.32837 -0.436369 Si
63 1 6.80477 6.80545 6.83275 1.78846 -1.68366 3.39265 0.383733 -0.172048 -0.435594 Si
41 1 9.58178 3.98208 6.83588 -2.07736 2.23396 2.65289 -0.454247 1.01957 0.32589 Si
51 1 9.44013 6.78315 4.09081 2.29419 -1.55027 -2.31172 0.7891 0.375546 -0.659488 Si
21 1 1.51047 9.53784 4.09819 8.89891 -1.27311 -2.51878 -0.770482 -0.449586 -0.208931 Si
30 1 2.76156 8.13117 5.50416 -5.87049 3.66338 2.32943 0.122239 0.143839 0.272449 Si
44 1 5.39848 -0.0528839 5.37643 0.588848 -0.896121 -3.67986 0.144453 0.628934 0.568425 Si
25 1 4.12179 9.52236 6.87235 -3.15376 -4.37316 4.3075 -0.3854 0.112978 -1.12406 Si
53 1 6.82077 9.50084 4.06916 9.53683 0.696314 0.954545 0.0634689 0.258782 -0.350049 Si
12 1 0.0500144 -0.141374 5.50048 -0.643372 -4.36695 -1.00481 -0.604688 0.237273 -0.24781 Si
57 1 9.43721 9.4613 6.86198 -0.135848 -1.89732 1.75397 1.01144 1.34208 0.138984 Si
62 1 8.18768 8.20388 5.43575 2.50924 -0.858165 -3.07125 -1.19642 -1.11364 0.210742 Si
6 1 2.68209 2.76489 0.0539068 -4.73359 -2.32807 -3.31261 -0.0667422 0.146422 -0.246967 Si
11 1 4.03483 1.42337 9.5169 -2.87723 -3.95741 3.01419 -0.297852 -0.240641 0.138008 Si
42 1 5.29552 2.81189 8.13363 2.78372 -3.19421 1.44151 1.12177 -0.386711 -0.233934 Si
10 1 0.0425858 2.66033 8.2156 0.773211 2.87842 -1.09705 0.818485 0.437435 -0.513988 Si
43 1 9.53785 1.35625 9.51852 -3.5644 1.85917 -1.30525 0.549141 -0.248583 0.299053 Si
13 1 1.39647 4.17877 9.52386 0.382576 0.706004 -2.01768 -0.375176 -1.10398 0.127134 Si
32 1 2.69977 5.55764 8.1817 3.1935 -1.89846 0.240485 0.323252 -0.775412 -0.0185816 Si
52 1 5.33761 5.41257 -0.0656361 -0.65232 -3.04081 0.194729 0.488112 0.637222 0.390062 Si
27 1 4.04801 6.90501 9.5036 1.52351 3.08201 1.77901 0.299669 0.347095 0.555964 Si
45 1 6.76879 4.10223 9.50131 4.832 4.21016 -3.29711 -0.238644 -0.584034 -0.124326 Si
20 1 -0.00244316 5.46309 -0.0166007 -3.21298 -1.38858 -4.86342 0.626194 0.195757 0.871266 Si
59 1 9.63789 6.784 9.43472 -6.94747 -8.60807 -0.5465 -0.759958 0.0708474 0.497012 Si
64 1 8.20141 5.40901 8.19159 1.03904 4.31834 -5.40782 0.035602 0.0451732 -0.791006 Si
22 1 2.68353 8.20984 0.118426 -0.483033 0.0135676 1.69589 0.656864 -0.0551799 -1.21143 Si
16 1 2.72171 -0.0219587 8.14168 2.73223 5.47869 0.309793 0.442618 0.794395 0.37278 Si
26 1 0.0425179 8.20145 8.13687 2.24372 1.2213 -0.918156 0.183148 0.12946 0.518341 Si
29 1 1.4049 9.58678 9.54528 3.94025 -1.59307 -1.64324 -0.378551 -0.962518 -0.0217011 Si
58 1 5.51463 8.25929 8.16738 -1.51385 0.926982 -3.81127 -0.411159 -1.17674 0.423888 Si
61 1 6.84399 9.5569 9.52784 0.545023 -1.16862 0.738131 0.423173 0.317089 0.440238 Si
48 1 8.15011 0.109029 8.18997 1.63022 5.20694 -1.9355 -0.286104 -1.22584 -0.704985 Si
ITEM: TIMESTEP
10400
ITEM: NUMBER OF ATOMS
64
ITEM: BOX BOUNDS pp pp pp
0.0000000000000000e+00 1.0887404739999999e+01
0.0000000000000000e+00 1.0887404739999999e+01
0.0000000000000000e+00 1.0887404739999999e+01
ITEM: ATOMS id type xu yu zu vx vy vz fx fy fz element
2 1 0.104064 2.7841 2.64014 -0.0683705 -0.322626 1.77557 -0.889113 -0.0404165 0.653075 Si
7 1 1.40665 1.3716 1.34801 3.69521 0.911059 -1.50828 -0.148624 -0.237721 -0.680338 Si
34 1 5.46566 2.72401 2.7435 0.633865 1.62578 0.00842566 -0.658897 -0.46176 -0.00491418 Si
36 1 5.39411 -0.0257401 0.134406 -1.1836 2.4966 1.63714 0.310099 0.0232936 -1.33721 Si
39 1 6.79285 1.35234 1.3931 -2.59177 0.0255145 -0.262126 0.0454132 0.414412 -0.150601 Si
38 1 8.18487 2.72945 0.0595404 -0.412532 -1.93566 2.91507 -0.310251 -0.4603 -0.646215 Si
40 1 8.13139 0.0100787 2.70555 5.66928 2.92534 -2.00578 -0.261064 0.990946 0.845761 Si
23 1 1.4126 6.72327 1.29687 -4.53846 3.88012 0.865091 -0.374903 1.38435 -0.534809 Si
24 1 2.70016 5.36363 2.59379 -4.09499 -1.98983 0.891196 0.933435 0.544895 0.76544 Si
1 1 4.12163 4.0399 1.3465 1.41961 -8.19312 0.0699533 0.345426 0.31177 -0.988576 Si
55 1 6.82001 6.86379 1.48082 1.64256 -0.046487 1.40954 0.447456 -0.149447 -0.0382646 Si
33 1 9.49939 4.13344 1.35848 2.69281 -1.01172 -3.11071 0.340368 -0.212409 0.790384 Si
56 1 8.16636 5.4476 2.82495 2.63824 -0.265656 -2.647 0.0882154 0.299933 -0.851305 Si
4 1 -0.0571119 0.0477504 -0.00740124 5.15834 -2.66254 0.74881 0.676324 -0.439074 0.601395 Si
8 1 2.64269 -0.0234815 2.78461 0.71944 0.453589 0.228068 0.145129 -0.370407 -0.514328 Si
18 1 -0.00258352 8.14227 2.6391 -0.869189 4.90983 -0.731135 -0.163699 -0.145092 0.429513 Si
17 1 3.99248 9.49675 1.36935 1.11846 0.0878262 -2.41979 0.420344 -0.437777 0.772833 Si
50 1 5.44859 8.1751 2.78909 0.61251 -2.72628 0.394965 -1.32228 0.31277 -0.0425093 Si
49 1 9.45714 9.62993 1.44369 -2.8312 1.06561 0.939721 1.04952 -1.42036 -1.60705 Si
54 1 8.10196 8.21395 0.0691867 -0.440183 -0.399098 -2.16598 0.272233 0.607148 0.101009 Si
14 1 2.78131 2.76597 5.48485 -4.13313 1.52916 -2.32558 0.280296 -1.31962 -0.20333 Si
15 1 1.38615 1.44868 6.87702 -0.30777 3.23929 1.40822 -0.0779404 -0.288995 -0.969289 Si
3 1 4.07103 1.30249 4.07737 0.322537 -1.8536 -0.122058 0.605682 0.570326 0.869326 Si
47 1 6.9806 1.29301 6.75965 0.0285095 -1.67844 -1.12463 -1.02472 0.480304 0.755181 Si
35 1 9.48559 1.44131 3.96902 -0.074428 -2.01725 -2.61903 1.0866 -0.0637398 1.02092 Si
46 1 8.11984 2.78847 5.39676 5.07446 5.24509 3.82265 0.597339 0.0402933 -0.365737 Si
5 1 1.53482 4.05607 4.04219 -0.722001 -1.4216 -3.03384 -1.58376 -0.0361628 0.136327 Si
28 1 0.140327 5.40215 5.40942 -3.18208 4.05548 -0.882822 -0.591759 0.476674 0.107487 Si
31 1 1.42798 6.84507 6.78869 -1.89479 -5.57416 -3.65872 -1.07437 -0.93447 0.721914 Si
9 1 4.14147 3.99341 6.88445 6.57097 -1.36196 2.51057 0.200714 1.24117 -0.577045 Si
19 1 3.90356 6.79821 4.04619 4.52773 5.25987 6.82158 1.3529 0.0996471 0.109937 Si
37 1 6.71399 4.14971 4.07817 -2.11752 -1.91641 2.59035 0.824813 -0.847109 -0.0297365 Si
60 1 5.40416 5.45335 5.38662 -0.120841 6.03691 -1.43484 -0.9929 0.378201 1.15641 Si
63 1 6.86713 6.74876 6.76767 -0.381775 -3.33311 -0.544829 -0.999716 0.19513 0.325333 Si
41 1 9.47292 4.1711 6.75831 5.16041 0.671048 4.39012 0.82585 -0.692865 -0.0588836 Si
51 1 9.57724 6.79277 4.11562 2.78622 1.52605 3.54875 0.0135099 0.425755 0.181518 Si
21 1 1.24522 9.4961 4.11483 0.855024 -1.95855 2.77104 0.504383 0.398831 -0.432848 Si
30 1 2.6445 8.22135 5.46081 -0.855062 -2.30166 -2.44085 0.436869 -0.111306 -0.783964 Si
44 1 5.50064 -0.0118049 5.53276 -1.65433 -0.633989 4.326 -0.817533 0.269141 -1.07664 Si
25 1 3.96633 9.5881 6.78619 -3.20615 0.153044 -3.79015 1.40752 -0.999979 0.659399 Si
53 1 6.81411 9.59137 4.07388 -4.09195 2.79943 -0.885937 -0.172763 -0.818237 0.789625 Si
12 1 0.0479023 0.0855507 5.47197 2.52849 1.73745 -0.92855 -0.678013 0.817422 -0.903205 Si
57 1 9.64158 9.57271 6.77102 -3.88115 -4.51297 1.97818 -0.627153 -1.18236 -0.0715923 Si
62 1 8.15395 8.20642 5.4861 -2.36594 0.558471 4.51032 1.01961 0.0502992 -0.81765 Si
6 1 2.7636 2.68838 -0.0986436 0.792672 -4.18637 -1.0471 0.0946622 -0.19396 0.376325 Si
11 1 4.11834 1.23077 9.46966 3.60481 0.684236 -2.71795 0.248438 0.967983 0.726708 Si
42 1 5.54815 2.62606 8.16403 -2.4453 -1.68513 4.06898 0.235384 -0.115789 0.381887 Si
10 1 -0.0740314 2.73751 8.11559 -1.35924 1.22888 0.303432 -0.50942 0.0874459 0.0268969 Si
43 1 9.51785 1.34381 9.49873 5.34712 1.52705 -1.46809 -0.650671 0.415752 -0.0658394 Si
13 1 1.26819 3.99845 9.49299 -1.84526 -3.49318 1.34946 0.595359 0.865057 0.448242 Si
32 1 2.67335 5.38163 8.16602 -2.89178 4.48696 5.3551 0.61012 -0.211183 0.0383789 Si
52 1 5.51212 5.58436 0.076138 -0.404924 3.66398 -6.08857 -0.43998 -2.01543 0.048457 Si
27 1 4.14781 6.69671 9.48231 0.442792 -1.82637 0.490457 -0.639403 0.446003 -0.224707 Si
45 1 6.79957 4.09732 9.60892 1.74499 0.893562 -2.22521 -0.00222456 -0.229505 -0.217607 Si
20 1 -0.0177819 5.42974 0.0169027 -1.10292 -0.509867 -3.32488 -0.361867 0.291208 -1.07678 Si
59 1 9.45336 6.89062 9.5758 2.45003 3.8121 -5.65853 0.503485 -1.07559 0.148263 Si
64 1 8.16282 5.42714 8.22261 -2.10942 0.770882 -0.589804 -0.0878357 0.514661 -0.00380469 Si
22 1 2.8045 8.11257 -0.135024 -1.17558 -2.25888 -0.237253 -1.24287 0.192001 0.786719 Si
16 1 2.65461 0.00211876 8.18211 -0.56529 -3.69344 -3.15589 0.0845526 0.0524995 -0.240707 Si
26 1 -0.0349632 8.12688 8.164 -1.23139 -3.4376 -2.86607 0.627891 0.479064 -0.155351 Si
29 1 1.31164 9.54976 9.50439 -0.0926491 3.98854 -3.31042 -0.0458425 -0.742447 0.490454 Si
58 1 5.41981 8.08122 8.12614 0.932199 -0.230282 0.991122 0.247101 1.3079 -0.367855 Si
61 1 6.7665 9.56461 9.54093 -2.08768 -2.03192 5.24988 -0.370778 -0.839227 -0.130816 Si
48 1 8.2466 -0.122371 8.12089 -5.83866 -0.779006 2.96264 -0.356703 1.14046 0.904391 Si
ITEM: TIMESTEP
10500
ITEM: NUMBER OF ATOMS
64
ITEM: BOX BOUNDS pp pp pp
0.0000000000000000e+00 1.0887404739999999e+01
0.0000000000000000e+00 1.0887404739999999e+01
0.0000000000000000e+00 1.0887404739999999e+01
ITEM: ATOMS id type xu yu zu vx vy vz fx fy fz element
2 1 -0.0273102 2.69812 2.78988 -4.42854 -4.61714 0.935536 -0.0926805 -0.37817 -0.543771 Si
7 1 1.30816 1.34242 1.35697 -2.61492 4.9246 5.40442 0.613653 -0.116563 0.606201 Si
34 1 5.54002 2.76029 2.72679 -1.46314 -3.96277 -2.16185 -0.78488 0.564568 -0.190251 Si
36 1 5.51591 0.0787736 -0.0650227 1.03923 2.46946 2.34477 -0.80713 -0.738392 1.23966 Si
39 1 6.81439 1.37143 1.41473 -0.336603 4.1448 -3.11649 0.0974771 0.214125 -1.29509 Si
38 1 8.15349 2.69873 -0.0140752 -1.86825 3.31523 -3.77489 0.287311 0.639152 0.15713 Si
40 1 8.14109 0.00607161 2.66884 -1.01087 -2.30402 -3.21021 1.04434 -0.526491 0.531761 Si
23 1 1.33088 6.86874 1.38257 2.31639 -0.645962 -2.22034 0.562678 -0.609215 0.763777 Si
24 1 2.74688 5.50424 2.8078 6.15817 2.45424 2.2599 -1.33112 -0.834724 -1.13693 Si
1 1 4.11701 4.14408 1.40937 2.57868 -2.47655 -0.843857 -0.715133 -1.06388 1.20798 Si
55 1 6.80704 6.76395 1.2107 -0.301273 3.11009 -0.524827 -0.0613459 -0.260936 1.11007 Si
33 1 9.57887 4.0559 1.40884 0.451282 -2.93583 -0.813377 -0.577284 -0.0614509 -1.02871 Si
56 1 8.109 5.39269 2.63922 3.53622 1.97839 5.7921 0.756385 0.905865 0.405937 Si
4 1 -0.0212352 -0.0769726 -0.00402025 -5.39287 1.94911 -0.352208 0.452885 0.499208 -0.678036 Si
8 1 2.72738 -0.003003 2.79193 0.593369 1.37145 3.3163 0.788056 0.728493 -0.574648 Si
18 1 -0.0248184 8.19416 2.76522 -2.50322 -4.11699 1.69345 -0.0455831 -0.280112 -0.339108 Si
17 1 4.15795 9.52084 1.39606 -0.00206393 1.13332 -1.21075 -0.563865 0.713469 -0.787563 Si
50 1 5.46974 8.06796 2.65315 -0.538784 -0.557342 2.07924 0.756592 0.707276 -0.0455371 Si
49 1 9.52394 9.46885 1.32596 2.90269 -2.61463 0.657368 -0.00250719 0.863734 1.03668 Si
54 1 8.23068 8.14734 0.00916353 1.66385 0.501866 -3.53595 -0.635522 -0.26993 -1.19594 Si
14 1 2.59377 2.67592 5.37727 4.22312 -0.591539 0.819614 0.585326 1.32327 0.601056 Si
15 1 1.3411 1.31237 6.82707 -1.98639 0.940911 0.138064 0.436812 -0.0973554 -0.539362 Si
3 1 4.17537 1.51499 4.10732 -0.324605 -1.48046 -3.0117 -1.47583 -1.39546 -0.778239 Si
47 1 6.64676 1.3795 6.87989 0.309674 -1.58597 -3.22496 1.57876 -0.666133 -0.951755 Si
35 1 9.51797 1.31922 4.12478 1.51234 2.12166 -0.995729 -0.213585 -0.499023 -0.478007 Si
46 1 8.1406 2.6037 5.48462 2.5241 -4.61806 -3.02781 -0.0812217 0.985469 0.434098 Si
5 1 1.20965 4.13309 4.09738 -5.99784 -4.50031 5.99191 2.15162 -0.60284 -0.641788 Si
28 1 -0.0371594 5.39537 5.45002 -1.64964 -1.54861 4.28701 -1.16876 1.82624 0.543924 Si
31 1 1.30675 6.93653 6.74118 1.40302 5.15168 -2.41001 0.697223 -1.51154 -0.119044 Si
9 1 4.02185 4.18125 6.67206 -3.85136 1.46314 0.829957 -0.00807983 -1.47329 1.02425 Si
19 1 4.18258 6.7501 4.02676 -0.408787 1.32632 -1.28741 -0.0527359 0.526601 0.722808 Si
37 1 6.87313 4.05932 4.08103 -3.01435 1.67337 -1.2453 0.156864 -0.216953 0.412655 Si
60 1 5.50862 5.4307 5.38724 -3.05153 1.5193 -4.65442 -0.114493 0.0317011 0.162543 Si
63 1 6.73286 6.81989 6.82043 0.569183 0.0328471 0.35294 0.858654 -0.0406136 0.276167 Si
41 1 9.57759 3.9781 6.84738 -0.90694 1.8113 -5.84001 -0.623138 0.336366 -0.557092 Si
51 1 9.43145 6.85039 4.05532 0.708999 -3.74222 1.71582 0.348136 -1.17869 0.256837 Si
21 1 1.41133 9.46194 4.09952 -3.01648 -0.311574 -2.05436 -0.304904 0.578052 0.347816 Si
30 1 2.84939 8.11809 5.37964 4.34429 0.199546 2.64159 -0.636952 0.206275 0.277234 Si
44 1 5.42802 0.0516858 5.37712 -2.52889 -0.337834 -2.65425 0.336757 -0.650998 0.51077 Si
25 1 4.14242 9.50063 6.75553 4.44867 0.723282 2.01843 -0.448208 0.775372 0.238292 Si
53 1 6.78683 9.5386 4.00376 -1.61285 -2.72974 -1.2056 -0.391367 -0.125605 0.201524 Si
12 1 -0.00395439 -0.0465792 5.45924 1.83307 0.119547 -0.198962 0.190364 -0.323813 -0.0248904 Si
57 1 9.47667 9.53417 6.82535 7.71989 3.50304 -3.48913 -0.112386 0.243324 -0.344978 Si
62 1 8.09467 8.20714 5.43022 -2.89292 -5.68955 -2.85342 -0.0685435 -0.14471 0.338742 Si
6 1 2.76459 2.75555 0.0903257 0.269008 3.16674 -2.18932 -0.931784 0.100274 0.00323568 Si
11 1 4.02218 1.40945 9.59446 -1.87756 -0.152764 4.13411 0.929296 -0.066328 -0.595106 Si
42 1 5.38872 2.72962 8.18121 -3.08829 2.21704 0.197656 -1.62556 1.22766 -0.29381 Si
10 1 0.0950508 2.69356 8.17607 0.7383 4.13151 -2.17214 -0.33851 0.259362 0.527453 Si
43 1 9.56991 1.38322 9.49969 -0.180232 -0.158867 1.48789 -0.0297197 -0.263222 0.622075 Si
13 1 1.41131 4.09275 9.5498 -0.234324 -2.36009 -1.33807 0.305035 0.129506 -0.174711 Si
32 1 2.70658 5.52629 8.12755 -7.05646 -1.48593 -5.59908 -0.516873 -0.0623501 -0.0696286 Si
52 1 5.39045 5.34418 0.0301815 1.26628 -1.34723 4.62655 0.457521 1.51098 -1.2051 Si
27 1 4.0143 6.7905 9.62949 1.38649 4.23318 -5.17728 0.627166 -0.276348 -0.747267 Si
45 1 6.73207 4.08964 9.49794 -3.90227 -2.73779 3.18998 1.30159 -0.199878 0.0775225 Si
20 1 0.0613421 5.44955 0.0333269 0.652501 -0.506023 2.40182 -0.125897 -0.638368 0.34776 Si
59 1 9.59891 6.74528 9.57607 -0.947522 2.47044 4.55528 -0.302344 0.828411 -0.820986 Si
64 1 8.23874 5.44207 8.14787 3.22757 -5.13618 3.1857 -1.00992 -0.205864 0.21028 Si
22 1 2.70678 8.16854 0.0394782 3.10518 4.91312 -1.70797 0.17213 0.61161 0.303524 Si
16 1 2.79615 0.0498556 8.14813 1.28113 1.82917 6.71903 -0.645046 -1.28151 0.133642 Si
26 1 -0.0215185 8.2007 8.1419 2.13285 -2.91136 5.74023 -0.47395 -0.514954 0.435316 Si
29 1 1.37745 9.45818 9.48018 -0.930209 -1.89421 5.52409 0.428151 1.31967 0.268511 Si
58 1 5.36576 8.16889 8.23342 4.04165 0.500729 -3.91203 0.792373 -0.151193 0.105682 Si
61 1 6.8499 9.54871 9.52768 -0.950246 1.64193 -2.71292 0.0971751 -0.280645 -0.28081 Si
48 1 8.17135 0.0900692 8.15837 1.93302 -2.98482 -0.314118 -0.493481 -0.64849 -0.00474432 Si
ITEM: TIMESTEP
10600
ITEM: NUMBER OF ATOMS
64
ITEM: BOX BOUNDS pp pp pp
0.0000000000000000e+00 1.0887404739999999e+01
0.0000000000000000e+00 1.0887404739999999e+01
0.0000000000000000e+00 1.0887404739999999e+01
ITEM: ATOMS id type xu yu zu vx vy vz fx fy fz element
2 1 -0.0154051 2.78334 2.74283 1.39231 1.72365 -3.63066 0.521397 -0.18168 -0.319309 Si
7 1 1.33256 1.4364 1.2858 3.28859 -6.38269 -7.32941 0.19316 -0.435151 0.380575 Si
34 1 5.30678 2.71782 2.63966 0.490552 -0.287786 2.80704 1.19375 -0.592993 0.645899 Si
36 1 5.44801 -0.0369939 -0.104053 2.24081 -8.43675 -1.67063 0.329073 0.0448813 0.345646 Si
39 1 6.74723 1.3257 1.37056 0.225616 -1.70597 1.86705 0.363514 -0.6923 0.487365 Si
38 1 8.12109 2.68233 0.0619059 2.06354 -1.91831 4.52591 0.0479705 0.342783 -0.399277 Si
40 1 8.25705 -0.0249835 2.81486 -2.06608 6.12458 5.58993 -1.61418 0.0977597 -0.792322 Si
23 1 1.38208 6.77563 1.33927 -3.19485 0.705527 -0.998203 -0.344808 -0.677168 -0.467279 Si
24 1 2.7843 5.447 2.69832 -0.917282 -0.46208 -2.76957 -0.0658495 0.553502 0.50567 Si
1 1 4.06722 4.09085 1.31166 -3.33329 1.61654 0.981394 -0.174768 0.54897 -0.457336 Si
55 1 6.70633 6.84394 1.40071 1.77269 1.99332 1.9252 0.473472 0.221107 -0.0830307 Si
33 1 9.46071 4.09149 1.36645 -7.22741 1.11318 0.367041 0.232537 0.436251 -0.0715625 Si
56 1 8.0784 5.49727 2.70269 0.313321 -1.76003 -3.45497 0.451775 -0.889996 0.600187 Si
4 1 -0.0148531 -0.0438932 -0.0336354 6.25935 -1.0266 -1.03549 -0.614573 1.27336 0.24253 Si
8 1 2.76077 0.0320455 2.65418 -0.118561 -2.12376 -2.66728 -0.85668 -0.608506 0.245662 Si
18 1 0.0646165 8.16161 2.62202 -1.03214 -2.03791 4.35852 0.0823715 0.261686 1.23926 Si
17 1 4.11664 9.47079 1.2918 0.955499 -0.963214 8.48262 -0.317115 0.226669 0.823702 Si
50 1 5.39193 8.13922 2.87392 -2.17717 1.98829 -2.34813 0.299046 0.897965 -1.11674 Si
49 1 9.53009 9.50442 1.36741 -4.39665 1.78423 -2.80811 0.22515 0.365387 0.025382 Si
54 1 8.1673 8.16537 0.0534314 -6.80528 3.13094 4.85678 -0.40151 -0.354131 0.0269347 Si
14 1 2.77098 2.63337 5.49912 2.86962 -3.96511 0.706624 -0.171823 0.488365 -0.509197 Si
15 1 1.28841 1.32633 6.76671 1.37099 -1.68976 -0.375254 0.415995 0.438184 0.846744 Si
3 1 4.11145 1.31962 4.0801 2.21617 5.30905 2.5748 -0.163666 -0.122151 0.115205 Si
47 1 6.896 1.33274 6.76722 -2.12314 1.31666 4.13831 -0.967976 0.549388 0.141848 Si
35 1 9.56079 1.38976 4.10751 -1.60786 1.17776 2.98415 -0.704118 0.93537 -0.322066 Si
46 1 8.13346 2.80026 5.3968 0.72484 -0.829989 -2.03629 0.187898 -1.04463 -0.190338 Si
5 1 1.48632 4.07194 4.07739 4.13143 9.04099 -0.567255 -0.967995 0.178341 0.796609 Si
28 1 0.041769 5.49147 5.49377 3.95612 1.20724 -3.1962 0.739487 -1.87815 -0.487806 Si
31 1 1.37645 6.70896 6.93588 -1.9637 -3.22388 1.94598 0.411908 1.02662 -0.0713072 Si
9 1 4.16825 3.99017 6.83702 -2.24874 4.07628 -2.79292 -0.772448 0.837127 0.0730823 Si
19 1 4.03975 6.85331 4.21033 -1.33664 -1.84887 -4.70955 -0.540593 -0.967228 -1.36529 Si
37 1 6.67397 4.03752 4.04147 3.57799 0.998322 -2.73773 0.4 1.06177 -0.312888 Si
60 1 5.37691 5.46822 5.43418 0.789273 -4.87539 6.78088 0.675575 -0.748324 0.537234 Si
63 1 6.76445 6.86601 6.73711 -1.42121 1.09435 0.708673 0.862378 -0.119394 -0.0126867 Si
41 1 9.53144 4.04493 6.76347 0.0271799 3.2844 2.39981 -0.205934 1.18833 0.446692 Si
51 1 9.69578 6.72229 3.99945 -0.0842351 2.6374 -1.11672 -1.37179 0.920639 -0.129302 Si
21 1 1.32145 9.55503 4.14996 4.02572 1.0208 0.367682 0.550117 -0.0555193 -1.50539 Si
30 1 2.65211 8.12814 5.48678 -2.30094 -1.76679 2.05316 -0.443029 0.502769 0.90071 Si
44 1 5.47055 -0.0418396 5.47857 -1.37025 0.530453 -3.19813 -0.328077 0.521562 0.069481 Si
25 1 4.01223 9.54403 6.80159 -3.39186 -1.85703 -1.59847 0.460757 -0.352732 -0.0432515 Si
53 1 6.82471 9.48721 4.19453 0.95153 0.677848 -2.07627 0.798816 -0.0641435 -0.92281 Si
12 1 -0.066621 0.0482625 5.42558 -4.56066 4.91834 -3.50373 0.36907 -0.966581 0.714357 Si
57 1 9.5511 9.54583 6.87122 -2.92799 -2.18794 0.14889 0.629718 -0.305028 -0.737294 Si
62 1 8.36034 8.14019 5.40003 4.17908 2.19466 -2.13255 -1.05889 -0.372076 0.4187 Si
6 1 2.71828 2.80499 -0.081545 1.01803 -1.46425 3.82251 -0.225053 -0.673288 0.184037 Si
11 1 4.10924 1.42078 9.46113 -1.46418 -3.47093 -0.490055 -0.895472 -1.09473 0.333494 Si
42 1 5.51831 2.69507 8.19062 6.27703 2.78563 -0.822883 1.01564 0.149332 -0.451579 Si
10 1 -0.0492478 2.70712 8.17678 -0.996601 -0.957978 2.23048 0.23556 -0.0612143 -0.387576 Si
43 1 9.43422 1.3756 9.50349 -4.62816 4.3003 3.53865 0.889781 -0.439155 0.722265 Si
13 1 1.29818 4.12108 9.50078 2.55399 4.45642 -0.64366 0.188558 -0.537473 -0.0398494 Si
32 1 2.81574 5.37878 8.27685 5.52059 -4.48858 -1.57812 0.247339 0.410837 -0.787555 Si
52 1 5.45362 5.46145 -0.00446061 2.38141 -6.12391 1.74704 0.111096 -0.151746 0.474484 Si
27 1 4.16276 6.86573 9.5906 -4.7561 -4.97377 0.664264 -0.757031 -0.13092 -0.880145 Si
45 1 6.84772 4.11349 9.57345 8.27494 0.404479 -0.461239 -0.153774 -0.207467 -0.540237 Si
20 1 -0.0655906 5.4551 -0.0764269 -0.382331 -3.5234 -1.13075 0.0070788 0.225174 1.12697 Si
59 1 9.48327 6.87516 9.50684 -2.20349 -4.53254 -0.185207 -0.0492364 -0.647803 0.166896 Si
64 1 8.14504 5.49176 8.12044 0.964387 2.63476 -4.33184 0.11614 -0.303666 -0.075458 Si
22 1 2.65141 8.14624 -0.0114763 -0.926138 2.41105 1.03196 1.06424 0.276198 -0.0468835 Si
16 1 2.66038 -0.0252905 8.14503 -0.777442 -2.13224 -5.75939 0.504083 1.13387 0.151727 Si
26 1 0.0284148 8.18032 8.24155 3.1816 1.60341 -5.58996 -0.0140468 -0.0435099 -0.714531 Si
29 1 1.36458 9.56008 9.54114 -0.862878 -0.353217 -5.76302 -0.0412845 -0.570561 -0.00928841 Si
58 1 5.46106 8.24434 8.14632 -3.96104 2.52955 4.33596 -0.357828 -0.712447 -0.13303 Si
61 1 6.90105 9.45947 9.48879 -1.66317 0.828124 2.80342 -0.710412 1.04089 0.306069 Si
48 1 8.17399 -0.0070282 8.14184 1.23328 -0.247877 4.76495 -0.00450334 -0.153243 0.287195 Si
ITEM: TIMESTEP
10700
ITEM: NUMBER OF ATOMS
64
ITEM: BOX BOUNDS pp pp pp
0.0000000000000000e+00 1.0887404739999999e+01
0.0000000000000000e+00 1.0887404739999999e+01
0.0000000000000000e+00 1.0887404739999999e+01
ITEM: ATOMS id type xu yu zu vx vy vz fx fy fz element
2 1 -0.0614335 2.61835 2.70234 0.601004 3.25373 0.489598 0.825554 0.650439 -0.065635 Si
7 1 1.43518 1.26937 1.38275 -3.29835 0.876402 4.36633 -1.05801 0.495816 0.0119719 Si
34 1 5.47224 2.81506 2.81463 2.21607 -0.506955 -4.65213 0.344063 -1.14156 -0.19837 Si
36 1 5.45934 -0.0260259 0.107019 2.11585 2.76753 2.5177 -0.372047 1.03379 -0.655622 Si
39 1 6.89618 1.50987 1.36433 1.30052 0.0965633 -2.18091 -0.820779 -0.203532 -0.376871 Si
38 1 8.27499 2.81001 -0.132799 0.583016 -2.51173 -1.97104 -0.0642256 -1.38641 0.834369 Si
40 1 8.14267 0.0548975 2.68962 -0.326257 -3.82615 -1.14928 0.0866478 -0.434974 -0.0286916 Si
23 1 1.38498 6.75955 1.45272 4.86698 -2.48575 3.89622 -0.674288 1.65452 -0.953855 Si
24 1 2.75217 5.42396 2.60723 -3.01813 -1.68149 2.30365 -0.328369 -0.696039 1.72683 Si
1 1 4.10226 4.05074 1.41321 0.0566682 1.95086 4.31411 0.416017 0.198827 -0.856876 Si
55 1 6.90864 6.77101 1.36405 -2.53118 -4.30181 1.25711 -0.344978 -0.287193 -0.668131 Si
33 1 9.60606 4.12957 1.26583 0.0673434 1.03113 0.0678879 -0.448297 -0.738182 1.47221 Si
56 1 8.27367 5.44481 2.76352 -3.63406 2.5342 -2.84215 -0.845795 -0.463043 -0.617606 Si
4 1 0.0209281 0.00703858 -0.0842082 -3.66248 0.917966 -4.7299 0.678341 -0.975418 1.62138 Si
8 1 2.73495 -0.0349152 2.82619 5.93914 0.270754 -0.554072 -0.0703751 -0.369153 -0.580062 Si
18 1 -0.0699985 8.17525 2.74072 5.47746 -1.15269 -3.7939 -0.0954917 -0.250605 -0.0832644 Si
17 1 4.00321 9.4603 1.3477 3.35307 4.3789 -6.44164 0.479541 0.491016 0.211647 Si
50 1 5.50468 8.14197 2.57107 3.60858 -1.16877 -1.50701 -0.727091 0.0225909 1.24443 Si
49 1 9.50642 9.56334 1.3384 1.30104 2.61936 1.69951 -0.176738 -0.287214 -0.689597 Si
54 1 8.10674 8.17118 -0.0902337 3.22143 -5.58463 -5.0347 1.5362 -0.104038 1.27843 Si
14 1 2.7255 2.88114 5.4215 -3.04041 2.01483 1.68852 -0.104146 -1.74703 0.00735208 Si
15 1 1.47917 1.35958 6.79764 1.28015 -1.89557 -1.26624 -0.675295 0.396735 -0.454235 Si
3 1 4.07522 1.37334 4.14255 -4.7177 -2.20029 -3.75352 0.173093 0.924246 -0.0218217 Si
47 1 6.87084 1.35366 6.79131 2.34943 -0.907682 -2.27731 -0.758184 0.489086 0.847398 Si
35 1 9.48935 1.2673 4.12468 -1.43929 -6.38899 -0.772008 1.03144 0.262477 -0.128353 Si
46 1 8.26425 2.6491 5.48434 -4.51962 5.37741 3.09408 -0.504584 1.11096 0.0757038 Si
5 1 1.3445 4.11395 4.02719 1.70471 -3.84743 -0.243784 -0.889711 0.212913 -0.434474 Si
28 1 -0.108611 5.49758 5.38926 -2.45722 7.56261 5.50742 0.822914 0.0151992 0.244476 Si
31 1 1.38499 6.84786 6.70301 1.23058 -2.42407 4.40309 -1.15243 0.0209815 -0.24432 Si
9 1 4.03128 4.12022 6.83329 -2.52607 -3.34893 1.53683 0.423948 0.687691 -0.858528 Si
19 1 4.10867 6.73327 3.93214 3.3266 3.08376 2.93934 0.388693 1.07939 0.949498 Si
37 1 6.90063 4.09161 4.16162 1.63071 -2.39513 1.05687 0.144906 -0.128291 -0.198469 Si
60 1 5.43189 5.41557 5.42466 -0.182105 -0.801791 -1.62405 0.318983 0.537934 0.518756 Si
63 1 6.85868 6.73338 6.8857 0.14603 3.95069 0.735051 -1.31689 0.272032 -0.117037 Si
41 1 9.53707 4.11289 6.85986 0.903124 -5.99734 -1.96838 0.221489 -0.695877 0.130321 Si
51 1 9.36045 6.91639 4.14427 -3.47395 -5.92446 -1.76841 1.18012 0.122142 -0.0300138 Si
21 1 1.2557 9.52975 4.10118 -0.45051 3.99158 3.0347 0.935108 -0.192162 0.352882 Si
30 1 2.76384 8.17615 5.37998 -2.99522 -1.56106 -1.3973 0.33949 -0.0139807 -0.540214 Si
44 1 5.42769 0.0770883 5.54229 2.08835 -2.33813 0.379726 0.188887 -0.832802 -1.29094 Si
25 1 4.11054 9.53377 6.83295 -0.213498 3.44327 3.06353 -0.110933 -0.705129 -0.181959 Si
53 1 6.72387 9.60336 3.99416 -1.24629 -1.07408 2.73065 -0.113668 -0.198545 1.00591 Si
12 1 0.0103939 -0.011099 5.54995 2.95769 -6.23532 4.60923 0.32403 0.963117 -1.23836 Si
57 1 9.51195 9.62619 6.80491 -2.65389 0.164947 3.46198 -1.16511 -1.11248 0.506681 Si
62 1 8.02307 8.2649 5.53383 1.65431 0.933641 -0.792633 0.467891 0.218916 -0.650605 Si
6 1 2.7247 2.72384 0.0766265 -2.94448 3.56484 -0.707025 0.650215 -0.925062 -0.298661 Si
11 1 3.99197 1.29438 9.51785 0.71901 3.79301 0.216595 1.36243 0.600315 0.301927 Si
42 1 5.3994 2.75404 8.06922 -7.47794 3.03279 -1.68501 0.0731497 -1.46581 1.30507 Si
10 1 0.0856772 2.6668 8.15662 2.75009 -4.59144 1.7907 -0.452323 0.289635 0.208436 Si
43 1 9.58655 1.24166 9.48826 0.259127 -1.5207 -0.192872 -1.02009 1.67141 -0.827418 Si
13 1 1.43078 4.02149 9.57767 0.835306 3.76921 -2.65503 -0.88755 1.03651 -0.592846 Si
32 1 2.6209 5.47079 8.06944 -3.30741 4.26354 -2.99343 0.303116 -0.710987 1.06468 Si
52 1 5.42324 5.45488 0.0409032 -0.0051373 4.29096 -2.70568 0.0864034 -0.427589 -0.473789 Si
27 1 3.99389 6.7335 9.45976 0.28243 2.48401 0.239551 0.736729 0.527326 0.78149 Si
45 1 6.74593 4.00857 9.54277 -1.64582 -0.500122 1.57185 -0.88166 0.513899 0.215216 Si
20 1 0.0903105 5.47254 0.0677582 -0.603686 -0.651931 0.145869 -0.051937 0.127848 -1.72504 Si
59 1 9.57743 6.84477 9.51264 2.07636 2.13582 -4.01503 0.0740301 -0.472268 -0.0669918 Si
64 1 8.11145 5.34281 8.3149 -1.77671 -0.931081 2.22601 1.32048 1.0945 -1.00761 Si
22 1 2.66999 8.11853 -0.0339658 -0.703125 -1.63412 3.00353 -0.138821 -0.245495 0.100488 Si
16 1 2.67722 -0.0850793 8.15217 -1.95946 -3.14888 -0.276538 0.940449 0.741659 -0.10997 Si
26 1 0.00991777 8.24309 8.04495 0.162628 -0.331008 -0.0129346 -0.0362316 -0.846891 0.776335 Si
29 1 1.36289 9.52143 9.47846 -0.232078 3.24546 0.536739 -0.565838 -0.709717 0.351952 Si
58 1 5.45398 8.15293 8.23056 2.77359 2.02262 0.529838 -0.215413 -0.399875 -0.550081 Si
61 1 6.79099 9.54285 9.56434 1.97938 -2.24054 -2.75103 -1.23614 -0.264021 0.137739 Si
48 1 8.06531 -0.0587538 8.21008 1.22432 2.28763 -0.698882 1.42907 0.967446 -0.467243 Si
ITEM: TIMESTEP
10800
ITEM: NUMBER OF ATOMS
64
ITEM: BOX BOUNDS pp pp pp
0.0000000000000000e+00 1.0887404739999999e+01
0.0000000000000000e+00 1.0887404739999999e+01
0.0000000000000000e+00 1.0887404739999999e+01
ITEM: ATOMS id type xu yu zu vx vy vz fx fy fz element
2 1 -0.0205183 2.76719 2.76995 -1.57436 -0.709234 2.51374 -0.0100131 -0.0443798 0.227505 Si
7 1 1.28517 1.43542 1.36934 1.6034 -2.19347 0.512351 0.715393 0.41514 -0.0784921 Si
34 1 5.37877 2.69114 2.68636 -0.45413 2.03394 3.86772 0.194892 0.622872 -0.604783 Si
36 1 5.47448 -0.0209681 -0.0739433 -2.76529 4.37691 0.346795 -0.179783 -0.271025 0.643511 Si
39 1 6.80262 1.3053 1.36893 -2.24024 3.80388 -1.5017 -0.597363 -0.0652597 0.0461171 Si
38 1 8.09845 2.68842 0.0326775 0.821202 0.150002 0.10331 -0.029378 0.674302 -0.125316 Si
40 1 8.15937 -0.0626049 2.72403 -4.74098 1.08847 -3.36264 1.31591 0.289309 0.00244951 Si
23 1 1.4291 6.78673 1.30233 -2.08056 -1.89235 -3.17431 -0.260515 0.0848347 0.881818 Si
24 1 2.70463 5.47254 2.74052 3.33876 1.02964 -3.20743 -0.00919359 -0.186886 -0.444056 Si
1 1 4.05015 4.19475 1.34281 7.62878 0.379451 -3.62148 0.108784 -1.37433 0.69312 Si
55 1 6.75368 6.79561 1.37306 1.37861 0.972213 2.94071 -0.0559709 0.604852 0.673057 Si
33 1 9.41942 4.05221 1.45396 1.0506 0.311212 -2.23621 1.12456 0.357382 -1.35118 Si
56 1 8.093 5.42822 2.72201 0.282677 -2.66167 4.92309 0.772683 0.905408 -0.11022 Si
4 1 -0.0120581 0.0582235 0.0773622 -3.45003 3.04554 -2.90193 -0.546667 -0.459457 -1.08089 Si
8 1 2.64511 0.0428195 2.64607 -4.20803 -0.122139 4.42031 1.11531 0.426556 0.603237 Si
18 1 0.080107 8.04542 2.74296 -2.98207 3.95467 -1.28595 0.130533 1.13933 -0.881538 Si
17 1 4.09668 9.53484 1.44088 -3.71575 -5.94529 -0.166285 0.141521 0.755921 -1.17735 Si
50 1 5.42509 8.20639 2.79127 0.901058 0.488458 1.95142 0.312883 -1.0171 -0.312328 Si
49 1 9.60107 9.4406 1.34059 1.05328 -2.31193 -0.497863 -0.380342 0.539588 1.27999 Si
54 1 8.11295 8.18886 0.0759524 0.811529 0.661038 3.50388 0.323718 -0.40065 -1.48823 Si
14 1 2.78144 2.57536 5.53504 -1.42327 3.98648 -0.989459 -0.999042 1.59345 -0.762181 Si
15 1 1.25382 1.33336 6.77044 -2.38482 7.91093 0.0809657 0.273962 0.64316 1.10421 Si
3 1 4.07227 1.36497 4.07899 2.36625 -0.632736 5.13943 -0.149002 -1.0008 -0.713654 Si
47 1 6.77511 1.34817 6.83539 3.14759 -2.39399 0.765963 0.184646 -0.664251 -1.24818 Si
35 1 9.5388 1.39495 4.13797 2.75632 4.90813 -0.572111 -0.894709 -0.620835 -1.17439 Si
46 1 7.9943 2.6696 5.35486 3.31409 -2.64277 -4.84476 1.09593 0.533532 0.549811 Si
5 1 1.45396 4.05285 4.09778 -0.218466 -2.75348 2.33892 0.213876 -0.950847 0.342217 Si
28 1 0.116883 5.35605 5.44569 4.04619 -9.18763 -4.5229 -1.19323 0.668991 0.560146 Si
31 1 1.32721 6.82549 6.91556 1.83092 4.10142 -0.501793 0.791791 -0.415256 -0.535478 Si
9 1 4.0383 4.09434 6.79932 2.43133 -2.74729 2.57209 0.956897 -1.10042 0.28026 Si
19 1 4.00409 6.81762 4.06723 -3.51611 -1.13338 -0.923118 0.626593 0.480311 1.36874 Si
37 1 6.77131 4.08708 3.96632 -5.74148 1.67349 -3.24692 -1.22358 -0.565445 1.11744 Si
60 1 5.40181 5.38507 5.42848 -1.20033 1.59192 -4.90002 -0.0905206 0.687044 -0.9201 Si
63 1 6.7689 6.80678 6.7119 0.562515 -1.21629 -5.15862 0.926595 -0.168318 0.0249701 Si
41 1 9.41583 4.04048 6.71218 4.62832 0.936863 1.93817 0.673216 0.0388263 0.0921367 Si
51 1 9.61997 6.715 4.03246 0.952982 3.76121 2.63186 -0.494214 -0.586827 0.702057 Si
21 1 1.41679 9.54758 4.00536 -2.79139 -3.71441 0.0681183 -0.746717 -0.477084 0.85228 Si
30 1 2.6962 8.25197 5.53733 1.34355 1.30587 1.27607 0.15458 -0.766319 -0.511484 Si
44 1 5.48174 -0.0298351 5.33297 0.843582 1.38027 3.16878 -0.00833142 -0.00487238 1.39294 Si
25 1 4.13249 9.57556 6.86181 0.558819 -3.89796 -3.70592 -0.866318 0.982681 -0.685038 Si
53 1 6.90599 9.4371 4.10549 -0.0478782 -1.34522 -1.69346 -0.70722 0.674647 -0.387343 Si
12 1 0.0204019 0.00335752 5.3726 -0.324036 2.99617 4.37337 -0.0520553 -0.79606 0.0549055 Si
57 1 9.60727 9.48751 6.75222 7.28984 0.11172 0.721466 0.130468 0.0858604 0.191941 Si
62 1 8.27383 8.1106 5.38269 -2.18582 2.1436 3.43723 -0.0585292 -0.562211 0.612376 Si
6 1 2.73083 2.77761 0.0175328 2.21014 -2.28059 -5.33988 -0.323837 -0.115657 -0.55112 Si
11 1 4.14206 1.40491 9.50867 4.16746 -5.03079 0.276998 -0.640763 0.35445 0.338958 Si
42 1 5.50739 2.73723 8.13959 2.33053 -6.20912 -0.942584 -1.13432 0.632079 0.234708 Si
10 1 -0.10994 2.73511 8.19056 -2.9756 -0.860853 -1.95342 0.531531 0.266572 -0.545177 Si
43 1 9.43792 1.37069 9.5445 2.36013 -3.47263 -3.02915 1.16684 0.00812058 0.55989 Si
13 1 1.34133 4.15438 9.5075 -6.15115 -5.53548 -0.35986 -0.145449 -1.20358 0.368965 Si
32 1 2.78542 5.40627 8.20207 0.754861 2.56944 3.75457 -0.561908 1.44905 -0.0608566 Si
52 1 5.44563 5.44256 0.0378338 -2.73543 5.65114 2.36098 -0.185117 0.812417 -0.872969 Si
27 1 4.17307 6.85949 9.49442 1.72488 -2.81128 -0.658704 -0.626274 -0.193267 0.571536 Si
45 1 6.76268 4.11701 9.55004 -4.34614 -3.55934 5.22712 1.12178 -0.047384 -0.48111 Si
20 1 0.0255349 5.45788 0.051939 -1.78611 5.4677 -0.488043 -0.887265 -1.07891 0.337259 Si
59 1 9.52964 6.75241 9.61104 5.83664 6.70868 3.58875 -0.609769 1.00444 -0.290516 Si
64 1 8.19038 5.48956 8.10931 -0.00868701 1.24235 3.64228 -0.864586 -0.45904 0.532706 Si
22 1 2.7552 8.20357 0.0522347 1.25488 -2.86281 -5.78819 0.846617 -0.469401 -0.610919 Si
16 1 2.66034 0.117832 8.20306 -0.76425 5.11176 1.58012 0.382438 -1.49564 0.114176 Si
26 1 -0.00353835 8.18124 8.28535 -3.1165 0.408311 0.256966 -0.298356 -0.171123 -0.25652 Si
29 1 1.35609 9.52029 9.64526 -2.34832 -4.69063 0.588901 0.168504 1.23014 -0.710014 Si
58 1 5.49578 8.19038 8.074 -3.93046 -5.17033 -2.3883 0.222747 -0.0665395 0.747912 Si
61 1 6.87535 9.57387 9.39637 0.00401078 5.62246 1.92019 0.256906 -0.36731 0.685107 Si
48 1 8.30017 0.0529664 8.05886 0.62197 -1.90028 -2.82961 -1.15177 -0.794776 0.18299 Si
ITEM: TIMESTEP
10900
ITEM: NUMBER OF ATOMS
64
ITEM: BOX BOUNDS pp pp pp
0.0000000000000000e+00 1.0887404739999999e+01
0.0000000000000000e+00 1.0887404739999999e+01
0.0000000000000000e+00 1.0887404739999999e+01
ITEM: ATOMS id type xu yu zu vx vy vz fx fy fz element
2 1 0.102949 2.74859 2.67286 -1.54197 4.19482 1.40217 -1.23299 -0.682265 -0.391469 Si
7 1 1.37457 1.27967 1.32338 -4.17432 5.50941 -1.78345 0.351801 -0.0434403 0.22774 Si
34 1 5.52278 2.78816 2.74588 0.941733 -0.18518 0.455432 -0.519359 -0.445905 0.510591 Si
36 1 5.34689 -0.00113681 0.0289288 0.990999 0.755254 -0.340056 0.963601 0.197293 -0.565924 Si
39 1 6.72682 1.36209 1.3637 2.45573 -2.05078 6.38775 1.42071 -0.282367 0.378588 Si
38 1 8.19878 2.68855 0.022618 0.782027 -1.65485 0.7205 -0.487777 0.509285 0.0331675 Si
40 1 8.23595 0.0742775 2.81949 3.37866 0.450022 -1.09233 -1.85865 -0.586463 -0.925043 Si
23 1 1.23734 6.91895 1.36823 0.326435 1.4133 -0.735446 0.849997 -1.63137 -0.27366 Si
24 1 2.62886 5.45398 2.69013 -0.661501 0.340121 7.46964 1.26124 0.550712 0.049875 Si
1 1 4.09082 4.02352 1.40189 -2.42126 0.999212 1.36098 -0.355223 0.86184 -0.519163 Si
55 1 6.76733 6.7344 1.32218 -0.707173 -3.31222 -7.86495 0.676761 0.531852 -0.467147 Si
33 1 9.58077 4.11371 1.3137 0.904316 -1.14833 3.25813 -0.723807 -0.676866 0.929652 Si
56 1 8.16502 5.46789 2.67727 -1.97447 -1.82703 -5.32114 0.167091 -0.53343 0.418608 Si
4 1 0.0127621 -0.0759149 -0.0627799 -1.51839 -4.65894 3.73628 0.0454296 0.844347 0.10423 Si
8 1 2.75305 -0.0296711 2.7677 -0.392321 -0.508828 -0.74566 -0.583529 0.0645558 -0.530508 Si
18 1 -0.0109542 8.27579 2.69938 -0.751518 -0.587228 2.92546 -0.902872 -0.214624 0.896385 Si
17 1 4.0785 9.52468 1.35776 3.46461 -1.98572 1.11635 -0.519876 -1.18645 0.473066 Si
50 1 5.469 8.0887 2.7021 -2.88382 -3.29345 -0.289347 -0.0767851 1.23347 0.0037332 Si
49 1 9.52961 9.60612 1.37334 -2.22638 -1.6443 -3.15879 -0.627287 -0.589376 -0.420702 Si
54 1 8.21872 8.1136 -0.0308061 -1.95652 1.01547 2.62741 -0.912586 0.856987 1.09858 Si
14 1 2.66073 2.78022 5.35892 0.33345 -5.87466 -0.859892 1.22956 -0.627357 0.619739 Si
15 1 1.38231 1.4006 6.75585 0.352423 -4.80187 0.633977 0.427841 -1.36738 0.0828435 Si
3 1 4.07839 1.40299 4.03494 4.42617 6.48758 -0.690699 0.539714 0.0228788 0.838472 Si
47 1 6.76782 1.37385 6.8681 -3.77064 1.80399 2.15028 0.704483 0.0336938 0.218995 Si
35 1 9.57418 1.42629 4.08798 -2.21478 -3.57866 2.93343 0.176848 0.742927 0.536948 Si
46 1 8.20117 2.75503 5.56323 -6.12894 -1.69567 3.77842 0.133199 -0.716345 -0.759506 Si
5 1 1.34015 4.07781 4.03756 1.14439 3.19991 -3.7486 -0.465651 1.34262 0.329204 Si
28 1 -0.0614337 5.51468 5.37225 2.69703 0.331355 -2.26153 0.460664 -0.662129 -0.118284 Si
31 1 1.35783 6.76342 6.77063 -3.65453 3.47869 -2.72064 0.389819 0.290359 0.0960304 Si
9 1 4.16656 4.01486 6.74758 -1.28323 5.6548 -7.42543 -0.776046 0.922934 0.535687 Si
19 1 4.2065 6.7527 4.1013 1.19103 -1.48854 -0.588794 -1.26196 -0.874969 -1.02869 Si
37 1 6.88156 4.10274 4.16612 4.5317 -0.23141 1.04276 0.363918 0.0991169 -0.720783 Si
60 1 5.56028 5.45779 5.49152 -0.78297 -1.63498 -1.69079 -0.550494 -0.0988053 0.144367 Si
63 1 6.77995 6.92674 6.84028 -3.09768 -4.44649 -0.509928 -0.0505686 -0.958574 0.699791 Si
41 1 9.66669 4.04568 6.81541 -1.2755 -3.44582 0.948223 -1.06504 1.14775 0.48888 Si
51 1 9.42244 6.91258 4.04835 -1.58991 3.35864 -2.05093 0.703377 -0.0188288 -0.0869309 Si
21 1 1.33334 9.5353 4.1225 3.73512 -2.94728 0.62912 0.479491 -0.0649391 -0.391133 Si
30 1 2.74211 8.06328 5.31735 1.34157 0.381245 -3.20792 -0.253607 0.646083 1.17898 Si
44 1 5.44483 0.0328011 5.50533 -1.45035 2.3734 -3.57774 -0.680674 0.575865 -0.829402 Si
25 1 4.11768 9.45092 6.69474 -1.0425 1.35244 0.831793 -0.377231 -0.742238 0.993803 Si
53 1 6.71295 9.56252 4.14619 2.6431 2.89765 -0.050796 1.09158 0.0312807 -1.18087 Si
12 1 -0.0483281 -0.00443151 5.44424 -1.2199 -2.80039 -2.32507 0.0419495 0.237052 0.694849 Si
57 1 9.3811 9.56165 6.83682 -4.42726 1.22811 -0.724434 1.15209 0.571056 -0.25033 Si
62 1 8.09885 8.24276 5.47612 0.942511 5.85348 0.255413 -0.27124 -0.15284 -0.491268 Si
6 1 2.7754 2.6361 0.00288191 4.33971 2.9231 3.25707 -0.770715 0.920486 0.055678 Si
11 1 4.11276 1.39948 9.48564 -3.1521 -0.286759 -0.326117 -0.829525 -1.73061 0.20804 Si
42 1 5.43513 2.7112 8.22442 1.82431 -0.0393229 0.593527 0.58697 0.480243 -0.986 Si
10 1 0.0876393 2.66862 8.17978 1.17654 -1.11129 1.90715 -0.238169 0.63611 0.0783077 Si
43 1 9.56963 1.40573 9.54364 0.704242 2.3821 -3.37946 -0.0875198 -0.973472 -0.0546298 Si
13 1 1.36823 4.07346 9.54444 3.29143 0.0625987 0.767458 0.82927 0.0183701 0.165114 Si
32 1 2.82069 5.45175 8.20153 0.739814 -0.98576 -0.30371 -1.14175 -1.02043 -0.974081 Si
52 1 5.42237 5.39719 -0.0432078 -2.4078 -3.51743 1.23773 0.363334 -0.973128 1.10649 Si
27 1 4.01176 6.72894 9.68415 -0.483629 -0.686963 5.00014 0.536869 0.00915621 -1.3268 Si
45 1 6.83497 4.05402 9.50189 -1.73203 3.74683 -1.02749 0.32676 0.43515 0.267008 Si
20 1 -0.0393696 5.45094 -0.0108983 2.62772 -1.40407 0.0174001 0.85625 0.704482 -0.522867 Si
59 1 9.5476 6.83694 9.4923 -0.636458 -5.12795 1.7347 0.0267598 -0.600491 -0.225745 Si
64 1 8.18029 5.50016 8.13709 5.34519 -0.0972421 -1.04327 0.265932 -0.789248 -0.223203 Si
22 1 2.70095 8.08726 0.000843638 -0.795458 0.611439 0.850765 -0.904382 1.89828 0.460874 Si
16 1 2.80356 -0.0892864 8.08507 -1.44019 1.16927 -1.35973 -0.821189 1.07152 0.143983 Si
26 1 -0.0754357 8.17236 8.06365 -0.6139 3.36607 -1.70169 0.548379 -0.211828 0.0931941 Si
29 1 1.32266 9.46876 9.42409 2.47074 -3.34543 -0.631174 0.960229 -0.228945 0.307021 Si
58 1 5.31232 8.08082 8.31636 -1.92185 2.20187 4.55537 0.618306 0.908445 -1.2079 Si
61 1 6.73574 9.47896 9.58646 2.7835 -1.32555 0.0842763 0.182358 0.280538 0.114128 Si
48 1 8.12324 0.0251754 8.26695 4.44507 4.18823 -1.13212 -0.386094 0.00836882 -0.110613 Si
ITEM: TIMESTEP
11000
ITEM: NUMBER OF ATOMS
64
ITEM: BOX BOUNDS pp pp pp
0.0000000000000000e+00 1.0887404739999999e+01
0.0000000000000000e+00 1.0887404739999999e+01
0.0000000000000000e+00 1.0887404739999999e+01
ITEM: ATOMS id type xu yu zu vx vy vz fx fy fz element
2 1 -0.0309102 2.71144 2.74473 2.62699 -1.23303 -0.101519 0.348562 0.0436 0.115686 Si
7 1 1.37327 1.41171 1.42586 2.9273 -0.00662772 -2.29854 -0.303128 -0.34909 -0.437945 Si
34 1 5.40866 2.65468 2.71805 -2.31822 3.7195 -4.18195 -0.143186 0.18795 -0.750775 Si
36 1 5.51153 0.0351176 -0.0655772 1.18843 -4.39191 -1.25577 -0.420021 -0.250452 0.245979 Si
39 1 6.87952 1.35035 1.31462 -1.56487 -1.71906 -0.74871 -0.642308 0.46622 0.0532538 Si
38 1 8.19819 2.80237 -0.0495985 -3.17359 0.578896 1.4153 -0.130056 -0.774912 -0.00779291 Si
40 1 8.09709 -0.153012 2.62219 4.72391 -2.70068 3.88426 1.15788 1.76325 1.09598 Si
23 1 1.50264 6.70823 1.34804 5.02378 0.402147 3.25576 -0.838535 0.916224 -0.101984 Si
24 1 2.79888 5.389 2.78217 0.481979 -0.788979 -7.48422 -0.866854 -0.222637 -0.0297683 Si
1 1 4.11341 4.14424 1.27673 -3.26431 3.47889 3.18279 -0.0765591 -0.820185 0.48672 Si
55 1 6.82453 6.86763 1.34273 -1.49758 1.28058 2.2314 0.0374493 -0.443599 0.699518 Si
33 1 9.55578 4.08264 1.41158 -2.3437 1.12124 -2.2135 -0.443295 0.164786 -0.581169 Si
56 1 8.16165 5.4087 2.76865 -3.16855 3.36947 0.379436 -0.519171 0.431703 -0.403857 Si
4 1 -0.0536246 0.0901829 0.0415366 2.18887 -3.41494 -2.44289 0.531632 -1.11995 0.701239 Si
8 1 2.72966 -0.023626 2.73273 2.02577 0.349135 1.78758 -0.334391 0.10858 -0.317507 Si
18 1 0.0438105 8.10707 2.70571 3.60424 -0.390079 -6.61065 0.327278 -0.731706 -0.215524 Si
17 1 4.03297 9.57388 1.2336 0.210956 2.11088 -1.27135 1.64408 0.52005 1.54013 Si
50 1 5.4215 8.2428 2.70949 2.7223 -4.38981 3.23372 -0.576048 -0.630067 0.0561018 Si
49 1 9.52711 9.44543 1.4069 -1.79469 1.71009 5.24923 0.948316 0.544226 -1.00557 Si
54 1 8.23082 8.1633 0.00233388 2.25655 0.342309 -1.65391 -0.657028 0.00201272 -0.622693 Si
14 1 2.73606 2.74371 5.45738 -0.628025 0.506658 3.74062 -0.4726 -0.706541 0.453525 Si
15 1 1.37734 1.33949 6.87501 -1.34393 -1.55659 0.280826 0.0997702 0.527379 -0.342713 Si
3 1 4.06069 1.29401 4.13975 -2.46234 -1.50515 -3.39173 0.169775 0.690699 -0.52088 Si
47 1 6.85688 1.36303 6.73652 4.94911 -4.24135 -1.0026 -0.603495 0.360951 0.340591 Si
35 1 9.51109 1.32572 4.02115 -1.14294 -0.205007 -2.44441 -0.176192 -1.37742 0.625591 Si
46 1 8.14913 2.72055 5.36915 -0.725155 1.76077 -0.379633 -0.165038 0.199547 -0.0863063 Si
5 1 1.29863 4.04757 4.12992 4.99752 -1.20586 -2.54605 0.758285 0.345632 -0.209621 Si
28 1 -0.0153787 5.39472 5.53927 -2.47609 3.2446 5.4657 0.305219 0.495557 0.0202857 Si
31 1 1.3901 6.90299 6.80609 4.72492 -2.62185 3.3862 -0.995236 -0.756747 0.423635 Si
9 1 4.06349 4.08066 6.86122 2.38538 -3.46007 2.17112 -0.228199 0.515137 -0.632469 Si
19 1 3.97979 6.85186 4.15371 -3.5489 -0.97473 0.761181 1.17622 0.685805 -0.665316 Si
37 1 6.67423 4.07526 4.08164 -4.81203 -1.91791 0.204619 0.87034 0.0111625 -0.0925383 Si
60 1 5.37466 5.47703 5.44548 -0.314934 0.434751 -0.212235 0.0747979 -0.27646 0.467931 Si
63 1 6.85671 6.74277 6.78404 1.89392 1.63635 1.46458 -0.383862 0.0856839 -0.459832 Si
41 1 9.3934 4.07982 6.8372 -2.30723 -1.54482 -5.2643 0.95711 -0.518463 -0.504148 Si
51 1 9.61048 6.72775 4.09352 3.17485 -6.39759 -3.27113 -0.355131 0.0509062 -0.10874 Si
21 1 1.31158 9.51769 4.04752 -5.17638 2.50445 4.96771 0.524763 0.226141 0.157722 Si
30 1 2.67703 8.29374 5.47542 1.06705 -4.23196 0.811752 0.239521 -0.425539 -0.127218 Si
44 1 5.48287 0.0217016 5.46332 4.09 -0.930564 3.75054 -0.21856 -1.06141 -0.111377 Si
25 1 4.03921 9.59204 6.87668 -4.57897 4.97742 -1.18275 0.707135 0.341315 -0.386266 Si
53 1 6.87355 9.49277 4.0949 -2.50106 2.25021 -1.05443 -0.896889 -0.403821 0.689823 Si
12 1 0.0533168 -0.0796224 5.52409 -0.595205 2.35374 0.680628 -0.486079 1.50685 -1.41069 Si
57 1 9.59849 9.47841 6.78568 1.07658 3.85557 2.50147 -0.675168 -0.598418 0.474128 Si
62 1 8.2549 8.068 5.44959 4.14595 -3.1984 -0.69489 -0.190387 0.569489 -0.309852 Si
6 1 2.61891 2.77395 -0.0282857 -2.07362 4.05205 -0.696451 1.16567 -0.088383 0.95708 Si
11 1 4.04166 1.3976 9.60433 -2.43314 4.44756 -4.18483 0.861822 0.619106 -0.259622 Si
42 1 5.40354 2.66351 8.11513 1.55768 2.45218 -1.59902 0.48913 0.239663 0.825695 Si
10 1 -0.0521096 2.74053 8.14498 2.6399 1.01164 -0.203126 0.0245061 -0.340693 -0.0364004 Si
43 1 9.51738 1.30158 9.45348 -5.71867 -1.20702 0.996987 -0.628825 1.02615 0.192178 Si
13 1 1.29825 4.07283 9.52485 -0.991513 1.80648 1.01704 0.0342725 0.580199 -0.821913 Si
32 1 2.68 5.48983 8.17222 0.250722 -2.17447 2.71647 0.425758 -0.119123 0.274471 Si
52 1 5.45009 5.57193 -0.0631199 2.39845 -0.0961057 2.50666 -0.112384 -0.354791 0.500868 Si
27 1 4.15387 6.90027 9.42716 -0.264897 -1.24847 3.04897 -0.693996 -0.435363 0.0914545 Si
45 1 6.70347 4.11983 9.52714 3.21303 2.74581 -0.873786 0.206112 -1.02507 -0.143733 Si
20 1 0.00476412 5.41659 -0.00108709 -0.690019 -3.30937 2.07192 -0.0186427 0.40836 0.448931 Si
59 1 9.50236 6.759 9.51412 -6.61615 3.14514 -0.669886 0.0471403 -0.271848 0.27487 Si
64 1 8.08211 5.3748 8.19709 -4.8161 1.10966 -1.11633 0.418091 0.904976 0.0863793 Si
22 1 2.80586 8.19086 -0.0296397 -1.22938 -1.04165 0.978956 -0.840181 -1.08659 -0.183323 Si
16 1 2.73764 0.072546 8.32075 -2.19239 -5.96555 -0.847266 -0.414139 -0.737078 -1.07615 Si
26 1 -0.0104139 8.17265 8.26049 0.882001 1.41711 2.35462 0.890267 0.407162 -0.217807 Si
29 1 1.40915 9.59066 9.65304 0.439919 7.05019 -3.84557 -1.18558 -0.296382 -0.605841 Si
58 1 5.52215 8.16462 8.0417 2.3396 1.80508 -1.27474 -0.114344 0.756584 0.724921 Si
61 1 6.86665 9.53848 9.46952 5.24235 -0.0446769 -3.3108 -0.0400563 -0.402157 -0.143197 Si
48 1 8.17726 -0.0285293 8.02272 -2.6854 -4.91626 -0.169084 0.404655 -0.078162 0.905857 Si
ITEM: TIMESTEP
11100
ITEM: NUMBER OF ATOMS
64
ITEM: BOX BOUNDS pp pp pp
0.0000000000000000e+00 1.0887404739999999e+01
0.0000000000000000e+00 1.0887404739999999e+01
0.0000000000000000e+00 1.0887404739999999e+01
ITEM: ATOMS id type xu yu zu vx vy vz fx fy fz element
2 1 -0.00240016 2.68332 2.66041 -4.58105 -8.28323 3.72247 0.0926826 0.429266 0.793883 Si
7 1 1.38911 1.34509 1.36043 -0.528425 -4.47487 -1.19423 -0.516641 0.160702 -0.3985 Si
34 1 5.40586 2.74176 2.75419 0.750826 2.00398 1.6757 0.598344 0.183202 0.50219 Si
36 1 5.36926 -0.0236306 0.0489955 4.87025 0.866012 -3.02995 0.216163 -0.168173 0.529578 Si
39 1 6.75237 1.38565 1.41079 1.8164 7.97913 -1.69423 -0.27321 0.16295 -0.784818 Si
38 1 8.1336 2.72076 0.0290151 1.15721 3.06076 -4.88517 0.420202 -0.278354 -0.189305 Si
40 1 8.19668 0.141421 2.70565 -1.73889 2.51668 -0.497074 -0.441683 -1.78951 -0.209021 Si
23 1 1.21319 6.85993 1.40282 -3.64626 -4.72521 0.365124 0.758542 0.0572147 -0.0258413 Si
24 1 2.70027 5.48569 2.65414 5.99994 1.0691 -3.71318 0.236294 -0.174355 -0.5097 Si
1 1 4.0407 3.9933 1.31558 2.47572 -1.25715 -1.79154 0.278626 0.946542 0.914974 Si
55 1 6.85285 6.7564 1.38968 0.11802 3.5184 0.194128 -1.05477 0.169943 -0.0118889 Si
33 1 9.53405 4.07458 1.34739 1.43602 2.93482 0.076108 0.294715 0.0455472 -0.331616 Si
56 1 8.25741 5.43871 2.7361 2.50963 -0.502408 2.4438 -0.10715 0.541506 0.0461699 Si
4 1 0.0857187 -0.0769828 0.0574089 -1.13773 2.5515 -2.40863 -0.381278 0.86734 -1.97359 Si
8 1 2.65299 0.0310224 2.70546 -1.2374 -0.594508 2.29071 1.5906 -0.191984 0.871402 Si
18 1 -0.0836583 8.26138 2.79687 -1.18653 -0.619877 0.930254 0.367044 -0.185862 -0.665551 Si
17 1 4.03458 9.48108 1.48044 -4.04644 -5.58085 -0.208744 -0.723403 0.533069 -1.85719 Si
50 1 5.41799 8.1735 2.72072 0.492659 0.465629 -2.93907 1.30097 -0.606219 0.442496 Si
49 1 9.51337 9.57974 1.31273 0.920955 -1.56193 -3.32059 -0.566065 -0.0700411 1.23064 Si
54 1 8.06639 8.23777 0.0399199 -1.73773 0.281294 -0.325884 1.34999 -1.08823 -0.280979 Si
14 1 2.7137 2.74288 5.42657 -0.648661 2.86436 -1.70253 0.372506 0.745594 -0.117928 Si
15 1 1.3861 1.40077 6.78905 1.56615 -1.66888 -1.33867 -1.09119 0.265436 -0.6112 Si
3 1 4.0843 1.34118 4.12225 2.05077 -0.126443 5.04048 -0.492769 0.053536 -0.49309 Si
47 1 6.78982 1.3685 6.83329 -0.63381 2.58729 0.316909 0.0948756 -0.390626 -0.725201 Si
35 1 9.52016 1.34365 4.09716 2.20799 2.51417 4.65079 0.38175 1.57053 -0.256506 Si
46 1 8.21977 2.72534 5.50663 8.40849 -7.43613 -2.21123 0.0575923 0.247202 0.153742 Si
5 1 1.37877 4.14188 3.98598 -3.86087 3.29357 2.29837 -0.110966 -1.49946 0.172789 Si
28 1 0.000738122 5.38893 5.34332 -0.86674 -1.29557 -2.95417 -0.43305 0.976363 0.580803 Si
31 1 1.35056 6.69132 6.74153 -1.87519 3.35769 0.0553184 0.471107 0.591383 0.320344 Si
9 1 4.112 4.13819 6.81081 -1.76715 0.157661 2.82248 0.276439 -1.29056 0.113922 Si
19 1 4.10894 6.75873 4.03579 3.24615 -2.19838 -4.41359 -0.0592387 0.229833 0.747416 Si
37 1 6.93369 4.10126 4.08965 1.28952 1.05898 0.793603 -1.16224 -0.598367 0.052746 Si
60 1 5.51579 5.43491 5.44996 -0.332864 1.64856 -0.320201 -0.523786 -0.247321 -0.772535 Si
63 1 6.81222 6.72473 6.82387 -2.38394 1.19037 1.66655 -0.363756 1.66333 0.121656 Si
41 1 9.5506 4.20653 6.8657 -0.086286 1.77068 5.5809 0.286942 -1.43415 -1.29756 Si
51 1 9.50218 6.88875 4.13642 -2.77063 6.34728 0.67894 -0.296149 -0.424586 0.11316 Si
21 1 1.46773 9.49263 4.05717 -5.35713 0.404152 -4.16812 -1.6776 0.679041 0.716466 Si
30 1 2.74446 8.13162 5.4482 2.87054 2.60204 -1.53555 0.222404 -0.876851 -0.303107 Si
44 1 5.41465 -0.0514041 5.45467 -1.81673 1.43199 3.89682 0.719477 0.719223 0.00116059 Si
25 1 4.10578 9.46788 6.78282 4.58526 -2.83824 2.26807 -0.16379 0.0697353 0.253332 Si
53 1 6.83071 9.58745 4.04934 -3.26598 -2.98991 -0.390905 -0.535535 -0.035563 -0.303999 Si
12 1 -0.0039121 0.0515325 5.37253 -1.42249 2.68005 3.79715 0.842043 -1.28764 1.07022 Si
57 1 9.47957 9.57205 6.82286 1.79365 2.54079 -1.16025 0.502891 0.0070658 -0.455013 Si
62 1 8.05187 8.22232 5.4876 -3.65029 1.58021 2.31604 1.00561 -0.42485 -0.0241095 Si
6 1 2.76346 2.63666 0.00320687 0.984967 0.540855 3.57457 -0.376662 -0.276172 -0.801832 Si
11 1 4.07793 1.26064 9.47431 -2.63976 -0.937409 3.04761 0.218632 0.927092 0.0395754 Si
42 1 5.52757 2.716 8.20551 -1.17907 -1.90638 -0.579417 -1.46645 0.191885 -0.356117 Si
10 1 0.0116536 2.79695 8.15005 1.67158 -4.49612 -4.1669 0.00952288 -0.833592 0.614722 Si
43 1 9.51096 1.34918 9.52849 4.25951 -4.02065 -2.66513 0.764525 -0.0300378 0.447928 Si
13 1 1.42721 4.04848 9.56584 2.67723 -0.22569 0.0749921 -0.776085 -0.0237471 0.226817 Si
32 1 2.71367 5.38133 8.20211 -1.5998 0.888855 -6.69969 0.0872076 0.668727 -0.60362 Si
52 1 5.44692 5.34107 0.0234698 -0.28904 -4.2156 0.898209 0.356283 0.781298 -0.405153 Si
27 1 4.03961 6.75227 9.55785 -0.865202 -1.19471 -5.4952 0.503823 0.466716 0.24702 Si
45 1 6.89377 4.08311 9.48624 -4.22282 -4.20975 1.20367 -0.484604 0.269476 0.604102 Si
20 1 0.00864071 5.47031 -0.0159668 5.69746 7.98586 -0.809702 -0.401733 -0.546226 -0.0757742 Si
59 1 9.49578 6.82811 9.52986 7.73115 2.08335 -0.354912 0.453865 1.11377 -0.000308599 Si
64 1 8.20256 5.49291 8.13961 -0.585654 -6.14709 4.62384 -0.272055 -0.138328 0.984905 Si
22 1 2.6151 8.16015 0.00515033 -5.36812 -0.534279 -0.538581 1.19687 -0.360158 0.559207 Si
16 1 2.71597 0.00871886 8.02794 1.60166 0.680519 0.495294 0.433579 -0.785095 1.01095 Si
26 1 0.0736138 8.17482 8.08382 -0.267001 -0.8602 0.191183 -1.36915 -0.771282 0.205473 Si
29 1 1.41568 9.48076 9.4284 -1.80294 -3.42418 2.81291 -0.363032 1.06517 0.418875 Si
58 1 5.46572 8.16487 8.19518 0.164237 0.780823 0.406651 -0.446328 -0.922973 0.0785399 Si
61 1 6.75258 9.53745 9.59084 -1.90432 -0.526807 1.07153 -0.365103 0.359363 -0.492008 Si
48 1 8.08839 0.00146979 8.20354 -4.05101 0.615034 1.23187 0.533341 -0.00874132 0.145864 Si
ITEM: TIMESTEP
11200
ITEM: NUMBER OF ATOMS
64
ITEM: BOX BOUNDS pp pp pp
0.0000000000000000e+00 1.0887404739999999e+01
0.0000000000000000e+00 1.0887404739999999e+01
0.0000000000000000e+00 1.0887404739999999e+01
ITEM: ATOMS id type xu yu zu vx vy vz fx fy fz element
2 1 -0.00893348 2.75151 2.80419 1.31611 3.40616 -2.69544 -0.0720504 -0.224384 -1.09565 Si
7 1 1.34364 1.46637 1.3525 -3.39748 6.16247 2.44029 0.00298237 -0.679263 0.446143 Si
34 1 5.48022 2.71784 2.64686 -6.45668 -2.72621 0.751009 0.29144 -0.360031 0.589221 Si
36 1 5.49858 0.0348826 -0.0168341 -6.32316 0.447966 0.0198103 -0.0483506 -0.133963 -0.652595 Si
39 1 6.85594 1.28954 1.36371 -2.90464 -2.78858 2.38351 0.27275 0.14762 0.628379 Si
38 1 8.10131 2.71822 0.0218655 3.09929 -3.25504 -2.21969 0.801433 0.122879 -0.00884891 Si
40 1 8.24158 -0.0720163 2.80881 2.08929 0.373378 2.40074 -0.684725 0.401348 -0.611382 Si
23 1 1.43883 6.82102 1.34717 0.748746 0.741923 0.37821 -0.476049 -1.13163 -0.385347 Si
24 1 2.70396 5.47423 2.79216 -3.61622 2.54622 2.52056 0.233213 -0.319207 0.613622 Si
1 1 4.04577 4.06552 1.45678 -0.839439 1.72263 -2.11103 0.294088 0.765503 -1.02381 Si
55 1 6.74566 6.79681 1.34055 -0.958805 -4.04356 -1.31976 0.549175 0.542553 -0.623594 Si
33 1 9.53134 4.0352 1.36063 0.78318 -4.0529 -0.312397 -0.530189 0.713557 0.377394 Si
56 1 8.12672 5.51047 2.6694 -1.31721 1.14276 0.393516 0.271008 -1.72331 0.302978 Si
4 1 0.0171202 0.0236451 0.0649295 -0.199598 0.830672 4.83712 -0.647167 0.135546 0.571618 Si
8 1 2.73694 0.039176 2.6103 -1.25917 2.85652 -4.42947 -0.608615 -0.3094 0.276551 Si
18 1 0.0447209 8.06063 2.66023 1.1855 -3.11585 3.09698 0.0741629 0.890229 1.17068 Si
17 1 4.18948 9.60577 1.34754 6.21875 0.0365476 2.09887 -0.497938 -1.00733 0.418029 Si
50 1 5.45224 8.13493 2.77433 -3.69137 3.22022 1.8955 -0.0303199 0.975207 -1.17468 Si
49 1 9.57012 9.43916 1.41496 6.61431 -2.27439 -3.68583 -0.425805 0.437166 -1.06044 Si
54 1 8.20544 8.11844 -0.0932686 -1.42523 -2.26263 0.430867 -0.849666 0.296923 1.29355 Si
14 1 2.75426 2.60495 5.45293 4.5197 -3.41695 2.93576 -0.0922899 0.176957 -0.407264 Si
15 1 1.31825 1.2673 6.78029 -4.79831 0.837711 -2.07246 0.70375 0.263969 0.81884 Si
3 1 4.10098 1.33813 3.92204 0.447337 2.14717 1.27933 -0.00538414 0.307016 1.38127 Si
47 1 6.72514 1.36856 6.79276 -0.510734 4.10751 -0.351467 0.388088 0.454831 0.901211 Si
35 1 9.53847 1.41743 4.1054 0.220829 -5.40426 5.44364 -0.763971 -0.372194 0.0423307 Si
46 1 8.14122 2.75848 5.47354 -7.87861 2.5221 -2.64858 -0.698398 -1.22427 -0.98934 Si
5 1 1.33479 3.99768 4.16364 5.17581 -1.61511 -3.49396 0.36845 1.87791 0.531231 Si
28 1 -0.0673545 5.55259 5.504 1.40993 -0.868932 -2.27964 1.1955 -1.94834 -1.18034 Si
31 1 1.3339 6.80675 6.81277 -3.01909 -2.12609 0.641517 0.0633436 0.752593 0.248482 Si
9 1 4.07455 4.06402 6.76694 1.66213 -0.355507 0.00666451 -0.537294 0.534074 0.126362 Si
19 1 4.12682 6.89002 4.13889 -3.47257 2.23814 -0.850525 -1.33745 -0.922132 -0.341546 Si
37 1 6.7796 4.06779 4.08008 1.11513 -2.86113 -0.491234 0.0114555 1.02009 -0.158685 Si
60 1 5.40154 5.5093 5.45567 -2.30437 -5.33944 -0.122564 0.92703 -0.78499 0.209168 Si
63 1 6.79154 6.85743 6.84631 -1.51484 -1.18828 -3.43262 0.247704 -0.854947 -0.930084 Si
41 1 9.55314 4.01965 6.66786 -2.15221 -3.04212 -3.48364 -0.157378 1.27869 2.35668 Si
51 1 9.55325 6.73805 4.02791 4.78783 -0.427612 -0.3908 -0.427843 0.862822 -0.264879 Si
21 1 1.34198 9.57575 4.02239 3.36324 -0.304752 0.65059 0.958493 -1.19362 -0.540272 Si
30 1 2.71839 8.17811 5.4776 -4.32881 2.03054 3.36631 -0.32688 0.948885 -0.142315 Si
44 1 5.39112 0.00870391 5.409 0.102022 -2.87961 -6.2521 0.0108348 0.254341 -0.0264888 Si
25 1 4.10215 9.57115 6.84433 1.9583 -1.38777 2.25742 -0.729506 -0.254435 -0.667739 Si
53 1 6.74242 9.51298 4.10804 5.06768 -0.696214 3.66457 1.04131 -0.165977 0.0508652 Si
12 1 0.00288188 0.00349313 5.32371 -2.76859 -0.979263 -5.79849 -0.775832 -0.477579 1.5478 Si
57 1 9.50522 9.47202 6.76656 2.02819 -2.62641 -1.27111 0.0510756 0.526654 0.0410327 Si
62 1 8.15669 8.06783 5.36197 4.26711 0.373646 -3.93327 -0.0632193 0.929441 0.59553 Si
6 1 2.74303 2.74835 0.0321803 2.14614 -0.843443 -1.4301 -0.096596 0.314444 -0.141128 Si
11 1 4.10677 1.44086 9.55343 5.85876 0.10039 -2.04873 -0.482618 -1.05851 0.171559 Si
42 1 5.38142 2.82558 8.22896 2.54144 1.53551 -0.80663 0.890029 -0.965837 -1.15183 Si
10 1 0.0201639 2.75353 8.15379 -5.17331 1.42557 5.56314 0.00817952 -0.560554 -0.0955798 Si
43 1 9.57553 1.42508 9.63004 -3.79983 1.87743 3.53492 -0.569844 -0.429733 -1.06501 Si
13 1 1.39829 4.08972 9.54303 -2.67309 -0.538554 1.39528 -0.0894005 -0.0101347 -0.462998 Si
32 1 2.6868 5.46093 8.11299 4.91094 -2.82307 6.13999 0.860061 -0.151477 0.617058 Si
52 1 5.43882 5.38584 -0.00647504 -1.66177 3.81025 -0.727045 -0.689413 0.561629 0.0670309 Si
27 1 4.12802 6.86016 9.47528 5.44113 4.98578 2.08358 -0.583985 -0.570767 0.442236 Si
45 1 6.82676 4.09859 9.50873 -1.78223 -0.921881 1.02045 -0.148018 0.00656588 0.266332 Si
20 1 0.0059943 5.39475 -0.00262185 -3.08087 0.0844295 0.749716 0.338434 0.47599 0.415269 Si
59 1 9.49284 6.69832 9.51386 -3.53284 -1.94705 2.36072 0.524605 0.057261 -0.0303557 Si
64 1 8.16055 5.41873 8.11424 2.43289 6.90118 -1.75896 0.275704 -0.540965 -0.530261 Si
22 1 2.77474 8.21045 0.0654555 0.282103 -1.89888 0.477192 0.161966 0.346908 -1.15872 Si
16 1 2.7255 -0.0625051 8.25732 -3.07683 6.21775 -0.974589 -0.166499 1.34223 -0.507833 Si
26 1 -0.0520025 8.09671 8.22045 1.14817 3.62478 1.09504 0.405167 0.89436 -0.283321 Si
29 1 1.29185 9.5737 9.59981 0.0484865 -1.66602 0.881728 0.649191 -1.50067 -0.226811 Si
58 1 5.46599 8.23306 8.11246 1.48316 2.67397 -1.73307 -0.491035 -0.597825 0.39489 Si
61 1 6.77336 9.4874 9.47599 -0.709097 -3.02824 -2.65351 0.889842 0.798475 0.874566 Si
48 1 8.16126 0.0285426 8.22697 6.15337 2.72442 -3.41582 0.343252 0.0588026 -0.848765 Si
ITEM: TIMESTEP
11300
ITEM: NUMBER OF ATOMS
64
ITEM: BOX BOUNDS pp pp pp
0.0000000000000000e+00 1.0887404739999999e+01
0.0000000000000000e+00 1.0887404739999999e+01
0.0000000000000000e+00 1.0887404739999999e+01
ITEM: ATOMS id type xu yu zu vx vy vz fx fy fz element
2 1 0.0278045 2.61285 2.59664 0.38375 5.24215 1.56869 0.385643 1.5955 0.571264 Si
7 1 1.42096 1.21199 1.31784 5.18729 -4.15407 -2.26848 -0.0834843 0.850843 0.773467 Si
34 1 5.41787 2.68882 2.7504 6.89453 6.07969 1.86146 -0.513283 0.167462 -0.755158 Si
36 1 5.37289 -0.0533834 -0.0454735 -1.18855 -1.09949 4.17728 -0.0522923 1.08846 0.648177 Si
39 1 6.73139 1.40136 1.24256 2.72606 -2.96915 -1.37618 0.0837444 -0.560249 0.952602 Si
38 1 8.1685 2.75585 -0.0162666 -0.99676 2.37245 3.46224 -0.192751 -0.325385 -0.307428 Si
40 1 8.05815 0.0426158 2.70932 0.412759 -1.88195 0.208808 0.467038 0.0576004 -0.605792 Si
23 1 1.30749 6.80726 1.34281 1.14922 3.81868 0.491987 0.939941 0.857351 -0.0488208 Si
24 1 2.71765 5.40258 2.63771 -6.57351 -3.63685 -2.56148 -0.446658 0.35991 0.342524 Si
1 1 4.09855 4.07757 1.27513 -3.64566 -0.928675 5.79851 -0.0969172 -0.510849 0.332565 Si
55 1 6.86336 6.94681 1.39452 1.50081 -4.13583 0.717269 0.299084 -2.21123 0.175611 Si
33 1 9.50065 4.09006 1.34217 -0.152303 2.59444 -1.60486 0.399371 -0.386431 0.475591 Si
56 1 8.22177 5.39338 2.82246 0.331074 -0.90716 -3.02301 -1.08534 0.850224 -0.932844 Si
4 1 0.00102919 0.0865441 -0.0790793 1.69005 1.68826 -3.35987 0.0692742 -1.8373 0.463226 Si
8 1 2.72663 -0.0428675 2.86202 -1.2033 -3.20529 1.65941 -0.387709 -0.257155 -0.579975 Si
18 1 -0.0193126 8.17346 2.79298 0.851846 3.47369 -2.04533 -0.293251 -0.0797319 -0.890466 Si
17 1 4.04423 9.55161 1.36079 -6.08666 4.81671 -1.15044 0.259249 0.106054 0.606312 Si
50 1 5.46011 8.22328 2.68093 4.57283 -3.68302 -2.57659 -1.24656 -0.820148 0.519207 Si
49 1 9.51762 9.61188 1.3735 -5.40743 1.10776 6.55162 0.364504 -0.11898 0.029573 Si
54 1 8.18563 8.2253 0.0107313 0.475743 1.82618 -2.62294 0.348616 0.172274 -0.169752 Si
14 1 2.73558 2.84428 5.45118 -3.48482 4.28722 -4.67289 -0.699576 -0.557771 0.231172 Si
15 1 1.39555 1.45432 6.87719 3.44912 0.769323 -0.7838 0.127233 -0.396621 -0.519398 Si
3 1 4.05672 1.37462 4.18588 -3.08742 -4.10067 -6.63422 0.184048 0.067374 -0.608109 Si
47 1 6.8598 1.36279 6.7609 -1.09237 -5.37722 2.04589 0.176581 -0.646119 0.232997 Si
35 1 9.53426 1.3857 3.97094 -0.21456 3.52203 -4.60245 0.472515 -1.41226 0.648897 Si
46 1 8.25706 2.67604 5.33899 -0.474293 3.96369 6.51422 -1.06018 1.20588 1.34113 Si
5 1 1.28952 4.16812 4.08813 0.909263 -4.29039 -0.4187 0.711688 -1.80285 -1.29649 Si
28 1 0.00833514 5.40675 5.49582 -2.31243 4.31354 -2.68336 -0.232312 0.98343 0.73999 Si
31 1 1.40484 6.82718 6.80419 4.87269 -1.34 -2.15213 -0.124553 -0.917467 0.0639806 Si
9 1 4.10832 4.0664 6.87461 1.79743 -2.56443 -1.99463 -0.0572412 0.76211 -0.535689 Si
19 1 4.05114 6.74512 4.04238 4.98377 -3.73878 1.90076 1.11873 0.383413 0.0462513 Si
37 1 6.74832 4.03847 4.10637 3.0885 0.702852 1.0213 0.927458 0.180423 0.0734787 Si
60 1 5.48997 5.44206 5.5163 4.43526 2.15103 1.78411 -0.748582 0.120323 -0.486696 Si
63 1 6.82751 6.85516 6.84449 5.49852 1.0569 1.16553 0.236773 -0.795035 -0.255186 Si
41 1 9.4555 4.14573 6.86175 3.3261 -1.41215 -2.00839 0.581291 -1.28162 -1.16427 Si
51 1 9.57477 6.76374 4.15689 -7.61594 1.49107 1.00003 -0.156734 -0.0313726 -0.422775 Si
21 1 1.30188 9.45738 4.1967 1.62135 2.11154 0.318432 0.533679 1.10572 -0.139758 Si
30 1 2.76209 8.13462 5.44357 0.105418 0.306314 -4.95514 -0.332213 -0.285826 -0.265941 Si
44 1 5.45143 -0.0237121 5.44573 1.41411 5.14359 4.99627 0.451284 -0.115437 -0.0617861 Si
25 1 4.10634 9.46979 6.76147 -1.29159 1.89055 -4.24798 0.319864 0.39171 0.581674 Si
53 1 6.79882 9.47054 4.04847 -1.45154 2.24368 -0.392254 0.249164 0.801072 0.829246 Si
12 1 -0.0131606 0.0576486 5.53708 3.86257 -3.09233 0.0724495 0.709867 0.615489 -1.4286 Si
57 1 9.64578 9.47341 6.74651 -7.30989 -1.24802 0.941382 -1.61634 -0.164204 1.3164 Si
62 1 8.20098 8.12606 5.4285 -3.81765 2.60089 5.04541 -0.116353 0.579208 0.168798 Si
6 1 2.62577 2.67346 -0.0245325 -1.24128 -2.60114 0.566029 0.852607 0.672436 0.124672 Si
11 1 4.05486 1.37592 9.54265 -0.636538 1.65409 -2.91829 0.466967 -0.0229137 -0.216221 Si
42 1 5.43516 2.66993 8.13626 -3.72428 1.82398 0.635989 0.650933 0.109302 0.60119 Si
10 1 -0.0798524 2.74213 8.17974 2.84919 -0.238285 -1.60054 0.39186 0.358169 -0.103734 Si
43 1 9.51428 1.3714 9.51658 4.13452 -0.501459 -0.682275 -0.742845 0.143291 -0.254258 Si
13 1 1.27047 4.09122 9.54358 1.50958 0.24773 2.09992 0.411406 0.186569 -0.140779 Si
32 1 2.72455 5.44163 8.18619 1.50751 3.58649 0.579064 -0.296193 -0.21982 0.214318 Si
52 1 5.50444 5.50745 -0.0106085 -2.13349 0.345292 -2.23416 0.151408 -0.151497 0.228574 Si
27 1 4.11028 6.80556 9.49861 -4.46383 -5.17163 2.78122 -0.471949 -0.397957 0.617188 Si
45 1 6.8135 4.06909 9.49905 1.42409 1.68565 -2.83664 -0.597225 0.0127481 0.229085 Si
20 1 -0.0606937 5.4744 0.0200416 -0.463773 -3.63905 2.39421 0.163051 -0.129304 -0.330846 Si
59 1 9.54884 6.85503 9.52119 1.36332 -1.24866 -1.19878 -0.923902 -0.630843 0.34071 Si
64 1 8.142 5.43843 8.19899 -2.88409 -0.625402 0.419113 0.0395674 1.1584 0.211925 Si
22 1 2.78843 8.22375 -0.0513918 5.76423 -2.22675 2.50737 -1.33196 -0.940965 0.423985 Si
16 1 2.84077 0.0159279 8.1467 3.28928 -7.13634 0.244219 -1.27878 -0.217542 -0.409617 Si
26 1 0.0361416 8.10509 8.17741 -7.3454 -0.333028 -5.72628 0.451891 1.02322 -0.405666 Si
29 1 1.39113 9.55746 9.47018 -0.269179 3.1925 -0.349204 0.00138577 0.12659 0.121384 Si
58 1 5.41311 8.10139 8.16825 -4.40512 -7.69725 5.59857 0.428331 1.13609 -0.193625 Si
61 1 6.71082 9.48438 9.58755 -0.317489 3.64917 3.24356 1.00249 -0.110228 -1.29539 Si
48 1 8.189 -0.0855006 8.18517 -2.09066 -0.574659 1.30898 -0.243363 0.106472 -0.452098 Si
ITEM: TIMESTEP
11400
ITEM: NUMBER OF ATOMS
64
ITEM: BOX BOUNDS pp pp pp
0.0000000000000000e+00 1.0887404739999999e+01
0.0000000000000000e+00 1.0887404739999999e+01
0.0000000000000000e+00 1.0887404739999999e+01
ITEM: ATOMS id type xu yu zu vx vy vz fx fy fz element
2 1 -0.000405386 2.82601 2.75634 3.84661 -3.93478 -5.57438 -0.886531 -1.58746 0.44705 Si
7 1 1.29185 1.38992 1.42859 -0.567801 -0.683785 7.67634 0.29203 0.0407408 -1.16627 Si
34 1 5.52734 2.67215 2.7542 0.413988 -5.91508 -1.78658 -0.265776 1.17816 0.403432 Si
36 1 5.50001 0.0499451 0.0654857 1.65485 1.15681 -3.25161 0.0755903 -1.26166 -0.228081 Si
39 1 6.87941 1.35203 1.41617 -1.0038 1.29366 -3.70862 -0.244585 0.795419 -0.978951 Si
38 1 8.27944 2.69341 0.0223012 -1.95299 1.15798 1.51964 -1.0928 0.640356 0.297559 Si
40 1 8.14284 0.0068183 2.69568 -4.10981 -2.3733 -2.79725 1.00769 -0.390363 0.882386 Si
23 1 1.34487 6.71485 1.36091 0.412457 -1.74973 -5.06153 -0.238384 0.518658 0.824596 Si
24 1 2.7573 5.44646 2.81575 3.80299 0.42733 2.3196 0.233274 -0.0156968 -1.098 Si
1 1 4.10532 4.04136 1.35226 5.67619 3.44624 -8.66409 0.247016 0.32248 0.806455 Si
55 1 6.77858 6.70952 1.34311 -0.294263 3.53904 -1.86321 -0.94465 1.36471 0.160451 Si
33 1 9.55792 4.13221 1.38574 0.119611 1.15208 5.9409 0.206078 -0.283298 -0.801527 Si
56 1 8.163 5.45129 2.67022 1.99585 -1.93136 4.46192 0.661997 0.703255 0.470878 Si
4 1 -0.0367992 -0.0485276 0.0397795 -3.41497 0.0424497 4.1666 0.725443 1.07977 -1.06503 Si
8 1 2.73895 -0.0002286 2.5996 -0.203914 -0.217599 3.13975 0.550599 1.14612 0.720994 Si
18 1 -0.018735 8.2217 2.73028 2.40868 -0.862535 0.41192 -0.0458103 -0.511004 -0.705436 Si
17 1 4.06576 9.52099 1.33277 -3.67678 0.393247 -2.14819 0.0356349 -0.10492 -1.03032 Si
50 1 5.39 8.24711 2.70416 -1.35633 5.7778 0.935418 1.48845 -0.971114 0.444557 Si
49 1 9.46609 9.55171 1.28264 3.18622 -0.226574 -0.848175 -0.0861809 -1.07263 1.30225 Si
54 1 8.14663 8.07304 0.0075637 3.19007 0.240535 3.96877 -0.122727 0.628877 -0.560973 Si
14 1 2.6848 2.6681 5.40675 -0.45064 -1.60904 1.89324 0.413283 0.584515 0.0934362 Si
15 1 1.40702 1.29322 6.77186 -0.561242 0.411411 3.42393 -0.953885 0.140437 -0.203039 Si
3 1 4.07559 1.32692 4.07865 -3.23019 -1.87674 2.70653 0.261692 -0.274362 -0.449099 Si
47 1 6.74978 1.45215 6.82137 3.45342 -0.829414 2.24296 0.0171527 -1.11777 -0.261844 Si
35 1 9.49492 1.31412 4.15257 1.01698 2.70002 -4.65352 0.425709 1.05909 -0.545238 Si
46 1 8.16275 2.80278 5.52977 -1.61495 -4.13672 -3.09767 0.699246 -0.422189 -0.4383 Si
5 1 1.35408 4.0923 4.0785 -5.28897 3.26792 3.73221 0.488477 0.0274929 0.5851 Si
28 1 0.00453405 5.42401 5.42106 3.3343 -7.23648 2.87294 -0.900013 0.721781 -0.185435 Si
31 1 1.29855 6.82806 6.7468 0.616219 3.04901 3.45234 0.337971 0.0711017 0.0476893 Si
9 1 4.01761 4.11144 6.76666 -2.33033 1.63139 3.39795 0.977864 -1.32651 -0.00187699 Si
19 1 4.08576 6.89936 4.13865 -6.15508 -0.407124 2.63746 0.0151658 -0.528867 0.109948 Si
37 1 6.92672 4.18844 4.09368 -3.61762 4.69628 -1.7367 -1.32341 -1.73672 -0.118049 Si
60 1 5.47212 5.40172 5.43749 1.68792 2.76665 1.87342 -0.560699 1.06551 -0.0727524 Si
63 1 6.7915 6.7818 6.80925 -1.82838 2.30929 -1.6044 -0.176833 0.333856 0.292665 Si
41 1 9.59668 4.11443 6.88422 -5.15357 3.87739 4.5847 -0.0601451 -0.43922 -0.685821 Si
51 1 9.42491 6.86656 4.10373 2.10817 -4.24815 -0.956136 1.08414 -0.37441 -0.133558 Si
21 1 1.47983 9.60189 3.95125 -1.41519 -1.06888 -4.72206 -1.63083 -1.03564 0.854141 Si
30 1 2.6332 8.2497 5.45229 -1.25148 3.87824 0.251761 0.966463 -0.519716 -0.176758 Si
44 1 5.42895 -0.0650239 5.44822 1.73165 -0.578257 -0.51292 -0.197474 1.15414 0.764262 Si
25 1 4.048 9.4972 6.86143 0.90732 -0.642665 1.5764 0.0154808 0.521348 -0.51641 Si
53 1 6.84746 9.58137 4.12519 2.59253 -3.69049 3.164 -0.918815 -0.675398 -1.02501 Si
12 1 0.0383588 -0.112142 5.40246 -0.198503 -1.01873 5.71793 -0.557 0.635636 0.623672 Si
57 1 9.39709 9.53724 6.85916 1.96025 1.53384 -3.29211 1.73721 0.311152 -0.596702 Si
62 1 8.10526 8.21951 5.49879 0.762256 -5.47627 -1.35946 -0.0820587 -0.735299 -0.231934 Si
6 1 2.75256 2.68896 0.0144805 -2.44259 1.17552 -2.14411 -0.758721 -0.0281347 -0.027242 Si
11 1 4.08498 1.26371 9.60592 -0.846367 -0.0859637 4.87377 -0.0726565 0.986365 -0.661074 Si
42 1 5.4005 2.69903 8.23083 2.38245 -5.08133 -0.837404 -0.685989 0.615002 -0.335411 Si
10 1 0.0856837 2.68779 8.15118 -0.635371 3.66032 -1.78578 -0.143745 0.0332639 -0.173246 Si
43 1 9.55058 1.39399 9.50369 -5.83218 -2.08512 -4.03914 0.757877 -0.765365 0.243994 Si
13 1 1.46375 4.08106 9.42687 0.01912 1.23561 -4.58305 -0.236688 -0.442602 0.83252 Si
32 1 2.71525 5.47774 8.05414 -3.97159 -1.28109 -0.944251 -0.438225 0.353784 0.304449 Si
52 1 5.41207 5.42253 -0.0686515 2.76475 -0.159783 0.783234 -0.0683725 -0.270769 0.240343 Si
27 1 4.00566 6.79055 9.47982 1.21949 2.19998 -2.76245 0.954334 0.109254 -0.0178214 Si
45 1 6.83551 4.04213 9.53553 -1.18467 1.82849 0.866895 0.278569 0.099236 0.0149296 Si
20 1 0.0521208 5.3848 -0.0751733 0.369127 -0.42916 -0.626933 -0.254166 0.0794177 0.160802 Si
59 1 9.52105 6.75673 9.50457 -0.10267 -1.27899 0.549707 0.804513 0.728894 0.0206426 Si
64 1 8.19389 5.45087 8.15517 -1.45481 -3.38574 -3.10923 -0.693994 -0.413996 0.252637 Si
22 1 2.67692 8.06597 0.0143334 1.03959 4.60505 -4.24763 0.361852 0.811382 0.00981781 Si
16 1 2.69662 0.0120687 8.17813 1.71172 6.37799 4.29 0.428359 -0.887527 0.620912 Si
26 1 0.00247201 8.20017 8.11656 2.5646 -1.23017 7.29279 -0.914506 -0.544602 0.666577 Si
29 1 1.36141 9.47129 9.54126 3.40145 -5.59308 2.47214 -0.207193 0.553122 0.0973357 Si
58 1 5.44868 8.19921 8.1873 2.40511 0.156977 -6.21644 -0.15448 -0.78041 0.0714431 Si
61 1 6.83647 9.55552 9.51449 0.631762 1.24773 -5.89297 -0.20014 -0.148442 0.814521 Si
48 1 8.14629 0.0762843 8.17357 0.75938 0.0878564 -4.36919 -0.431675 0.251759 0.00877237 Si
ITEM: TIMESTEP
11500
ITEM: NUMBER OF ATOMS
64
ITEM: BOX BOUNDS pp pp pp
0.0000000000000000e+00 1.0887404739999999e+01
0.0000000000000000e+00 1.0887404739999999e+01
0.0000000000000000e+00 1.0887404739999999e+01
ITEM: ATOMS id type xu yu zu vx vy vz fx fy fz element
2 1 -0.0200447 2.77076 2.73311 -2.48126 -0.106902 1.04514 0.321682 -1.09756 -0.765073 Si
7 1 1.42539 1.40799 1.38116 -1.42139 3.08506 -2.90009 -0.631848 0.0872827 -0.073341 Si
34 1 5.37624 2.72447 2.66741 -4.81946 -2.5339 1.01283 -0.231372 -0.927878 0.0850626 Si
36 1 5.3973 0.0230272 0.0212817 -2.23351 -0.080255 0.206117 0.355214 0.260849 -0.98572 Si
39 1 6.75182 1.31358 1.37644 -3.39535 0.181096 2.62839 0.0100897 0.107915 0.299604 Si
38 1 8.05783 2.68103 0.0548165 4.08072 0.621544 -1.99922 0.659982 -0.231683 -0.901154 Si
40 1 8.18636 -0.0580117 2.66579 2.97575 5.76219 1.19229 -0.214282 0.823491 0.66019 Si
23 1 1.38247 6.8996 1.35013 -6.95298 3.66442 4.06505 -0.285256 -1.214 -0.372976 Si
24 1 2.65458 5.44029 2.74649 1.19376 1.39607 0.0545521 0.582122 0.457297 0.208959 Si
1 1 4.05521 4.12186 1.38791 -3.38347 -7.17453 0.402115 -0.321575 0.138528 -1.17142 Si
55 1 6.84555 6.74887 1.42353 -0.564362 -1.69677 -0.645207 0.14267 1.01074 -1.01951 Si
33 1 9.45379 3.99518 1.34432 1.19511 -2.94539 -4.32054 0.285635 0.659585 0.189671 Si
56 1 8.15088 5.36992 2.68842 3.38826 1.22999 -1.73853 0.323018 -0.228437 0.686596 Si
4 1 0.0866651 0.0237571 0.0209557 5.1688 -2.30142 -0.410813 -1.21189 -0.020528 0.547552 Si
8 1 2.71638 0.00381221 2.7339 0.404666 0.414171 -5.016 -0.213396 -0.237212 0.0300865 Si
18 1 0.0377827 8.17946 2.71881 -5.28882 -0.238549 5.51459 0.229074 -0.27727 1.37179 Si
17 1 4.1082 9.60097 1.39021 4.0935 -0.207884 2.40932 0.347898 -1.30679 0.70862 Si
50 1 5.51756 8.09647 2.7625 -5.05804 -1.42377 -0.881407 -1.16147 0.979378 -0.466926 Si
49 1 9.56968 9.48598 1.42748 0.599826 0.42428 -1.91166 0.283691 0.662712 -1.62075 Si
54 1 8.17151 8.2003 0.0145888 -2.63704 -1.4297 -1.74481 -0.0724769 -0.45161 0.333253 Si
14 1 2.71842 2.73822 5.46781 0.453793 -1.82471 -3.02266 0.585718 -0.51468 0.273561 Si
15 1 1.25982 1.48015 6.8048 -0.0641835 0.269564 -1.44731 0.852845 -0.903789 0.284836 Si
3 1 4.03027 1.34329 4.04362 5.22068 3.34179 2.39476 0.677856 0.631207 0.774625 Si
47 1 6.8269 1.2561 6.7917 -6.4066 4.9895 -3.03513 -0.0999796 1.62147 -0.209621 Si
35 1 9.54042 1.36589 4.01913 0.435544 -3.74528 4.73074 -0.609638 -0.21745 0.789916 Si
46 1 8.09786 2.7615 5.41021 5.53911 -0.289454 2.56262 0.236784 -1.34205 -0.55902 Si
5 1 1.38444 3.96654 4.093 -3.913 -0.491925 -3.36567 -0.554244 1.95427 0.128272 Si
28 1 0.0274039 5.41847 5.45599 -3.40289 3.99749 -1.71967 0.630396 -0.7292 -0.411062 Si
31 1 1.42052 6.6734 6.88005 -5.26138 -3.00369 -5.40722 -0.38807 0.68527 0.0475044 Si
9 1 4.09249 4.11578 6.83576 1.66448 2.23376 -1.78139 -0.323508 0.312078 0.0972998 Si
19 1 4.08883 6.81811 4.13837 6.8093 3.64733 -0.379807 -0.598251 -0.36382 -1.23118 Si
37 1 6.70631 4.0292 3.97622 1.90524 -1.9721 2.57885 0.564097 0.897238 1.09119 Si
60 1 5.41636 5.46849 5.39327 1.44612 -1.5032 0.992593 0.433135 -1.07925 0.351502 Si
63 1 6.82174 6.79878 6.69633 -0.559668 -2.18074 1.29669 -0.242529 0.124465 0.372855 Si
41 1 9.54323 4.03426 6.71405 3.56902 0.946204 1.6317 -0.939393 1.07643 1.19243 Si
51 1 9.56866 6.70702 4.05156 4.09228 6.8892 1.77551 -0.234535 0.793907 -0.229776 Si
21 1 1.43459 9.51658 4.16568 2.81697 0.202597 0.548672 -0.487591 -0.417641 -0.793963 Si
30 1 2.72064 8.06943 5.5087 1.03785 -3.18549 2.10904 0.0165607 0.705145 0.0893621 Si
44 1 5.4584 0.00445524 5.40203 -1.98636 -2.60334 -0.990242 -0.359576 -0.363877 -0.482582 Si
25 1 4.05515 9.56242 6.74526 1.37195 -2.42842 -0.415522 0.321557 -0.580005 0.596682 Si
53 1 6.83919 9.51126 4.04718 -1.66883 3.74048 0.222336 -0.050461 0.0967 0.343937 Si
12 1 0.0476475 0.013251 5.43032 -0.635834 1.7864 -7.46945 -0.99483 0.0338429 0.353731 Si
57 1 9.54842 9.49103 6.83676 -3.52421 -3.47758 4.05265 0.298953 -0.040104 -1.13892 Si
62 1 8.18723 8.13765 5.38238 1.31412 -0.323105 1.52404 0.722237 0.148294 0.120403 Si
6 1 2.72031 2.72803 -0.0787608 -1.22987 -2.53534 3.01214 0.521403 0.256198 0.613861 Si
11 1 4.14595 1.3952 9.41301 0.50676 -2.00772 0.354881 -0.895199 -0.33192 0.807302 Si
42 1 5.50354 2.7606 8.12679 2.70508 0.953153 2.36114 0.472273 -0.171213 -0.120411 Si
10 1 -0.0830593 2.76396 8.21506 1.41446 -0.178264 3.00331 -0.0834091 -0.221705 -0.0509683 Si
43 1 9.48638 1.33035 9.56049 2.66098 6.02726 1.81197 0.0495488 0.245439 0.219755 Si
13 1 1.24864 4.10345 9.5996 -1.24616 -1.84755 3.10987 0.513571 -0.0992835 -0.161267 Si
32 1 2.7469 5.43856 8.36965 4.41636 0.867568 2.16391 0.117317 -0.469656 -1.17727 Si
52 1 5.45133 5.53081 0.0257692 -0.354179 -0.498238 -5.00718 -0.0306237 -1.0588 0.442814 Si
27 1 4.13465 6.87163 9.58306 -0.861584 1.22347 1.47301 -0.108988 0.255811 -0.395528 Si
45 1 6.81224 4.13081 9.57429 1.43965 -2.30059 -1.50371 -0.0819934 0.203482 -0.714142 Si
20 1 -0.109474 5.44267 0.0456074 0.256642 -1.43251 -1.42059 0.69402 0.680454 0.315423 Si
59 1 9.52541 6.84106 9.51217 -1.54443 -0.116435 -3.1018 -0.369716 -0.145341 0.164335 Si
64 1 8.15591 5.51735 8.10939 1.42286 4.09879 0.309539 0.510587 -1.25199 0.13365 Si
22 1 2.78526 8.25299 0.0163639 -3.00137 -3.02231 1.97679 -0.422062 0.0692058 -0.135212 Si
16 1 2.67307 0.0351545 8.11299 -0.114186 -3.07323 -4.93871 0.370605 0.655857 -0.275284 Si
26 1 0.0396174 8.12225 8.15766 4.8393 1.25021 -5.19681 0.465291 0.445772 0.3652 Si
29 1 1.38616 9.59658 9.52696 -0.723778 2.84676 -2.80798 0.0495526 -1.06064 -0.320489 Si
58 1 5.47565 8.13516 8.08887 0.547166 1.12543 4.28806 -0.160789 1.02472 0.465228 Si
61 1 6.8 9.57355 9.55035 -2.37248 -1.18536 3.48597 -0.27484 -0.670252 -0.495605 Si
48 1 8.1887 -0.0334125 8.13858 -3.87941 -1.85013 2.2779 0.00841513 -0.0794199 0.72211 Si
ITEM: TIMESTEP
11600
ITEM: NUMBER OF ATOMS
64
ITEM: BOX BOUNDS pp pp pp
0.0000000000000000e+00 1.0887404739999999e+01
0.0000000000000000e+00 1.0887404739999999e+01
0.0000000000000000e+00 1.0887404739999999e+01
ITEM: ATOMS id type xu yu zu vx vy vz fx fy fz element
2 1 -0.0204462 2.69517 2.66983 -2.95471 -0.336149 2.04059 0.663314 1.0033 0.716584 Si
7 1 1.29612 1.32402 1.3201 1.75982 4.65173 -1.01654 0.702965 -0.173348 0.365029 Si
34 1 5.56144 2.729 2.78374 1.52316 2.5467 -1.59362 -0.221573 0.503038 -0.416926 Si
36 1 5.49529 -0.0276701 0.052702 1.94339 -2.81395 4.15472 -0.853508 0.429605 0.115445 Si
39 1 6.855 1.44018 1.33326 4.99652 -0.619247 0.121373 0.105238 -0.494621 0.113549 Si
38 1 8.23393 2.78241 -0.0297293 -5.12936 0.0743056 1.57781 0.0686255 -0.0921485 0.219574 Si
40 1 8.11975 0.0728332 2.7636 1.71768 -2.85391 1.29798 0.0351246 -0.956455 -0.474452 Si
23 1 1.3628 6.78215 1.32905 5.1611 -2.02244 1.17856 0.488285 0.526646 0.569462 Si
24 1 2.75926 5.42341 2.73812 0.165611 -0.415959 -0.280784 -0.45972 -0.432199 -0.626164 Si
1 1 4.16495 4.01358 1.38418 -1.38658 1.53285 2.84353 -0.845081 0.234293 0.805218 Si
55 1 6.77979 6.88615 1.29798 -2.48795 1.68551 3.72931 0.3513 -1.50194 0.712073 Si
33 1 9.59921 4.14611 1.36422 0.928229 -3.14109 0.176629 -0.912709 -0.328335 0.11159 Si
56 1 8.21147 5.52095 2.74366 1.54722 2.37261 1.95239 -1.0196 -0.327442 -0.459701 Si
4 1 -0.110962 0.019412 -0.0578399 1.1346 4.64761 1.36049 1.43947 -1.04805 0.434624 Si
8 1 2.72708 0.00179043 2.77618 1.93164 2.51085 -1.04288 -0.41448 -0.572912 -0.932551 Si
18 1 -0.0792929 8.1494 2.72353 1.59417 -3.83689 -5.76776 0.040417 -0.419228 -1.07002 Si
17 1 4.07179 9.43804 1.33938 0.737786 2.34593 -3.52102 -0.484926 1.63314 -0.00363398 Si
50 1 5.40383 8.15404 2.64608 4.7089 -0.297828 2.41139 0.340146 -0.348631 0.946196 Si
49 1 9.47342 9.54304 1.35085 -0.73024 -2.088 4.64739 -0.413265 0.34105 0.380493 Si
54 1 8.13144 8.18634 -0.0241654 -0.804647 2.16065 -4.58027 0.63935 -0.0500974 0.0161103 Si
14 1 2.76312 2.69115 5.386 4.97748 -0.165632 0.872705 -0.557057 0.287016 0.0928127 Si
15 1 1.50079 1.29967 6.84376 -1.71516 -2.01916 -0.437084 -0.610887 0.139285 -0.752539 Si
3 1 4.17218 1.39231 4.05897 -2.26822 -6.47645 -4.89321 -1.05523 -0.0646097 -0.263242 Si
47 1 6.80994 1.35942 6.83551 2.49913 -2.03546 -3.70393 -0.145087 0.0802927 0.411781 Si
35 1 9.52461 1.415 4.04839 -0.391248 4.18111 -2.49481 0.250714 -0.835801 0.680673 Si
46 1 8.20211 2.6571 5.47844 0.698781 6.048 -1.16959 0.0532954 1.61017 0.428368 Si
5 1 1.30833 4.14468 4.13155 2.67209 -3.55506 0.527617 0.64749 -1.19433 -1.13702 Si
28 1 -0.0104967 5.54401 5.39749 -4.29722 4.41073 1.02621 -0.317392 0.0482494 1.14515 Si
31 1 1.35658 6.97447 6.71409 2.08471 -1.7759 0.867032 -0.212275 -0.866165 -0.201198 Si
9 1 4.08696 4.06172 6.71298 0.885134 -1.92733 1.30727 -0.275937 0.373951 0.478956 Si
19 1 4.13344 6.74375 4.04068 -3.50359 1.94876 2.25498 -0.101015 0.809466 -4.5796e-05 Si
37 1 6.83766 4.13542 4.18121 -0.400726 -4.1334 -1.65305 0.873913 -0.294951 -0.718664 Si
60 1 5.45998 5.48017 5.46427 -5.53561 3.35284 -1.1643 0.135472 -0.171079 0.364739 Si
63 1 6.78988 6.77334 6.9247 1.53543 -0.356223 2.63808 0.245251 0.13618 -0.0686182 Si
41 1 9.59771 4.12055 6.85424 -1.73324 0.491983 -6.9465 -0.166499 -0.708596 -1.11104 Si
51 1 9.45613 6.88343 4.13558 0.0996346 -5.07336 1.14163 0.239139 -0.145567 -0.267411 Si
21 1 1.23791 9.44951 4.04705 -1.31069 2.3006 1.29938 1.22301 1.67797 0.719183 Si
30 1 2.79875 8.20184 5.32287 -0.83327 1.21584 0.835769 -0.34856 0.0142903 0.458039 Si
44 1 5.40018 0.0998804 5.4675 -3.64968 0.139456 1.23001 0.715676 -1.5013 0.283737 Si
25 1 4.12998 9.48982 6.8188 -1.01386 3.39168 2.37674 -0.475956 0.422333 -0.16364 Si
53 1 6.68637 9.52391 4.07132 -1.52637 -1.14835 -1.41761 0.705115 0.54451 0.350485 Si
12 1 -0.0200282 0.0453417 5.50111 -0.267689 -0.350677 -1.3957 0.948584 0.163659 -1.40083 Si
57 1 9.56872 9.56217 6.75291 4.50278 1.8653 -2.83809 -1.59695 -0.0895492 1.4201 Si
62 1 8.09973 8.19274 5.50022 -1.90487 -2.5896 -5.67278 -0.427666 0.262005 -0.00970869 Si
6 1 2.70948 2.73644 0.0466925 0.963295 -0.167184 -3.14875 -0.105774 -0.32384 -0.0365501 Si
11 1 4.01432 1.32763 9.62807 -1.59185 0.684081 -1.40246 0.9511 -0.189952 -0.576927 Si
42 1 5.35631 2.70225 8.16013 -2.7596 4.71333 1.60429 0.391593 -0.18835 0.475678 Si
10 1 0.101438 2.68938 8.09766 -1.76967 2.25599 -1.73049 -0.159907 0.0896007 0.249875 Si
43 1 9.60016 1.41834 9.48735 1.05891 -3.06846 5.65443 -0.953845 0.297676 -0.223052 Si
13 1 1.42324 4.03293 9.44838 2.86788 -0.733179 2.7574 -0.212812 0.864616 0.309603 Si
32 1 2.63673 5.47451 7.97167 -5.59979 -1.77522 -1.17714 0.816943 -0.460126 1.04253 Si
52 1 5.42235 5.3891 0.043856 0.342198 -2.50139 2.27147 0.483769 0.564037 -0.673237 Si
27 1 4.03446 6.68563 9.5101 3.93277 2.47465 -4.15646 -0.246964 -0.14519 -0.163697 Si
45 1 6.77404 4.05201 9.53581 3.35794 1.97593 1.32312 -0.487744 -0.51277 0.243294 Si
20 1 0.0629923 5.40472 -0.00598417 -1.58861 -0.875022 -1.61308 0.342372 0.0425831 -0.682917 Si
59 1 9.57457 6.80057 9.59424 -2.28021 -2.26609 -0.575941 -0.853038 -0.500533 -0.691802 Si
64 1 8.17927 5.31842 8.25278 -1.23301 -2.78168 0.753464 0.339491 1.86039 -0.246848 Si
22 1 2.75821 8.1458 -0.0873869 2.48968 2.91391 1.6425 -0.857176 -0.764182 0.801839 Si
16 1 2.74182 -0.0936639 8.2399 0.288221 -2.746 2.46971 0.0875441 -0.0656856 -0.18412 Si
26 1 -0.0554225 8.17313 8.15185 -2.40542 -5.25328 0.62075 0.117971 -0.232601 -0.339694 Si
29 1 1.2988 9.42855 9.51117 -1.06438 3.67156 3.18428 0.0366869 1.29659 0.451751 Si
58 1 5.36575 8.12412 8.2758 1.71459 2.53492 -5.44922 0.66055 -0.240315 -0.893679 Si
61 1 6.74883 9.49077 9.55188 -4.18167 -3.68457 2.35388 0.605585 0.612236 -0.334462 Si
48 1 8.17355 0.0249066 8.23899 1.49865 0.784692 2.33822 0.0471318 -0.627288 -0.790144 Si
ITEM: TIMESTEP
11700
ITEM: NUMBER OF ATOMS
64
ITEM: BOX BOUNDS pp pp pp
0.0000000000000000e+00 1.0887404739999999e+01
0.0000000000000000e+00 1.0887404739999999e+01
0.0000000000000000e+00 1.0887404739999999e+01
ITEM: ATOMS id type xu yu zu vx vy vz fx fy fz element
2 1 0.0542438 2.69098 2.75154 2.07547 -6.08452 -3.713 -0.782345 0.0517994 -0.170653 Si
7 1 1.37847 1.33459 1.33884 1.8798 -8.40549 1.75791 0.143092 0.176764 0.149905 Si
34 1 5.29397 2.67125 2.66458 2.79629 -0.100048 -0.897838 1.13435 0.591795 0.311833 Si
36 1 5.47228 -0.0312588 -0.131099 -0.682515 4.2589 -3.44282 0.0543003 -0.398859 0.858133 Si
39 1 6.747 1.30202 1.35489 -2.02732 0.0194773 -5.17086 0.0429945 0.193451 -0.206029 Si
38 1 8.14032 2.66885 0.00181602 -3.00809 1.70497 -0.508688 -0.721152 0.242384 0.619611 Si
40 1 8.19003 -0.0308291 2.68585 -4.47028 4.01955 -0.425453 0.161843 0.317541 0.0287224 Si
23 1 1.38859 6.78367 1.33213 -0.730196 -2.84373 -2.89075 -0.759247 0.17047 0.124941 Si
24 1 2.79452 5.50329 2.65961 -2.6167 0.141354 -1.6678 -0.907927 -0.367593 0.537092 Si
1 1 4.06524 4.15369 1.30018 0.164351 -0.0717931 -1.90388 0.769141 -0.196034 -0.0303662 Si
55 1 6.79953 6.83748 1.37726 6.91566 1.33432 -1.02895 -0.430774 0.327619 0.465808 Si
33 1 9.44185 4.01997 1.38178 -3.65753 3.51119 0.557533 1.23949 0.455914 -0.116366 Si
56 1 8.08885 5.42743 2.71316 -1.37061 -3.53303 0.667058 0.894821 -0.0257058 0.10632 Si
4 1 0.0454973 -0.063839 -0.0234765 -2.14868 -0.0631371 1.14723 -0.583026 1.53952 -0.237476 Si
8 1 2.76589 0.00267868 2.72545 -5.47792 -1.35544 2.91485 -0.0307745 0.482939 0.802333 Si
18 1 0.0236294 8.11626 2.73494 0.723355 5.11496 3.72729 0.853722 1.06249 -0.414024 Si
17 1 4.13359 9.52729 1.39044 -1.36388 -0.0568598 7.21884 -0.390736 0.261034 -0.867226 Si
50 1 5.38606 8.18442 2.81083 -0.38349 3.45375 -2.27953 1.36283 -0.0222569 -0.83167 Si
49 1 9.57165 9.52793 1.30215 -0.0868844 3.06375 -3.28246 0.154537 -0.587308 1.26312 Si
54 1 8.19591 8.16688 0.050505 0.832826 0.884249 2.44911 -0.377235 -0.019047 -0.848992 Si
14 1 2.67299 2.71219 5.57639 -6.34129 3.39478 1.42624 -0.135464 0.801367 -0.668698 Si
15 1 1.24132 1.35576 6.81801 4.96287 0.887976 3.86181 0.0905143 1.03055 0.747073 Si
3 1 4.06352 1.43265 4.22178 0.488112 1.18002 0.6457 -0.222618 -1.35279 -1.04259 Si
47 1 6.81772 1.36646 6.76602 1.35522 -1.18953 2.69705 0.0119822 -0.874807 -0.15543 Si
35 1 9.53269 1.30489 4.13174 -2.02236 -1.69663 -2.92799 -0.199212 0.787345 -1.63942 Si
46 1 8.14228 2.70452 5.34698 2.01645 -5.51398 -3.50579 -0.375102 -0.0889608 0.58411 Si
5 1 1.43622 4.10951 4.05223 -2.33313 7.31713 3.39108 -0.230672 -0.158721 0.821547 Si
28 1 0.00870092 5.35527 5.57468 4.25629 -7.40711 1.07959 0.234498 -0.150273 -1.43046 Si
31 1 1.29839 6.73397 6.92076 4.178 1.84601 0.435556 1.04999 0.184643 0.202657 Si
9 1 4.04707 4.12119 6.8688 -4.46956 2.75306 3.01872 0.831214 -1.19121 -0.271463 Si
19 1 4.00886 6.86256 4.07779 -1.19899 -4.43499 -4.71657 0.279227 -0.633754 1.18504 Si
37 1 6.74982 4.0422 4.02493 2.83434 3.81534 0.325826 -0.749092 -0.217087 -0.138995 Si
60 1 5.36258 5.38038 5.41431 7.2351 0.16034 0.0856746 0.29628 1.02255 -0.254583 Si
63 1 6.74097 6.85815 6.71922 1.61015 -0.60979 2.15836 0.572106 -0.287247 -0.326226 Si
41 1 9.3955 4.0451 6.79012 -2.37773 3.37692 6.04675 0.795793 -0.0119721 0.534789 Si
51 1 9.67905 6.67207 4.0206 -4.07059 -3.74258 1.66498 -1.36207 -0.0949237 0.785828 Si
21 1 1.39811 9.55735 4.16282 3.00679 -4.49823 -0.301341 -0.326001 -0.669196 -0.647018 Si
30 1 2.67784 8.12904 5.59113 5.89313 1.92856 2.30867 -0.314483 0.0501881 -0.930888 Si
44 1 5.44867 -0.104078 5.40485 1.09589 -3.77376 -2.30898 0.169013 1.48117 0.567879 Si
25 1 4.02256 9.58108 6.80673 0.822902 -5.16233 -0.57934 0.33764 -0.137955 -0.00307414 Si
53 1 6.89069 9.51293 4.07917 0.906986 -0.848755 -2.29755 -0.156565 -0.747794 -0.0382225 Si
12 1 -0.0198025 0.0468205 5.43979 -0.482426 4.75743 2.04163 0.014021 -1.59791 0.74917 Si
57 1 9.56266 9.47887 6.84589 2.09552 -3.51897 -3.93485 0.757219 0.0726843 -0.80111 Si
62 1 8.31992 8.09838 5.37742 -5.21783 1.71175 4.45054 -0.776946 -0.0259552 0.163324 Si
6 1 2.69972 2.8018 0.0126121 -1.46982 -0.576939 3.53316 0.0711393 -0.961589 -0.637162 Si
11 1 4.0939 1.385 9.49779 0.656403 -0.761452 2.95944 -0.220115 0.720628 -0.0447666 Si
42 1 5.53138 2.75453 8.16481 -2.40524 -1.53459 -0.194049 -0.846823 -0.0176237 -0.059467 Si
10 1 -0.108918 2.73484 8.2545 -1.41535 4.31449 -3.23976 0.178129 0.00321126 -0.894494 Si
43 1 9.42975 1.34088 9.56275 -0.9721 1.00312 -0.607454 1.32164 -0.934383 -0.102259 Si
13 1 1.33259 4.12732 9.52549 0.425209 1.93228 -3.51023 0.0153946 -0.613046 0.062467 Si
32 1 2.79231 5.41104 8.23821 -2.86045 2.76924 -2.3632 -0.987797 1.19504 0.100573 Si
52 1 5.52865 5.47743 -0.0318858 0.197942 -1.30864 2.80048 -0.78324 0.144959 0.0807922 Si
27 1 4.13496 6.87721 9.51301 -2.70211 -4.47799 -1.68246 -0.0628551 0.358959 0.306195 Si
45 1 6.87613 4.10261 9.53666 2.61056 -0.376524 -2.95792 0.104175 0.320596 -0.54667 Si
20 1 -0.0201146 5.44798 -0.0291811 0.260987 3.10724 3.28863 -0.906731 -0.0459727 0.643302 Si
59 1 9.46116 6.82715 9.49215 2.9625 0.969515 3.04861 1.22283 0.233085 0.819878 Si
64 1 8.16135 5.54891 8.10342 0.651566 -3.04172 -2.28321 -1.05309 -0.912447 -0.0340304 Si
22 1 2.65139 8.2168 0.0334975 0.0885296 3.97657 -1.76945 1.69198 -0.0830063 -0.545866 Si
16 1 2.68784 0.0911146 8.10761 3.83407 1.10944 -2.40818 0.460057 -0.0577188 0.409215 Si
26 1 0.0667109 8.19132 8.2604 1.29686 -0.0163992 3.75452 -0.751496 -0.142296 -0.401888 Si
29 1 1.43649 9.61838 9.49784 1.88912 -3.26753 -3.98526 -0.29696 -0.742363 0.181663 Si
58 1 5.47762 8.29526 8.08976 -3.2741 0.811033 -1.06862 -0.418983 -1.06912 0.442175 Si
61 1 6.93318 9.50561 9.43642 0.0756096 2.68166 -2.47857 -1.02005 -0.138102 1.16191 Si
48 1 8.20579 -0.05789 8.12794 -1.45768 -3.03792 0.869959 -0.136368 1.29431 -0.479818 Si
ITEM: TIMESTEP
11800
ITEM: NUMBER OF ATOMS
64
ITEM: BOX BOUNDS pp pp pp
0.0000000000000000e+00 1.0887404739999999e+01
0.0000000000000000e+00 1.0887404739999999e+01
0.0000000000000000e+00 1.0887404739999999e+01
ITEM: ATOMS id type xu yu zu vx vy vz fx fy fz element
2 1 -0.103185 2.73349 2.7939 4.41186 9.9813 1.01075 0.764985 0.0308942 -1.23593 Si
7 1 1.33158 1.37542 1.32459 -4.01175 3.23118 -0.230461 -0.460662 0.360495 0.777891 Si
34 1 5.53 2.83609 2.71208 2.21716 -3.32763 -0.200095 -0.823526 -1.74642 0.743204 Si
36 1 5.46557 0.0372786 0.0884918 -1.62613 0.305851 1.11486 -0.537273 1.04818 -0.591947 Si
39 1 6.88811 1.43668 1.43237 0.185967 -3.66895 5.61969 -0.524494 -0.634373 -0.481835 Si
38 1 8.16696 2.7023 -0.0388156 6.07261 -2.93208 3.62281 0.800504 0.319611 -0.152394 Si
40 1 8.20783 0.0147939 2.76458 -2.12721 -2.32945 -1.20054 -1.02894 -0.0737579 -0.104535 Si
23 1 1.31701 6.79627 1.53045 -1.6933 -0.601429 -2.95173 0.301348 -0.496064 -1.5006 Si
24 1 2.69761 5.40526 2.78899 1.80963 0.245314 5.20413 0.58441 1.02781 0.0215688 Si
1 1 4.00693 4.05282 1.48961 1.98624 -2.50994 1.2829 0.586819 0.0252329 -1.43495 Si
55 1 6.80477 6.71862 1.3702 -4.71002 -1.32177 -1.66332 0.262603 0.0725534 -1.67581 Si
33 1 9.51996 4.16872 1.28781 2.43891 -1.25281 1.80192 -0.0921616 -0.93806 0.587969 Si
56 1 8.13032 5.4482 2.69194 -3.93703 0.611337 -3.78232 0.846189 -0.105683 0.412513 Si
4 1 0.00590268 -0.00659383 -0.00760401 -0.846767 -2.97405 -1.30904 -0.608962 -0.0344184 0.361392 Si
8 1 2.70181 0.0108952 2.65046 1.56366 -1.89621 -3.43599 0.147095 -0.168031 -0.32717 Si
18 1 0.00370603 8.26746 2.6365 0.426549 -0.625496 0.483204 -1.06377 -0.0929844 2.10231 Si
17 1 4.08587 9.52664 1.31454 2.51853 1.77301 -5.78873 -0.0183062 -1.20217 0.819744 Si
50 1 5.56084 8.06189 2.66742 -3.37476 -0.0912604 3.00429 -1.92108 1.59099 0.382218 Si
49 1 9.45271 9.55474 1.34384 -3.33565 3.5182 -1.82283 0.463095 -0.192637 -0.838213 Si
54 1 8.14387 8.11335 -0.058433 0.188576 -4.64402 1.35559 0.191642 0.0640914 1.31098 Si
14 1 2.71958 2.74281 5.34943 -0.518804 -4.34872 -2.3699 0.685373 -0.953287 0.0443834 Si
15 1 1.44444 1.31898 6.70744 -4.06834 -2.87954 -0.710302 0.203134 -0.638862 -0.105141 Si
3 1 4.07299 1.30209 3.97447 0.832435 2.85768 0.711284 1.09093 1.15187 1.02991 Si
47 1 6.79371 1.40224 6.79686 -3.63851 5.53667 -0.330927 0.00410183 0.558908 0.561384 Si
35 1 9.47871 1.32118 4.16187 0.982897 1.40077 2.91372 0.727355 0.605239 0.233795 Si
46 1 8.26833 2.79931 5.5483 -2.07994 5.16017 2.91417 -0.96908 -1.13094 -0.86128 Si
5 1 1.38612 4.08794 4.05615 -0.397914 -5.5362 -4.30537 -1.65347 -0.101899 0.534907 Si
28 1 -0.0371525 5.49789 5.37598 1.47948 3.70794 5.02515 0.284198 0.223245 -0.283546 Si
31 1 1.42545 6.7686 6.74659 -5.92984 3.17366 -1.58606 -0.680007 0.518406 -0.326216 Si
9 1 4.06945 4.04607 6.74672 3.81072 0.470882 -2.58669 0.252534 0.643139 0.182324 Si
19 1 4.16862 6.76588 4.07117 0.864765 5.21901 5.1966 -0.222963 -0.0958226 -0.500013 Si
37 1 6.90275 4.059 4.08509 0.73678 0.563651 0.486077 -0.205035 0.739491 0.826749 Si
60 1 5.50136 5.43872 5.43629 -2.39733 -2.12601 1.19293 0.243381 -0.514678 0.355984 Si
63 1 6.86309 6.77324 6.85882 -4.35226 4.07692 -0.486048 -0.67299 0.15243 0.213257 Si
41 1 9.67687 4.06969 6.81197 3.95209 -3.01595 -0.731081 -0.37058 0.639493 0.818213 Si
51 1 9.36103 6.93128 4.06034 3.72874 3.22065 -1.56334 1.49701 -0.0627641 -0.100074 Si
21 1 1.40222 9.59783 4.05692 3.3166 5.03385 1.08135 -0.234291 -1.29192 -0.131888 Si
30 1 2.78311 8.11806 5.36398 -7.36198 -0.433808 -0.0818878 -0.182078 0.769316 0.364064 Si
44 1 5.42794 -0.00805881 5.53712 -0.508591 -2.13977 1.51465 -0.189642 0.564114 -1.76344 Si
25 1 4.10089 9.49982 6.8031 -1.20151 -0.858476 -0.633083 0.21444 -1.38218 0.0200061 Si
53 1 6.73635 9.56356 4.04869 3.096 2.04228 2.609 0.235651 0.146412 0.288932 Si
12 1 0.00693752 -0.0501352 5.44486 2.14894 -4.09774 -2.42215 -0.218094 0.720391 0.192922 Si
57 1 9.45574 9.65516 6.89268 -3.50608 -1.35719 4.07052 0.0818529 -1.11796 -0.952646 Si
62 1 8.04008 8.28589 5.49553 3.35006 0.703326 0.404997 0.912789 -0.193907 0.196827 Si
6 1 2.76864 2.67519 0.0138969 -0.605317 -0.706119 -2.42706 -0.767446 0.733185 -0.0867843 Si
11 1 4.00947 1.33846 9.44961 0.940712 -3.9598 0.96896 0.996507 -0.835872 0.796571 Si
42 1 5.39482 2.74007 8.17858 2.20381 -3.57531 2.60228 -0.0320587 -0.561796 -0.730294 Si
10 1 0.171294 2.63463 8.0736 1.11934 -4.41069 3.33142 -0.926945 0.727558 1.28811 Si
43 1 9.6014 1.31618 9.48905 2.77503 5.63001 -1.90999 -0.372783 1.07825 -0.118214 Si
13 1 1.40204 4.10309 9.53686 -2.13633 -1.05213 -2.02562 -0.211475 -0.534664 0.12101 Si
32 1 2.71881 5.42572 8.13644 5.00776 1.54405 -1.58896 0.349319 -0.183913 -0.0571237 Si
52 1 5.37408 5.36122 0.0595955 1.62709 4.24133 -5.91561 -0.254198 0.488294 -0.27407 Si
27 1 3.98322 6.78794 9.57235 1.27962 0.78527 -0.773149 0.988075 -0.423457 -0.0368963 Si
45 1 6.74128 4.03932 9.53064 -1.28513 -1.24338 1.80195 0.391891 0.327637 0.43976 Si
20 1 0.0195073 5.53953 -0.00222815 -0.284028 -4.68483 -5.03352 0.354248 -0.491885 -0.0914735 Si
59 1 9.56266 6.84809 9.47596 -2.63149 -2.98021 -4.04603 0.00282289 -0.225159 -0.127695 Si
64 1 8.20427 5.374 8.23141 3.71103 7.702 0.284145 0.349467 0.0613656 -0.652841 Si
22 1 2.61831 8.07485 0.0703164 -1.4016 -4.85041 -0.171342 0.180976 1.33839 -0.395356 Si
16 1 2.71496 -0.131561 8.09702 -1.49099 1.41324 2.40732 -0.427567 1.31844 0.600778 Si
26 1 0.0173177 8.1829 8.05216 -0.934597 -1.29083 -3.5622 -0.188377 0.0514579 0.612038 Si
29 1 1.28736 9.54027 9.52253 -0.954697 1.46834 1.00367 0.922199 -1.28808 -0.0796135 Si
58 1 5.45549 8.14487 8.24568 -0.609564 -1.16761 2.1772 -0.286771 -0.0518539 -0.103186 Si
61 1 6.76576 9.54001 9.67079 0.281784 -3.48533 0.00299959 0.0898671 0.113943 -1.55122 Si
48 1 8.06983 0.0711877 8.22981 2.8921 2.75725 0.444836 0.138213 -0.445331 0.430681 Si
ITEM: TIMESTEP
11900
ITEM: NUMBER OF ATOMS
64
ITEM: BOX BOUNDS pp pp pp
0.0000000000000000e+00 1.0887404739999999e+01
0.0000000000000000e+00 1.0887404739999999e+01
0.0000000000000000e+00 1.0887404739999999e+01
ITEM: ATOMS id type xu yu zu vx vy vz fx fy fz element
2 1 0.0886297 2.71447 2.69063 -7.51024 -2.6457 -0.128611 -0.367682 0.728659 1.03385 Si
7 1 1.39577 1.40341 1.38279 0.536953 2.11773 1.92561 0.826444 -0.816738 -0.606583 Si
34 1 5.41534 2.69388 2.76979 -1.9738 0.534858 2.5441 -0.113974 0.757415 -1.5168 Si
36 1 5.46468 0.00921905 -0.00849425 1.36608 -2.04289 3.28922 -0.249522 -1.57306 0.271804 Si
39 1 6.75031 1.3288 1.35779 -0.101059 4.62623 -2.29193 0.811546 0.51039 0.409051 Si
38 1 8.17233 2.71027 0.0217371 0.659083 -3.22525 0.706708 -0.448811 0.392126 0.165432 Si
40 1 8.13534 -0.0581363 2.68611 3.07132 -1.02451 -1.26786 0.778742 0.647937 0.06872 Si
23 1 1.48306 6.72949 1.23163 0.0383596 4.13165 3.31351 -0.752076 1.20168 0.441216 Si
24 1 2.73995 5.43544 2.6504 -0.134865 -3.08197 2.73842 -0.050547 -0.5054 0.142631 Si
1 1 4.16974 4.18181 1.293 1.687 2.73494 -1.01518 -0.74517 -1.60336 0.980858 Si
55 1 6.83351 6.88124 1.37514 -0.391851 -0.93938 2.29711 -0.0825325 -0.39078 1.32379 Si
33 1 9.57572 4.07428 1.42878 0.64213 -2.3891 -3.44486 -0.666861 -0.114363 -0.625633 Si
56 1 8.15732 5.42116 2.75731 3.73029 -4.75849 1.41165 -0.208807 0.222254 -0.167018 Si
4 1 -0.0417328 0.0601109 0.0553688 1.93906 4.32308 -1.50981 0.935835 -1.10865 0.0325163 Si
8 1 2.69086 -0.0263473 2.81548 4.79032 1.12127 4.29162 0.0620141 0.0204601 -0.37682 Si
18 1 0.059456 8.07123 2.69453 0.0917919 3.28856 -0.612697 -0.198064 -0.754189 -0.764688 Si
17 1 4.05241 9.46117 1.40435 1.38006 0.987558 -1.92025 0.328808 1.76203 -0.475636 Si
50 1 5.4041 8.19024 2.75386 5.04071 -3.2094 -2.76664 0.217004 -0.841037 0.277685 Si
49 1 9.5621 9.45569 1.39348 0.69521 -3.3361 2.968 0.15972 0.915121 0.216899 Si
54 1 8.1728 8.20192 0.080585 2.19945 0.287563 -3.04783 -0.513138 0.327344 -1.16148 Si
14 1 2.76671 2.73427 5.53696 2.13943 3.92063 0.870332 -0.383569 -0.0612262 -0.422337 Si
15 1 1.2829 1.45526 6.8813 -1.48221 8.42189 -0.56308 0.384903 -0.0883867 -0.108489 Si
3 1 4.12445 1.39741 4.13928 -1.83679 -2.19092 -1.15359 -1.23163 -0.492764 -0.155531 Si
47 1 6.88943 1.35605 6.80567 2.21619 -4.48338 -3.1062 -0.682865 -0.482352 -0.0196653 Si
35 1 9.54065 1.40246 4.01101 1.54767 -1.14736 -4.3734 -0.446754 -0.74421 0.411457 Si
46 1 8.01079 2.68702 5.33839 0.626978 1.47939 -1.47518 1.80047 0.728809 0.340598 Si
5 1 1.44976 4.08477 4.09251 -2.08661 -0.538312 1.50261 0.294635 -0.874532 -0.675296 Si
28 1 0.0927163 5.35741 5.40223 -1.89763 -1.23383 -4.4632 -1.00942 0.839405 1.52984 Si
31 1 1.34525 6.88387 6.82735 4.3341 -2.47351 -0.334315 -0.310823 -1.17125 0.135966 Si
9 1 4.14415 4.06347 6.85336 -1.68922 -1.56673 -1.22406 -0.812497 0.699516 -0.248637 Si
19 1 3.92154 6.81224 4.05059 1.43565 2.33849 3.34623 1.2169 0.710192 0.349698 Si
37 1 6.67628 4.10471 4.08231 -6.65886 -4.01095 -3.01589 0.925119 -0.063295 -0.683896 Si
60 1 5.35471 5.44994 5.36098 0.952186 1.47138 -3.19292 -0.413993 0.380734 0.876658 Si
63 1 6.76096 6.75955 6.73393 1.22527 -2.0948 -5.90706 0.7009 0.254733 -0.294987 Si
41 1 9.4011 4.07119 6.76571 2.15204 -1.89678 -1.27314 0.52826 -0.160782 -0.924546 Si
51 1 9.60369 6.72691 4.09207 -2.3796 -2.34003 1.29467 -0.393361 0.218177 -0.26182 Si
21 1 1.2292 9.44042 4.09445 -0.484256 -2.10574 4.02283 0.988107 1.75148 -0.0351275 Si
30 1 2.64133 8.25251 5.43672 1.8709 -5.50726 -0.953879 0.433124 -0.788995 0.439235 Si
44 1 5.52271 0.0824072 5.39773 0.269723 4.03471 -1.33877 -0.690875 -1.51053 1.31682 Si
25 1 4.00991 9.56384 6.84836 -2.84158 1.15899 -1.82385 0.488186 1.29719 -0.796335 Si
53 1 6.82825 9.51834 4.07144 -3.21567 -0.819168 -2.58118 -0.257367 -0.0629829 0.274974 Si
12 1 0.022655 0.0524433 5.47582 -0.843943 -3.73785 3.00543 -0.0792732 0.345702 -1.10558 Si
57 1 9.66251 9.46487 6.68734 3.31878 1.95614 2.79993 -1.38508 0.296525 1.51469 Si
62 1 8.22092 8.15394 5.40488 0.0117318 -1.58407 -2.24599 -0.3002 -0.682213 -0.0634547 Si
6 1 2.79072 2.73239 -0.050471 1.06314 -1.88416 -3.3347 -0.16185 0.286902 0.623382 Si
11 1 4.20846 1.37466 9.54768 -0.505856 4.69634 -3.95288 -1.32692 0.0747486 -0.123154 Si
42 1 5.45725 2.64911 8.11905 -2.35567 1.61102 -2.48012 1.09046 1.00277 0.735641 Si
10 1 -0.178383 2.75506 8.19454 1.03477 -1.52531 1.22418 0.816812 -0.0875512 -0.3743 Si
43 1 9.51494 1.33023 9.54855 -1.03967 -4.02048 1.42137 -0.755902 0.0970358 -0.0572474 Si
13 1 1.26674 4.01433 9.53396 -4.87526 1.14882 2.46146 0.656975 0.627706 -0.171252 Si
32 1 2.68249 5.42681 8.19331 -0.941307 -0.198566 8.30601 0.537878 0.190957 0.0494467 Si
52 1 5.48098 5.56837 0.0690903 -3.13724 3.56752 1.05708 0.641546 -0.485758 -1.11799 Si
27 1 4.23065 6.81194 9.47329 -0.0288928 6.03064 5.10094 -1.74571 -0.250293 -0.0451502 Si
45 1 6.74032 4.12806 9.55926 -2.12349 1.26251 2.69998 0.424956 -0.833433 -0.0883287 Si
20 1 -0.0156595 5.42698 0.0147591 -6.68639 -1.10817 2.0482 0.233392 -0.325451 0.119012 Si
59 1 9.49898 6.83042 9.66683 3.66903 5.72783 1.3932 -0.753637 -1.00856 -1.304 Si
64 1 8.12623 5.41898 8.16036 -3.46144 -0.996255 -0.364829 -0.0220069 1.06563 0.643105 Si
22 1 2.8345 8.19095 -0.0947444 6.86459 0.629869 -1.06025 -0.496179 -0.917091 0.313303 Si
16 1 2.67471 0.145596 8.26687 -1.2308 -1.15322 -2.36156 0.0957561 -1.37682 -0.442643 Si
26 1 -0.0864929 8.13508 8.26144 2.42276 1.66268 -0.51354 1.00595 0.281995 -0.689059 Si
29 1 1.33963 9.49134 9.56497 -1.76835 0.945414 -2.026 -0.211623 1.27977 -0.0440752 Si
58 1 5.43434 8.14231 8.054 0.198408 -3.87379 0.476151 0.499752 0.609 0.299898 Si
61 1 6.80266 9.501 9.44717 -2.08988 2.71803 6.40107 0.449303 0.165622 0.443927 Si
48 1 8.26001 -0.0409466 8.09275 0.551228 0.207696 -1.79238 -0.0647658 -0.513957 0.165448 Si
ITEM: TIMESTEP
12000
ITEM: NUMBER OF ATOMS
64
ITEM: BOX BOUNDS pp pp pp
0.0000000000000000e+00 1.0887404739999999e+01
0.0000000000000000e+00 1.0887404739999999e+01
0.0000000000000000e+00 1.0887404739999999e+01
ITEM: ATOMS id type xu yu zu vx vy vz fx fy fz element
2 1 -0.0302822 2.77057 2.73144 0.15075 -0.461914 0.141204 -0.494882 -1.67675 -0.303025 Si
7 1 1.3026 1.2779 1.33933 -0.88942 -0.406146 0.458689 -0.389594 0.543689 0.0897518 Si
34 1 5.45782 2.77593 2.70604 2.26491 -0.784503 0.848322 0.57425 -0.543013 0.931131 Si
36 1 5.34602 0.0111798 -0.0914439 3.73936 0.748507 1.70124 1.51159 -0.0653456 0.773336 Si
39 1 6.76395 1.3565 1.32276 0.972248 2.59768 -0.918615 0.205795 0.37283 -0.50372 Si
38 1 8.19948 2.76295 -0.0511723 -1.23351 3.72645 -1.76354 -0.777216 -0.765316 0.0164177 Si
40 1 8.17979 0.0371483 2.68723 -2.03785 2.69552 -0.972895 -0.313427 -0.512098 0.243191 Si
23 1 1.23558 6.90908 1.40586 3.3214 -2.83678 -5.15439 0.897859 -0.628622 0.511002 Si
24 1 2.66366 5.48753 2.74909 2.96261 0.864519 -1.81852 0.220196 -0.290509 -0.385893 Si
1 1 4.04145 4.02663 1.40752 1.75271 0.25624 -1.24004 -0.169939 1.54194 -0.412212 Si
55 1 6.80034 6.7624 1.2404 2.4347 -0.126244 1.45129 -0.442772 0.228336 0.575894 Si
33 1 9.51906 4.09071 1.33025 -4.13328 4.77091 3.47926 0.127182 0.337814 0.234893 Si
56 1 8.14968 5.46032 2.67251 1.6998 2.54859 -1.19145 0.513181 0.276988 0.321139 Si
4 1 -0.0495959 -0.107916 -0.104672 -3.59131 -2.91986 -0.401671 0.626484 1.62029 -0.048131 Si
8 1 2.70243 -0.0169255 2.73818 -1.20102 -0.853286 -1.5667 0.766323 0.697762 -0.0988731 Si
18 1 -0.0702897 8.24354 2.83119 -1.90121 -2.33598 0.603411 0.497834 0.268026 -0.889243 Si
17 1 4.11124 9.55745 1.37184 -5.91445 -5.9137 5.98175 -0.725647 -0.448642 -0.138519 Si
50 1 5.44069 8.12297 2.67849 -4.78355 1.31374 -0.889812 1.11036 0.286099 -0.10232 Si
49 1 9.53437 9.54765 1.31261 -0.894495 0.492572 -2.68523 -0.55263 -0.435409 0.86873 Si
54 1 8.18234 8.17559 -0.0269923 -4.03971 2.60848 4.09981 0.466277 -0.360911 -0.102571 Si
14 1 2.62798 2.70632 5.37026 0.350167 -3.80357 -0.780914 0.649285 0.493111 1.09617 Si
15 1 1.39969 1.2993 6.79799 5.26186 -3.34868 -0.645057 -0.375197 0.297145 -0.21499 Si
3 1 4.06736 1.4402 4.10971 2.16183 0.870365 0.335372 0.275278 -1.07377 -0.939525 Si
47 1 6.68522 1.35238 6.88838 3.71268 -3.0077 3.251 1.0248 -0.495394 -0.937838 Si
35 1 9.51721 1.3061 4.16142 -1.60849 2.09128 1.36643 0.330424 0.65377 -1.07823 Si
46 1 8.16939 2.61771 5.54186 0.0962563 -4.63402 -2.18562 -0.0915459 0.696829 -0.0636897 Si
5 1 1.29473 4.06716 4.06629 2.07723 -0.147953 4.89972 0.0583829 1.22527 0.386669 Si
28 1 -0.0484162 5.46791 5.4851 4.07542 -0.0123513 -3.15496 0.297042 -0.249644 -0.830072 Si
31 1 1.32979 6.84956 6.77804 -0.545202 1.48914 2.26453 1.01136 -0.208251 0.236358 Si
9 1 4.07492 4.09561 6.72044 -2.85807 4.31761 -0.308367 -0.591213 -0.361578 0.607546 Si
19 1 4.22557 6.71592 4.06302 0.947331 -2.78862 -3.69124 -1.11086 0.120695 0.0689302 Si
37 1 6.92517 4.08236 4.12828 3.71091 6.80742 0.765637 -0.745965 -0.55653 -0.249048 Si
60 1 5.52872 5.40143 5.4942 -2.61095 -0.64215 -1.30258 0.233706 0.191882 -0.603168 Si
63 1 6.79642 6.82928 6.84657 -1.65213 -3.78381 2.99753 -0.194129 -0.0628877 0.806091 Si
41 1 9.60421 4.01117 6.83406 -0.752787 3.80223 1.78771 -0.945806 0.70446 0.18348 Si
51 1 9.48488 6.8688 4.10486 -3.82308 0.709867 0.654373 -0.421087 -0.895437 0.35707 Si
21 1 1.46619 9.49356 4.11443 -1.747 -0.854581 -6.70427 -1.06271 0.0855989 -0.00191242 Si
30 1 2.82068 8.0983 5.37942 3.228 4.94073 -1.17479 0.0492691 -0.163735 0.571876 Si
44 1 5.43135 -0.00939682 5.4332 -1.17188 0.590567 -0.939663 0.58426 0.619015 -0.672164 Si
25 1 4.19171 9.48403 6.72053 1.14772 0.235527 3.02045 -0.990391 -0.586257 1.79225 Si
53 1 6.83683 9.4986 4.08832 -0.503316 -0.285922 -0.17792 -0.311332 0.283751 -0.442729 Si
12 1 0.0119208 -0.05607 5.43724 0.405252 6.30744 1.30934 0.115022 -0.392587 0.752616 Si
57 1 9.44805 9.53289 6.86348 -1.4508 0.851521 -3.2348 1.11005 0.481033 -0.863521 Si
62 1 8.14802 8.17679 5.53709 -0.471139 4.00997 2.98398 -0.243342 -0.00371754 -0.855275 Si
6 1 2.66742 2.74861 0.0516675 0.222537 3.96839 3.47608 -0.0615632 -0.842981 -0.225159 Si
11 1 4.02754 1.4091 9.53523 -0.373046 -5.41022 4.21787 -0.10482 0.46645 -0.358928 Si
42 1 5.39517 2.74554 8.13931 0.160323 0.757799 -0.617177 -0.905469 -0.01328 0.215028 Si
10 1 0.0961303 2.71033 8.1745 -0.160887 -0.0283531 -3.86661 0.243789 0.0623073 -0.317415 Si
43 1 9.54321 1.41913 9.42397 -2.32297 0.211883 -1.24659 0.135165 -0.714129 1.16301 Si
13 1 1.39442 4.11638 9.54003 6.38995 0.955537 -3.72072 0.276361 0.351605 -0.266327 Si
32 1 2.80816 5.51625 8.17377 -2.30187 0.318237 -7.46275 -1.54853 -0.873567 -0.78409 Si
52 1 5.37396 5.39366 -0.0717006 0.749073 -5.70245 4.90526 0.690464 -0.99394 1.37874 Si
27 1 3.99838 6.74623 9.67025 -4.00074 -8.26888 -5.76144 0.488488 1.20748 -0.938635 Si
45 1 6.76298 4.04068 9.45555 1.91307 0.21818 3.58896 1.00095 1.27565 0.128873 Si
20 1 0.0330566 5.45614 0.0300702 4.90968 -1.2226 0.798795 -0.396905 0.0731776 -0.35555 Si
59 1 9.59345 6.80485 9.50542 0.0868088 0.469277 3.42016 0.143268 0.823434 0.63917 Si
64 1 8.25158 5.53452 8.16734 1.23977 -7.03666 2.43096 -0.892933 -1.9368 -0.341413 Si
22 1 2.68693 8.16353 0.0554753 -3.34788 2.34836 -1.95834 0.00104497 0.431786 0.415376 Si
16 1 2.79701 0.00463892 8.13877 -3.62907 -1.83387 0.639112 0.0347935 -0.821958 -0.310746 Si
26 1 -0.00465663 8.22864 8.12599 -0.673971 -0.516555 1.35025 0.259238 -0.567765 0.487582 Si
29 1 1.42226 9.4989 9.49209 1.03468 -3.65166 3.64188 -0.104305 0.202361 -0.25894 Si
58 1 5.41957 8.1186 8.34955 0.625042 2.35743 -0.664627 0.223359 0.404348 -1.38964 Si
61 1 6.89409 9.56886 9.52188 3.56987 3.67019 -6.79636 -1.31439 -0.116521 0.365506 Si
48 1 8.16878 0.0416364 8.15351 -0.74889 -1.30316 2.12731 -0.474544 0.332404 0.0656825 Si
ITEM: TIMESTEP
12100
ITEM: NUMBER OF ATOMS
64
ITEM: BOX BOUNDS pp pp pp
0.0000000000000000e+00 1.0887404739999999e+01
0.0000000000000000e+00 1.0887404739999999e+01
0.0000000000000000e+00 1.0887404739999999e+01
ITEM: ATOMS id type xu yu zu vx vy vz fx fy fz element
2 1 0.0454615 2.76475 2.72608 4.6056 1.16704 -1.36399 0.56649 0.00178762 -0.232376 Si
7 1 1.45502 1.40167 1.36419 0.765475 -3.57431 -2.02499 -0.4731 0.333612 -0.283488 Si
34 1 5.38666 2.69201 2.70603 -3.33307 1.7753 -4.158 0.370563 -0.160311 -0.160075 Si
36 1 5.50902 -0.0625096 0.0184665 -2.93912 -4.59807 -3.45694 -0.81608 0.899845 -0.402301 Si
39 1 6.87062 1.30664 1.40609 -0.0500348 -2.93526 2.19085 -0.743882 -0.229367 0.621121 Si
38 1 8.16126 2.69289 0.080587 -1.25743 -0.850584 -0.308142 0.529453 0.184102 -0.506473 Si
40 1 8.21849 -0.0718947 2.82789 0.842066 -0.00976341 1.20196 -0.305381 0.895429 -0.290501 Si
23 1 1.42284 6.76428 1.33129 -0.48021 2.21835 2.30639 -0.539409 -0.68408 -0.450143 Si
24 1 2.77765 5.41821 2.71339 -2.96428 3.39275 -2.91335 -0.210798 0.537785 0.292773 Si
1 1 4.09066 4.11283 1.30213 -1.46661 -0.634011 5.25278 0.38947 -0.575399 0.252858 Si
55 1 6.74455 6.79787 1.45717 -1.53265 0.247798 -2.66837 0.691021 0.813422 -0.799919 Si
33 1 9.52296 4.10088 1.39539 -1.56704 -6.07213 -1.0374 0.0327656 0.0227936 -0.212687 Si
56 1 8.15833 5.48398 2.74565 -6.29542 1.74193 -0.435675 -0.307352 -0.866544 -0.322765 Si
4 1 0.0372324 0.0439844 0.0492762 3.13206 -3.32124 -2.30398 -0.603201 -0.635827 0.259464 Si
8 1 2.78307 -0.00370462 2.65819 -0.569769 2.09138 -0.346723 -1.13155 -0.332785 -0.0376084 Si
18 1 0.0572646 8.1455 2.57778 0.197778 -4.74913 -0.480017 -0.0192179 -0.00177953 1.58686 Si
17 1 4.02618 9.50609 1.27794 7.48627 1.82491 -0.760948 1.20863 -0.319291 0.928854 Si
50 1 5.39964 8.19629 2.80103 2.12419 -1.88915 1.74884 -0.463072 0.22811 -0.406545 Si
49 1 9.52777 9.49519 1.41642 2.94638 1.53136 -0.571708 0.0963425 0.543311 -1.32199 Si
54 1 8.18034 8.14242 0.000160159 -2.02866 -0.71481 -0.491937 -0.644739 -0.165774 0.624787 Si
14 1 2.7845 2.70196 5.50675 -0.430001 -0.046284 3.54813 -0.52746 -0.616418 -1.26758 Si
15 1 1.33377 1.35913 6.74562 -3.1733 -3.63852 1.47242 0.125146 -0.325577 0.762798 Si
3 1 4.03883 1.25922 4.05204 -1.19248 5.26024 3.81536 1.05756 1.46512 0.978172 Si
47 1 6.93582 1.33896 6.79348 -0.801407 -0.0157973 0.603303 -1.22267 1.3704 0.150459 Si
35 1 9.58206 1.44252 4.07136 0.414977 -3.52202 4.372 -0.956346 -0.251564 0.805462 Si
46 1 8.15492 2.85599 5.46758 -2.57706 -0.568407 1.29983 0.122334 -1.29032 -1.26286 Si
5 1 1.44641 4.0789 4.10765 3.41012 0.742541 -4.4154 -0.429311 0.0594846 0.167682 Si
28 1 0.00334465 5.47124 5.41678 -1.974 3.3109 5.99321 0.573935 -0.500436 0.0653603 Si
31 1 1.40062 6.69772 6.8824 -1.28949 -2.98421 2.12922 -1.37094 1.16064 -0.479363 Si
9 1 4.0995 3.99999 6.85087 -1.22888 -0.225247 0.89757 1.13645 0.565053 0.0813203 Si
19 1 3.99665 6.86274 4.16442 -0.698338 -1.02425 -3.22418 0.0430524 -0.143971 -0.535976 Si
37 1 6.72616 4.12368 4.05055 1.53711 -2.74163 -1.14464 0.0628732 0.120014 0.502418 Si
60 1 5.38057 5.50289 5.47641 -1.42763 -2.37083 1.51625 0.136493 -0.657562 -0.113089 Si
63 1 6.84425 6.866 6.7125 -0.782376 2.9317 0.552745 -0.52856 -0.270283 0.319191 Si
41 1 9.51691 4.12821 6.77431 -1.57213 -3.90063 -3.35534 0.431725 0.112446 0.92495 Si
51 1 9.5881 6.77794 3.97758 6.13954 -2.69683 -3.49471 0.403394 0.81306 0.387229 Si
21 1 1.27112 9.65524 3.98988 0.142306 2.74565 6.21848 0.667948 -1.63557 0.231594 Si
30 1 2.55499 8.19084 5.47511 -1.22022 -5.3267 4.82633 0.633253 0.736836 -0.189701 Si
44 1 5.47221 0.0648603 5.51885 -1.60623 -2.67178 0.600558 -0.778819 -0.844267 -0.26899 Si
25 1 3.98451 9.58118 6.84883 0.949686 2.75778 -2.24808 0.563499 -0.477104 -1.17791 Si
53 1 6.78693 9.53073 4.18016 0.534482 0.636208 -0.828897 0.0382348 -0.0219028 -0.507453 Si
12 1 -0.0525685 -0.012915 5.45562 -1.92113 1.15197 -0.374022 -0.0744662 1.00205 -0.310082 Si
57 1 9.45717 9.61569 6.85342 1.28991 1.95914 3.42635 0.660371 -1.61905 -0.83196 Si
62 1 8.25742 8.14608 5.35082 2.50564 -2.89594 -2.86783 -0.0769642 0.535227 0.860957 Si
6 1 2.78169 2.73638 -0.0738531 -2.91624 2.40052 1.20135 -0.281762 -0.0767672 0.400543 Si
11 1 4.09427 1.34318 9.473 -0.915432 0.491731 -3.60833 0.570597 -0.727811 0.543455 Si
42 1 5.55838 2.69651 8.21634 4.09955 6.6188 -2.1322 -0.286173 -0.142188 -0.569941 Si
10 1 0.00159487 2.68727 8.15139 -0.644632 0.453507 4.65446 -0.850966 0.0758693 0.185436 Si
43 1 9.45685 1.27499 9.56257 -2.24706 0.389074 1.19354 0.933562 1.29613 -0.0741065 Si
13 1 1.38756 4.06781 9.4882 -0.617611 0.338491 -0.228627 -1.00948 -0.667189 0.62347 Si
32 1 2.71992 5.31349 8.1643 1.50054 -2.00857 0.98287 1.1612 1.33094 0.308027 Si
52 1 5.50063 5.45238 0.0107809 4.71602 2.35707 -3.03888 -0.883298 0.656837 -0.381163 Si
27 1 4.08624 6.84636 9.47516 1.97873 2.6639 3.15625 0.333571 -0.942603 -0.0426372 Si
45 1 6.85826 4.09702 9.59384 2.03514 -0.876025 -1.27365 -0.410938 -0.659747 -0.0637611 Si
20 1 -0.0349838 5.42563 -0.0545207 1.71938 1.33924 0.0823267 0.545174 0.0721773 0.34399 Si
59 1 9.46412 6.77304 9.47891 -3.99152 -3.10363 -3.46992 0.118883 0.0238088 -0.116686 Si
64 1 8.04281 5.41662 8.12037 0.116272 7.75451 -1.1508 1.36954 0.610139 -0.0773793 Si
22 1 2.69394 8.13656 -0.0145976 -2.69728 0.733452 1.32141 0.113971 0.121012 -0.737116 Si
16 1 2.63029 -0.0316797 8.17979 -3.06833 0.983299 -2.10336 0.149603 1.03344 0.127241 Si
26 1 -0.0349488 8.19276 8.17246 1.95703 3.31775 -0.108753 -0.01932 -0.620685 -0.260232 Si
29 1 1.31274 9.52166 9.55408 1.49056 3.50774 -4.3579 -0.0125335 -0.145822 0.202685 Si
58 1 5.45907 8.22242 8.07019 -0.762298 4.12225 2.13878 -0.199414 -0.309821 0.654271 Si
61 1 6.81767 9.51063 9.52024 2.54187 -3.22518 -1.9704 -0.097053 -0.490732 -0.0934368 Si
48 1 8.11202 -0.00187003 8.18057 3.06068 -1.76736 0.0145436 0.437154 -0.212339 0.59487 Si
ITEM: TIMESTEP
12200
ITEM: NUMBER OF ATOMS
64
ITEM: BOX BOUNDS pp pp pp
0.0000000000000000e+00 1.0887404739999999e+01
0.0000000000000000e+00 1.0887404739999999e+01
0.0000000000000000e+00 1.0887404739999999e+01
ITEM: ATOMS id type xu yu zu vx vy vz fx fy fz element
2 1 -0.0810843 2.56974 2.70758 -6.18085 -3.06591 5.61728 -0.129138 1.80122 0.470452 Si
7 1 1.34891 1.34945 1.41019 -3.6212 1.30116 -4.85619 0.124549 -0.633448 0.391453 Si
34 1 5.41119 2.71666 2.76967 1.98895 0.635348 3.08861 -0.251542 0.5729 -1.0429 Si
36 1 5.45493 0.0500984 0.025051 5.17987 2.97525 -0.413317 -0.789346 -0.0654215 -0.0723838 Si
39 1 6.77261 1.50491 1.28655 0.446312 1.479 -0.70429 0.525384 -0.7771 0.430642 Si
38 1 8.14983 2.77664 -0.154581 1.19077 -2.59498 -2.24657 0.143933 -0.177847 0.965778 Si
40 1 8.11899 0.0296919 2.63564 1.66684 -0.0833782 3.23143 -0.0336474 -0.54303 -0.368208 Si
23 1 1.34788 6.83198 1.48904 0.439512 -2.09446 4.9641 0.200534 0.718433 -0.655652 Si
24 1 2.68358 5.42868 2.69492 1.01919 -2.69353 2.68849 0.145014 -0.14802 0.567133 Si
1 1 4.03352 4.10546 1.35001 -1.3333 2.33909 -0.304724 0.269845 -0.778394 0.649162 Si
55 1 6.91362 6.79635 1.35682 -2.97465 2.1233 0.641228 -0.519911 -0.898431 -0.306772 Si
33 1 9.51405 4.08112 1.30733 4.17471 4.93837 -2.29089 0.399195 -0.774192 0.37677 Si
56 1 8.26203 5.40819 2.75984 -0.636367 1.25156 0.327774 -1.21913 0.0403085 -0.1237 Si
4 1 0.065147 0.0396143 0.0270589 -2.06579 6.99433 -1.75939 -0.850636 -0.582874 -0.546228 Si
8 1 2.71229 0.00869842 2.77667 1.95521 -0.347416 0.57221 -0.113961 -0.321377 0.398567 Si
18 1 -0.0417436 8.12347 2.86271 2.43473 4.15501 -3.76363 -0.338734 0.162012 -1.35965 Si
17 1 4.09417 9.54505 1.44291 -0.811106 -2.43063 -3.51312 -0.0451281 0.864818 -1.22181 Si
50 1 5.51302 8.17065 2.56622 1.49126 -4.03089 -1.80382 -0.319752 -0.777398 1.41057 Si
49 1 9.57509 9.4938 1.35241 -2.22304 -3.01007 -0.338989 -0.257166 0.456659 0.344834 Si
54 1 8.12814 8.2088 -0.00770068 2.72914 -1.35914 -3.08621 1.08522 -0.0509637 -0.460336 Si
14 1 2.71364 2.80231 5.39687 -1.10592 2.09712 -1.24945 -0.138167 0.189747 0.485135 Si
15 1 1.41527 1.42373 6.80092 0.233724 1.22637 -1.89986 -0.279354 -0.162078 0.0634735 Si
3 1 4.09155 1.38824 4.135 4.18065 -3.45876 -3.39326 -0.620811 -0.230858 -0.531085 Si
47 1 6.7392 1.37126 6.76294 -1.34279 3.24238 -4.40259 0.540812 -0.461748 -0.0329206 Si
35 1 9.47362 1.21617 4.09294 1.38794 1.4394 -0.895642 0.966599 -0.0255967 -0.426109 Si
46 1 8.19896 2.57141 5.37766 3.35671 3.88022 0.878659 -0.469571 1.91001 1.43797 Si
5 1 1.26489 4.11964 4.05375 -0.937325 1.91621 1.67719 0.25459 -1.23533 -0.721019 Si
28 1 -0.0682398 5.43406 5.38321 -0.46545 -1.28551 -3.492 -0.148182 0.157335 1.43223 Si
31 1 1.32872 6.80545 6.72316 2.25841 3.23513 -1.56634 1.16821 -0.150961 -0.185376 Si
9 1 4.04773 4.18057 6.80646 2.70343 -6.39635 -2.76333 -0.672266 -0.440156 -0.256448 Si
19 1 4.15228 6.75617 3.93554 2.21888 0.219602 1.2498 0.357083 0.320239 0.997364 Si
37 1 6.81938 4.00302 4.07792 -3.51927 -4.53725 1.629 0.710404 0.335727 0.0530493 Si
60 1 5.47087 5.3733 5.42951 1.00741 1.44426 -0.49702 0.0113705 0.918117 -0.419188 Si
63 1 6.81919 6.69768 6.87224 1.59874 1.02264 -0.408726 0.227361 0.506177 -0.834986 Si
41 1 9.47723 4.11385 6.87253 3.41105 -1.83532 1.29185 0.450452 -1.46936 -1.58054 Si
51 1 9.45985 6.83009 4.16533 -1.69222 2.99766 0.787657 0.0186981 -0.339942 -0.340316 Si
21 1 1.35747 9.40616 4.10203 -3.9006 -1.02009 -0.0468757 0.700891 1.82066 0.761685 Si
30 1 2.86574 8.16018 5.40551 -0.203721 1.47972 -3.71938 -0.577137 -0.775141 0.147706 Si
44 1 5.46059 -0.00383949 5.37105 0.691325 4.46931 1.58892 0.0261657 -0.304008 0.457071 Si
25 1 4.18809 9.53029 6.82219 -0.864971 -1.81266 3.04999 -0.192676 -0.141676 -0.202538 Si
53 1 6.7738 9.50281 3.97882 -3.57935 -1.82673 0.846404 0.608353 0.272003 0.598423 Si
12 1 0.0418327 -0.00494535 5.49825 -1.10029 -2.77056 1.48169 0.327281 -0.41944 -0.830464 Si
57 1 9.57665 9.47055 6.74664 1.68156 0.0661789 0.0810958 -0.452784 0.591787 1.2637 Si
62 1 8.11743 8.18299 5.48293 1.80701 3.18558 0.222073 -0.628338 -0.419687 -0.24757 Si
6 1 2.62593 2.70055 0.105408 1.86157 -1.06373 -0.390933 1.05855 0.510424 -1.07635 Si
11 1 4.04815 1.40847 9.55883 -1.93077 4.57307 -2.07577 0.187849 0.206468 -0.106463 Si
42 1 5.37126 2.75955 8.06364 -3.22028 -4.33236 2.70803 -0.0057621 -0.307777 1.04822 Si
10 1 0.00383839 2.73917 8.18533 3.38516 -5.53463 -4.49661 0.210876 0.278396 0.0794329 Si
43 1 9.52355 1.33789 9.48576 7.10151 -1.42363 0.559852 0.0872787 -0.238582 -0.00495889 Si
13 1 1.33824 4.11335 9.63094 -1.75108 -1.69603 0.322594 0.139203 -0.0970066 -0.749454 Si
32 1 2.67844 5.51484 8.21035 1.2036 0.778132 -0.572455 -0.365519 -0.585645 -0.401182 Si
52 1 5.42618 5.43011 0.0371184 -3.05098 -0.35461 2.98026 0.392056 0.531225 -0.498454 Si
27 1 4.07278 6.8172 9.52536 0.606171 3.03621 0.42554 0.268749 0.599614 0.891674 Si
45 1 6.72735 4.08479 9.46647 -4.33695 -0.179936 -1.80285 -0.640247 -0.335499 0.488422 Si
20 1 0.0660115 5.49414 0.120807 -3.02878 4.08453 -0.102836 -1.06107 0.186753 -0.976553 Si
59 1 9.57674 6.85062 9.53032 4.55001 3.4813 0.532912 -0.232567 -0.611848 0.243947 Si
64 1 8.14124 5.34939 8.24262 -1.56628 -6.01875 2.65181 0.698653 1.80398 0.0174413 Si
22 1 2.72431 8.21909 0.0851857 0.260848 -5.10216 1.83386 0.120587 -0.700634 -0.268756 Si
16 1 2.78143 0.032171 8.1402 3.37448 -4.59942 -1.07582 -0.0346391 -0.0966184 0.145038 Si
26 1 0.108781 8.1618 8.12787 -2.90015 1.23374 -0.500155 -0.766706 0.576332 0.621657 Si
29 1 1.43834 9.57947 9.55096 -5.49764 -0.0183888 1.05367 -0.294761 -0.254049 -0.397309 Si
58 1 5.53797 8.12844 8.18744 -2.51829 -1.57527 2.17466 -0.977088 0.151527 0.0692817 Si
61 1 6.77597 9.5809 9.52794 -2.19882 -1.45634 7.57431 0.278832 -0.299522 0.181954 Si
48 1 8.1189 -0.0248579 8.11305 -3.03847 2.7077 1.70013 0.721172 0.148787 -0.244556 Si
ITEM: TIMESTEP
12300
ITEM: NUMBER OF ATOMS
64
ITEM: BOX BOUNDS pp pp pp
0.0000000000000000e+00 1.0887404739999999e+01
0.0000000000000000e+00 1.0887404739999999e+01
0.0000000000000000e+00 1.0887404739999999e+01
ITEM: ATOMS id type xu yu zu vx vy vz fx fy fz element
2 1 0.125665 2.85021 2.7218 5.26688 0.287676 -1.35088 -1.14569 -1.38193 0.116529 Si
7 1 1.32898 1.43165 1.29055 2.56619 1.45913 6.20797 0.31337 -0.451364 -0.174241 Si
34 1 5.46554 2.73126 2.69786 -1.53586 1.63438 0.0283932 0.805022 -0.0453539 1.35232 Si
36 1 5.38175 -0.0829111 0.00442501 -3.63326 4.2388 -0.404384 1.49924 -0.164387 0.282588 Si
39 1 6.76956 1.27628 1.41894 -2.94966 1.38005 0.980187 0.105399 0.41284 -0.906211 Si
38 1 8.15647 2.72251 0.087573 0.84258 -0.26921 0.0793459 -0.0837999 -0.271294 0.151628 Si
40 1 8.18416 0.0249761 2.77278 -0.341743 -2.56221 -4.29777 0.286504 -0.0768428 0.458276 Si
23 1 1.32376 6.75674 1.24083 1.78931 -3.3544 -3.73967 0.489118 -0.103715 0.812477 Si
24 1 2.73108 5.50004 2.68091 3.63729 -0.140057 -2.65931 0.146974 -0.640522 0.0195805 Si
1 1 4.09178 3.99364 1.3893 3.63889 3.79821 -4.47507 0.146627 1.79417 -0.934391 Si
55 1 6.67261 6.84003 1.36142 4.08706 -1.37144 -0.737871 0.473967 0.121377 0.784968 Si
33 1 9.56677 4.08149 1.40661 -0.314875 1.21638 3.66195 -0.396612 1.3483 -0.437167 Si
56 1 8.15263 5.56925 2.73735 1.10473 -3.66894 2.06924 0.566429 -0.603566 -0.379867 Si
4 1 -0.0688455 -0.0335313 0.00449157 -1.64706 -7.16035 4.85718 0.878789 1.03313 -0.115109 Si
8 1 2.66871 0.0401844 2.63552 -1.98227 -2.21834 3.79697 0.742502 0.0382222 0.180441 Si
18 1 0.0151279 8.09512 2.65587 1.38312 2.03611 0.0012005 0.339587 1.40025 -0.12286 Si
17 1 4.06328 9.47199 1.3581 -4.16453 -1.20394 1.5625 -0.921143 -0.192947 0.17249 Si
50 1 5.35657 8.20065 2.87308 -0.660874 3.157 2.80372 0.942077 0.189913 -1.26383 Si
49 1 9.52912 9.54976 1.36233 -0.320666 0.573701 -2.45494 -0.897655 -0.967991 0.43683 Si
54 1 8.10172 8.13417 0.0220732 2.46504 -0.828964 6.25153 0.0897234 0.543841 0.187654 Si
14 1 2.80398 2.59369 5.45461 -0.315424 -0.0438517 -0.490556 -0.748318 0.700462 0.367745 Si
15 1 1.29635 1.28341 6.80952 -2.77325 4.00106 -1.2844 0.393606 0.693727 -0.07847 Si
3 1 4.13434 1.32969 4.04793 -4.22412 2.43767 5.05618 -0.253253 -0.560572 -0.324413 Si
47 1 6.76045 1.4095 6.84073 4.37704 2.51332 2.52639 0.84177 -1.02509 0.0685962 Si
35 1 9.54436 1.50871 4.11408 -2.52684 0.9602 1.70894 -0.225153 -0.0846034 -1.08064 Si
46 1 8.13834 2.80197 5.50523 -0.731017 -2.77011 -3.8306 -0.222144 -0.657109 -0.653789 Si
5 1 1.47182 4.06257 4.08878 2.3826 0.361549 -3.67288 0.341569 0.948865 0.847727 Si
28 1 0.0514331 5.48121 5.44004 1.4092 -7.69447 -2.509 0.0855276 -0.68467 -0.811855 Si
31 1 1.29261 6.83833 6.81819 -3.40787 0.397364 -1.11831 0.716494 -0.0547853 0.532339 Si
9 1 4.1617 3.97372 6.84075 3.50984 2.88971 3.62359 -0.177402 0.513369 -0.75462 Si
19 1 4.01588 6.85719 4.13906 -7.52055 -0.140707 -0.787946 -0.453472 -0.482226 0.247261 Si
37 1 6.85843 4.17847 4.12251 0.510334 2.66312 -0.917984 -0.911426 -0.506741 -0.748984 Si
60 1 5.4151 5.48014 5.44395 -2.74014 -1.19275 -5.04642 0.0856517 -0.257141 0.555588 Si
63 1 6.79035 6.85462 6.81003 -3.49671 -1.90323 -2.30335 -0.06707 -0.606555 0.185575 Si
41 1 9.54694 4.10618 6.71576 -3.45067 0.633859 1.98272 0.176446 0.832313 1.3324 Si
51 1 9.60716 6.86851 4.09394 -1.57057 -0.34561 1.24984 -0.754456 -0.808595 -0.0571929 Si
21 1 1.32621 9.60174 4.00789 0.394341 -2.49303 -1.55401 0.301332 -1.23409 -0.302117 Si
30 1 2.64813 8.23644 5.48261 2.57851 4.04971 -3.75612 -0.207929 -0.0489121 -0.513963 Si
44 1 5.41258 -0.0547 5.48194 2.28 -4.14982 -0.035277 0.659725 1.23502 -0.0917414 Si
25 1 4.08721 9.51884 6.80008 -2.09633 -0.386316 -2.17306 -1.13381 0.337861 0.774962 Si
53 1 6.8255 9.53986 4.17625 2.83005 1.30867 -1.05075 -0.0343283 -0.159366 -0.734345 Si
12 1 -0.0245613 0.031763 5.29979 2.52607 1.52735 1.54311 -0.321293 -0.15138 1.61079 Si
57 1 9.52948 9.52766 6.75358 0.0980581 0.474984 -4.27854 0.154459 0.162069 -0.0167109 Si
62 1 8.1699 8.12083 5.44532 -1.84634 2.35323 1.25705 0.268136 0.729499 0.110668 Si
6 1 2.82254 2.6959 -0.0602088 5.65075 -2.50671 -0.562391 -0.960585 -0.157669 0.499007 Si
11 1 4.15925 1.30993 9.57003 5.7169 -4.22103 2.5119 -0.730989 0.0409421 -0.675031 Si
42 1 5.49652 2.713 8.28169 -0.325977 -5.10865 -1.06443 -0.304217 -0.356076 -0.633604 Si
10 1 -0.0542419 2.76101 8.15267 -6.77238 3.39706 0.132976 0.72549 -0.529495 -0.623855 Si
43 1 9.55786 1.45794 9.58658 -4.68122 -1.5448 -3.90279 -0.656853 -0.925832 -0.235825 Si
13 1 1.42423 3.99974 9.45878 -2.34872 0.514525 0.712233 0.0888343 0.804287 -0.0972616 Si
32 1 2.76201 5.39089 8.06464 -0.3171 -0.661259 3.9208 -0.237201 0.475732 0.741218 Si
52 1 5.48602 5.40883 -0.0621652 -0.488803 0.416202 3.47268 -0.78159 -0.505559 1.16716 Si
27 1 4.15136 6.7582 9.49373 1.8884 -3.54254 -0.38338 -0.997304 -0.261386 -0.559209 Si
45 1 6.85466 4.05405 9.54191 -3.27858 0.783769 3.26393 0.977165 0.815332 -0.201496 Si
20 1 0.040214 5.40397 -0.110156 2.16674 0.643582 -1.08163 -0.650361 -0.850914 0.596591 Si
59 1 9.43996 6.75093 9.57921 -3.83416 3.15513 3.23827 0.874241 0.72564 0.198478 Si
64 1 8.23803 5.51175 8.14504 4.23837 1.0591 -0.415936 -1.48388 -1.51758 -0.555448 Si
22 1 2.71634 8.06185 -0.0580025 -1.7007 0.924498 -2.00763 0.183316 0.962235 0.0274516 Si
16 1 2.70091 -0.000839471 8.22958 0.127934 8.9555 2.26794 0.0290838 -0.565392 -0.388644 Si
26 1 -0.12991 8.12183 8.21481 -1.52008 -3.97847 3.8055 0.561734 0.310449 -0.405157 Si
29 1 1.26992 9.47984 9.54615 3.83997 -0.954392 3.25674 0.657894 -0.0798315 -0.152513 Si
58 1 5.40568 8.19404 8.15761 3.60839 -0.661248 -5.33826 0.224118 -0.759556 -0.431403 Si
61 1 6.77076 9.45955 9.46985 1.50686 1.552 -4.44868 0.761507 1.21503 0.784439 Si
48 1 8.25509 0.0110805 8.19121 1.09689 -0.677765 -3.69672 -1.17549 0.346147 -0.14182 Si
ITEM: TIMESTEP
12400
ITEM: NUMBER OF ATOMS
64
ITEM: BOX BOUNDS pp pp pp
0.0000000000000000e+00 1.0887404739999999e+01
0.0000000000000000e+00 1.0887404739999999e+01
0.0000000000000000e+00 1.0887404739999999e+01
ITEM: ATOMS id type xu yu zu vx vy vz fx fy fz element
2 1 -0.0401733 2.62548 2.72629 -1.33397 5.12745 0.528824 0.888786 0.480724 -0.826776 Si
7 1 1.45433 1.25355 1.371 0.639821 -0.347013 -0.830877 -0.726548 1.42466 0.443147 Si
34 1 5.44139 2.72708 2.65875 -0.468972 3.1926 -5.08723 -0.638336 -0.79044 -0.223565 Si
36 1 5.42767 0.131076 -0.114897 -2.61828 -3.74793 -2.00369 -0.264516 -0.552957 0.684649 Si
39 1 6.83686 1.28489 1.30869 0.669989 -4.9749 2.50552 -0.259408 0.718475 0.864266 Si
38 1 8.12646 2.68726 -0.0267786 -0.0280748 4.43751 0.0702693 0.577187 0.323914 -0.612842 Si
40 1 8.18696 -0.0861753 2.74032 2.47114 -0.602928 -1.25308 -0.30373 0.60741 -0.58982 Si
23 1 1.37118 6.8993 1.41393 -3.07171 2.69962 2.31995 -0.513185 -0.37118 -0.512186 Si
24 1 2.64394 5.42318 2.7518 -3.72654 0.311546 1.8538 0.184922 0.609349 0.132384 Si
1 1 4.01238 4.14987 1.35341 -6.8499 -3.90669 7.72292 0.264 -1.05178 0.120608 Si
55 1 6.91232 6.75613 1.27861 -0.832981 -3.31148 -4.49081 -0.422114 0.46551 -0.360273 Si
33 1 9.52918 4.04189 1.31568 -0.794981 0.355986 -2.11271 -0.50445 -0.719672 0.522552 Si
56 1 8.12028 5.32551 2.67009 -2.16063 0.66691 -4.26792 0.391014 0.219079 0.414974 Si
4 1 0.0819151 0.0150096 0.0102227 -0.498919 -1.45588 -1.12421 -0.701047 -1.11371 -0.27276 Si
8 1 2.73527 -0.0473264 2.78951 -3.96057 -2.32767 -3.52813 0.0291287 -0.124272 -0.165854 Si
18 1 0.0140187 8.27654 2.75667 -0.0549368 -1.48783 2.64031 0.0990283 -1.67923 1.14131 Si
17 1 4.14665 9.67337 1.35984 1.21698 5.19625 0.989628 0.567642 -1.18631 0.205435 Si
50 1 5.54467 8.12182 2.68032 -0.385941 -4.12819 -2.78801 -0.871027 0.370601 -0.133608 Si
49 1 9.54788 9.4911 1.38439 -0.154558 0.25098 2.73599 0.658635 1.12914 -0.793812 Si
54 1 8.34342 8.18333 -0.094144 -3.74538 0.973825 -3.38411 -1.46345 -0.697525 0.738008 Si
14 1 2.57855 2.84798 5.44985 -2.08461 -0.927737 -0.352998 1.32019 -1.3508 -0.263742 Si
15 1 1.35042 1.40401 6.86003 3.09371 -4.15785 4.18537 0.416647 -0.76994 -0.49206 Si
3 1 4.0208 1.36057 4.04918 0.360048 0.0693157 -4.48096 0.33268 1.35585 0.997656 Si
47 1 6.78033 1.31709 6.83233 -5.18536 -2.22666 3.46483 -0.0306261 0.956359 -0.212721 Si
35 1 9.54461 1.27861 4.05981 -2.86946 -4.29922 1.98846 -0.542357 0.170132 1.18993 Si
46 1 8.18164 2.71977 5.48053 -3.85326 -1.57681 8.23443 -0.126776 -1.30447 -0.542597 Si
5 1 1.22086 4.11651 4.09478 0.819239 -1.57778 0.272402 -0.131657 -0.300135 -0.427044 Si
28 1 -0.0945139 5.39104 5.53779 0.553617 3.10276 2.49383 0.922241 1.25414 -0.688972 Si
31 1 1.46776 6.76246 6.81733 2.74042 0.659687 -1.77073 -1.6034 -0.0942285 0.237843 Si
9 1 4.02566 4.14974 6.79537 -4.69786 -0.240144 -2.85904 0.261012 0.212378 0.545907 Si
19 1 4.10838 6.74703 4.08699 5.0864 -3.08828 -1.76106 0.500858 0.237419 -0.68245 Si
37 1 6.77695 3.97763 4.07594 4.1415 3.43678 2.96848 0.196853 1.08886 0.459072 Si
60 1 5.52592 5.48948 5.49138 5.04804 0.453646 1.67248 -0.588201 -0.901873 -0.58364 Si
63 1 6.84777 6.89059 6.8041 5.27475 -3.5159 -0.395743 -0.609128 -0.334448 -0.0200483 Si
41 1 9.52343 4.03203 6.84072 -0.348373 -2.53865 -1.83066 -0.57463 0.180697 0.18177 Si
51 1 9.46661 6.71721 4.05171 -1.10915 3.16199 -1.88734 0.507024 0.830691 -0.0252052 Si
21 1 1.45537 9.48756 4.2167 3.95704 3.46253 -0.600533 -1.19322 0.485502 -0.910021 Si
30 1 2.77189 8.08645 5.43581 -1.48512 -2.85679 1.93822 0.297936 -0.0984135 0.330043 Si
44 1 5.43862 0.0274042 5.43245 2.78565 1.7741 1.3295 -0.333784 -0.51615 -0.344811 Si
25 1 4.06121 9.49523 6.75165 0.305357 2.89341 -1.11525 0.856118 0.234089 -0.238156 Si
53 1 6.82787 9.51406 4.09745 3.11659 2.11215 0.436219 -0.881518 0.28773 -0.38344 Si
12 1 -0.00599279 -0.0512976 5.5161 2.43594 -4.37572 -5.05316 0.31994 0.419032 -0.0799165 Si
57 1 9.47671 9.48025 6.8296 -5.52208 1.82611 5.59989 -0.0685045 0.381725 -0.196327 Si
62 1 8.1315 8.18168 5.38894 -2.22497 -2.33817 4.80346 1.03432 -0.56527 0.414376 Si
6 1 2.69465 2.72576 -0.015104 -0.704753 3.94857 0.542696 -0.118442 0.29236 0.558352 Si
11 1 4.03903 1.48712 9.4389 -3.8873 1.96757 -0.767188 0.129415 -0.967576 0.880386 Si
42 1 5.38709 2.73348 8.14753 2.58912 2.94422 -1.94881 0.807712 0.892065 -1.0694 Si
10 1 0.0268873 2.76061 8.1767 5.19515 0.076078 0.010819 -0.515588 -0.491471 0.938602 Si
43 1 9.55413 1.3096 9.52817 1.40711 2.0841 -3.00383 -0.0881009 0.731691 -0.119937 Si
13 1 1.2959 4.12413 9.61244 1.56298 -1.24872 1.00027 -0.0545588 0.0458902 -0.00800841 Si
32 1 2.7135 5.47632 8.32889 2.66387 1.23622 -2.45219 0.11177 -0.35811 -1.06044 Si
52 1 5.38533 5.43285 -0.0142102 -0.752433 0.855779 -4.72286 0.920186 0.558709 -0.38516 Si
27 1 4.03782 6.89404 9.59314 -1.72652 0.754524 5.72367 0.541567 -0.327634 0.0323824 Si
45 1 6.81034 4.11656 9.43676 0.455978 1.26133 -4.88934 -0.600188 -0.405034 0.882447 Si
20 1 -0.110932 5.50749 0.0441886 1.35511 -0.507609 2.96677 1.91825 -0.122555 0.39203 Si
59 1 9.6051 6.76512 9.44679 -1.34602 -5.42451 0.147594 -0.883772 0.437588 -0.475243 Si
64 1 8.14992 5.46429 8.08343 0.666234 3.36924 -0.753784 0.644285 0.0262359 0.644364 Si
22 1 2.75548 8.28729 0.0613666 3.19338 -2.38197 2.37271 -0.381071 -0.160532 -0.0992582 Si
16 1 2.85043 -0.00414775 8.12734 -1.29511 -2.29749 -0.0714761 -1.63934 0.572656 -0.139588 Si
26 1 0.0234422 8.17777 8.13298 -0.388933 4.51316 -2.56765 0.759951 -0.47254 -0.25472 Si
29 1 1.41805 9.54997 9.45251 1.62909 1.53187 -3.9678 -0.0372606 0.204107 0.637361 Si
58 1 5.3767 8.15956 8.12954 0.0196112 -1.45394 8.04707 1.00389 0.601551 0.983667 Si
61 1 6.80034 9.53239 9.61678 4.17753 3.70791 -0.00693499 -0.323398 -0.476539 -1.58093 Si
48 1 8.11517 -0.00878238 8.18895 0.536254 -1.09125 -3.43627 0.530152 -0.501535 0.201796 Si
ITEM: TIMESTEP
12500
ITEM: NUMBER OF ATOMS
64
ITEM: BOX BOUNDS pp pp pp
0.0000000000000000e+00 1.0887404739999999e+01
0.0000000000000000e+00 1.0887404739999999e+01
0.0000000000000000e+00 1.0887404739999999e+01
ITEM: ATOMS id type xu yu zu vx vy vz fx fy fz element
2 1 -0.0117066 2.80714 2.67326 1.12783 -3.04969 -3.12728 -0.239558 -0.442633 1.22477 Si
7 1 1.33671 1.45731 1.40295 2.76678 -0.219072 -3.07158 -0.392082 -1.20914 -0.57213 Si
34 1 5.47413 2.69084 2.7709 0.117547 -2.81453 5.23484 -0.551818 0.488663 -0.341214 Si
36 1 5.47899 -0.0109701 0.0982243 2.69341 -3.2055 -0.290536 -0.267421 -0.523617 -0.638888 Si
39 1 6.82165 1.40265 1.40245 0.781809 -0.239012 -4.39862 -0.320536 0.456707 -0.834927 Si
38 1 8.22373 2.77825 0.0639437 -1.57126 -3.2002 0.726291 -0.365772 -0.109018 -0.52254 Si
40 1 8.06603 0.0511887 2.68955 -1.43098 -0.498805 7.05694 0.880495 -0.391875 0.769098 Si
23 1 1.38276 6.64188 1.36457 2.51517 2.5686 -1.49707 -0.0774302 1.49364 0.148096 Si
24 1 2.8055 5.38192 2.75873 -0.231825 1.99028 -3.24001 0.105488 0.294351 -0.651546 Si
1 1 4.12058 4.02477 1.2934 3.92406 4.62079 -8.0969 0.179746 0.259157 1.1934 Si
55 1 6.79271 6.85007 1.44772 -4.25973 3.62534 4.63641 -0.647022 -0.260906 0.323 Si
33 1 9.55476 4.19276 1.41535 4.50806 -0.62509 0.729157 -0.273468 -0.793675 -0.777917 Si
56 1 8.21705 5.48122 2.77359 2.90647 5.18559 2.04623 -0.668988 0.692076 0.176652 Si
4 1 -0.069708 0.0417452 0.0454839 3.53407 7.27961 -1.61278 0.439281 0.378691 -0.349397 Si
8 1 2.68877 -0.00326237 2.66182 5.51524 1.77024 1.11028 0.248101 0.340289 -0.0718014 Si
18 1 0.00131667 8.19777 2.69254 0.824925 -0.145515 -2.60501 -0.713546 -1.14246 -0.9931 Si
17 1 3.99183 9.48833 1.30297 -0.519818 -4.12405 -2.17086 0.282995 0.442643 0.0218755 Si
50 1 5.33802 8.27224 2.73202 -0.602769 2.94309 0.697218 0.573732 -1.38354 0.599606 Si
49 1 9.4157 9.60171 1.3853 2.37912 -5.21375 3.18633 0.855127 -0.756403 -0.0378963 Si
54 1 8.10026 8.16015 0.0866175 1.2809 2.51833 -1.85195 0.511606 0.39867 -1.08911 Si
14 1 2.78732 2.65158 5.40214 3.33224 -0.552541 2.70903 -0.0520206 0.709835 0.351792 Si
15 1 1.45031 1.30285 6.80142 -3.12928 0.527944 -3.12247 -0.875299 0.772051 -0.32862 Si
3 1 4.11037 1.2608 4.07422 -1.05918 -3.48551 0.872898 0.177445 0.13369 -0.143448 Si
47 1 6.87605 1.41322 6.70956 5.71503 -2.55156 1.41984 -0.881652 -0.49505 0.668459 Si
35 1 9.45917 1.37383 4.00727 6.82492 7.02459 -2.05913 1.36173 0.0995134 0.402092 Si
46 1 8.19308 2.76481 5.38384 -1.38698 2.11438 -1.7847 0.288505 0.923769 0.503159 Si
5 1 1.40964 4.08741 4.04172 -0.538551 0.499609 1.53801 0.0880926 -0.823337 0.663343 Si
28 1 0.100136 5.45154 5.41799 -2.48281 5.02827 -1.4902 -1.38295 -0.105186 0.457383 Si
31 1 1.32728 6.88322 6.75091 0.112239 -1.65115 4.89665 0.781814 -0.199502 -0.152478 Si
9 1 4.17913 4.04023 6.81768 5.74592 -2.96292 -0.573712 -1.26375 -0.431965 -0.247703 Si
19 1 4.01517 6.83826 4.17781 -2.05313 -0.384849 1.81371 0.547185 0.328612 -0.854786 Si
37 1 6.79184 4.14437 4.0801 -5.32726 -5.20134 -0.293108 0.291604 -0.492365 -0.0812196 Si
60 1 5.42863 5.43646 5.45152 -3.72235 2.12209 6.44492 0.215542 0.341358 0.081531 Si
63 1 6.85 6.70518 6.81568 -1.59201 5.66401 2.88863 -0.162737 0.843226 -0.0968741 Si
41 1 9.51138 4.1603 6.89463 1.61668 2.85751 -1.4506 0.88097 -0.935258 -2.07529 Si
51 1 9.55631 6.8498 4.14348 5.10938 -2.15209 -0.800842 0.346302 -0.0608038 -0.333672 Si
21 1 1.33796 9.52469 3.94018 -8.17285 -2.66072 -0.153114 -0.1698 1.11719 1.13049 Si
30 1 2.63698 8.31042 5.38941 -6.0936 0.177049 -3.24588 0.595701 -0.998757 0.834174 Si
44 1 5.50272 -0.0379755 5.47783 -0.917471 8.86098 1.07854 -0.485565 0.00394442 -0.166071 Si
25 1 4.05596 9.52683 6.86159 0.289699 -1.0739 3.7127 0.531105 0.0299205 -0.313424 Si
53 1 6.83711 9.53487 4.06038 -3.4148 -3.80765 3.01752 -0.506988 -0.293603 0.551683 Si
12 1 0.0422894 0.00157873 5.42183 -3.37673 1.89088 5.96148 -0.597928 0.0557481 -0.812418 Si
57 1 9.54207 9.51141 6.76944 3.55942 1.84466 -2.67229 0.356577 0.703525 1.08313 Si
62 1 8.18243 8.1815 5.50734 6.35309 -0.829304 -6.87261 -0.551139 -0.570914 -0.841679 Si
6 1 2.69013 2.69681 0.0267472 -2.8232 -1.70659 -3.22914 0.203779 0.415048 -0.90181 Si
11 1 4.03331 1.24071 9.64548 -0.0505156 2.13616 -2.12674 0.692256 1.08419 -0.533885 Si
42 1 5.43131 2.57941 8.18664 3.37155 -1.9928 0.339356 0.329069 0.746986 0.615003 Si
10 1 0.0162358 2.71284 8.09886 0.523113 -1.7911 -0.16842 0.365198 -0.069497 0.116522 Si
43 1 9.51543 1.40495 9.45091 -3.30907 -3.53508 2.73412 -0.185258 -0.22648 0.858438 Si
13 1 1.38417 4.07349 9.44883 1.1154 -0.0219549 1.26726 0.142675 -0.552051 0.185214 Si
32 1 2.67639 5.4505 8.04052 -2.22713 -4.76176 2.54405 0.641258 -0.409886 0.181291 Si
52 1 5.4584 5.48907 0.0321175 1.04774 -3.61242 2.89547 -0.0968363 -0.280099 -0.358263 Si
27 1 4.09109 6.72116 9.41429 1.38274 0.0341619 -2.78307 -0.0529209 0.712824 0.76444 Si
45 1 6.77717 4.08225 9.56199 2.20535 1.339 0.295944 -0.192565 -0.953214 0.181208 Si
20 1 0.0382895 5.35416 -0.036258 -3.14249 -2.12829 -2.61264 -0.522145 1.00789 -0.273676 Si
59 1 9.48412 6.7998 9.56032 1.90842 -0.641415 -2.32519 0.381391 -0.208267 0.282521 Si
64 1 8.14045 5.38041 8.22583 -7.25458 -2.37715 -0.993964 -0.00329929 0.968584 0.343761 Si
22 1 2.69467 8.07589 -0.0547375 -1.35938 4.29972 0.7955 0.207394 -0.510066 0.211874 Si
16 1 2.70308 0.00553028 8.2287 -0.7495 -0.704005 0.66916 0.261205 -0.86805 0.0373867 Si
26 1 0.0196404 8.12994 8.17721 -3.11378 -0.532188 -1.82091 -0.671445 0.946129 0.524098 Si
29 1 1.36403 9.54707 9.60291 -2.32406 -4.02149 0.375462 -0.901524 -0.323624 -0.531314 Si
58 1 5.51843 8.12556 8.15335 -0.15146 -0.21453 -5.36449 -0.917575 -0.156372 -0.361471 Si
61 1 6.78769 9.51933 9.50948 -3.82931 -2.64709 0.841468 0.292719 0.306124 0.70373 Si
48 1 8.11088 0.0335554 8.11479 -2.87045 2.41368 3.37039 0.934955 -0.517429 0.0993456 Si
ITEM: TIMESTEP
12600
ITEM: NUMBER OF ATOMS
64
ITEM: BOX BOUNDS pp pp pp
0.0000000000000000e+00 1.0887404739999999e+01
0.0000000000000000e+00 1.0887404739999999e+01
0.0000000000000000e+00 1.0887404739999999e+01
ITEM: ATOMS id type xu yu zu vx vy vz fx fy fz element
2 1 0.0169983 2.67248 2.69463 -2.98331 -6.42704 1.72704 -0.418792 0.117292 0.436341 Si
7 1 1.37808 1.3627 1.40368 -0.594581 0.225013 4.98974 0.578455 -0.750945 -0.796641 Si
34 1 5.39644 2.70726 2.71722 -5.23852 -1.35003 -1.72474 1.04135 0.613574 0.731676 Si
36 1 5.41518 -0.0310033 0.0482599 -1.53499 4.31927 -0.0777908 0.790601 0.536909 -0.61703 Si
39 1 6.74593 1.37766 1.38866 -1.52451 8.18217 -4.19103 0.621746 -0.368792 -0.421825 Si
38 1 8.16611 2.69792 0.0281979 0.167598 4.63319 -5.6253 -0.744626 -0.64596 0.00393288 Si
40 1 8.21361 0.0335699 2.66632 0.595888 4.10113 -2.60226 -0.277051 -0.230964 0.414353 Si
23 1 1.25348 6.90544 1.32621 -4.72 -1.40771 2.3755 1.26437 -1.20198 0.0411631 Si
24 1 2.74593 5.51763 2.65153 0.71695 -1.2391 0.384158 -0.952614 -0.56575 0.385455 Si
1 1 4.09522 4.03032 1.38031 0.494878 -7.17528 -0.997676 -0.151089 1.25017 -1.16045 Si
55 1 6.7983 6.74381 1.35572 3.51451 -0.854724 0.18732 0.695494 0.249332 0.132699 Si
33 1 9.53202 3.96064 1.32172 -4.16173 -0.582882 -2.06092 0.393711 1.4031 0.666301 Si
56 1 8.22164 5.38841 2.71618 4.03017 -0.504395 4.55113 -0.265849 0.0165873 -0.510188 Si
4 1 0.0930436 -0.0704485 -0.00228154 -1.24877 -2.79159 1.27675 -0.441149 0.706603 0.00998847 Si
8 1 2.76316 0.0238699 2.77158 -0.574533 1.33234 0.344546 0.00622253 0.16758 0.340418 Si
18 1 -0.0440865 8.09541 2.80388 -2.37919 -3.41438 7.09349 1.00101 2.21665 -0.509956 Si
17 1 4.14356 9.54874 1.42916 1.9709 -0.374629 2.07934 -0.914151 -0.578329 -0.114847 Si
50 1 5.49524 8.13904 2.72056 -3.32128 3.61055 -2.39235 0.371369 0.775045 -0.57325 Si
49 1 9.58572 9.50685 1.35388 5.99449 0.952473 -3.81639 -0.597578 -0.508672 0.0198591 Si
54 1 8.1315 8.1426 -0.0206031 -0.81044 -2.84989 0.0949278 0.343929 0.489256 0.407928 Si
14 1 2.72546 2.77844 5.48989 -0.977658 1.4668 -3.13856 -0.706605 0.157937 -0.154081 Si
15 1 1.26979 1.4554 6.78996 3.23155 0.849434 -4.66861 0.379903 -0.308278 0.327931 Si
3 1 4.09439 1.46541 4.14323 0.0781867 2.06448 3.53921 -0.501112 -1.12301 -0.282059 Si
47 1 6.71302 1.35482 6.82507 -4.24948 2.1923 -2.95399 1.07894 -0.341366 -0.0509688 Si
35 1 9.56786 1.34304 4.0947 -0.584411 -6.0412 4.57673 -0.76263 0.362564 -0.57234 Si
46 1 8.14455 2.68052 5.45592 6.7435 -6.20371 -4.30264 -0.0749361 -0.308517 -0.176538 Si
5 1 1.31736 4.03915 4.05575 -4.11508 0.690928 0.555772 0.792711 1.2945 -0.110114 Si
28 1 -0.0746983 5.44399 5.41185 -3.28457 -0.684521 -3.65021 0.617073 -0.566597 -0.520284 Si
31 1 1.30821 6.70876 6.78072 -5.81176 -1.9044 -3.56611 0.331443 0.130947 0.7556 Si
9 1 4.00762 4.18265 6.83706 -2.68579 0.762601 3.08508 1.25236 -0.405941 -0.423364 Si
19 1 4.15133 6.85773 4.00814 6.9116 2.67097 -3.62563 -0.995997 -1.02791 0.864206 Si
37 1 6.84063 4.07098 4.08309 3.23393 1.77258 -0.952018 -0.353642 -0.532976 -0.513043 Si
60 1 5.44471 5.42852 5.3587 0.401305 -1.26122 -3.42321 -0.786564 -0.0909071 0.442029 Si
63 1 6.6912 6.78817 6.74634 1.06393 -1.86355 -3.03054 0.684499 0.207916 0.552851 Si
41 1 9.50256 4.07231 6.73566 -2.41544 0.374883 5.09414 -0.105961 0.25689 1.73211 Si
51 1 9.51231 6.81787 4.05963 -0.880842 1.27184 2.01305 -1.08033 -0.894113 0.796697 Si
21 1 1.40891 9.5349 4.15844 1.20042 -0.376819 -5.14506 0.161529 -1.2909 -0.600938 Si
30 1 2.74715 8.02416 5.53238 8.1667 3.74597 0.425677 -0.10665 1.16553 -1.35295 Si
44 1 5.41149 -0.0175283 5.39527 -0.621504 -6.84326 -2.85523 0.0369703 0.515593 0.413003 Si
25 1 4.08032 9.50682 6.75672 6.12213 -0.20803 -3.52956 -0.322388 0.244278 0.76545 Si
53 1 6.79194 9.58078 4.0355 -4.00232 -4.23272 0.163754 0.678354 -0.536501 0.0711918 Si
12 1 0.0175586 0.0096858 5.38512 -1.95034 1.62365 -1.48907 -0.323928 -0.289025 1.58477 Si
57 1 9.54144 9.5028 6.83692 -2.6611 -3.87828 -1.7707 -0.0313166 -0.408343 -1.24368 Si
62 1 8.07285 8.10572 5.42545 -0.70333 -0.398168 3.89982 0.847522 1.24648 0.0210497 Si
6 1 2.73872 2.68993 -0.0163446 -1.83207 -0.0282066 8.31948 0.443434 -0.408856 0.671516 Si
11 1 4.1632 1.35618 9.51139 2.67698 2.41843 7.00897 -0.848986 0.24351 -0.35311 Si
42 1 5.47415 2.83687 8.16131 -5.54317 2.51506 0.734569 -0.691307 -0.65103 0.0600418 Si
10 1 -0.0187492 2.77306 8.3066 -2.29167 1.75249 2.0885 -0.777318 -0.358255 -1.45642 Si
43 1 9.50841 1.33861 9.61323 0.240319 1.11151 -2.12507 0.560181 -0.601073 -0.521594 Si
13 1 1.37311 4.04718 9.61749 0.71266 3.94218 -0.360264 0.226397 0.967412 -0.525534 Si
32 1 2.70418 5.46121 8.23172 -0.436784 3.3584 -1.1762 -0.37614 0.375302 0.458742 Si
52 1 5.48226 5.45988 -0.0583619 0.0220101 0.889188 -3.6269 -0.694052 -0.832274 1.00445 Si
27 1 4.116 6.87691 9.56975 -1.55125 0.146755 -1.246 -0.386911 -0.662096 -0.601861 Si
45 1 6.86443 4.06583 9.56778 -2.53848 -6.54012 1.39371 0.380352 1.16719 -1.03486 Si
20 1 -0.025231 5.42301 -0.00293788 6.76485 2.83405 3.39759 -0.279519 0.163669 0.199223 Si
59 1 9.52782 6.83488 9.51081 3.34786 2.48787 -0.230454 0.422677 0.0312647 0.24147 Si
64 1 8.17419 5.57845 8.12675 0.391679 -3.31369 2.44549 -0.467796 -1.92974 -0.173662 Si
22 1 2.75236 8.20792 0.0160501 -1.92226 -1.32337 2.48868 -0.311406 0.495981 0.17889 Si
16 1 2.68183 0.0671464 8.09804 3.54666 1.42952 -1.31304 0.855668 -0.13448 -0.0793673 Si
26 1 0.0621583 8.13882 8.15613 3.62114 0.760434 2.17061 -0.691537 -0.0965562 -0.283087 Si
29 1 1.4058 9.51869 9.43191 1.88109 0.655949 5.48871 0.396162 0.0848491 0.83201 Si
58 1 5.44999 8.18202 8.16432 2.9587 2.46476 4.07351 -0.375073 0.211247 -0.323053 Si
61 1 6.78471 9.54908 9.5101 0.695524 2.13757 -4.17223 0.132896 -0.348256 0.513438 Si
48 1 8.19294 -0.0463228 8.17525 -1.34694 -1.67381 -2.22726 -0.572319 1.13322 -0.0196798 Si
ITEM: TIMESTEP
12700
ITEM: NUMBER OF ATOMS
64
ITEM: BOX BOUNDS pp pp pp
0.0000000000000000e+00 1.0887404739999999e+01
0.0000000000000000e+00 1.0887404739999999e+01
0.0000000000000000e+00 1.0887404739999999e+01
ITEM: ATOMS id type xu yu zu vx vy vz fx fy fz element
2 1 -0.106851 2.74078 2.77903 6.13709 7.34575 -2.0772 1.43846 0.359279 -1.04644 Si
7 1 1.31026 1.39975 1.26175 0.0833864 1.84574 -0.900974 0.188621 0.851453 1.47191 Si
34 1 5.52523 2.71282 2.68239 0.259708 0.341671 -1.49155 -1.24837 -0.349309 -0.497719 Si
36 1 5.50417 -0.00566719 -0.044978 -2.7602 -3.27972 3.18707 -1.57204 0.942013 0.441388 Si
39 1 6.86538 1.36344 1.28081 -0.180805 -4.75011 5.58323 -0.272722 -0.900639 1.43359 Si
38 1 8.11511 2.71681 -0.0277875 -0.684818 -0.127603 3.23557 0.783413 1.08027 -0.0610131 Si
40 1 8.18818 -0.0131004 2.81264 -1.72011 -3.02641 0.109131 -0.565263 -0.515585 -1.14617 Si
23 1 1.41952 6.848 1.33606 1.72027 -1.06104 -1.57565 -0.393118 -0.925095 0.411787 Si
24 1 2.65952 5.43569 2.8635 1.59807 1.5331 -1.43256 0.507048 0.0872947 -0.48255 Si
1 1 4.03693 4.09739 1.39629 -3.34445 2.04325 3.89952 -0.167713 -0.451305 0.633955 Si
55 1 6.77667 6.8439 1.36178 -2.39279 -2.90056 2.60238 0.363165 -0.583831 -1.51225 Si
33 1 9.46739 4.12103 1.34817 0.270829 -0.0436928 0.485612 0.060333 -0.552984 -0.0286622 Si
56 1 8.13174 5.48581 2.67707 -0.76731 1.85833 0.0114503 -0.262165 -0.415626 0.595975 Si
4 1 -0.015474 0.0933476 -0.0431662 0.813919 0.81792 2.66069 -0.669117 -1.38647 0.714417 Si
8 1 2.71328 0.027452 2.61724 -1.51973 -1.27738 -3.3192 -0.805057 -0.602287 0.184343 Si
18 1 0.00994771 8.14855 2.68043 1.05869 -3.57864 -3.45071 0.0692368 -0.301566 0.707368 Si
17 1 4.10855 9.52851 1.34734 -4.18324 3.36726 -1.03119 0.452802 0.136976 -0.174612 Si
50 1 5.44879 8.1109 2.70973 2.1596 -0.556775 3.90576 -0.616465 0.714922 0.456229 Si
49 1 9.55653 9.48053 1.34488 -3.66798 3.75515 1.42854 -0.373369 1.46787 -0.0489486 Si
54 1 8.18961 8.20881 -0.0798357 -2.61277 -1.02726 1.81293 -0.105071 -1.13653 0.937734 Si
14 1 2.77704 2.59333 5.40654 4.90213 0.168103 -0.630308 -0.426612 0.209349 0.116569 Si
15 1 1.41612 1.26945 6.79938 -3.51222 -1.10852 1.88394 0.274836 -0.398572 0.0737124 Si
3 1 4.08905 1.29007 3.96316 0.107707 -3.4682 -3.20966 0.415422 0.913249 0.231807 Si
47 1 6.80032 1.30967 6.82718 -1.5166 1.15962 -0.64596 -0.123145 0.936077 -0.0560166 Si
35 1 9.51662 1.4018 4.10804 -1.38472 2.84732 -1.1841 -0.467626 -0.688926 0.299797 Si
46 1 8.17096 2.73015 5.43938 -2.17722 8.15413 4.42761 -0.516341 0.311735 0.288825 Si
5 1 1.31272 4.01183 4.25328 4.29951 -2.05687 -2.63694 -0.00563725 0.400921 -1.26929 Si
28 1 0.0324683 5.54111 5.50891 0.486753 -1.54086 1.36254 0.45188 -0.288832 0.0750971 Si
31 1 1.44849 6.85223 6.92684 3.97099 -2.46928 -0.185234 -0.70269 0.353122 -1.59937 Si
9 1 4.03559 4.06575 6.71258 -0.85812 0.255026 2.8564 0.218856 -0.206193 1.10967 Si
19 1 4.14876 6.811 4.17473 -7.37629 0.880144 -1.14097 -0.7804 -0.328292 -0.808415 Si
37 1 6.75535 4.09274 4.04662 2.89333 0.872669 -0.631812 0.787716 0.58763 0.965743 Si
60 1 5.43916 5.46694 5.54649 0.45513 -2.01467 1.02001 1.03559 -0.0824627 -0.792821 Si
63 1 6.86118 6.86141 6.87686 2.17409 0.530308 0.522753 0.146246 -0.728203 -0.433431 Si
41 1 9.63096 4.08185 6.76128 -0.084198 2.84501 -6.61853 -1.12066 -0.238956 0.394652 Si
51 1 9.51338 6.75932 4.0762 -0.894601 3.53321 -1.41883 0.775079 0.434805 -0.584834 Si
21 1 1.35425 9.52663 4.07144 2.70038 7.238 0.369045 0.0976705 0.405672 -0.128152 Si
30 1 2.77662 8.18814 5.4525 -6.16815 -0.303046 5.13973 -0.335494 0.262039 0.561855 Si
44 1 5.36992 0.0239235 5.43438 -0.524661 -2.26504 2.32586 1.09999 -0.647947 0.0133588 Si
25 1 4.14861 9.53208 6.85025 -2.26113 0.498344 1.73798 -0.861745 -0.181659 -0.977447 Si
53 1 6.74871 9.43181 4.13926 6.19352 3.85129 2.62346 0.509388 1.15211 -0.389395 Si
12 1 -0.057314 0.0231932 5.45688 0.25798 -4.94495 -4.88009 1.0311 -0.372501 -0.395949 Si
57 1 9.55529 9.52887 6.81365 -1.13477 1.40214 -0.418422 -0.739738 0.246127 0.175918 Si
62 1 8.25067 8.15138 5.40509 -0.446672 -0.039256 -2.35519 -0.896232 0.0758123 1.01393 Si
6 1 2.69108 2.78966 -0.0425483 2.43032 -1.37463 -7.28555 -0.241246 0.100456 0.34349 Si
11 1 4.00255 1.42192 9.50538 -0.400834 -5.24541 -2.46722 1.04965 -1.08215 0.117009 Si
42 1 5.40542 2.77561 8.16025 6.84129 1.08621 3.21529 0.026807 -0.744617 -0.659979 Si
10 1 0.0672974 2.67018 8.07983 -0.713244 2.36961 1.77406 -0.165839 0.559164 1.12714 Si
43 1 9.52032 1.42138 9.56361 -1.24408 0.669922 3.83343 0.321299 0.264364 -1.13259 Si
13 1 1.36841 4.16191 9.47056 2.01299 -4.71627 1.51032 -0.702721 -1.04585 0.213751 Si
32 1 2.73633 5.43173 8.14407 3.15272 -3.40843 -1.51449 0.362518 -0.238281 -0.209541 Si
52 1 5.37721 5.36998 0.00964356 2.77461 -0.890701 -1.28443 0.488888 1.57987 -0.392049 Si
27 1 4.01909 6.80631 9.47404 0.846196 0.774124 -0.404596 0.995831 -0.125174 0.843495 Si
45 1 6.79022 4.08639 9.4983 2.57676 1.96693 -0.0697746 -0.557547 -0.419305 0.677686 Si
20 1 -0.0223967 5.44646 0.00441188 -2.29593 -1.64655 -2.03083 1.02276 0.0754015 0.378573 Si
59 1 9.5968 6.76927 9.52382 -7.86968 -4.18619 -0.415926 -1.46494 0.165302 -0.435217 Si
64 1 8.1806 5.34035 8.18916 2.52591 3.91358 0.413995 0.876297 1.35274 -0.577712 Si
22 1 2.74784 8.21722 -0.018126 0.542119 -3.84258 0.252709 -0.250198 -0.477957 0.010116 Si
16 1 2.74678 -0.151875 8.2133 -0.706204 -0.668003 1.05111 -0.875154 1.31263 0.251453 Si
26 1 -0.0253613 8.16824 8.16453 -2.09192 -0.298528 -2.25011 0.413808 -0.153222 0.325256 Si
29 1 1.25088 9.48585 9.59676 -0.104171 2.28144 -1.79169 0.957919 0.443019 -0.69774 Si
58 1 5.41547 8.18733 8.16241 -0.796178 -0.0995123 -4.28435 0.814881 -0.448062 0.762053 Si
61 1 6.78014 9.53366 9.5515 -1.32731 0.0278883 0.23251 0.538846 -0.164103 -1.1672 Si
48 1 8.19926 0.0263453 8.24213 3.47713 -2.01648 -0.440591 -0.291921 -0.599179 -0.654124 Si
ITEM: TIMESTEP
12800
ITEM: NUMBER OF ATOMS
64
ITEM: BOX BOUNDS pp pp pp
0.0000000000000000e+00 1.0887404739999999e+01
0.0000000000000000e+00 1.0887404739999999e+01
0.0000000000000000e+00 1.0887404739999999e+01
ITEM: ATOMS id type xu yu zu vx vy vz fx fy fz element
2 1 0.135241 2.68366 2.61235 -2.58919 -3.07828 -0.829072 -1.08112 0.504715 1.45681 Si
7 1 1.41407 1.23369 1.40238 1.61572 -2.96507 -2.17335 -0.142729 0.0357483 -0.992966 Si
34 1 5.42816 2.6781 2.81417 7.57612 0.776672 0.458452 0.379396 0.807803 -0.65841 Si
36 1 5.42807 -0.0191194 0.0523454 3.17316 4.38471 -3.11196 0.522867 -0.799053 -0.535464 Si
39 1 6.77734 1.3751 1.3701 1.71926 -1.74912 -2.78423 -0.225435 0.446632 -0.159491 Si
38 1 8.22762 2.70981 0.0428885 -0.583983 -3.67612 1.46131 -0.461134 -0.44079 -0.0239316 Si
40 1 8.09408 0.0568625 2.69022 0.135017 -2.19413 1.49552 0.74299 0.0673898 0.452038 Si
23 1 1.38021 6.74592 1.30424 2.02372 1.19508 1.22788 -0.83911 1.57019 -0.163222 Si
24 1 2.74521 5.44228 2.57231 -7.68606 -4.41864 1.76953 0.719644 -0.0909202 0.446665 Si
1 1 4.16802 4.06113 1.31997 -1.533 3.87435 -1.11508 -0.0933841 -0.139039 -0.00528536 Si
55 1 6.8713 6.83739 1.40378 3.17042 0.828939 -4.78344 -0.812848 0.200085 0.954083 Si
33 1 9.52988 4.06419 1.4065 2.09567 0.635278 0.479483 0.719411 0.130304 -0.434817 Si
56 1 8.17469 5.42799 2.7577 -1.07348 -5.41696 -4.08502 0.178851 0.138256 -0.323778 Si
4 1 -0.00260278 -0.0572645 -0.0357194 4.72616 3.11376 0.123318 0.643706 0.558122 0.190303 Si
8 1 2.75487 -0.00935892 2.83258 -1.73093 0.327332 1.89356 0.00663541 -0.408173 -0.121107 Si
18 1 -0.0312282 8.19634 2.71292 2.02282 6.56669 0.851277 0.0123049 -0.60027 -0.391194 Si
17 1 4.03726 9.49063 1.36781 1.43848 3.26198 1.3818 -0.101023 0.753695 0.0729036 Si
50 1 5.4111 8.24022 2.73824 5.25695 -1.07785 -3.32467 0.353107 -1.30687 0.219106 Si
49 1 9.47037 9.64231 1.36178 -1.73068 -4.30094 2.03423 0.388224 -1.41124 0.199335 Si
54 1 8.16548 8.15944 0.0770493 5.05781 2.986 -2.87595 0.211249 0.755455 -0.901717 Si
14 1 2.69724 2.85949 5.49927 -4.37641 0.241605 -0.575213 0.100638 -0.543544 -0.434825 Si
15 1 1.38406 1.41055 6.81725 1.95469 -0.589291 6.48672 -0.916777 0.791171 0.262277 Si
3 1 4.05614 1.42256 4.20969 -0.202432 -1.41698 -2.78336 -0.0714605 -0.425183 -0.21798 Si
47 1 6.92223 1.35462 6.78473 -0.447019 -1.69204 2.53227 -1.23928 -0.0738766 0.137829 Si
35 1 9.55449 1.35407 4.01032 -2.24664 -1.60329 -3.5809 0.326623 0.600301 0.2682 Si
46 1 8.18046 2.74959 5.38241 -2.03871 -3.08564 2.43489 0.731997 -0.385708 0.501473 Si
5 1 1.44124 4.18052 3.96161 -4.7443 5.46814 -0.236638 -0.763168 -1.20822 0.708369 Si
28 1 0.0342599 5.41329 5.42146 0.486674 0.688781 1.36686 -0.660169 -0.400042 0.302864 Si
31 1 1.33389 6.77164 6.78862 2.28825 3.48982 0.0217697 0.107428 0.41982 0.0174268 Si
9 1 4.1087 4.07949 6.89303 1.80283 0.964036 -1.73549 -0.0436678 0.37211 -1.04764 Si
19 1 3.98904 6.75837 4.03926 -0.172265 -1.48112 3.11117 0.973265 0.774386 0.204894 Si
37 1 6.8417 4.10129 4.09881 -3.06578 -2.852 -0.900101 -0.888587 -0.358856 -0.340469 Si
60 1 5.41852 5.40627 5.41509 5.01611 3.15505 3.32854 -0.0810118 0.680299 0.498826 Si
63 1 6.77417 6.83611 6.80149 1.60421 1.12608 3.91713 -0.334984 -0.0413135 -0.380814 Si
41 1 9.43298 4.1118 6.86702 0.963611 -0.39546 5.80114 1.29612 -0.351982 -1.24971 Si
51 1 9.53167 6.74847 4.10799 -3.08216 -3.02941 3.87971 -0.0538661 1.20083 -0.0574614 Si
21 1 1.30737 9.52201 4.12773 2.3178 -8.79522 3.979 0.143515 0.377028 -0.1007 Si
30 1 2.67453 8.17198 5.44571 1.41651 0.912567 -4.43039 -0.218728 -0.851419 -0.376827 Si
44 1 5.45352 -0.00674771 5.46069 1.09992 2.87365 -1.06008 -0.257201 0.475295 0.662129 Si
25 1 3.99044 9.51188 6.77752 -3.07506 -0.196579 0.482142 1.04789 0.397407 0.0948267 Si
53 1 6.80009 9.61487 4.06803 -0.278199 0.889357 -0.60854 -0.126666 -0.850432 0.149398 Si
12 1 0.00216861 0.052621 5.50488 1.906 -0.477077 4.42135 -0.0643854 -0.0302508 -0.941729 Si
57 1 9.52783 9.54336 6.76504 0.0392419 -3.35564 -1.13845 0.313053 -0.142359 0.742738 Si
62 1 8.16173 8.22845 5.44487 -3.57853 1.66663 0.499805 -0.212259 -0.808842 -0.587142 Si
6 1 2.68914 2.65987 0.0446434 -0.0509671 -2.04843 2.19433 0.920078 0.166117 -0.937965 Si
11 1 4.12175 1.27235 9.52811 -1.86127 4.90395 -3.61749 -0.776789 1.00826 -0.0102071 Si
42 1 5.44841 2.69049 8.15254 -5.58018 -1.49177 -0.455614 1.19201 -0.260113 0.898351 Si
10 1 -0.079852 2.74499 8.22666 0.456162 0.188833 -3.87239 0.63733 -0.356193 -0.981972 Si
43 1 9.52656 1.31856 9.53714 3.6288 0.674628 -0.917915 -0.203922 -0.00747693 0.214655 Si
13 1 1.3693 4.0732 9.4764 -3.34789 4.13605 0.457673 -0.132231 -0.615745 1.02862 Si
32 1 2.67722 5.40909 8.12563 -4.29315 3.60926 6.01927 0.58179 0.501914 0.485569 Si
52 1 5.56359 5.52722 0.0182111 -4.84374 -1.74301 0.545278 -0.726232 -1.11979 -0.25207 Si
27 1 4.08915 6.73913 9.50022 -0.529298 0.331299 1.05852 -0.406472 0.547965 0.281377 Si
45 1 6.88707 4.06591 9.58403 -1.96306 4.97319 -6.31743 -0.972042 -0.0898779 -0.598521 Si
20 1 0.0140647 5.39735 -0.025301 -1.30966 -0.197308 0.192542 -0.760688 0.380224 -0.187703 Si
59 1 9.47802 6.84478 9.52939 4.97989 -1.19233 -0.778619 0.683875 -0.621477 0.0720064 Si
64 1 8.1163 5.45471 8.1578 -1.55977 -3.36391 -4.90966 -0.0691472 0.709324 0.620498 Si
22 1 2.69908 8.19055 -0.0654859 3.75396 4.07346 -1.41495 0.466142 -1.0071 0.305885 Si
16 1 2.70015 0.0236128 8.11396 4.97711 -1.25265 -0.732655 0.562253 0.00341119 0.349305 Si
26 1 0.00389677 8.17302 8.14394 -0.903004 -1.83741 -2.16361 -0.223901 -0.0132457 0.00169208 Si
29 1 1.4129 9.54757 9.46054 -0.738254 -0.420062 -2.69161 -1.01227 -0.243192 0.10231 Si
58 1 5.36474 8.17858 8.16433 -3.46867 -3.50385 -0.829023 0.149981 -0.447122 -0.489794 Si
61 1 6.78679 9.4435 9.50183 -3.00309 -0.779903 5.62413 -0.0734368 0.808448 0.959947 Si
48 1 8.18148 -0.0630338 8.1766 -1.01623 3.36031 -0.697721 -0.0662424 0.267005 0.0421985 Si
ITEM: TIMESTEP
12900
ITEM: NUMBER OF ATOMS
64
ITEM: BOX BOUNDS pp pp pp
0.0000000000000000e+00 1.0887404739999999e+01
0.0000000000000000e+00 1.0887404739999999e+01
0.0000000000000000e+00 1.0887404739999999e+01
ITEM: ATOMS id type xu yu zu vx vy vz fx fy fz element
2 1 -0.119927 2.78739 2.84127 2.26632 1.50233 -0.503124 -0.132196 -1.39536 -1.06641 Si
7 1 1.23879 1.42056 1.41782 -2.29171 3.77849 3.83861 0.325315 0.185801 -0.164225 Si
34 1 5.45113 2.7616 2.65845 -5.02605 -2.58694 -3.25677 0.219879 -0.72202 1.13156 Si
36 1 5.4878 0.0761327 -0.00587173 -3.50156 4.65886 -0.545354 0.159565 -0.222677 -0.0380707 Si
39 1 6.84573 1.36918 1.43349 -4.45442 -0.121043 1.91425 -0.370428 0.571826 -1.65299 Si
38 1 8.16893 2.73376 -0.017383 -0.103599 3.97735 1.44324 -0.154076 -0.20694 -0.19571 Si
40 1 8.1678 -0.0419667 2.6219 -1.63648 3.70275 -3.31415 0.501392 -0.0694682 1.19925 Si
23 1 1.33961 6.75128 1.48783 -4.5246 -2.69985 -4.37573 0.577151 -0.0525028 -0.247848 Si
24 1 2.75206 5.43201 2.87597 7.34217 2.28708 -1.77459 -0.8293 -0.0725821 -0.654896 Si
1 1 4.06299 4.11782 1.46692 5.97377 -7.59241 -3.68766 -0.370618 0.431767 -1.5506 Si
55 1 6.79762 6.73852 1.31777 -2.73948 2.31302 0.81891 -0.330844 0.300042 -0.16349 Si
33 1 9.51705 4.09496 1.35147 1.3128 -0.577532 1.54887 -0.516322 0.0388441 0.321023 Si
56 1 8.0921 5.41515 2.68933 1.74882 2.80636 3.75434 1.16338 0.31822 0.227616 Si
4 1 -0.0535003 0.00891607 0.0271039 -8.41627 -5.45994 -0.536413 0.572645 0.407727 -0.374389 Si
8 1 2.69748 0.0229179 2.65326 -1.10172 -0.177813 2.03429 1.13083 0.758224 -0.203039 Si
18 1 0.0258578 8.18966 2.74158 -0.745995 0.555114 0.0578786 -0.149621 0.507728 0.216412 Si
17 1 4.1387 9.57384 1.31167 0.0315514 -2.49272 -1.64355 -0.404265 -0.867086 0.359656 Si
50 1 5.51032 8.12339 2.67027 -8.21857 2.74975 7.0909 -0.571808 0.641473 -0.0793194 Si
49 1 9.51444 9.50335 1.30494 1.15621 6.42735 -0.37214 0.276417 -0.605206 0.517944 Si
54 1 8.15221 8.10673 0.00995886 2.48007 -2.71477 1.82541 0.434422 0.381048 -0.268075 Si
14 1 2.65507 2.66622 5.37891 -3.80363 -2.22159 -0.522111 1.00171 -0.109673 0.769759 Si
15 1 1.34986 1.32351 6.80872 -0.328402 -0.685576 -0.759616 0.193578 -0.476208 -0.778697 Si
3 1 4.13236 1.35658 4.03749 2.69587 0.307479 1.2641 -0.566575 -0.222978 -0.132182 Si
47 1 6.63778 1.42148 6.74107 1.70566 1.60971 -3.74023 1.81245 -0.6906 0.177402 Si
35 1 9.45352 1.26415 4.12095 2.1046 1.76484 -1.93428 0.448756 0.266528 -0.236224 Si
46 1 8.14852 2.72488 5.44434 2.04332 0.979771 -4.73616 -0.321834 -0.577345 0.0338076 Si
5 1 1.30887 4.00709 4.10152 -1.04452 -5.10995 0.608513 0.383073 1.16064 0.420623 Si
28 1 -0.023255 5.34358 5.49178 3.37823 -1.35529 2.26065 0.0859712 1.52919 -1.04904 Si
31 1 1.34815 6.85964 6.73345 -3.50898 2.76657 0.0567347 -0.171625 -0.622278 0.861061 Si
9 1 4.03078 4.10951 6.74429 4.41467 -2.20544 2.80964 -0.0398437 -0.277629 0.123772 Si
19 1 4.12934 6.84437 4.08659 1.73895 1.87321 4.19044 0.198004 -0.132507 0.370065 Si
37 1 6.81627 4.04727 4.04168 0.138044 2.46714 3.31618 -0.161383 -0.018872 0.13645 Si
60 1 5.46289 5.39118 5.37423 -1.74081 2.81312 -4.18396 -0.395268 0.162352 0.233656 Si
63 1 6.79541 6.71203 6.75701 -2.08062 0.802405 -3.08091 -0.0460788 0.552598 0.916833 Si
41 1 9.5688 3.99736 6.80988 -1.18011 -0.793051 -0.317886 -0.955119 0.590004 0.873129 Si
51 1 9.49232 6.83065 4.05911 5.10422 -1.70966 0.481938 0.178422 -1.00634 0.594496 Si
21 1 1.51882 9.56819 4.04816 -1.31905 1.34468 -2.94597 -1.29455 -1.32722 0.304599 Si
30 1 2.76857 8.16541 5.48492 -0.397798 3.37939 1.44866 0.455779 0.563563 -0.853376 Si
44 1 5.46248 -0.0776599 5.40109 1.04196 -4.52417 0.518947 0.108852 0.571715 -0.888687 Si
25 1 4.14923 9.54001 6.79577 1.6804 -2.327 -2.56469 -0.501855 -0.381717 1.06642 Si
53 1 6.88419 9.4797 4.0053 0.220812 -0.962561 1.26166 -0.671085 0.0590579 0.568376 Si
12 1 0.0455201 -0.113849 5.39233 1.36561 3.96886 -4.31353 -0.548445 0.6732 0.894892 Si
57 1 9.53433 9.47068 6.8707 1.45997 -2.25531 -1.57332 -0.109173 0.556031 -0.879626 Si
62 1 8.1183 8.13164 5.49011 0.215106 -2.76805 1.3963 0.842207 0.193855 -0.46532 Si
6 1 2.67332 2.77986 0.0407382 -0.0556718 1.63941 0.304908 0.140463 -0.436473 0.479667 Si
11 1 4.03763 1.38319 9.55509 2.60287 -2.3413 6.44178 0.398195 0.643933 0.0980857 Si
42 1 5.39559 2.74087 8.14504 -0.978634 -6.19613 2.021 -1.24292 0.121578 -0.0115111 Si
10 1 0.0725433 2.6877 8.14648 -1.59052 1.9843 0.382975 -0.396278 0.323148 0.154234 Si
43 1 9.58597 1.38365 9.4783 1.39314 3.52414 -1.60912 -0.966977 -0.103939 0.339978 Si
13 1 1.34437 4.08425 9.52124 -0.0774683 -3.96872 -2.74477 0.553178 1.3842 -0.194656 Si
32 1 2.77457 5.58911 8.13773 -0.783354 2.43494 -5.49945 -1.18472 -1.51109 0.00101554 Si
52 1 5.35222 5.49585 -0.0345876 0.837202 2.36288 -0.088747 0.44329 -1.22529 0.670318 Si
27 1 4.06949 6.86945 9.55153 2.58793 -1.62986 -2.49673 0.322658 0.174255 -0.505056 Si
45 1 6.7042 4.06241 9.50536 0.540435 -3.99483 5.92629 1.2033 0.920739 0.313517 Si
20 1 -0.0096785 5.47407 0.0677291 -0.166811 -0.727027 -0.894137 0.253802 -0.415566 -0.759423 Si
59 1 9.54777 6.81489 9.52895 -0.859611 2.59679 2.81891 0.634824 0.439704 0.367042 Si
64 1 8.213 5.49106 8.20131 2.20153 3.07592 1.67569 -0.626892 -1.72069 -0.687908 Si
22 1 2.70485 8.0639 0.0787624 -2.4857 -2.60819 -3.57229 -0.170893 1.74857 -0.0356578 Si
16 1 2.73492 0.0385271 8.18775 -0.430599 2.80959 2.33698 0.341983 -0.584693 -0.452564 Si
26 1 0.0820561 8.20973 8.20653 1.11189 -3.01195 5.47026 -0.372347 -0.388108 0.169976 Si
29 1 1.40216 9.60303 9.58751 0.935386 -0.962265 2.23196 0.0807874 -0.941407 0.348308 Si
58 1 5.52155 8.15639 8.20034 1.75452 1.0873 -0.142023 0.0148521 0.477294 -0.228309 Si
61 1 6.92017 9.59375 9.56689 1.27114 -2.91218 -6.39264 -1.04751 -0.3751 -0.511557 Si
48 1 8.14532 0.0768082 8.09748 -1.26244 -0.657788 0.570838 0.163712 0.104718 0.0679087 Si
ITEM: TIMESTEP
13000
ITEM: NUMBER OF ATOMS
64
ITEM: BOX BOUNDS pp pp pp
0.0000000000000000e+00 1.0887404739999999e+01
0.0000000000000000e+00 1.0887404739999999e+01
0.0000000000000000e+00 1.0887404739999999e+01
ITEM: ATOMS id type xu yu zu vx vy vz fx fy fz element
2 1 0.0704228 2.75651 2.68903 -6.5076 -0.293126 0.743461 0.764309 0.291519 -0.509576 Si
7 1 1.42931 1.38747 1.26507 1.78444 -1.97585 -1.29296 0.594373 -0.150914 0.595677 Si
34 1 5.44904 2.74719 2.74946 -0.849931 3.49835 0.75237 -0.845251 -0.219365 -0.882419 Si
36 1 5.41816 -0.0377375 0.0142998 0.933615 -4.44955 2.32356 -0.804506 -0.171752 0.440674 Si
39 1 6.75684 1.32507 1.39291 6.45832 2.73499 1.96457 0.466072 -0.628884 0.845405 Si
38 1 8.14807 2.61124 0.0791452 2.03798 -1.29291 1.99058 0.140699 1.78445 -0.552536 Si
40 1 8.22761 -0.014415 2.82341 1.58205 0.158514 1.16488 -0.869287 0.661407 -0.722154 Si
23 1 1.39736 6.85775 1.23633 -2.46474 1.95335 3.61894 -0.701117 -0.687607 0.43041 Si
24 1 2.71601 5.44744 2.69376 3.81986 0.233674 1.92127 0.289964 0.670681 -0.447421 Si
1 1 4.09892 4.12702 1.28751 -1.40764 -1.76295 3.29813 -0.269788 -1.3887 1.55635 Si
55 1 6.76906 6.8245 1.37896 1.23882 -3.50789 2.16995 0.944325 -0.0818976 0.478581 Si
33 1 9.56515 4.08136 1.37724 -1.00549 -3.48017 -3.54751 -0.583045 -0.0107273 -0.721787 Si
56 1 8.16101 5.40999 2.72094 0.500378 -3.20485 -0.288325 -0.11088 0.522585 0.24786 Si
4 1 0.0305176 -0.0176191 0.00818155 6.54202 0.838469 1.11581 -0.690778 -0.387049 0.0763827 Si
8 1 2.71399 -0.0240253 2.75764 2.57964 0.0684689 -1.53368 -0.788183 -0.40007 -0.316336 Si
18 1 -0.00503768 8.23664 2.59023 -4.9438 -1.60399 2.14846 0.415508 -1.53363 1.26959 Si
17 1 4.02484 9.4196 1.38632 1.67778 1.49731 -0.578601 0.682284 0.886248 0.200489 Si
50 1 5.43877 8.10532 2.83481 3.86725 -0.681635 -2.16866 -0.369899 0.841108 -0.789022 Si
49 1 9.47835 9.49088 1.36737 -1.75677 -2.08689 -0.328979 0.512034 1.9598 -0.175581 Si
54 1 8.18084 8.21927 0.0279179 -3.04509 0.376658 -0.783805 -1.38251 -1.01881 -0.151865 Si
14 1 2.80571 2.71501 5.49103 4.61652 2.94505 -0.244028 -0.731475 0.404945 -0.820054 Si
15 1 1.3048 1.46708 6.78976 0.603975 0.374869 -3.98468 1.15035 -0.903732 0.138692 Si
3 1 4.08237 1.35001 4.06647 -0.00500733 2.891 3.32804 0.178169 0.294134 0.400326 Si
47 1 6.96004 1.34372 6.85152 -2.25692 -0.646941 -1.60779 -1.22818 0.382901 -0.143152 Si
35 1 9.58121 1.53261 4.03872 -0.356735 -1.6378 3.11369 -0.772517 -1.14738 0.830839 Si
46 1 8.17708 2.799 5.49007 3.54533 0.524392 -0.584734 0.172597 -0.0606761 -0.902806 Si
5 1 1.42338 4.10011 4.07576 -0.620919 0.041769 -2.05631 0.228283 -0.542205 0.118717 Si
28 1 0.0819208 5.49293 5.37214 -6.38863 1.45743 -0.245486 -0.205877 -0.271535 0.661943 Si
31 1 1.4207 6.73204 6.86905 1.74019 -4.25049 -4.21061 -0.227015 -0.126872 -0.0691313 Si
9 1 4.18488 4.04466 6.80355 -4.79071 4.39633 -3.406 -0.151762 0.223734 1.02374 Si
19 1 4.04097 6.81189 4.15415 1.32796 1.63289 -2.77083 -0.0540205 -0.736753 -1.36368 Si
37 1 6.72682 4.09146 4.0985 0.959996 -3.28468 -3.02617 1.06689 0.57504 0.443195 Si
60 1 5.42926 5.53282 5.4468 -0.265019 -1.46837 0.363106 0.132987 -1.03541 0.323143 Si
63 1 6.77213 6.87156 6.78482 -3.12333 -2.4011 -0.281978 1.11078 -0.513203 -0.204798 Si
41 1 9.61794 4.11853 6.75408 2.11972 0.6603 -3.20603 -0.594609 0.472672 8.59355e-05 Si
51 1 9.56126 6.83567 4.05788 -0.332156 4.49909 -3.91067 -0.273889 0.247347 -0.744494 Si
21 1 1.24716 9.47923 4.14917 3.31778 2.8858 2.84078 0.672088 1.15099 -0.93284 Si
30 1 2.66344 8.09913 5.38959 0.90384 -7.13543 3.08503 -0.337815 0.727539 1.54226 Si
44 1 5.42515 0.0868922 5.52497 -5.27348 1.3446 0.28437 -0.227496 -0.871402 0.336842 Si
25 1 3.97693 9.47178 6.8249 0.702641 -1.66587 -0.421994 0.45595 0.631503 -1.19136 Si
53 1 6.72991 9.58719 4.14964 -0.498841 1.49615 -5.51025 0.343196 0.00704537 -0.409266 Si
12 1 -0.011347 0.141626 5.4531 -3.63152 -1.47714 -2.44126 -0.317738 -0.720373 -0.468281 Si
57 1 9.54783 9.60201 6.8037 0.341897 1.95163 4.33114 -0.400687 -0.706599 0.0276489 Si
62 1 8.14744 8.22735 5.38189 -2.28546 -0.779631 -2.19867 0.488228 -0.107162 0.969882 Si
6 1 2.94474 2.65649 -0.140266 -2.03574 0.916416 -0.219119 -2.30745 0.79841 0.64017 Si
11 1 4.16453 1.28337 9.37662 -4.45244 -3.93524 -0.185049 -0.247766 -0.892139 0.869224 Si
42 1 5.54797 2.65591 8.22065 3.01054 8.21996 -0.785923 0.501792 1.12509 -1.12213 Si
10 1 -0.084051 2.68061 8.12243 3.15243 0.405983 4.13124 0.317691 0.711063 1.20461 Si
43 1 9.51095 1.32508 9.58072 -3.15021 -2.4448 3.20497 0.314289 0.111578 -0.12564 Si
13 1 1.28152 4.04432 9.54526 3.33307 -0.862445 5.69728 0.370213 -1.18661 0.10891 Si
32 1 2.73282 5.29664 8.29009 1.07241 -0.494932 1.51498 0.952538 1.2098 -1.18443 Si
52 1 5.46261 5.40865 0.0922135 0.621705 -1.34107 -2.21938 0.498167 1.37752 -1.35399 Si
27 1 4.15596 6.79367 9.56662 -1.50863 2.45494 0.860596 -0.910458 -0.891331 -0.278845 Si
45 1 6.8243 4.15609 9.56699 2.84874 -1.17735 0.749766 0.670104 -1.4455 0.160694 Si
20 1 -0.0929192 5.49836 -0.108075 -1.76766 -0.974831 -0.930008 1.25147 -0.661895 1.71517 Si
59 1 9.49977 6.87242 9.55566 0.545087 -3.08127 -4.80467 -1.41509 -0.801311 -0.82611 Si
64 1 8.20035 5.44103 8.11099 -1.65077 4.95552 2.03626 -0.261309 0.835483 0.416892 Si
22 1 2.71497 8.20822 -0.121958 -0.407399 1.10639 3.80062 0.214555 -0.606232 0.452263 Si
16 1 2.64133 -0.0105339 8.11025 -2.23444 -1.14276 -1.78507 -0.604373 -0.108575 0.360564 Si
26 1 -0.077423 8.05339 8.15913 3.05376 2.4671 -3.0171 0.589967 1.13249 -1.17388 Si
29 1 1.23343 9.43728 9.47111 1.64133 2.00704 -4.46385 0.920226 1.17817 -0.25535 Si
58 1 5.36894 8.12373 8.10048 -0.648106 1.19548 -0.239805 0.344264 0.494186 0.961689 Si
61 1 6.67975 9.44631 9.58959 -0.689682 2.56031 5.21951 1.20925 0.491521 -1.153 Si
48 1 8.17155 -0.0114612 8.25703 -2.1262 -0.208264 1.50662 -0.278847 -1.18467 0.143014 Si
ITEM: TIMESTEP
13100
ITEM: NUMBER OF ATOMS
64
ITEM: BOX BOUNDS pp pp pp
0.0000000000000000e+00 1.0887404739999999e+01
0.0000000000000000e+00 1.0887404739999999e+01
0.0000000000000000e+00 1.0887404739999999e+01
ITEM: ATOMS id type xu yu zu vx vy vz fx fy fz element
2 1 -0.0681635 2.61352 2.78111 -2.43484 -1.14808 -0.731821 -0.335893 0.907156 0.151759 Si
7 1 1.32014 1.33286 1.38394 -0.897971 3.13263 -3.79335 -0.608413 -0.831607 0.23328 Si
34 1 5.47542 2.72246 2.72891 5.0022 -4.18889 1.57935 0.388875 0.332553 0.0873283 Si
36 1 5.46791 -0.0111664 -0.0707735 7.97203 -2.81012 2.57157 0.412497 0.606715 -0.0315343 Si
39 1 6.83597 1.38286 1.27813 0.266096 0.136027 -2.81934 0.340094 0.477407 -0.208464 Si
38 1 8.21341 2.8309 -0.158114 -2.62583 -2.12689 -0.362726 -0.328864 -1.54382 1.31416 Si
40 1 8.2026 -0.00327932 2.64437 1.40719 1.72087 2.7817 -0.953822 -0.558681 -0.0183116 Si
23 1 1.3788 6.81298 1.43045 6.75937 -1.65969 -0.962598 0.386446 0.477909 -0.515141 Si
24 1 2.71418 5.42584 2.72658 -7.68331 -1.04797 3.2634 -0.442954 -0.309276 0.806884 Si
1 1 4.05992 4.07443 1.4195 -5.50664 5.14125 -3.19405 0.451987 0.25412 -0.287962 Si
55 1 6.85853 6.86682 1.23233 -0.470192 1.21451 2.21387 -0.624099 -1.00828 0.636971 Si
33 1 9.51689 4.0943 1.31719 -4.45429 4.21204 1.30049 0.432978 -0.67423 0.957491 Si
56 1 8.18559 5.47775 2.68246 0.503389 -0.972346 -1.74819 -0.778111 -0.463254 -0.0335136 Si
4 1 -0.0452801 -0.0625834 -0.0644669 1.3502 5.41907 -0.91548 0.848244 1.25863 0.549557 Si
8 1 2.7369 -0.00542237 2.76189 2.02757 2.30247 -2.57289 -0.0720969 0.155917 -0.142696 Si
18 1 -0.00572201 8.10955 2.81609 4.68139 -0.65403 -2.50785 -0.537824 -0.0603081 -0.667139 Si
17 1 4.16522 9.58113 1.37224 -0.535053 -1.98177 2.78321 -0.968898 0.290151 -0.478422 Si
50 1 5.42152 8.14431 2.58681 -0.286247 -1.65977 -4.06283 1.06634 -0.31049 1.07011 Si
49 1 9.58398 9.51627 1.36997 0.695665 -1.61643 0.168733 -0.372671 -0.961909 -0.190065 Si
54 1 8.21949 8.17215 -0.0843078 -3.95353 3.7931 -1.81273 0.330213 0.833027 0.546105 Si
14 1 2.60966 2.71011 5.44201 4.78814 -3.31762 3.52545 1.05889 0.0782441 0.372737 Si
15 1 1.46605 1.28645 6.88031 2.13913 -1.50299 1.51979 -1.36138 0.700477 -0.473675 Si
3 1 4.07102 1.44921 4.11238 -0.732133 -5.1435 -6.04066 0.0522502 -0.993327 -0.218073 Si
47 1 6.73264 1.33759 6.83366 4.92061 -1.89468 -0.506756 0.100739 -0.132813 -0.269998 Si
35 1 9.44353 1.18367 4.15179 -2.60736 -1.79465 -3.60236 1.40098 0.930827 -0.61035 Si
46 1 8.13897 2.55585 5.42419 -4.50308 0.691608 -0.754556 -0.301404 1.33366 0.950842 Si
5 1 1.30195 4.09229 4.16486 2.59747 0.256512 4.37161 -0.429602 -0.150722 -1.313 Si
28 1 -0.0351368 5.44206 5.52799 5.7398 5.46614 -1.55501 -0.530741 -0.21603 0.0108713 Si
31 1 1.28466 6.97129 6.742 2.71383 -0.673219 8.48627 0.993762 -0.711968 0.0198618 Si
9 1 3.97323 4.13876 6.72376 -3.31014 1.48385 -1.6627 -0.271385 -0.141169 -0.00648131 Si
19 1 4.1354 6.74528 4.00393 1.41367 0.632889 2.9056 -0.0945123 0.730761 0.413782 Si
37 1 6.86447 4.08877 4.16197 -2.8042 2.27657 -1.80849 -0.194495 -0.443329 -1.3246 Si
60 1 5.42216 5.40321 5.43782 -2.10755 -2.80515 2.60929 0.516668 0.637668 0.258406 Si
63 1 6.78692 6.73325 6.914 2.78162 -1.38921 1.9042 -0.380648 0.650744 -0.794875 Si
41 1 9.41997 4.01969 6.83777 -2.6496 3.81513 1.92195 1.26316 -0.438324 -0.674656 Si
51 1 9.47908 6.72612 4.13824 -2.79284 -6.5826 0.655513 0.411193 0.769468 0.0807273 Si
21 1 1.35009 9.45941 4.0932 -2.5412 -2.46846 -0.000342223 0.755647 0.898051 0.442089 Si
30 1 2.85223 8.20087 5.41313 -0.751745 3.76904 0.103015 -0.799246 -0.455644 -0.190505 Si
44 1 5.47533 -0.0108581 5.38906 0.0711078 0.774644 -1.3479 -0.36357 0.445948 -0.101978 Si
25 1 4.12361 9.59767 6.79738 -2.76416 3.38262 7.24805 0.505239 -0.715945 0.717102 Si
53 1 6.79691 9.50335 3.98723 -1.09108 -0.995368 1.52683 0.462282 -0.498236 0.454525 Si
12 1 0.0463423 -0.0205498 5.50158 -0.283157 0.883754 3.63797 0.0773296 -0.560343 -0.132436 Si
57 1 9.5319 9.5181 6.80764 1.74554 0.240235 -0.863898 0.179843 -0.0110978 0.176192 Si
62 1 8.15633 8.12299 5.51731 5.22676 1.83706 0.314615 -0.722366 0.090729 -0.74583 Si
6 1 2.58564 2.80235 0.153091 -0.712746 1.89579 0.965035 1.01095 -0.440118 -1.05782 Si
11 1 3.98759 1.46071 9.64607 -2.06171 2.71935 -3.64449 0.607726 -0.033356 -0.721352 Si
42 1 5.2935 2.77596 8.0514 -1.31592 2.01167 -1.10317 0.60609 -0.44133 1.57285 Si
10 1 0.0709322 2.73944 8.15168 -0.357105 -3.76403 -1.99999 -0.395671 -0.346808 -0.342926 Si
43 1 9.55877 1.3844 9.44978 -2.08171 -0.328811 3.48885 -0.0840509 -0.271166 0.162449 Si
13 1 1.3827 4.09983 9.51453 1.21009 7.5624 -4.26511 0.237157 0.774831 -0.257174 Si
32 1 2.67624 5.57342 8.05378 -2.94244 -3.73497 0.398267 -0.634651 -0.746413 0.656265 Si
52 1 5.39634 5.43634 -0.0182267 1.57408 -0.571211 4.42061 0.347902 -0.120111 0.00924945 Si
27 1 4.01229 6.79373 9.52124 -1.44568 1.23816 -5.77515 0.771848 0.634594 0.153015 Si
45 1 6.77598 4.0718 9.47407 3.17937 5.43506 -2.27966 -1.2601 0.332107 -0.461724 Si
20 1 0.0895775 5.39917 0.0847646 -0.297679 -2.56415 1.47923 -0.759708 0.92614 -1.02376 Si
59 1 9.54714 6.78098 9.55035 0.0666583 0.752458 1.75948 1.11314 -0.494836 -0.264343 Si
64 1 8.17664 5.3934 8.19596 -3.04599 -10.3864 -0.593772 -0.119517 0.495266 0.339561 Si
22 1 2.78698 8.22612 0.0377566 1.6173 3.72932 -2.53204 -0.68243 -0.545557 0.342454 Si
16 1 2.7722 -0.000141692 8.24237 -1.30966 -7.08951 -3.48404 0.779391 0.404667 -0.207856 Si
26 1 0.029448 8.23898 8.20857 2.01427 -0.104159 -1.11132 -0.412205 -0.157519 0.324402 Si
29 1 1.45167 9.58122 9.54887 -4.15205 -0.759483 2.14271 -0.763021 -0.927364 0.214446 Si
58 1 5.4781 8.2064 8.26937 1.14581 2.54375 -0.739288 -0.704749 -0.496261 -1.3434 Si
61 1 6.93172 9.56258 9.42633 -1.28037 -1.94934 -0.924339 -1.21078 -0.354021 1.72576 Si
48 1 8.17924 -0.0096216 8.12804 3.17886 -0.784487 0.0322169 0.590029 1.1379 -0.641176 Si
ITEM: TIMESTEP
13200
ITEM: NUMBER OF ATOMS
64
ITEM: BOX BOUNDS pp pp pp
0.0000000000000000e+00 1.0887404739999999e+01
0.0000000000000000e+00 1.0887404739999999e+01
0.0000000000000000e+00 1.0887404739999999e+01
ITEM: ATOMS id type xu yu zu vx vy vz fx fy fz element
2 1 0.0987625 2.82382 2.67762 8.00839 -1.15867 -2.2119 0.036577 -1.03717 0.219926 Si
7 1 1.39478 1.32661 1.3324 -2.98844 -5.47643 4.9298 -0.343894 1.00474 -0.210274 Si
34 1 5.34285 2.72763 2.73875 1.34069 0.360989 1.73874 0.87172 -0.506407 0.386846 Si
36 1 5.40934 -0.126623 0.0147594 -5.44689 2.43998 -0.271348 -0.0959958 1.25401 0.166665 Si
39 1 6.76149 1.31299 1.42648 -4.16065 1.36791 -1.33526 -1.32696 0.374084 -0.713243 Si
38 1 8.12219 2.69358 0.115467 1.38061 0.961308 -2.05793 0.396421 -0.194647 -0.523822 Si
40 1 8.10702 0.0435471 2.73448 -3.46228 2.16228 -5.21621 1.36061 0.152071 1.05601 Si
23 1 1.31276 6.76685 1.34839 -2.6824 1.66132 -4.60021 0.0411883 -0.117347 0.0162225 Si
24 1 2.79212 5.505 2.63085 2.23837 4.77536 -6.8523 -0.591633 -0.484335 0.315901 Si
1 1 4.08092 4.07662 1.33727 9.3938 -2.52831 4.93414 0.342176 0.273116 -1.00402 Si
55 1 6.73161 6.82724 1.53389 2.0268 1.23234 -1.52354 0.0298259 0.179488 -1.0692 Si
33 1 9.48094 4.07733 1.43934 0.557553 -2.76189 1.16925 0.284526 1.12628 -0.843244 Si
56 1 8.11789 5.51272 2.79141 -1.25972 2.98869 1.086 1.18756 -0.472774 -0.289242 Si
4 1 -0.0103957 0.0295039 -0.0120295 -2.90458 -7.89126 -5.03745 -0.401964 -0.44612 0.108215 Si
8 1 2.7399 -0.00683373 2.65996 -2.51254 -0.0724711 5.30132 0.301857 0.547683 0.616781 Si
18 1 0.00630428 8.15346 2.65497 -1.89896 -0.0897366 0.852309 0.557964 1.80125 -0.0207166 Si
17 1 4.01546 9.44887 1.3592 -1.18529 -0.0781546 0.487664 0.376833 -0.0407789 0.164566 Si
50 1 5.39128 8.21464 2.8219 1.00843 0.396386 2.20641 -0.216682 -0.149991 -0.364762 Si
49 1 9.45636 9.58498 1.37438 1.26916 6.07042 -2.23864 0.542732 -0.447654 -0.128411 Si
54 1 8.04654 8.1641 0.11905 2.65568 -5.00131 3.09521 1.04498 -0.293605 -0.846258 Si
14 1 2.7923 2.71513 5.48711 -4.71019 2.5554 -1.79561 -1.11409 0.0504279 -0.347944 Si
15 1 1.29243 1.3533 6.70809 -1.32105 2.24252 -0.951621 0.170068 0.717583 0.925626 Si
3 1 4.03819 1.32864 4.16107 -1.13472 7.09667 5.01164 0.426779 -0.0050732 -1.21943 Si
47 1 6.91369 1.34482 6.76009 -2.77526 -0.830799 4.30633 -0.480311 0.399231 0.121552 Si
35 1 9.60281 1.49024 4.07038 4.68088 3.33465 2.11563 -0.927876 -0.583202 -0.835889 Si
46 1 8.19241 2.80556 5.40703 2.59128 -1.31741 -1.79836 -0.115022 -0.675908 -0.107843 Si
5 1 1.51303 4.10759 4.01815 -2.27236 -2.80667 -1.07196 -0.400647 0.200892 0.781469 Si
28 1 0.0349906 5.4124 5.4096 0.599086 -3.46037 2.20543 0.555258 -0.110389 -0.507826 Si
31 1 1.36693 6.66624 6.865 -3.11412 2.73846 -0.15672 -0.499565 0.960155 0.037853 Si
9 1 4.1415 3.98563 6.86094 1.29554 -0.304109 4.92125 1.09617 0.0800865 -0.433898 Si
19 1 4.02383 6.81257 4.07302 -1.1742 -2.55677 -2.77637 0.193138 0.205404 1.16934 Si
37 1 6.80627 4.0989 4.04799 3.9926 2.55981 1.36829 -0.886279 -0.181955 0.435778 Si
60 1 5.41744 5.41588 5.44844 0.463787 -0.91146 -2.0159 -0.130482 0.0934322 -0.272282 Si
63 1 6.81424 6.81233 6.73586 -4.8691 5.31849 2.03176 0.125754 0.325295 0.0748863 Si
41 1 9.51172 4.1229 6.75252 1.75753 -4.00562 -1.74804 0.127478 0.228157 1.12015 Si
51 1 9.67119 6.82854 3.99697 -3.1858 -0.357763 1.52692 -1.20236 -0.815509 1.07607 Si
21 1 1.35435 9.66615 4.03023 -1.50908 2.6951 0.921456 -0.328304 -2.31779 0.325395 Si
30 1 2.60463 8.13283 5.51193 4.51414 -1.91406 0.73939 0.722874 0.646757 -0.989601 Si
44 1 5.43422 0.0246091 5.48055 -0.890642 -3.58227 0.592355 0.73632 -0.61505 -0.294734 Si
25 1 4.09286 9.51577 6.80192 1.59746 -2.54813 -6.85861 -0.945052 0.183122 -0.0131196 Si
53 1 6.84173 9.51191 4.10029 -3.23623 1.54672 0.400679 -0.334445 0.494287 0.615879 Si
12 1 -0.053411 0.0229558 5.38439 2.44395 2.61935 1.25814 0.175091 0.414326 0.0569843 Si
57 1 9.543 9.60658 6.82013 0.567095 0.636566 -0.825318 -0.128734 -1.14911 -0.634045 Si
62 1 8.2898 8.13144 5.38285 -3.007 0.0187108 3.02141 -0.426652 0.541845 0.570133 Si
6 1 2.71191 2.7156 -0.0660559 -3.40631 -4.97088 -0.039145 0.864104 -0.732855 0.903375 Si
11 1 4.07358 1.28966 9.49635 6.14964 -3.32828 2.8604 0.673614 0.526892 -0.211417 Si
42 1 5.63149 2.70737 8.2009 -1.76845 0.035497 -2.62189 -1.58029 -0.937946 -0.0743732 Si
10 1 -0.0409818 2.72368 8.18084 -0.0934137 2.74007 2.47166 -0.0518767 -0.179957 -0.393437 Si
43 1 9.43953 1.3295 9.54554 1.54917 1.74462 -0.940083 0.592006 0.806784 0.195713 Si
13 1 1.41286 4.04875 9.52953 -2.58869 -1.9031 -4.55518 -1.14966 0.366749 -0.572013 Si
32 1 2.79553 5.3039 8.13041 2.62314 2.8377 -4.09624 -0.121956 1.21045 1.14345 Si
52 1 5.56422 5.45816 0.00598586 2.63685 2.06816 -3.06625 -1.42368 -0.0337658 0.624317 Si
27 1 4.12299 6.78558 9.52387 -2.31201 -5.75927 1.14135 -0.249173 0.0770553 -0.152268 Si
45 1 6.869 4.07274 9.58336 -0.415177 -6.22434 6.28113 0.498134 0.305086 -0.131194 Si
20 1 -0.00215286 5.4516 -0.0413995 4.2004 -0.361271 -0.608619 -0.791695 -0.760474 0.188806 Si
59 1 9.4549 6.81016 9.49561 -0.341807 5.10082 2.15761 0.367371 1.001 1.15944 Si
64 1 8.12499 5.50262 8.16977 3.45216 5.33625 -0.270069 0.183202 -1.05715 -0.660795 Si
22 1 2.62382 8.10084 0.0489841 -1.17073 -1.49062 -2.57317 1.0382 0.324795 -1.39945 Si
16 1 2.62839 0.0168698 8.10471 -0.796437 2.18237 1.68864 0.935537 -0.283803 -0.0123256 Si
26 1 -0.0168919 8.19915 8.15891 -1.91335 -0.414734 -0.331091 0.231885 -0.697489 0.0749921 Si
29 1 1.35881 9.55262 9.52513 0.45337 -0.509005 -0.729049 -0.396652 -0.474875 0.193241 Si
58 1 5.49191 8.21237 8.12368 -2.78036 -2.75014 1.65591 -0.312922 -0.851999 0.457786 Si
61 1 6.81343 9.52515 9.54518 1.14717 1.16613 -6.1878 -0.141915 -0.434193 -0.114379 Si
48 1 8.15174 -0.0279572 8.17292 2.6935 -3.62575 2.88368 0.0288032 0.216794 0.0881044 Si
ITEM: TIMESTEP
13300
ITEM: NUMBER OF ATOMS
64
ITEM: BOX BOUNDS pp pp pp
0.0000000000000000e+00 1.0887404739999999e+01
0.0000000000000000e+00 1.0887404739999999e+01
0.0000000000000000e+00 1.0887404739999999e+01
ITEM: ATOMS id type xu yu zu vx vy vz fx fy fz element
2 1 -0.0897688 2.6208 2.78582 -6.36787 5.13144 4.53514 0.40463 1.21189 -0.753764 Si
7 1 1.37868 1.38797 1.42299 -3.23969 -1.29093 0.329632 0.389868 0.233348 0.017927 Si
34 1 5.50551 2.69697 2.73142 -0.949804 0.0139676 -2.50531 -0.933124 0.661242 -0.951857 Si
36 1 5.50832 0.115431 0.0611142 2.02905 0.361686 -3.71723 -0.838177 -0.56916 -0.727308 Si
39 1 6.87192 1.45542 1.31153 2.83822 -0.402794 3.83818 1.01329 -1.20602 1.49509 Si
38 1 8.20444 2.69134 -0.119914 1.93194 -2.08185 3.3248 0.057073 1.21356 0.39638 Si
40 1 8.23213 -0.0671302 2.80678 1.46015 -2.63519 0.425052 -0.987627 -0.374258 -1.75724 Si
23 1 1.40596 6.83923 1.46815 -0.399359 -0.370813 2.22237 -0.423153 -0.580271 -0.62668 Si
24 1 2.63267 5.40904 2.8413 0.821606 -4.17037 10.136 1.31658 0.36781 -0.77229 Si
1 1 4.05987 4.13092 1.37142 -0.230393 1.02142 2.57671 -0.151703 -0.92259 1.39257 Si
55 1 6.852 6.6958 1.28742 -1.43921 -0.820613 -1.48826 0.274417 0.791686 -0.371053 Si
33 1 9.56207 4.11724 1.29652 0.842214 -0.783453 2.02935 -0.370745 -1.21999 0.485996 Si
56 1 8.17003 5.40168 2.68784 -4.82863 -4.58055 -3.13264 -0.114605 -0.144572 0.0982717 Si
4 1 0.0788437 0.0522794 0.0814557 -2.93521 5.03626 1.707 -0.697213 -1.23742 -0.858837 Si
8 1 2.76718 0.0225246 2.70352 0.704518 -1.49848 -2.68972 -0.819322 -1.1711 0.185081 Si
18 1 0.00945987 8.16705 2.7233 0.427993 1.39259 0.191206 -0.410114 -0.843909 0.83577 Si
17 1 4.15623 9.5586 1.36078 1.70526 1.59757 -4.35545 -0.369319 0.0825485 -0.339537 Si
50 1 5.52384 8.1039 2.57951 0.137808 -2.32887 0.174405 -0.179684 0.460543 0.789666 Si
49 1 9.62073 9.38741 1.29194 -1.29375 -3.13658 -2.91251 -1.10152 1.97597 0.54624 Si
54 1 8.19561 8.13467 -0.0965832 -0.681084 0.595702 0.400743 -0.0296981 -0.510396 0.637225 Si
14 1 2.71576 2.79037 5.38416 0.0633817 -0.333483 -1.34028 0.213885 -0.658124 -0.307731 Si
15 1 1.3815 1.42589 6.74002 -1.96541 -0.509789 2.3654 0.543409 -1.37 0.354286 Si
3 1 4.09273 1.33915 3.99853 2.6942 -0.0789712 -0.541183 -0.059541 1.06395 1.18549 Si
47 1 6.73543 1.41012 6.84652 -2.66061 2.59477 -3.40696 0.0629326 0.116208 -0.305118 Si
35 1 9.52114 1.27254 4.16709 -0.655062 -0.922442 -0.434608 -0.507947 0.623728 0.451138 Si
46 1 8.17759 2.73391 5.52376 -1.45497 2.2474 -0.15438 0.145698 -0.216737 -0.424467 Si
5 1 1.2298 4.0733 4.11638 0.737325 -0.137889 -0.222286 0.0414917 -0.363043 -0.351656 Si
28 1 -0.131487 5.47984 5.35735 0.497819 -4.35043 1.02516 0.77755 0.171141 1.13181 Si
31 1 1.37558 6.75524 6.752 1.25577 1.14027 -2.54213 -0.192617 0.560588 -0.311958 Si
9 1 4.04774 4.14092 6.75301 -1.97113 -2.66407 -4.44203 -0.200088 0.215052 0.830209 Si
19 1 4.19707 6.82439 4.01274 0.156292 1.27871 2.98303 -0.899666 -0.654136 0.0944102 Si
37 1 6.81418 4.04055 4.06144 -4.73085 -2.01401 -2.30209 0.482009 0.502609 0.822007 Si
60 1 5.48153 5.46543 5.44146 -0.163167 0.849722 -2.01927 0.0753828 -0.164193 -0.45279 Si
63 1 6.82291 6.83626 6.7898 0.220405 -1.84966 -7.38443 -0.389334 -0.458994 0.841464 Si
41 1 9.62988 4.07446 6.85886 2.69265 -4.23327 1.57393 -1.20277 -0.0820081 -0.600799 Si
51 1 9.37756 6.85826 4.06897 4.1106 2.79207 -2.36444 0.748721 0.284871 -0.408612 Si
21 1 1.35838 9.47011 4.08287 5.89454 1.58425 -0.24831 0.0831824 1.46306 -0.126042 Si
30 1 2.77735 8.15161 5.34112 -3.25777 -0.329931 -0.330165 0.200154 -0.349195 1.28066 Si
44 1 5.41729 0.053969 5.43041 -0.486674 3.56852 -1.87833 -0.127915 -0.433464 0.397622 Si
25 1 4.12934 9.50051 6.81749 0.545524 0.37195 0.591997 -0.538701 0.164867 -0.736796 Si
53 1 6.69032 9.48666 4.11403 5.5684 -4.9759 1.40667 0.737793 0.745459 -1.02174 Si
12 1 -0.0376838 -0.0494141 5.51656 -1.95217 -4.50962 -2.00085 0.86897 -0.183036 -0.348749 Si
57 1 9.43233 9.51849 6.83915 -1.00264 -2.159 1.22554 0.199969 0.50901 0.0283043 Si
62 1 8.0725 8.24627 5.45339 1.77545 0.377948 -3.48234 0.406774 -0.717719 -0.00188388 Si
6 1 2.77519 2.70673 0.031107 2.33266 3.44486 -0.29954 -0.784277 0.56703 -0.41963 Si
11 1 4.14622 1.42417 9.48901 -2.18027 2.48896 -1.00342 -1.20082 -1.40002 1.13444 Si
42 1 5.3369 2.75889 8.17232 1.13384 -1.43312 1.18659 0.821229 0.568633 -1.40571 Si
10 1 0.0604484 2.6671 8.14793 -1.8395 -4.38946 -2.67581 -0.109637 0.570785 0.881546 Si
43 1 9.57595 1.29192 9.51425 4.9687 0.735619 -1.44608 0.206214 0.3418 -0.228581 Si
13 1 1.34393 4.11676 9.5527 -2.20912 -1.00347 0.500613 0.0614723 -0.952552 0.654365 Si
32 1 2.68962 5.46066 8.2655 5.13995 3.11851 -0.0953725 0.403306 0.134862 -1.46118 Si
52 1 5.37513 5.42508 0.029395 -3.72253 5.65327 -2.87009 0.5391 0.23019 -1.14517 Si
27 1 4.02758 6.85786 9.58158 2.4624 4.73088 3.74352 0.366628 -0.635509 0.110742 Si
45 1 6.71492 4.05662 9.47038 -5.74644 0.487888 -1.9657 0.462528 0.210151 0.934509 Si
20 1 0.018831 5.52893 0.0342893 -5.7781 2.8403 0.696482 0.796033 -0.282392 0.0213172 Si
59 1 9.62815 6.80873 9.47539 3.51927 -2.80912 -0.409124 -1.42304 -0.437655 -0.547299 Si
64 1 8.13657 5.3595 8.14671 1.01273 1.57995 1.00408 0.749476 1.24982 0.205733 Si
22 1 2.71101 8.17711 0.0703095 2.62751 -4.13915 1.14091 0.199976 0.408698 0.0639318 Si
16 1 2.76768 -0.0109868 8.14558 0.8121 1.57985 0.813716 -0.845963 0.172682 0.451167 Si
26 1 0.006924 8.19408 8.09421 -0.652262 2.71243 3.06619 0.18314 -0.63622 -0.0159016 Si
29 1 1.3112 9.45243 9.56386 0.318771 1.1107 3.02014 1.04041 1.44146 -0.364685 Si
58 1 5.41597 8.15031 8.21436 -2.0601 -0.0205452 1.99257 0.598945 0.129578 -0.0518843 Si
61 1 6.75392 9.54817 9.61109 1.9538 -1.27581 9.11719 0.418976 0.190669 -1.04663 Si
48 1 8.09674 0.0533429 8.17397 1.46094 5.80018 -2.684 0.0170978 -0.860828 0.488219 Si
ITEM: TIMESTEP
13400
ITEM: NUMBER OF ATOMS
64
ITEM: BOX BOUNDS pp pp pp
0.0000000000000000e+00 1.0887404739999999e+01
0.0000000000000000e+00 1.0887404739999999e+01
0.0000000000000000e+00 1.0887404739999999e+01
ITEM: ATOMS id type xu yu zu vx vy vz fx fy fz element
2 1 0.102214 2.80937 2.68965 1.52419 -0.316721 -2.66072 -1.01724 -1.06861 0.425222 Si
7 1 1.36062 1.40296 1.32004 2.68507 3.0843 -0.822409 -0.196363 -0.948826 -0.00837422 Si
34 1 5.35374 2.73073 2.74318 0.277727 1.12659 3.68944 0.74859 -0.0904719 -0.270967 Si
36 1 5.33239 -0.0788465 -0.074057 0.720747 0.150258 5.61904 1.54581 -0.391208 0.446294 Si
39 1 6.65753 1.30063 1.31675 -0.0906018 -1.78129 0.567131 0.527644 0.924874 -0.253203 Si
38 1 8.14462 2.7645 0.00781397 1.25543 -2.89475 -0.792337 -0.584007 -0.714524 0.321169 Si
40 1 8.08993 -0.00588083 2.63138 1.05509 -1.77903 3.26162 0.649225 0.811241 1.26396 Si
23 1 1.39629 6.78878 1.22875 6.12993 -1.30984 2.75906 -0.0271468 0.306439 0.815784 Si
24 1 2.71614 5.46521 2.65598 -1.01479 -0.19363 -2.73346 -0.151308 -0.288153 0.527235 Si
1 1 4.07944 4.10365 1.32647 -1.70957 6.93527 -5.29038 -0.100564 0.0261237 -0.56987 Si
55 1 6.78227 6.89058 1.37251 1.05556 -2.38045 -0.676309 -0.276014 -0.554817 1.01706 Si
33 1 9.53591 4.08247 1.40512 2.27006 3.99266 -2.24582 -0.289146 0.40683 -0.21863 Si
56 1 8.20636 5.50604 2.76161 2.29124 -0.159288 1.51073 -0.70381 -0.274854 -0.0572552 Si
4 1 -0.0721577 0.00636761 -0.0504686 1.9248 -1.39046 1.26937 0.727436 0.665126 0.923531 Si
8 1 2.66077 -0.0245978 2.74898 2.05445 0.410561 1.67403 0.299849 0.67635 -0.735896 Si
18 1 0.0532828 8.09418 2.73598 -0.107458 7.16867 -3.98137 -0.675713 0.273303 -0.746365 Si
17 1 4.00015 9.51158 1.34718 -1.13216 -4.39387 0.412977 0.620443 0.0293654 0.642947 Si
50 1 5.38256 8.22301 2.81496 -0.987379 0.730207 -1.28324 0.140044 -0.541122 -0.474977 Si
49 1 9.5302 9.57354 1.41364 -3.81709 -1.10136 1.18198 0.388065 -1.10811 -0.467129 Si
54 1 8.14825 8.19061 0.0672809 1.45252 1.82332 -0.200106 -0.378544 1.34463 -0.47643 Si
14 1 2.74763 2.64729 5.48037 0.1642 3.3024 3.01018 0.0400632 0.50782 0.735158 Si
15 1 1.30316 1.3832 6.89541 2.37407 2.39735 -2.24029 0.24148 0.173725 -0.205483 Si
3 1 4.08027 1.3201 4.10824 -2.27412 -1.97547 -2.30145 0.12468 -0.596685 0.008873 Si
47 1 6.82077 1.33621 6.79995 8.18611 0.393548 -0.389022 0.629016 -0.556715 0.00591398 Si
35 1 9.5355 1.41232 4.03239 -2.2861 -0.799337 -2.90732 0.170797 -0.662378 -0.297536 Si
46 1 8.11798 2.69192 5.42353 -1.57064 3.9763 3.01795 0.154977 0.322925 -0.309769 Si
5 1 1.44229 4.03589 4.09936 2.88889 2.35716 -3.38615 0.373255 0.820662 -0.0231134 Si
28 1 0.117381 5.4052 5.4903 -0.785314 1.82261 -4.50361 -0.911868 -0.159556 -0.053687 Si
31 1 1.32544 6.87391 6.85599 3.26204 -3.66313 -0.337843 0.783916 -0.449862 0.059247 Si
9 1 4.15433 4.01564 6.89637 5.15991 1.56675 -1.94094 -1.35732 0.383445 -1.16189 Si
19 1 3.97605 6.79622 4.14545 -1.96574 -1.67056 -0.233385 0.576972 0.408891 -0.429294 Si
37 1 6.76548 4.1085 4.10389 0.16468 -3.27836 1.86685 0.144071 -0.189272 -0.646071 Si
60 1 5.36893 5.41269 5.45082 -0.975044 -1.52342 1.37968 0.730408 0.48151 0.525364 Si
63 1 6.85951 6.78938 6.78209 2.25408 -1.94011 3.6534 -0.446985 -0.503008 -0.00405897 Si
41 1 9.4627 4.06489 6.75546 0.139524 3.24797 0.953255 0.556957 0.599513 0.0987498 Si
51 1 9.59374 6.78031 4.18195 -1.71242 -2.62668 1.48351 0.654862 -0.506571 -0.938178 Si
21 1 1.31198 9.51938 4.05086 -2.19995 -5.48832 3.06385 0.695363 -0.181963 0.5426 Si
30 1 2.69632 8.25155 5.4867 -2.85732 -0.596141 -5.20565 -0.501976 -0.480023 -0.177973 Si
44 1 5.53977 -0.0496915 5.44069 2.23301 1.63912 1.44405 -0.820785 0.485746 -0.130917 Si
25 1 4.0826 9.58474 6.80101 -4.88429 -2.1671 4.48658 0.337182 -0.214298 0.904928 Si
53 1 6.90736 9.50112 4.11224 -0.697924 6.30121 -2.50507 -0.307221 -0.3555 -0.12991 Si
12 1 0.0631122 0.000710136 5.43382 2.16735 2.64855 2.90253 -0.985454 0.542734 -0.245799 Si
57 1 9.60365 9.44222 6.70968 0.0757716 2.81813 1.04135 0.439068 1.03543 1.22611 Si
62 1 8.2817 8.11322 5.4801 -2.68886 3.54298 0.177583 -1.342 0.107613 -0.716377 Si
6 1 2.71101 2.69497 -0.0691124 4.69273 -2.22333 -0.191848 0.173452 0.815369 0.339537 Si
11 1 4.14019 1.35443 9.55755 -0.270595 -3.78595 -5.98639 -0.851027 0.506526 -0.615178 Si
42 1 5.46589 2.64057 8.146 -0.345998 -3.32527 0.00246439 0.715751 0.516583 1.08733 Si
10 1 -0.137312 2.78616 8.19662 0.209481 -1.08145 -0.843839 0.979448 -0.541513 -1.21689 Si
43 1 9.51618 1.4168 9.49414 -4.0396 -3.88555 1.04171 -0.970045 -0.713314 0.591659 Si
13 1 1.2729 4.04596 9.47311 -1.2311 0.919549 0.11567 1.31163 0.871279 0.314874 Si
32 1 2.75819 5.4756 8.1592 -2.67791 -3.34748 4.75559 -0.747878 -0.786224 0.0885425 Si
52 1 5.46578 5.52342 -0.0357598 -1.04313 -2.90106 8.32598 -0.00437993 -0.811345 0.945069 Si
27 1 4.15863 6.78276 9.47501 0.599137 -0.720484 1.52373 -0.454347 0.415217 -0.0546623 Si
45 1 6.77022 4.11999 9.52681 3.14335 4.58923 -1.09331 0.474095 -0.419811 -0.495393 Si
20 1 -0.0107449 5.39593 0.00425044 -3.79541 -1.35231 -0.934782 -0.520237 0.469274 -0.383087 Si
59 1 9.41717 6.83032 9.6353 -5.30613 2.592 1.30399 1.39625 -0.763361 -0.402273 Si
64 1 8.21903 5.45801 8.18978 -1.83434 -2.61869 -2.20781 -1.03796 -0.258727 -0.222262 Si
22 1 2.82256 8.14547 -0.085234 -2.59388 2.85743 -1.85214 -1.11758 -0.0138774 0.200832 Si
16 1 2.728 0.0734213 8.25916 -3.19316 0.508075 -3.53847 0.00423498 -0.547689 -1.0322 Si
26 1 -0.0820833 8.12924 8.23864 0.981737 -1.3824 -2.48604 0.830852 0.803547 0.352678 Si
29 1 1.38558 9.57948 9.57831 1.29829 -0.694202 -2.95975 -0.533444 -1.0357 -0.700019 Si
58 1 5.48647 8.12134 8.14458 1.51677 -0.59482 -1.09613 -0.149704 0.798435 -0.915061 Si
61 1 6.85187 9.54597 9.39601 -0.994656 -1.53817 -0.00422283 -0.180053 -0.386284 1.52639 Si
48 1 8.28961 -0.0442984 8.08354 -5.12527 -0.0217138 2.33634 -0.545768 0.583845 -0.150885 Si
ITEM: TIMESTEP
13500
ITEM: NUMBER OF ATOMS
64
ITEM: BOX BOUNDS pp pp pp
0.0000000000000000e+00 1.0887404739999999e+01
0.0000000000000000e+00 1.0887404739999999e+01
0.0000000000000000e+00 1.0887404739999999e+01
ITEM: ATOMS id type xu yu zu vx vy vz fx fy fz element
2 1 0.0321827 2.71448 2.67927 -0.633998 -2.77501 6.23966 -0.199386 -0.262761 0.653375 Si
7 1 1.3703 1.26074 1.3885 0.762917 -0.201615 -1.51265 -0.191255 0.895104 -0.630675 Si
34 1 5.53167 2.75026 2.7224 -1.27179 3.7621 -4.64771 -0.126795 -0.274392 0.934019 Si
36 1 5.4085 0.0116814 -0.00457911 0.649018 -3.39287 -4.58991 0.274006 0.636549 0.632736 Si
39 1 6.86837 1.32804 1.40065 0.624645 0.349635 -2.23005 -0.692818 0.348437 -0.775732 Si
38 1 8.21785 2.72177 0.0302937 -3.38501 5.00564 -2.735 -0.141703 -0.308958 -0.672916 Si
40 1 8.172 -0.0102211 2.7553 2.33996 1.14777 -6.35938 0.136864 0.309631 0.137784 Si
23 1 1.27542 6.83516 1.39942 -3.66321 -0.510459 -1.70348 0.597962 -0.172976 -0.0570622 Si
24 1 2.73393 5.41688 2.66054 2.00515 0.278763 -2.76899 -0.61714 0.685877 0.0871347 Si
1 1 4.08198 4.02063 1.41231 -1.26191 -4.84056 4.67997 0.553267 0.229406 -0.771329 Si
55 1 6.80254 6.76751 1.29033 0.479985 4.26279 -0.820156 0.100553 0.0584977 0.18955 Si
33 1 9.57478 4.07917 1.35805 -2.66006 -1.09357 -0.237227 -0.0170253 0.23157 -0.288761 Si
56 1 8.18251 5.42988 2.6866 -0.397827 2.54355 -0.437604 0.364438 0.649973 -0.0187811 Si
4 1 0.0112381 -0.0617841 -0.00792859 -1.12762 -5.50142 -2.07655 0.103625 0.163158 -0.692436 Si
8 1 2.71156 -0.0248674 2.7353 -3.95397 -1.88542 0.2813 0.752532 0.785999 0.560359 Si
18 1 -0.0630013 8.21258 2.77698 2.17068 -7.0463 1.28463 0.565153 0.51343 -0.471779 Si
17 1 4.07141 9.58736 1.3878 0.155409 1.25782 1.32135 0.344146 -1.02322 -0.201444 Si
50 1 5.5052 8.18668 2.69215 0.294955 -1.6622 0.222938 -0.675102 -0.146251 -0.104625 Si
49 1 9.46901 9.56004 1.3646 2.61242 1.37458 1.54073 0.690602 -0.572308 0.0272134 Si
54 1 8.2019 8.16335 -0.0270166 -1.96421 -0.157656 -0.278087 0.0570156 -0.722885 0.00699938 Si
14 1 2.64502 2.77909 5.40994 -4.78824 -4.1967 0.0381203 0.106616 -0.224948 -0.0442878 Si
15 1 1.40895 1.3194 6.82692 1.66336 -3.45417 1.37912 -0.360984 0.197316 -1.05143 Si
3 1 4.06322 1.42007 4.09963 -0.0364613 3.20785 1.98284 0.140249 -0.0738257 -0.588997 Si
47 1 6.74361 1.35644 6.88088 -4.27321 -1.26806 2.53677 0.267414 0.0501999 -0.566129 Si
35 1 9.52497 1.36345 4.09434 -1.15312 -1.22746 5.24069 0.331829 0.184841 0.212204 Si
46 1 8.1627 2.68632 5.55375 3.07175 -6.56686 -0.000907677 0.304761 0.0937054 -0.640924 Si
5 1 1.31076 4.18716 4.02309 0.127818 -1.96632 4.99631 -0.0246562 -1.01653 0.392476 Si
28 1 -0.0953019 5.43712 5.4398 1.59227 -1.41425 4.17818 0.465931 0.892297 -0.69904 Si
31 1 1.35634 6.80741 6.70328 -5.85937 3.0977 -0.847321 -0.481588 -0.45744 1.01076 Si
9 1 4.03541 4.08441 6.77018 -3.37462 -0.196119 1.63561 1.32351 0.20221 -0.188918 Si
19 1 4.08614 6.75772 3.99648 2.48072 0.263448 -2.75674 1.00943 0.29994 0.690229 Si
37 1 6.93146 4.1184 4.1315 3.10075 3.76437 1.7747 -0.779697 -0.67998 -0.129572 Si
60 1 5.56915 5.48611 5.46912 -1.44687 2.87609 -2.03781 -1.8662 -0.632072 -0.550236 Si
63 1 6.7865 6.83257 6.86237 -1.98219 -2.8431 2.29028 -0.0204195 0.390249 0.130619 Si
41 1 9.53656 4.09873 6.83148 -4.22335 -1.81932 -1.87518 0.0722675 -0.625069 0.128783 Si
51 1 9.46427 6.88436 4.07441 0.689819 0.557471 -0.588912 -0.440315 -0.823625 0.534054 Si
21 1 1.42266 9.55001 4.09888 -2.2247 2.61351 -4.85136 -1.07711 -0.809315 -0.1517 Si
30 1 2.7188 8.10521 5.37913 6.20778 1.79235 3.70637 0.584564 0.374205 -0.140898 Si
44 1 5.42326 0.0456438 5.44679 1.5935 -4.13969 3.29594 -0.302126 -0.289119 0.195486 Si
25 1 4.04384 9.49747 6.76099 1.50943 4.34045 -2.72129 0.640313 -0.137407 0.251767 Si
53 1 6.79255 9.58343 4.09207 -2.54924 -2.16134 -3.85762 -0.569337 -0.184193 -0.132017 Si
12 1 0.00775296 -0.0452311 5.43943 2.33569 3.89379 -0.986646 -0.0954618 0.775546 0.363593 Si
57 1 9.4162 9.60698 6.81463 0.193251 0.823998 0.91821 0.67874 -1.18029 -0.490138 Si
62 1 8.03141 8.19268 5.44734 -1.9002 -5.12349 5.27258 1.20785 0.270716 0.360095 Si
6 1 2.73827 2.69392 0.049388 -2.4566 2.84833 3.16157 -0.193184 -0.676255 0.395427 Si
11 1 4.02504 1.363 9.52477 -0.177531 2.11637 5.76639 1.01883 0.249456 0.0923148 Si
42 1 5.43827 2.74239 8.18151 -0.798769 3.53606 -2.31703 -0.92433 -1.72415e-05 0.00273659 Si
10 1 0.110392 2.73138 8.12278 0.306696 3.62833 -1.5729 -0.737337 0.116251 0.792781 Si
43 1 9.56709 1.3626 9.47188 1.53412 0.105117 -3.7578 0.3203 0.2411 0.653974 Si
13 1 1.45634 4.04529 9.58306 1.59884 -2.17969 0.301404 -0.685132 0.403555 -0.843425 Si
32 1 2.7209 5.42155 8.12511 -1.47582 4.01434 -5.5714 -0.431954 0.595594 0.436947 Si
52 1 5.41585 5.3563 -0.0356032 0.394258 -1.79544 -4.16822 0.182793 0.187978 0.588989 Si
27 1 4.00548 6.75771 9.62427 0.116083 -1.58591 -3.49974 0.404942 0.0698137 -1.00929 Si
45 1 6.84348 4.0673 9.48956 -0.719355 -0.999993 0.264486 0.230984 0.135713 0.347523 Si
20 1 0.0407409 5.43727 -0.0316479 9.12039 2.38069 1.27491 -0.080259 -0.278429 0.294236 Si
59 1 9.57966 6.74047 9.46279 0.0798873 0.0674389 -0.350419 -0.140416 1.24968 0.441155 Si
64 1 8.18627 5.48341 8.12324 1.74606 0.187506 1.10396 -0.294792 -0.706674 0.489016 Si
22 1 2.70081 8.16524 0.0659481 0.105989 0.474563 2.25732 -0.228399 0.25995 -0.110908 Si
16 1 2.76327 -0.00244514 8.15326 -1.33787 0.00695544 3.22331 -0.187709 -0.437671 -0.177625 Si
26 1 -0.00518629 8.1954 8.10262 -0.0602806 -2.01901 4.54801 -0.243998 -0.386494 -0.409769 Si
29 1 1.41578 9.47782 9.438 1.37157 4.12486 1.70332 -0.439342 0.334973 1.11609 Si
58 1 5.38662 8.13833 8.23373 4.07483 1.2531 2.45731 -0.089822 0.400428 0.141031 Si
61 1 6.78585 9.53179 9.62214 4.30161 5.01645 -7.6657 -0.0442988 -0.142926 -1.35215 Si
48 1 8.12685 0.0342876 8.19317 -0.254215 -2.94981 -1.05451 -0.431397 -0.237324 0.671524 Si
ITEM: TIMESTEP
13600
ITEM: NUMBER OF ATOMS
64
ITEM: BOX BOUNDS pp pp pp
0.0000000000000000e+00 1.0887404739999999e+01
0.0000000000000000e+00 1.0887404739999999e+01
0.0000000000000000e+00 1.0887404739999999e+01
ITEM: ATOMS id type xu yu zu vx vy vz fx fy fz element
2 1 -0.0626387 2.6999 2.7747 3.61971 -0.753844 -3.46253 0.630219 0.618062 -0.914883 Si
7 1 1.4476 1.49847 1.34906 -1.78792 -1.41567 -1.03592 -0.755106 -0.6687 0.830035 Si
34 1 5.34564 2.65823 2.60932 -1.46204 -3.97157 0.965848 -0.293494 0.383122 0.125216 Si
36 1 5.52667 0.0870694 -0.0281935 -2.58905 -2.30998 -2.60439 -1.31333 -1.02945 -0.256869 Si
39 1 6.81686 1.3392 1.37894 -4.51438 -0.41028 -0.0258521 0.35495 -0.0642947 0.500833 Si
38 1 8.07047 2.71884 0.00994013 -0.579333 -3.68854 -0.117108 0.795677 0.825178 0.0606673 Si
40 1 8.17932 -0.0473299 2.78884 1.30259 1.9436 6.48016 -0.232561 -0.389511 -1.27598 Si
23 1 1.42609 6.76681 1.41299 -2.00359 5.46551 0.385442 -0.616181 -0.117907 -0.739265 Si
24 1 2.71642 5.42439 2.81717 0.323133 3.13529 -0.388456 0.521849 0.00254361 0.0261058 Si
1 1 4.02478 4.14886 1.26339 -0.894792 1.11919 -2.41533 0.297834 -0.274232 2.10798 Si
55 1 6.78487 6.80207 1.46563 -5.1902 1.95692 1.57873 0.292789 0.661978 -1.09445 Si
33 1 9.48253 4.12117 1.37094 1.64728 -1.93924 1.33017 -0.372594 -1.19529 0.186493 Si
56 1 8.12259 5.4183 2.743 -1.12638 2.91371 2.30892 -0.13572 -0.376139 0.360111 Si
4 1 0.0458927 0.0920484 0.104678 -0.169727 3.59853 0.934074 -0.783323 -0.436236 -0.331871 Si
8 1 2.75692 -0.00418684 2.62928 2.66602 1.07622 -1.97339 -0.720415 -0.530789 0.32723 Si
18 1 0.0780864 8.17754 2.64798 -2.39966 -2.67384 -0.136288 -0.283173 -1.36682 1.25063 Si
17 1 4.16916 9.51846 1.34882 2.40822 -1.37517 0.720182 -0.530309 0.552125 -0.793005 Si
50 1 5.38654 8.16772 2.76995 -1.33896 -1.9704 0.940875 0.869221 -0.0764905 -0.0343035 Si
49 1 9.589 9.45377 1.39564 2.40547 -1.15523 -1.1014 -0.766241 1.56602 -0.626009 Si
54 1 8.19692 8.16764 -0.0216145 -0.319583 1.54003 0.0423189 -0.585687 -0.543139 0.694246 Si
14 1 2.74016 2.63757 5.46465 4.54797 0.623767 0.520526 0.527079 0.365159 -0.463525 Si
15 1 1.32928 1.3448 6.76722 -4.91433 2.1569 -0.786519 0.131142 -0.178422 0.519935 Si
3 1 4.07936 1.25011 4.01424 -0.0923583 1.16827 2.34303 0.136843 0.928235 0.751773 Si
47 1 6.88581 1.38977 6.70364 2.62824 0.756099 -0.338058 -0.901336 0.0960931 0.453279 Si
35 1 9.48671 1.33327 4.06738 3.75111 2.84659 0.943254 0.113815 0.373578 0.365545 Si
46 1 8.17291 2.79122 5.3459 -0.60467 -0.473545 -0.873953 -0.286106 -0.0149157 0.178426 Si
5 1 1.33832 4.01378 4.15518 -0.0143128 3.24402 -1.3961 0.307212 0.0984437 -0.303508 Si
28 1 0.0297864 5.43024 5.47112 -2.87727 -0.771226 -0.492939 0.228166 -0.191784 0.516741 Si
31 1 1.38544 6.75461 6.9033 2.04423 -2.00028 1.39053 -0.179736 0.611958 -0.945167 Si
9 1 4.12542 4.0693 6.80753 -0.843423 -2.69307 -1.42119 -0.866027 -0.370123 0.821856 Si
19 1 4.09254 6.87981 4.18086 -1.59907 -0.734392 -2.82886 -1.15772 -0.643104 -0.558069 Si
37 1 6.6241 4.0286 4.00066 -1.49873 -1.43545 2.43303 1.05903 0.613805 0.490459 Si
60 1 5.39584 5.46743 5.45576 2.39661 -0.862574 1.75381 0.765967 -0.273014 -0.182405 Si
63 1 6.88515 6.80422 6.7137 -2.2623 3.35507 -0.00713991 -0.399999 0.0876585 -0.148042 Si
41 1 9.50457 4.11596 6.80737 1.61064 1.0232 -2.91336 -0.060257 -0.482959 -0.330213 Si
51 1 9.63323 6.69 4.01915 6.53349 1.82559 -2.5464 -0.124685 1.03614 -0.402668 Si
21 1 1.34471 9.51165 4.04114 -2.95574 1.82014 2.75016 0.478427 0.963791 0.000149087 Si
30 1 2.6684 8.21628 5.48542 -1.81007 -4.52136 -1.06102 0.472151 -0.223834 0.6842 Si
44 1 5.49471 -0.01816 5.41969 -2.83629 4.91525 -2.91576 -0.227764 -0.0499454 0.0638497 Si
25 1 4.12209 9.56837 6.8559 3.89942 -3.81677 2.51513 -0.654239 0.232064 -1.47219 Si
53 1 6.82154 9.45467 4.09314 -0.928884 -1.47793 3.20092 0.102805 0.226122 0.00931592 Si
12 1 -0.0211076 0.0284726 5.39644 -5.27243 -1.26386 -2.14025 -0.103511 -1.09219 0.482217 Si
57 1 9.5474 9.45255 6.82484 2.25883 4.9375 -2.32977 -0.0547073 0.952227 -0.270284 Si
62 1 8.29567 8.10063 5.32586 5.63926 -0.423281 -6.52644 -0.336385 -0.00358962 0.731773 Si
6 1 2.74306 2.81908 -0.0130949 1.3522 -0.390069 -4.79055 -0.776582 -0.149008 -0.978873 Si
11 1 4.04578 1.43746 9.51933 -1.89857 2.20265 -1.05551 0.441823 -0.913416 0.111739 Si
42 1 5.50029 2.66634 8.1868 6.19691 -0.485856 2.2573 -0.220298 0.665979 -1.02289 Si
10 1 -0.0253562 2.70475 8.1332 0.518067 -1.37659 -0.185608 -0.256584 0.208521 0.875783 Si
43 1 9.46375 1.3568 9.59536 -1.92925 1.48009 2.31437 0.431733 0.0331171 -0.787489 Si
13 1 1.29338 4.14043 9.56548 1.47277 -1.88177 3.21256 -0.296849 -0.980547 -0.0683034 Si
32 1 2.68758 5.41604 8.25757 2.30639 -8.25226 1.10546 1.45537 0.162044 -0.732653 Si
52 1 5.44129 5.45665 0.0767882 3.52991 -1.53768 2.18941 0.164679 1.15251 -1.60088 Si
27 1 4.13793 6.89965 9.46059 0.543808 3.67783 3.96709 -0.0577876 -0.45648 0.704183 Si
45 1 6.76135 4.12641 9.5055 0.167524 -0.664092 -1.06003 -0.284135 -0.663549 0.87424 Si
20 1 -0.0747929 5.46148 0.0473756 -3.3065 1.87713 -1.27572 0.936555 0.289279 0.112017 Si
59 1 9.50462 6.75375 9.5141 -0.226649 -1.69359 -0.684543 -0.300993 0.287807 -0.226511 Si
64 1 8.08053 5.40553 8.14132 1.24808 -0.185313 0.485513 1.08785 0.760098 0.0193162 Si
22 1 2.69044 8.18212 0.0343701 -1.07261 -0.99324 2.37541 1.08766 -0.0841813 -0.322644 Si
16 1 2.71189 0.00675715 8.15141 2.19826 0.175068 -1.49995 -0.391624 0.222649 0.840568 Si
26 1 0.0440803 8.13914 8.22866 -1.19531 3.27337 -0.0307525 -0.496873 0.082694 0.0868662 Si
29 1 1.31969 9.56805 9.61972 -2.59795 -4.87765 -2.63934 0.529745 0.151169 -0.696627 Si
58 1 5.54606 8.24547 8.0188 -1.26216 3.96738 -2.81533 -0.214431 -1.21952 1.2828 Si
61 1 6.80321 9.51572 9.51058 -5.67703 -4.46325 5.19978 0.245769 0.414679 0.0795817 Si
48 1 8.08679 0.0215811 8.14291 2.83538 0.863972 1.23174 1.57039 -0.565273 0.0534247 Si
ITEM: TIMESTEP
13700
ITEM: NUMBER OF ATOMS
64
ITEM: BOX BOUNDS pp pp pp
0.0000000000000000e+00 1.0887404739999999e+01
0.0000000000000000e+00 1.0887404739999999e+01
0.0000000000000000e+00 1.0887404739999999e+01
ITEM: ATOMS id type xu yu zu vx vy vz fx fy fz element
2 1 -0.01032 2.66176 2.66038 -2.84118 -1.10362 3.13376 0.236392 0.850603 0.371831 Si
7 1 1.34911 1.34441 1.3281 3.23224 1.86738 0.110437 -0.209398 -1.1389 0.388948 Si
34 1 5.44581 2.77827 2.83757 1.92581 -0.389539 4.54423 1.26243 -0.498331 -0.424293 Si
36 1 5.36692 -0.0596013 0.0926776 2.33365 3.93005 2.8804 1.53404 0.32301 -0.427271 Si
39 1 6.77807 1.46146 1.3304 3.79847 0.0874079 -2.20184 -0.377254 -0.302154 0.233605 Si
38 1 8.21294 2.76708 -0.0329156 3.79498 -0.615288 -2.67686 0.20897 -1.45601 0.375638 Si
40 1 8.13738 0.0975872 2.65909 0.624765 -3.35154 2.55182 -0.179842 -0.21886 1.00682 Si
23 1 1.2502 6.80936 1.3399 5.12584 -3.68743 6.27245 1.16519 0.563127 0.147789 Si
24 1 2.78213 5.4907 2.58223 -4.48237 -2.94354 0.978304 -0.60691 -0.67634 0.661929 Si
1 1 4.11462 3.94439 1.36607 -2.05139 2.32983 -0.52638 -0.285496 1.35936 -0.84638 Si
55 1 6.82608 6.82302 1.35577 3.89926 -3.05368 -0.117541 -0.154906 -1.03653 0.617607 Si
33 1 9.58249 4.06683 1.27681 -0.399963 4.18091 -1.10462 0.173511 1.18202 0.8785 Si
56 1 8.28608 5.51686 2.79284 1.34158 -0.302402 -1.68185 -0.777457 -0.82678 -1.14024 Si
4 1 0.019841 -0.062561 -0.0636009 3.9256 4.20787 0.847235 -0.0365994 0.391281 0.61058 Si
8 1 2.70043 0.0430114 2.80566 3.51608 -0.478693 -1.979 0.20464 -0.473716 -0.469147 Si
18 1 -0.0992714 8.1358 2.77915 1.52324 4.23057 -1.54289 0.462501 1.09151 -0.939441 Si
17 1 4.02413 9.47357 1.35859 0.578685 1.06897 -1.3985 -0.569985 0.456948 1.02853 Si
50 1 5.46799 8.20093 2.69915 -1.15127 2.03934 -5.58058 -0.295794 -0.38875 -0.397868 Si
49 1 9.4814 9.58197 1.37895 -1.87005 -6.076 0.759856 0.132244 -0.946553 -0.57223 Si
54 1 8.11306 8.1326 -0.00102163 0.50265 -1.74235 -1.81323 0.693723 1.32657 -0.20127 Si
14 1 2.78043 2.83187 5.41462 0.468138 2.35067 -3.29284 -0.658075 -0.184084 0.449578 Si
15 1 1.40321 1.40352 6.74946 2.64898 -0.78303 -2.32936 -0.157759 0.638476 0.99108 Si
3 1 4.13293 1.42464 4.17417 -0.262918 -3.60579 -2.99972 -0.738824 -0.778391 -0.519585 Si
47 1 6.74295 1.36557 6.79083 -0.705087 2.42149 -1.28096 0.645571 -0.299271 0.754672 Si
35 1 9.56059 1.36199 4.10011 -1.59222 -1.43131 1.97974 -0.42439 -0.0894089 -0.629407 Si
46 1 8.26123 2.68342 5.50117 1.29415 3.76003 1.63124 -0.619039 -0.0652293 0.250856 Si
5 1 1.36107 4.11537 3.99109 -1.54692 0.588893 -1.45426 -0.109507 0.553484 0.0222997 Si
28 1 -0.0776158 5.55035 5.36244 -3.96537 1.52042 -6.08775 0.510446 -1.87796 0.188919 Si
31 1 1.28868 6.80764 6.68015 -1.01426 -0.552257 -1.65941 1.28257 -0.0355208 0.786821 Si
9 1 4.13245 4.11598 6.85605 5.03268 0.00729507 -0.76941 -0.770833 0.395704 -0.871599 Si
19 1 4.15239 6.78936 4.00517 2.14878 0.589212 1.40814 -0.406317 0.105585 0.135952 Si
37 1 6.96265 4.05946 4.161 -1.3108 -1.54246 -3.19968 -0.848655 0.821531 -0.507207 Si
60 1 5.45221 5.44928 5.41359 -2.41461 -2.30801 0.965095 0.783069 -0.366206 0.58457 Si
63 1 6.73392 6.7626 6.94135 6.29517 0.431662 -1.28909 0.388586 0.0741298 -0.969956 Si
41 1 9.54078 4.11366 6.82705 0.840606 -0.105763 5.35784 0.461637 0.425483 0.14589 Si
51 1 9.46215 6.94421 4.17993 -5.27629 -0.723456 2.73428 -0.835497 -0.197796 0.0354239 Si
21 1 1.29008 9.48738 4.11242 0.737287 -2.5481 -1.55644 0.928727 0.27832 0.0892918 Si
30 1 2.80724 8.12291 5.41861 -1.34821 4.31645 -5.93973 -1.32331 -0.153762 -0.829248 Si
44 1 5.37492 -0.0476698 5.49845 0.903825 1.32481 -0.655431 0.672719 0.827271 -0.595329 Si
25 1 4.08711 9.45017 6.76793 -1.19341 2.63402 -0.176361 -0.0546794 0.058338 1.51999 Si
53 1 6.71663 9.60471 4.03873 -2.21872 -0.0890473 1.88033 1.07423 -0.0635612 0.564798 Si
12 1 -0.00451013 0.043545 5.4613 -0.872859 -2.76258 1.44739 0.490789 -0.41928 -0.230005 Si
57 1 9.58077 9.54298 6.78967 -6.39692 -5.44933 1.69264 -1.04186 -0.2372 0.237485 Si
62 1 8.01715 8.22728 5.5635 2.56247 3.31655 1.52072 0.337067 0.226361 -0.645885 Si
6 1 2.69202 2.61 -0.00383544 -1.39366 -1.92001 5.24636 1.17955 0.406413 0.0380243 Si
11 1 4.12654 1.25454 9.58757 2.41937 0.754589 0.108799 -0.969516 0.816263 -0.752053 Si
42 1 5.36917 2.72894 8.20122 -6.44779 -0.566717 -0.0835319 1.37572 -0.630775 0.529515 Si
10 1 0.0073543 2.7812 8.26263 -0.461766 -1.36479 0.284662 0.240264 -1.05298 -1.88387 Si
43 1 9.56379 1.33822 9.51236 1.79542 0.461726 -0.295614 -0.667451 -0.0993321 0.128097 Si
13 1 1.41471 4.00849 9.55251 -1.58264 3.55866 -2.12963 0.431171 1.01411 -0.373346 Si
32 1 2.6615 5.4469 8.11103 0.609947 2.32433 4.03578 0.194333 -0.0435256 0.289633 Si
52 1 5.49869 5.38539 -0.0320582 -2.97717 2.97976 -0.339804 -0.33431 -0.205212 0.991547 Si
27 1 4.10643 6.7298 9.51636 -2.4202 -1.1623 -0.228845 -1.34794 -0.0442628 0.704158 Si
45 1 6.87733 4.02238 9.56081 -2.00584 0.00434229 -2.84717 -0.940596 0.724189 -1.20507 Si
20 1 0.095543 5.45183 -0.0942748 2.78602 -2.77562 0.889379 -1.44331 -0.278911 0.35065 Si
59 1 9.54098 6.86727 9.51583 0.173467 -0.534757 -0.156063 0.138621 -0.771164 0.36683 Si
64 1 8.1982 5.46265 8.2348 -4.64749 -4.51254 -1.8505 -0.250462 -0.446905 -0.328192 Si
22 1 2.67568 8.16591 -0.0360049 1.61124 -1.26125 2.99262 0.191053 -0.818791 -0.00969279 Si
16 1 2.75593 -0.00566595 8.13682 2.99493 -0.589628 0.0433619 0.148029 0.0263104 -0.544579 Si
26 1 -0.0114476 8.10718 8.09123 -2.51398 2.12528 -6.74876 0.550939 1.11553 0.359661 Si
29 1 1.39706 9.52887 9.44316 0.193122 1.7877 5.7027 -0.650434 -0.700093 -0.120275 Si
58 1 5.39743 8.10172 8.25819 -2.54605 -3.37864 3.87025 -0.146572 0.756073 -1.12244 Si
61 1 6.72874 9.50867 9.51396 1.96774 2.31167 3.34877 0.41596 0.0684274 0.955716 Si
48 1 8.16321 -0.0646064 8.17044 -3.69479 0.199587 -1.22492 -0.281714 0.946113 -0.237362 Si
ITEM: TIMESTEP
13800
ITEM: NUMBER OF ATOMS
64
ITEM: BOX BOUNDS pp pp pp
0.0000000000000000e+00 1.0887404739999999e+01
0.0000000000000000e+00 1.0887404739999999e+01
0.0000000000000000e+00 1.0887404739999999e+01
ITEM: ATOMS id type xu yu zu vx vy vz fx fy fz element
2 1 0.0103518 2.75377 2.75642 4.3311 5.42659 -4.22169 -0.153251 -0.653618 0.313233 Si
7 1 1.34233 1.37974 1.35975 2.62885 -1.23655 6.51092 0.213976 0.762475 -0.217684 Si
34 1 5.48163 2.66812 2.64435 -5.84562 2.65224 -3.88816 -0.736436 0.796047 0.621357 Si
36 1 5.48971 -0.011553 -0.0863884 -6.81605 -1.9465 -0.0935484 -0.672938 0.633372 0.422205 Si
39 1 6.81648 1.28705 1.34017 -3.49744 -1.07154 0.775008 0.19095 0.24476 -0.299108 Si
38 1 8.13608 2.72248 0.0239529 -4.58927 5.25915 1.76688 -0.0521089 0.198946 -0.24051 Si
40 1 8.17979 -0.0244995 2.72153 -5.53524 -0.671851 -10.3872 0.366251 -0.599073 -0.417185 Si
23 1 1.42387 6.77461 1.28792 -1.79489 -1.42195 -5.71504 -0.30868 -0.327966 0.984648 Si
24 1 2.66627 5.4431 2.83956 0.616766 1.7772 -2.72072 0.0750555 -0.095995 -1.01791 Si
1 1 4.03399 4.12691 1.38891 2.14512 -0.502464 -0.918072 0.510342 -0.045106 -0.223348 Si
55 1 6.79044 6.81565 1.32317 1.25123 -0.773022 1.36412 -0.264675 0.0800805 -0.162572 Si
33 1 9.5075 4.04659 1.4063 0.0885855 -2.12037 2.57753 -0.195219 -0.0336452 -0.299667 Si
56 1 8.09429 5.40339 2.66098 1.84984 0.227639 4.4418 0.615349 0.62292 0.320107 Si
4 1 -0.0488928 0.0589216 0.0382277 -4.61008 -4.26727 0.535334 0.980861 -0.483301 -0.755403 Si
8 1 2.71023 0.0179003 2.67003 -5.66757 -2.50859 4.39344 0.174357 0.108643 0.371594 Si
18 1 0.0752461 8.07192 2.74334 3.51671 -3.48605 1.6574 -0.0174854 0.956085 -0.656648 Si
17 1 4.12763 9.60364 1.37926 -6.69739 2.844 -2.23068 0.240314 -0.964432 -0.654533 Si
50 1 5.45448 8.15909 2.73422 2.79092 4.21731 3.98555 -0.0963796 0.262338 0.316365 Si
49 1 9.59402 9.50175 1.32731 1.78769 7.03782 0.652916 -0.449312 -0.272753 1.24519 Si
54 1 8.1747 8.1955 -0.00583393 -3.00243 -1.82026 3.33523 0.183476 -0.604102 -0.14314 Si
14 1 2.72511 2.57031 5.48401 -2.79869 1.39192 1.64268 -0.554339 0.271402 -0.0616374 Si
15 1 1.31735 1.27898 6.94299 -2.72738 2.91914 2.60991 0.011495 -0.179988 -1.52343 Si
3 1 4.11686 1.30076 4.03354 -3.0658 -3.59753 -0.563348 -0.266697 0.60818 -0.148695 Si
47 1 6.72476 1.33643 6.82414 -0.153799 -2.25515 1.69597 0.846057 0.0733734 -0.166158 Si
35 1 9.49198 1.33609 4.07439 1.62206 -0.378164 -3.69413 0.440748 0.209145 0.168071 Si
46 1 8.05534 2.68104 5.38709 -3.5809 1.36564 2.63455 0.452636 0.457705 0.412614 Si
5 1 1.36258 4.04169 4.19379 2.95307 -3.47762 -1.2084 0.115043 -0.376252 -0.090452 Si
28 1 0.0369701 5.38825 5.56599 3.25722 -3.79067 3.09421 -0.0842549 1.3648 -0.906261 Si
31 1 1.40113 6.88499 6.91077 -0.33768 -3.64514 1.70117 -1.2811 -0.568908 -0.257682 Si
9 1 3.94948 4.07862 6.79034 -1.00059 0.536202 9.90165 1.68953 -0.242415 -0.183601 Si
19 1 3.97716 6.86244 4.11951 -3.21455 -1.65489 0.330189 1.10552 -0.00676097 0.612089 Si
37 1 6.74899 4.14557 4.05094 5.61922 2.40195 0.00518243 -0.152392 -1.35362 -0.186225 Si
60 1 5.41517 5.4265 5.45128 0.53539 1.82477 -1.46162 -1.11423 0.460049 -0.285585 Si
63 1 6.82426 6.78699 6.72256 2.01817 -1.12705 -4.1889 -0.0820333 0.443596 0.905597 Si
41 1 9.47318 4.07084 6.76271 -1.16455 -0.978295 -1.11865 -0.225436 -0.798599 0.265811 Si
51 1 9.54243 6.71577 4.02315 -3.00076 0.712727 2.4445 0.524171 -0.61475 0.641932 Si
21 1 1.41976 9.55742 4.07905 3.87077 5.20339 -5.45582 -0.633713 -0.75233 0.0371235 Si
30 1 2.6908 8.24412 5.57603 -0.741474 2.2782 4.96442 0.414531 -0.00312048 -1.14742 Si
44 1 5.44319 -0.0192182 5.38878 4.24976 -5.34715 2.62427 0.536353 -0.334755 0.337413 Si
25 1 4.08214 9.62215 6.82092 0.629895 1.32957 -3.96494 0.00664292 -0.0960215 -0.171641 Si
53 1 6.91445 9.46668 4.12587 6.68357 -3.37921 2.34707 -1.01269 0.241523 -0.57546 Si
12 1 -0.0419132 -0.0898856 5.43212 4.71078 -3.10397 1.84255 0.806564 1.31036 0.0722523 Si
57 1 9.55449 9.45756 6.75675 -0.223942 -0.190829 -2.97344 -0.0970787 0.172362 0.749521 Si
62 1 8.27116 8.09257 5.41011 -4.33244 -1.54548 2.83593 -0.543115 -0.260365 -0.00439807 Si
6 1 2.69522 2.8039 -0.0444859 -0.479484 -0.927959 -4.43542 -0.0295615 -0.651766 1.26065 Si
11 1 4.04469 1.45243 9.53869 4.55681 -2.31717 0.786221 1.19073 -0.380229 -0.161841 Si
42 1 5.46062 2.81601 8.15706 1.43268 -3.00545 -1.44435 -1.14323 -0.733425 -0.292479 Si
10 1 -0.0140681 2.75853 8.14742 -3.87978 5.40599 2.37775 -0.0911092 0.120995 0.510752 Si
43 1 9.5389 1.42752 9.55999 -1.28689 -4.30546 -5.87632 -0.117565 -0.139643 -0.424302 Si
13 1 1.38647 4.11221 9.50797 0.139905 -2.64856 -2.44961 -0.982392 0.39627 -0.257875 Si
32 1 2.73637 5.47055 8.15183 -0.661506 1.94493 -0.993888 -0.628318 0.0334601 0.426383 Si
52 1 5.396 5.49429 -0.0710621 1.6539 2.15858 -2.7543 0.0850617 -0.315187 0.369399 Si
27 1 4.03795 6.86323 9.45174 1.85866 -1.98568 -1.053 1.54657 -0.0337387 -0.327809 Si
45 1 6.82015 4.11694 9.48145 -0.857089 -0.713015 2.58855 0.0252342 0.213414 0.845565 Si
20 1 -0.0367757 5.38735 0.0497232 0.144746 3.26873 1.63562 0.633712 0.191276 -0.544022 Si
59 1 9.51961 6.74067 9.55493 -3.3706 1.86098 1.80567 0.0950917 0.856394 0.102001 Si
64 1 8.19279 5.44923 8.14357 2.43828 3.97618 -0.196111 -0.493027 0.103233 -0.333942 Si
22 1 2.82116 8.14279 -0.00142016 -0.408896 -0.739012 -2.31781 -1.07239 1.24547 0.166014 Si
16 1 2.75185 -0.0100065 8.26015 -1.99707 5.57853 2.50784 -0.410565 0.265271 -0.183697 Si
26 1 -0.0283302 8.22437 8.25262 0.278562 -2.75927 4.86929 -0.0710567 -1.20938 -0.565367 Si
29 1 1.34035 9.51925 9.54302 5.75107 1.36816 0.67412 0.540168 0.537553 1.40187 Si
58 1 5.45563 8.26587 8.07908 5.3006 -2.68106 -1.16948 0.50763 -1.11264 0.544321 Si
61 1 6.87883 9.55726 9.48704 3.60496 4.58703 -7.44067 0.0278895 -0.0770095 -0.646453 Si
48 1 8.29292 0.0241429 8.11801 3.02295 -1.17438 -4.98013 -1.11955 0.0793969 0.110055 Si
ITEM: TIMESTEP
13900
ITEM: NUMBER OF ATOMS
64
ITEM: BOX BOUNDS pp pp pp
0.0000000000000000e+00 1.0887404739999999e+01
0.0000000000000000e+00 1.0887404739999999e+01
0.0000000000000000e+00 1.0887404739999999e+01
ITEM: ATOMS id type xu yu zu vx vy vz fx fy fz element
2 1 0.0387457 2.74788 2.62828 -0.345453 -0.606735 -0.724929 -0.566545 -0.0918887 0.0609345 Si
7 1 1.38195 1.2969 1.38668 -1.22988 -2.52206 -3.706 0.268439 0.529651 -0.595532 Si
34 1 5.51297 2.68843 2.77163 5.59252 -1.24986 0.15054 -1.65801 0.192893 -0.886047 Si
36 1 5.41474 0.116578 0.0549784 0.899157 1.22572 -1.4237 -0.559677 -1.67796 -0.39697 Si
39 1 6.80095 1.36248 1.38705 0.225514 -0.709547 -0.050417 0.178128 -0.257136 0.701589 Si
38 1 8.17897 2.65256 0.0948769 3.88753 -3.21133 0.067524 -0.214995 1.23735 -1.01705 Si
40 1 8.08935 -0.0202693 2.78753 -0.628674 -1.28586 9.91108 0.77043 1.28786 -0.409689 Si
23 1 1.35575 6.88423 1.36636 -2.44049 4.16864 -2.17022 -1.09479 -0.427858 -0.094573 Si
24 1 2.67096 5.42069 2.66608 -0.492158 -2.54845 1.41328 1.00996 0.955849 0.324837 Si
1 1 4.11586 4.10305 1.37826 -0.528619 -2.16509 0.631819 -0.200891 -1.38529 0.339637 Si
55 1 6.86577 6.73359 1.39203 -2.77277 -2.31302 -4.58332 -0.337691 1.40097 -0.263685 Si
33 1 9.46821 4.12109 1.39795 4.84892 1.4549 -2.626 1.02306 -0.940808 -1.03292 Si
56 1 8.14253 5.38619 2.69562 1.06434 -0.353846 -3.13982 0.125818 0.658442 1.17304 Si
4 1 0.0840272 -0.0156577 -0.0331772 2.30432 2.89408 1.83972 -1.85427 0.0586401 0.430478 Si
8 1 2.72989 -0.0176308 2.74065 -1.66984 0.35192 -4.10825 -0.634685 -0.125256 0.31897 Si
18 1 -0.0315488 8.33668 2.6852 -4.33784 0.938187 3.93827 -0.172357 -1.92016 1.09987 Si
17 1 4.02644 9.54518 1.39555 1.26825 1.1495 4.86163 1.18521 -0.303583 -0.349241 Si
50 1 5.47291 8.13749 2.75808 0.721542 0.463072 -0.574802 -0.346238 0.140066 -0.362995 Si
49 1 9.41735 9.58355 1.37668 1.89636 -5.2639 -1.66259 1.35719 0.706648 -0.587083 Si
54 1 8.23875 8.15327 0.0259677 2.8997 3.14746 -1.51695 -1.26424 -0.384445 -0.306785 Si
14 1 2.70995 2.83779 5.39244 0.212532 -3.26769 -0.635674 0.21582 -0.125165 -0.136945 Si
15 1 1.39711 1.41273 6.71549 1.63158 -0.0738722 2.75743 0.424899 -0.116731 0.671445 Si
3 1 3.99955 1.38376 4.04083 4.53472 1.93721 -0.776982 1.12469 0.33439 0.841372 Si
47 1 6.90614 1.31667 6.82216 -4.37454 -0.446375 4.68661 -1.089 0.790077 -0.638369 Si
35 1 9.58234 1.44343 4.01013 -0.279721 2.02215 1.63415 -0.561684 -0.794902 0.893899 Si
46 1 8.20464 2.79631 5.45751 -1.09732 -6.25794 4.59638 0.193252 -0.761536 -0.387062 Si
5 1 1.30469 4.12036 3.96733 -6.0126 4.18858 2.63941 0.432346 -0.0959678 0.995366 Si
28 1 0.0489623 5.49022 5.40654 -3.35353 2.00786 -0.211377 -0.473611 -0.56253 0.472537 Si
31 1 1.47884 6.70773 6.85095 2.31815 3.74741 -4.26854 -0.493043 0.555835 -0.994455 Si
9 1 4.16409 4.11103 6.81241 -1.87251 -1.20116 -6.51514 -0.460604 -0.772673 0.378821 Si
19 1 4.13755 6.71501 4.1211 0.648927 1.61431 -2.80197 -0.231737 -0.148414 -0.999432 Si
37 1 6.79413 4.06661 4.02827 -1.9458 1.9251 1.6695 0.725327 0.323013 1.41461 Si
60 1 5.55908 5.43684 5.50649 7.04054 2.2797 5.11298 -0.152086 0.40018 -0.444906 Si
63 1 6.85836 6.9381 6.81744 -1.75653 2.0886 3.21174 -0.29398 -1.21608 -0.0256581 Si
41 1 9.61125 4.07355 6.84326 5.87297 3.06023 -0.617339 -0.191916 0.559885 -0.651649 Si
51 1 9.44678 6.78581 4.0932 1.8458 5.75195 -0.823394 0.873246 1.21392 -0.698586 Si
21 1 1.4047 9.52247 4.14574 -0.0083727 -2.36178 0.476274 -0.718944 0.547529 -0.981478 Si
30 1 2.71388 8.07888 5.33754 -2.96313 -1.92543 -3.08493 0.535025 -0.249649 1.5705 Si
44 1 5.42078 0.0454324 5.44391 0.465677 6.05897 -2.47095 -0.573193 0.150953 0.478576 Si
25 1 4.05589 9.44194 6.74371 1.61167 -3.70938 3.0073 0.315417 0.0886501 -0.368278 Si
53 1 6.74516 9.6029 4.12525 -0.8737 1.74364 1.10806 -0.345171 -0.782725 -0.489941 Si
12 1 0.0577426 0.0481604 5.45474 -1.0658 -0.172877 -2.38748 -1.41768 -0.358895 -0.3282 Si
57 1 9.42412 9.57632 6.83258 -2.62359 -0.539754 -0.663945 1.44097 0.215039 -0.714047 Si
62 1 8.1248 8.28524 5.40066 -3.22188 1.17278 -0.849334 0.368365 -0.720133 0.296088 Si
6 1 2.74616 2.66659 0.0069819 2.47208 -0.920705 0.124727 -0.328764 0.806681 -0.786704 Si
11 1 4.08731 1.30188 9.40819 -2.24186 1.46576 -1.14536 -0.813844 0.0947847 1.06826 Si
42 1 5.46438 2.63302 8.16839 1.98456 0.639794 2.60075 0.641697 1.06912 -0.543289 Si
10 1 0.0420084 2.65464 8.15761 4.91535 -2.30723 -4.06577 -0.238646 0.640667 0.314332 Si
43 1 9.49758 1.36732 9.54027 2.10559 4.78307 0.45181 0.740447 -0.578869 0.17117 Si
13 1 1.29103 4.17103 9.50021 0.114073 -0.800499 3.68689 0.490463 -2.49573 1.1786 Si
32 1 2.75371 5.35255 8.26684 0.711449 -1.0799 0.403322 0.57864 0.61502 -1.16834 Si
52 1 5.48992 5.41079 0.0901017 -5.02161 -3.80763 -0.0775494 -0.358173 0.347761 -0.953581 Si
27 1 4.02397 6.72025 9.62081 -3.25157 0.501982 3.69032 0.464917 0.682909 0.337019 Si
45 1 6.7933 4.06745 9.56313 -0.494282 -0.638387 -3.50353 0.563314 -0.587637 -0.118464 Si
20 1 -0.0531225 5.44609 -0.00342507 -1.14021 -2.55354 -2.10121 0.273545 0.904368 0.570573 Si
59 1 9.57055 6.83511 9.48122 6.02618 -5.05285 -1.66652 -0.47707 -0.372358 -0.181816 Si
64 1 8.16439 5.44069 8.12803 1.18633 0.31657 -1.03389 0.195399 0.227425 0.671981 Si
22 1 2.64636 8.23275 0.00395666 2.52316 -1.06113 0.987234 1.03127 -0.751265 -0.117089 Si
16 1 2.71484 -0.0579303 8.03449 0.21873 -1.49647 2.72849 -0.384259 0.188547 0.705179 Si
26 1 0.00264927 8.11996 8.01359 -1.05873 1.77704 -1.06984 0.074095 0.521247 1.09969 Si
29 1 1.32948 9.49192 9.4819 -4.19341 -5.2373 -5.7593 0.129711 0.162 -1.2428 Si
58 1 5.34633 8.07593 8.18394 -3.12422 -0.599559 -0.615033 0.378864 0.813035 0.62876 Si
61 1 6.71129 9.48081 9.63234 -5.14398 -0.619017 3.06146 0.155769 0.0775673 -0.548179 Si
48 1 8.10008 -0.0170976 8.24281 -2.48358 3.48396 1.98331 0.222052 -0.493331 0.613702 Si
ITEM: TIMESTEP
14000
ITEM: NUMBER OF ATOMS
64
ITEM: BOX BOUNDS pp pp pp
0.0000000000000000e+00 1.0887404739999999e+01
0.0000000000000000e+00 1.0887404739999999e+01
0.0000000000000000e+00 1.0887404739999999e+01
ITEM: ATOMS id type xu yu zu vx vy vz fx fy fz element
2 1 -0.0758998 2.7391 2.78066 -1.88593 -3.32636 1.27944 0.342931 -0.456082 0.426077 Si
7 1 1.2802 1.40425 1.45197 3.75908 6.74404 -4.84114 0.442533 -0.701108 -0.805447 Si
34 1 5.42762 2.72952 2.71496 -4.08043 -3.19769 -0.226479 1.15807 -0.573702 0.68771 Si
36 1 5.5383 -0.048358 0.0463319 0.754802 0.723321 -0.86497 0.406476 0.97982 -0.696654 Si
39 1 6.85358 1.44614 1.39302 0.303386 -0.657392 0.683114 -0.138788 -0.269667 -1.06691 Si
38 1 8.24427 2.80232 -0.0151121 -1.39341 0.469734 1.29852 -0.537943 -1.39238 -0.00433993 Si
40 1 8.17604 0.0207127 2.62361 3.27287 -1.07848 0.588272 -0.323125 -0.76573 1.26404 Si
23 1 1.33421 6.67957 1.37756 -0.439369 0.425688 2.72766 1.6047 0.796584 -0.0757138 Si
24 1 2.82019 5.40514 2.78914 -0.620047 -1.10899 -1.94933 -0.723816 -0.214353 -0.337364 Si
1 1 4.2103 4.04449 1.38199 -3.40146 -0.964823 -5.55463 -1.84519 1.39045 -1.00892 Si
55 1 6.77367 6.84316 1.37949 -3.21836 4.86341 3.73986 0.215311 -0.991259 -0.116261 Si
33 1 9.57751 4.07203 1.33733 -3.10665 -0.301589 -0.472294 -0.500498 0.553673 0.847849 Si
56 1 8.20609 5.44407 2.72113 3.50953 -0.149738 1.7536 -0.650809 -0.0455039 -0.509758 Si
4 1 -0.0760429 -0.00274259 0.000726323 3.81195 0.957175 -1.09701 1.45879 0.465977 0.605334 Si
8 1 2.75248 0.00963312 2.74223 6.91041 0.473283 1.19743 0.165834 -0.0388237 -0.866972 Si
18 1 0.0383194 8.1089 2.72617 2.58539 -0.423074 -2.54983 -0.739813 0.226934 -0.3945 Si
17 1 4.1251 9.50541 1.25804 5.47416 -1.03305 -1.36298 -0.898434 -0.00727227 1.14108 Si
50 1 5.44467 8.20852 2.68999 -3.49558 -0.851006 2.83725 -0.448355 -0.282913 0.390543 Si
49 1 9.54848 9.53171 1.3594 -0.205866 1.07699 7.63391 -0.646689 -1.46027 -0.383947 Si
54 1 8.11918 8.07809 -0.0324382 2.5675 0.673562 -3.05735 0.803471 1.79265 0.862586 Si
14 1 2.71796 2.68419 5.45558 2.85351 -2.3349 -0.315457 0.714827 -0.484006 0.603246 Si
15 1 1.37039 1.35089 6.84721 -2.01701 -2.64855 -2.07705 -0.465558 -0.109411 -0.353787 Si
3 1 4.15014 1.36416 4.10336 -2.5995 -1.28116 -0.442427 -0.513298 -0.477466 0.122624 Si
47 1 6.71331 1.42822 6.74069 4.3457 1.40835 -6.90055 1.21362 -0.451594 0.54866 Si
35 1 9.46594 1.27502 4.09213 -1.55821 0.0531666 -2.1936 0.418082 0.760103 0.225437 Si
46 1 8.12293 2.75218 5.39161 1.69753 2.78358 -5.17048 0.338997 -0.338635 0.562024 Si
5 1 1.40215 3.98855 4.14094 0.504666 -1.64515 -0.12897 -0.40087 1.17118 -0.889189 Si
28 1 0.0131532 5.41021 5.42391 0.714211 5.36849 0.484859 -0.781856 -0.253554 0.0667274 Si
31 1 1.19899 6.92994 6.70242 -5.44987 -0.976369 3.96715 1.38574 -0.467489 0.635222 Si
9 1 4.06498 4.08027 6.80422 5.02263 -0.432446 -0.760634 -0.877047 0.737993 -0.577844 Si
19 1 4.06671 6.90207 4.13252 2.702 1.93578 4.53746 -0.237041 0.0442335 -0.874367 Si
37 1 6.77966 4.08914 4.04966 -5.79107 -6.16046 -1.80811 0.00331465 0.392474 -0.300212 Si
60 1 5.33867 5.42886 5.34325 -7.04943 -0.229975 -0.808896 0.81336 -0.344019 0.956026 Si
63 1 6.72251 6.71715 6.75408 3.10942 3.47398 -0.541645 0.104644 0.304196 0.526818 Si
41 1 9.50758 4.06655 6.84449 -6.96689 -0.0376785 -1.07842 -0.313369 0.49152 -0.316835 Si
51 1 9.50848 6.79834 4.09932 3.98382 -7.3065 1.61535 0.429396 -0.228082 -0.0270513 Si
21 1 1.34227 9.53096 4.01911 -4.70043 -4.33282 2.89452 0.455354 0.0394084 0.767623 Si
30 1 2.69136 8.24946 5.4818 0.240256 1.51947 -0.238588 -0.24637 0.0426006 -0.656121 Si
44 1 5.50924 -0.0520249 5.448 -2.0731 -1.84316 -0.594524 -0.723779 0.320935 -0.54894 Si
25 1 4.06874 9.58628 6.81296 1.75444 5.15747 -1.53616 0.396312 -0.42927 1.1658 Si
53 1 6.82969 9.48264 4.04917 -1.74919 -0.446005 -1.49955 0.527772 0.558255 -0.0320683 Si
12 1 0.00298995 -0.0572925 5.46239 0.943388 3.09785 -1.05727 0.035794 0.361368 -0.0803465 Si
57 1 9.57369 9.44405 6.83234 0.996608 -1.72525 -0.523072 -0.799727 0.379691 -0.0530171 Si
62 1 8.11686 8.08631 5.47981 7.80984 -4.5698 -7.92577 0.486927 0.593276 -0.219484 Si
6 1 2.67878 2.75068 0.0522345 0.138706 3.55235 3.3212 0.477356 -0.230041 0.242162 Si
11 1 4.10885 1.35428 9.64905 -4.31947 5.76218 1.40905 -0.187775 0.122245 -0.540794 Si
42 1 5.36159 2.71789 8.13372 -0.223518 -2.21375 -0.789031 0.570952 -0.0124131 1.25946 Si
10 1 -0.00066604 2.71812 8.1878 -2.58457 -0.15322 3.31695 -0.0395256 -0.321929 -0.821267 Si
43 1 9.57527 1.35632 9.50397 -1.2231 1.87498 5.17494 -1.12472 0.353283 0.0889763 Si
13 1 1.35774 4.03746 9.45646 -2.73065 2.51597 4.07781 0.92597 1.77562 0.238303 Si
32 1 2.69128 5.6367 8.01883 -1.07307 -1.73789 4.43116 -0.462396 -1.8345 0.770544 Si
52 1 5.40455 5.5453 -0.0649784 1.96711 -1.10568 1.22716 0.750225 -1.30257 1.12078 Si
27 1 4.13324 6.83639 9.4339 5.78806 2.78515 -4.30615 -0.850113 -0.424771 -0.0616405 Si
45 1 6.76112 4.0434 9.59125 0.536126 4.14994 -0.0787641 -0.165815 0.798755 -1.14473 Si
20 1 0.00976902 5.38843 0.00780465 -1.55095 -3.32409 1.01347 0.208557 -0.0868369 -0.78479 Si
59 1 9.54145 6.81254 9.60003 -2.17696 -1.18116 -0.598859 0.131861 -0.750897 -0.781649 Si
64 1 8.1102 5.48533 8.22227 -1.96815 -2.17112 -0.605976 0.361738 -0.840793 -0.223659 Si
22 1 2.78943 8.06549 -0.0804374 -0.599128 5.00506 1.33854 -1.14062 0.609998 1.3156 Si
16 1 2.69756 0.0518118 8.26134 3.43636 -1.67392 -2.08645 0.930597 -0.152836 -0.47877 Si
26 1 0.0416992 8.1735 8.26675 0.0988507 -4.63421 -1.73694 -0.511772 0.428417 0.0501337 Si
29 1 1.40728 9.58186 9.60808 -0.579551 4.18785 6.17792 -0.425747 -0.83798 -0.109875 Si
58 1 5.49966 8.13881 8.20617 0.713173 1.76653 -1.38302 -0.18618 1.20235 -1.72666 Si
61 1 6.89451 9.53992 9.46697 -2.17127 -4.90112 -0.311143 -0.387506 -0.0698998 0.519603 Si
48 1 8.1874 0.0553022 8.08898 0.696691 -0.646794 0.746949 0.0150277 -0.0459321 -0.141105 Si
ITEM: TIMESTEP
14100
ITEM: NUMBER OF ATOMS
64
ITEM: BOX BOUNDS pp pp pp
0.0000000000000000e+00 1.0887404739999999e+01
0.0000000000000000e+00 1.0887404739999999e+01
0.0000000000000000e+00 1.0887404739999999e+01
ITEM: ATOMS id type xu yu zu vx vy vz fx fy fz element
2 1 -0.0213463 2.75795 2.66771 -1.31397 -2.58253 -1.7858 0.912002 -0.568807 0.398871 Si
7 1 1.35014 1.3462 1.26588 -0.334085 -1.3928 4.68355 0.364513 0.408422 0.874557 Si
34 1 5.37565 2.75168 2.73026 -0.732455 3.51325 -1.06343 0.414891 0.120194 -0.256524 Si
36 1 5.39219 -0.036778 -0.0478767 -0.10581 -0.545821 3.61294 -0.352093 -0.0638506 0.773853 Si
39 1 6.73518 1.34845 1.35341 2.37326 3.06401 0.50798 -0.285067 0.0741672 -0.0369207 Si
38 1 8.13179 2.66276 -0.000266351 -1.88371 5.1292 -1.60825 -0.19515 0.590335 0.17875 Si
40 1 8.14854 0.0301495 2.68928 -1.44641 3.82134 -4.72034 0.689797 -0.0595122 -0.313113 Si
23 1 1.35257 6.872 1.30063 -4.13899 -3.55344 2.11449 -0.689877 -0.432079 0.976957 Si
24 1 2.74828 5.49543 2.71039 6.43077 2.98488 -4.1556 -1.14987 -0.207214 -0.344553 Si
1 1 4.02128 4.12659 1.31352 2.06519 -4.07366 2.83299 0.569183 -0.613253 0.453542 Si
55 1 6.80454 6.77709 1.3466 3.45616 -0.817524 3.57962 0.194483 0.408569 0.508962 Si
33 1 9.49652 4.04467 1.34086 -1.29854 0.340288 -2.07888 -0.42991 0.722791 -0.255286 Si
56 1 8.15902 5.40612 2.75185 0.732062 3.15548 4.24389 0.327417 0.363267 0.0416064 Si
4 1 -0.0148913 -0.00440516 -0.0530405 -3.42454 -4.73201 0.874866 0.440281 -0.579768 -0.169288 Si
8 1 2.70374 0.00736608 2.75741 -3.13294 2.33479 0.825752 -0.0383891 0.124896 0.240893 Si
18 1 -0.0713663 8.17057 2.78858 -2.70625 -0.251398 -0.460426 1.92184 0.981216 -1.33172 Si
17 1 4.04053 9.45601 1.4307 -3.41204 0.284611 -0.886184 0.252275 1.19312 -0.791476 Si
50 1 5.43817 8.14845 2.74032 3.31772 2.4844 -1.12246 0.68754 -0.0791269 -0.42205 Si
49 1 9.53246 9.52677 1.29969 -1.8496 4.90607 -2.08514 0.164096 0.77788 1.46518 Si
54 1 8.14536 8.26483 0.0416502 -1.1721 -5.59306 0.775118 -0.348716 -1.67383 -1.10661 Si
14 1 2.75071 2.71709 5.4986 -0.956298 4.38054 0.0260916 -1.02164 0.594153 -0.73776 Si
15 1 1.33449 1.41478 6.79193 4.48322 -0.143429 -2.71423 -0.206929 -0.0955122 0.246996 Si
3 1 4.09351 1.41643 4.15781 1.90788 -0.516945 2.62133 -0.832056 -0.429468 -1.28335 Si
47 1 6.8428 1.29604 6.80451 -2.602 -1.6301 -1.95896 -0.5696 0.432137 0.0727697 Si
35 1 9.56002 1.36833 4.06664 -1.95395 -2.96479 1.76733 -0.283359 -0.121722 -0.784502 Si
46 1 8.19165 2.63567 5.43104 5.73805 1.83634 -0.0586383 -0.0971933 0.719317 0.337463 Si
5 1 1.35702 4.10857 4.10207 1.17444 1.18932 -1.25671 0.399431 -0.287544 -0.36686 Si
28 1 0.00380363 5.45257 5.47454 -3.38477 -2.57809 -0.157233 0.759079 0.13558 -0.125627 Si
31 1 1.45102 6.7189 6.87163 1.55416 -1.87996 -4.10252 -1.12199 0.0795768 0.364796 Si
9 1 4.03537 4.09774 6.78822 -4.18702 2.16176 5.79151 1.28924 -0.0501668 0.730663 Si
19 1 4.10856 6.79798 4.04319 -1.67064 -1.35948 -3.62433 0.17773 -0.321395 1.15321 Si
37 1 6.80772 4.03401 4.13659 10.1143 2.25254 1.42991 0.0818704 -0.0854584 -0.633027 Si
60 1 5.47246 5.41662 5.447 4.49619 1.73286 -3.0104 -0.712625 0.281459 -0.0414309 Si
63 1 6.76043 6.7798 6.84961 -2.06812 -4.6646 4.9206 1.27019 0.476148 -0.681583 Si
41 1 9.54123 4.08358 6.75436 -0.480176 2.30758 1.15025 -0.455249 -0.39658 0.665318 Si
51 1 9.60953 6.82424 4.08777 -4.29466 3.3433 -1.07425 -1.90626 -1.01752 0.636824 Si
21 1 1.39435 9.48566 4.20547 1.59658 4.27383 -3.50672 -0.248377 0.044863 -0.864222 Si
30 1 2.76001 8.05056 5.5308 6.74357 -0.374286 4.48012 0.209125 0.569815 -0.73439 Si
44 1 5.37854 0.0191777 5.41273 -1.22135 -6.14683 1.83288 1.11788 -1.25105 0.876775 Si
25 1 4.09026 9.43435 6.8615 -1.22127 -3.98781 -1.15177 -0.673439 1.74663 -1.64756 Si
53 1 6.83487 9.55087 4.02106 -2.60703 2.81536 -0.945718 -0.534529 -0.16364 1.032 Si
12 1 0.0133294 0.0633899 5.43047 -2.69261 -0.483519 -1.19648 0.402485 -0.502829 0.193367 Si
57 1 9.63917 9.54742 6.80775 1.96677 2.57234 1.85987 -0.973879 -0.0677615 0.234075 Si
62 1 8.21145 8.19285 5.45206 -8.0866 0.818513 5.86385 -0.377321 -0.301475 0.163425 Si
6 1 2.75899 2.72544 -0.0832795 -3.86508 -1.89815 -1.62937 -0.155579 -0.752491 0.892786 Si
11 1 4.06448 1.31857 9.42855 -1.29965 -3.68769 5.2109 0.422928 0.587889 0.0161647 Si
42 1 5.51441 2.78632 8.15736 -2.81597 1.53035 2.33219 -0.678306 -0.876319 -0.510409 Si
10 1 -0.060471 2.71301 8.19772 4.80558 6.68876 -0.137127 0.567229 0.392711 0.256468 Si
43 1 9.48002 1.32393 9.56808 -2.05203 -3.76482 -1.23709 0.292879 0.414831 -0.564998 Si
13 1 1.35035 4.08185 9.63607 7.01723 -3.22833 -1.12998 -1.07402 0.143418 -1.31119 Si
32 1 2.75379 5.36747 8.26526 -3.86035 1.1628 -7.43172 0.136263 0.740814 0.0932092 Si
52 1 5.45144 5.41705 0.00915935 2.28204 -4.08897 -0.689791 0.128628 0.478106 -0.330645 Si
27 1 4.13043 6.85342 9.56492 -4.70026 -2.82904 -0.16144 -0.27247 -0.286589 -0.452412 Si
45 1 6.85928 4.12257 9.52164 4.61367 -3.9595 3.37481 0.0346388 -0.250193 0.279263 Si
20 1 -0.106381 5.51433 -0.0281749 5.63267 2.80598 -2.81763 0.97176 -0.560844 0.717704 Si
59 1 9.52057 6.8757 9.48714 -0.589214 2.32658 0.562969 -0.581333 0.508886 0.871484 Si
64 1 8.24236 5.47112 8.17874 -0.78658 0.261135 2.21896 -0.735197 -0.22421 -0.628055 Si
22 1 2.6956 8.22279 -0.0285658 -3.89315 -5.03735 0.504044 0.237292 -0.248521 -0.243984 Si
16 1 2.66511 -0.00353258 8.06847 0.567926 -2.16453 -1.22081 0.540543 -0.193389 0.321376 Si
26 1 0.0500829 8.158 8.197 2.78477 1.80283 1.07834 -0.0785525 -0.662967 -1.45699 Si
29 1 1.3491 9.51735 9.41862 3.04537 1.38447 -5.37531 0.34279 0.910572 1.42609 Si
58 1 5.45413 8.22426 8.12296 1.02701 1.27043 -1.68257 0.339477 -1.50547 1.38477 Si
61 1 6.77482 9.52389 9.50763 1.06476 4.16719 -2.04902 0.349897 0.331192 0.183338 Si
48 1 8.18855 -0.0247417 8.20313 -2.75108 -4.17267 -0.790848 0.0693114 -0.42239 -0.636974 Si
ITEM: TIMESTEP
14200
ITEM: NUMBER OF ATOMS
64
ITEM: BOX BOUNDS pp pp pp
0.0000000000000000e+00 1.0887404739999999e+01
0.0000000000000000e+00 1.0887404739999999e+01
0.0000000000000000e+00 1.0887404739999999e+01
ITEM: ATOMS id type xu yu zu vx vy vz fx fy fz element
2 1 0.00584235 2.658 2.82588 0.105323 2.73774 1.24062 -0.103694 1.17383 -1.47184 Si
7 1 1.37923 1.3718 1.3039 0.704751 -0.758514 -2.72537 -0.557134 0.209038 1.03161 Si
34 1 5.58428 2.72201 2.70259 3.945 -2.65172 -1.51247 -1.16632 -0.363244 0.12704 Si
36 1 5.52502 0.0127067 0.022365 3.93634 2.77557 -3.00202 -0.436181 0.131695 -0.32992 Si
39 1 6.94316 1.33599 1.36911 -0.515488 -2.39007 0.8126 -0.466623 -0.337364 0.530247 Si
38 1 8.1752 2.70392 -0.00178731 -1.94347 -4.61188 3.40449 0.590294 0.655237 -0.133091 Si
40 1 8.26172 -0.00423187 2.84523 -1.77248 -0.456221 2.29762 -1.37235 -0.455663 -1.01429 Si
23 1 1.4325 6.80033 1.40606 4.51286 -0.0850823 -4.49534 -0.426186 -0.171293 -1.20284 Si
24 1 2.66038 5.40522 2.7717 -4.596 -0.539236 6.1442 1.32445 0.405292 0.178718 Si
1 1 4.06054 4.05342 1.44788 -3.0302 3.67376 -0.802685 0.753827 0.232743 0.295279 Si
55 1 6.80797 6.80848 1.31012 2.16679 -2.98916 -1.62936 -0.357507 0.196368 -0.315897 Si
33 1 9.49109 4.12716 1.36351 0.956784 0.186961 2.97364 1.17236 -1.16458 0.171927 Si
56 1 8.09755 5.46408 2.64337 -5.41722 -5.53609 -5.78471 0.517006 -0.136846 0.38489 Si
4 1 0.0297604 -0.0277482 0.024347 3.18974 4.96686 3.53649 -1.08486 0.642757 -0.15302 Si
8 1 2.72475 0.0388293 2.65311 -2.02532 -0.661197 -3.04915 -0.259211 -0.86621 0.285983 Si
18 1 0.0314405 8.18804 2.57266 2.25748 -2.40068 0.386868 -0.82911 -0.857666 2.12918 Si
17 1 4.16345 9.54702 1.38392 -0.316047 0.946339 2.2307 -0.666194 -0.296886 -0.341696 Si
50 1 5.43257 8.0731 2.72528 0.313814 -1.84469 0.900827 0.265332 0.960325 -0.120069 Si
49 1 9.50871 9.52444 1.37668 0.917857 -5.47562 -3.89381 -0.00810809 0.417721 -0.704328 Si
54 1 8.1869 8.17847 -0.0562775 -2.70464 6.23187 3.29678 0.293774 -0.847055 0.714833 Si
14 1 2.69752 2.6589 5.39168 1.037 -4.20629 1.18235 0.770852 0.0639899 0.136177 Si
15 1 1.45298 1.24546 6.77661 -3.68373 -0.860914 6.12794 -0.502924 0.843309 0.222102 Si
3 1 4.07149 1.35044 3.99126 3.90657 -2.85305 -0.352379 0.966773 0.325066 0.817548 Si
47 1 6.84736 1.376 6.87909 -1.55835 -0.0991802 1.48641 -0.911309 0.324734 -0.399474 Si
35 1 9.48799 1.39044 4.15405 0.632113 0.592116 -0.546206 0.546707 0.291676 0.302437 Si
46 1 8.17315 2.77975 5.46575 -4.1566 -2.51025 -1.79693 -0.581119 -0.174692 -0.0116718 Si
5 1 1.38176 4.0873 4.13857 -0.739561 -0.881886 0.442863 -1.07667 -0.332808 -0.020663 Si
28 1 0.0207526 5.50848 5.45653 3.7359 -0.439289 2.83349 -0.334856 -0.359544 -0.438248 Si
31 1 1.37373 6.86485 6.801 4.27844 0.132898 5.62675 0.269941 0.143702 -0.608375 Si
9 1 4.06898 4.07346 6.69425 -1.90005 2.89795 -1.11328 -0.268825 -0.327222 1.14867 Si
19 1 4.08609 6.78591 4.10511 -2.10875 2.7682 1.70056 -0.68365 -0.105032 -0.445073 Si
37 1 6.82563 4.14491 4.05663 -6.45125 1.22702 -2.06996 -0.283546 -0.0765617 0.867842 Si
60 1 5.41866 5.49262 5.47478 -1.42617 -1.47805 1.13627 1.09957 -0.183789 -0.306197 Si
63 1 6.83099 6.83859 6.87047 0.206589 -0.0432895 -4.27084 -0.809457 -0.112597 -0.350782 Si
41 1 9.55271 4.10157 6.77903 2.25696 0.314236 2.30232 0.532076 -0.2124 0.0863413 Si
51 1 9.46888 6.74744 4.00569 2.42803 0.188506 -2.76563 0.881811 1.5147 0.190036 Si
21 1 1.29533 9.54923 4.03268 3.54961 -2.03737 3.01855 0.32035 0.56961 -0.133784 Si
30 1 2.74112 8.23258 5.36118 -6.76942 2.19502 3.22995 -0.505373 -0.233531 0.695427 Si
44 1 5.38682 0.00697694 5.52584 -1.62785 2.816 0.337778 0.798228 1.33713 -1.12953 Si
25 1 4.05255 9.59274 6.78252 0.0311006 1.26672 3.88732 -0.0899764 -1.68746 0.457006 Si
53 1 6.70065 9.56048 4.08807 5.7634 -1.43035 0.913318 0.745989 -0.443272 0.195305 Si
12 1 -0.0361642 0.0723027 5.46919 -1.70867 0.0572504 0.911647 0.0403524 -1.31213 -0.143165 Si
57 1 9.44591 9.62361 6.86042 1.67887 -5.45309 -2.51361 0.451179 -0.804267 -0.980776 Si
62 1 8.12892 8.18979 5.43142 2.56114 3.78897 0.870013 0.237692 0.135005 -0.0588544 Si
6 1 2.75127 2.76986 0.0842073 0.927719 1.11819 -3.92635 -0.43249 -0.301083 -1.74991 Si
11 1 4.03449 1.35493 9.52952 1.26201 -2.2193 -3.82038 0.572984 -0.141107 0.530845 Si
42 1 5.40894 2.7697 8.20009 3.62583 2.05929 1.0343 0.0784928 -0.386901 -0.553408 Si
10 1 0.0845972 2.67979 8.06246 -4.3585 -2.54748 -0.845942 -0.461464 0.0944453 0.761743 Si
43 1 9.54314 1.38011 9.53232 2.85836 2.26077 0.628978 0.77739 -0.173797 -0.122075 Si
13 1 1.42349 4.1022 9.435 -0.422638 2.58814 0.679964 -0.513313 -1.27935 1.13829 Si
32 1 2.68873 5.41609 8.10826 -1.06042 0.165089 3.15887 0.709264 0.43733 -0.911734 Si
52 1 5.41891 5.36925 0.0606966 0.170027 4.52387 -0.81249 -0.206036 0.758604 -0.89912 Si
27 1 4.00209 6.73456 9.49699 1.41879 0.764277 -3.85269 0.467757 0.570184 1.0975 Si
45 1 6.83391 4.08476 9.53747 -0.962513 2.40707 -3.42548 -0.722034 -0.39892 0.387727 Si
20 1 0.0987797 5.40416 -0.00122795 -3.45839 0.590828 -0.323366 -0.704252 0.510059 -0.0781556 Si
59 1 9.52307 6.73105 9.49681 0.76108 -3.14219 -2.80466 0.415257 0.224668 0.12907 Si
64 1 8.15505 5.36399 8.14078 1.6089 0.610418 -0.603514 0.311654 0.850865 0.217256 Si
22 1 2.68441 8.23176 0.0175008 -0.468858 0.576321 -1.582 1.0729 -0.972312 0.0389146 Si
16 1 2.70947 -0.109489 8.18745 -0.341545 0.943954 0.278563 -0.311494 0.85469 0.713872 Si
26 1 -0.0603499 8.16362 8.10045 -0.657793 -0.33735 1.18911 -0.0858816 0.146153 0.877735 Si
29 1 1.27352 9.48721 9.56724 -2.36189 -2.29049 -1.01809 0.406055 -0.156388 -1.00255 Si
58 1 5.3559 8.18628 8.19898 -0.969192 3.9995 -5.48869 0.455901 -0.31096 -0.377957 Si
61 1 6.81298 9.46704 9.54688 -0.0184297 -2.0403 2.42452 -0.769229 0.673745 -0.211547 Si
48 1 8.12907 0.0056012 8.26397 1.82625 2.89856 -1.79926 0.141156 0.28825 -0.141499 Si
ITEM: TIMESTEP
14300
ITEM: NUMBER OF ATOMS
64
ITEM: BOX BOUNDS pp pp pp
0.0000000000000000e+00 1.0887404739999999e+01
0.0000000000000000e+00 1.0887404739999999e+01
0.0000000000000000e+00 1.0887404739999999e+01
ITEM: ATOMS id type xu yu zu vx vy vz fx fy fz element
2 1 0.0537037 2.71225 2.69309 -0.0740801 0.703947 -2.65979 -0.762413 -0.00142684 0.624234 Si
7 1 1.3348 1.32694 1.44078 -5.69201 1.81608 1.76902 0.545637 -0.800047 -0.993692 Si
34 1 5.32524 2.71969 2.75321 2.39626 -0.40932 4.21958 0.746536 0.0194056 -0.416486 Si
36 1 5.42634 -0.004248 -0.0558847 -5.70866 2.04954 3.20864 -0.0993892 -0.107182 0.0314071 Si
39 1 6.66961 1.36273 1.34973 -1.44969 0.107449 -1.47489 0.429321 0.76636 -0.456261 Si
38 1 8.09828 2.74645 -0.00752035 5.32019 -1.74526 2.36193 0.13538 -0.713767 0.270363 Si
40 1 8.12255 0.0443472 2.56546 0.299546 -0.333911 0.846262 0.275895 -0.0497021 1.73012 Si
23 1 1.34785 6.78736 1.39395 -0.577502 1.72277 1.21885 0.139616 0.705401 -0.443418 Si
24 1 2.76899 5.49995 2.64541 -4.05221 0.0633173 -0.381771 -0.626796 -1.13621 0.339169 Si
1 1 4.13241 4.13982 1.33823 4.19108 -1.99231 2.69079 -0.607399 -0.293825 -0.773629 Si
55 1 6.81498 6.87838 1.4249 -0.760089 0.664647 -5.37794 0.0934826 -1.12717 0.118842 Si
33 1 9.48943 4.01704 1.42369 1.65395 -1.55421 -2.29039 -0.181272 1.09236 -0.489299 Si
56 1 8.11302 5.46007 2.77702 2.61597 1.42499 0.648116 0.628187 -0.468687 -0.316883 Si
4 1 -0.0261421 -0.0165773 -0.0209756 -0.984111 -0.954614 -5.42251 0.808297 0.368738 0.68251 Si
8 1 2.73526 -0.0403392 2.81477 1.06237 2.72878 5.17677 0.114395 0.399055 -0.833608 Si
18 1 0.0302933 8.1512 2.77217 -0.00788655 6.45748 -0.626614 -0.515058 0.248828 -0.189821 Si
17 1 4.08373 9.52231 1.3186 4.75312 0.59114 -2.69129 0.0573269 0.0306479 0.847442 Si
50 1 5.44484 8.15486 2.72274 0.499499 -2.23095 0.198333 -0.757323 0.477463 0.380163 Si
49 1 9.53278 9.56981 1.38786 -1.79714 3.95038 3.55189 0.26172 -1.31993 -0.454652 Si
54 1 8.14828 8.12124 0.0872109 3.95287 -4.04484 -4.18779 0.0809559 2.208 -0.442362 Si
14 1 2.66725 2.82545 5.51211 0.290373 2.33989 -2.17068 0.351764 -0.809842 -0.17062 Si
15 1 1.262 1.4383 6.83581 1.01193 0.165793 -1.78075 0.689533 -0.209876 0.00416102 Si
3 1 4.03957 1.40651 4.15957 -1.53332 3.51265 -5.00002 -0.26852 -0.425895 0.176309 Si
47 1 6.83551 1.34046 6.6733 0.813999 0.56876 0.382097 0.342496 -0.311205 1.10063 Si
35 1 9.57574 1.31666 4.00851 2.40457 1.53427 -4.23368 -0.496778 0.0794792 0.0927508 Si
46 1 8.15501 2.704 5.33729 -3.16504 2.8812 1.75872 0.370164 -0.5823 0.0576059 Si
5 1 1.41247 4.08039 3.9854 -2.38867 -2.11088 -4.30024 0.116411 0.37947 0.488507 Si
28 1 0.0550674 5.29438 5.48408 1.49811 6.01087 -0.274288 -0.808022 0.602182 -0.10833 Si
31 1 1.31031 6.79573 6.82453 0.758064 3.63848 -1.91096 0.366429 -0.376394 0.175789 Si
9 1 4.10609 4.08875 6.88684 6.03206 -2.63373 -3.82263 -0.140664 0.279464 -1.12422 Si
19 1 4.03553 6.74164 4.05488 3.11984 -3.46071 4.29181 0.907843 1.09134 0.361792 Si
37 1 6.76307 4.02944 4.05846 0.897385 -3.55296 0.0751488 -0.0461631 0.240866 -0.418044 Si
60 1 5.41558 5.38364 5.35706 0.302351 -0.306128 2.15072 -0.20609 0.0968917 1.10547 Si
63 1 6.75797 6.76545 6.74642 1.8619 5.32669 0.766312 0.606355 0.206895 -0.301866 Si
41 1 9.40081 3.99967 6.81573 2.59606 -5.96158 -2.85627 0.840752 0.934833 0.0840083 Si
51 1 9.59026 6.72429 4.12556 -5.24782 -3.32891 4.88943 0.133453 -0.1906 -0.169924 Si
21 1 1.36351 9.51785 4.13308 -2.06172 -2.79176 4.15787 0.900408 -1.06358 0.374555 Si
30 1 2.76944 8.08778 5.53183 1.68359 -2.98488 -5.87893 -0.893323 0.517821 -1.16652 Si
44 1 5.50944 -0.020188 5.36571 -0.236003 -0.623235 -1.86399 -0.942452 -0.174573 0.209595 Si
25 1 4.09005 9.53215 6.77979 -0.0379932 -1.31063 -5.45507 0.815644 0.387085 0.384521 Si
53 1 6.8665 9.51829 4.01569 -3.97489 3.08214 0.974759 0.273277 -0.261773 0.0749254 Si
12 1 0.0404359 -0.0284239 5.44106 4.54365 -1.1873 0.840772 -0.394615 0.903472 -0.0766781 Si
57 1 9.61484 9.50177 6.76473 0.589784 1.37111 1.06037 -0.477617 -0.483792 0.318308 Si
62 1 8.24101 8.10277 5.42174 -1.35046 -0.380298 -1.16454 -0.631925 0.500568 0.118954 Si
6 1 2.63865 2.70056 0.0269815 0.478897 -2.34087 2.64181 0.755274 0.710498 0.293236 Si
11 1 4.08432 1.42641 9.55563 2.69591 0.535351 -3.63401 -0.132548 -0.367126 -0.523644 Si
42 1 5.47375 2.66375 8.10328 -6.28577 -2.00837 -2.21574 0.289092 0.428813 0.677643 Si
10 1 -0.0833745 2.76395 8.24515 3.63268 -1.16756 3.98794 -0.267752 -0.623242 -0.839553 Si
43 1 9.52272 1.33688 9.55214 1.41303 2.91542 0.856703 -0.928178 0.23414 -0.176521 Si
13 1 1.28359 4.06715 9.5317 -6.7416 1.16722 -4.93328 0.796654 1.21378 0.480453 Si
32 1 2.73075 5.48159 8.15775 1.51215 -0.188756 3.42823 -0.21204 -0.218665 1.12751 Si
52 1 5.5575 5.53776 0.00907186 -2.2176 1.46568 2.41209 -1.05026 -0.550433 0.113134 Si
27 1 4.16076 6.85518 9.53443 0.335677 -0.00469524 3.84839 -0.218452 -0.41131 -0.455591 Si
45 1 6.77542 4.11459 9.51285 -2.46742 -1.42761 1.64944 0.133413 -0.351667 -0.364072 Si
20 1 -0.0379835 5.47831 0.067281 -3.21857 -4.04159 1.86164 -0.566155 -0.618122 -0.511642 Si
59 1 9.46178 6.89856 9.59292 1.31104 4.03256 4.4967 0.980941 -1.29976 -0.71792 Si
64 1 8.11983 5.48855 8.17504 1.53464 1.77952 -0.607814 0.336064 -0.138244 -0.0789351 Si
22 1 2.75145 8.11403 0.0190556 2.66278 4.54007 -2.64962 -0.516709 0.776579 -0.355028 Si
16 1 2.75289 0.0889459 8.13586 0.462813 -0.323755 -0.148817 0.0151531 0.11435 -0.249998 Si
26 1 0.0424648 8.19813 8.22399 -1.46573 -0.910893 -5.72636 -0.107683 0.221901 0.127515 Si
29 1 1.46356 9.63434 9.5298 -1.82589 -2.32638 0.164036 -0.520188 -1.288 0.24159 Si
58 1 5.53368 8.18829 8.13804 -5.87736 -7.1877 8.12946 -0.837257 0.217588 -0.0654681 Si
61 1 6.8647 9.55862 9.49874 -2.22494 -3.30777 2.13397 0.0617607 -0.594482 0.528175 Si
48 1 8.22715 -0.0483206 8.09402 2.23603 -0.0137964 2.89212 -0.186588 0.914542 -0.056699 Si
ITEM: TIMESTEP
14400
ITEM: NUMBER OF ATOMS
64
ITEM: BOX BOUNDS pp pp pp
0.0000000000000000e+00 1.0887404739999999e+01
0.0000000000000000e+00 1.0887404739999999e+01
0.0000000000000000e+00 1.0887404739999999e+01
ITEM: ATOMS id type xu yu zu vx vy vz fx fy fz element
2 1 -0.0506665 2.7806 2.74233 -2.1377 3.57007 2.34793 0.515382 -0.670377 0.148333 Si
7 1 1.26627 1.37216 1.34545 1.37936 -2.7467 2.72884 0.809951 0.503008 -0.0594205 Si
34 1 5.5479 2.75194 2.76026 -2.20389 1.2399 -0.6906 -0.652569 0.244705 -0.00854867 Si
36 1 5.45097 -0.00249133 0.052076 6.53704 -3.64117 -0.759626 -0.0481439 -0.143411 0.835018 Si
39 1 6.85933 1.40232 1.38741 1.57899 1.09681 0.754146 0.390158 -0.686451 -0.164661 Si
38 1 8.29163 2.68313 -0.037145 1.13128 4.16164 2.69216 -0.745307 0.831055 0.281004 Si
40 1 8.17543 -0.0278137 2.79956 0.000867693 1.79794 -4.9186 0.165951 0.033605 -0.853234 Si
23 1 1.34287 6.78022 1.38829 -3.18794 -3.30349 -4.91657 0.082385 -0.361846 0.565923 Si
24 1 2.77055 5.40147 2.81898 9.62432 -1.4846 -1.42378 -0.619408 0.822345 -1.1512 Si
1 1 4.09735 4.08842 1.39611 6.09728 0.0880091 0.346528 -0.112218 -0.888019 -0.0549568 Si
55 1 6.77986 6.74824 1.3072 0.371453 2.08434 7.17535 -0.119016 0.234672 0.452003 Si
33 1 9.62748 4.14838 1.3372 -3.12186 -0.0531944 2.60219 -0.962485 -0.329644 -0.570239 Si
56 1 8.19519 5.44482 2.68936 0.566456 -2.97789 -0.808126 0.0794218 0.779074 0.596476 Si
4 1 -0.0663057 0.0299774 -0.0119363 -5.23339 -3.16885 -2.5472 0.279992 -0.725141 -0.847632 Si
8 1 2.70726 0.0167065 2.6359 2.06097 -5.80433 1.22847 0.202894 0.417933 0.991136 Si
18 1 -0.0462722 8.23582 2.71984 -0.62645 -2.23897 1.93856 0.667039 0.166678 -1.10991 Si
17 1 4.00677 9.48359 1.32238 -5.5334 0.0536669 0.343381 0.612059 0.171259 -0.156349 Si
50 1 5.455 8.1893 2.66484 -1.58336 1.93624 1.45219 0.0345607 -0.299231 0.246386 Si
49 1 9.44638 9.46022 1.19932 -1.73633 2.81038 -2.76263 0.57222 1.44519 2.47401 Si
54 1 8.10298 8.14287 -0.0165389 0.180559 -2.03406 2.80667 0.414179 -1.40101 -0.81774 Si
14 1 2.79658 2.70694 5.37345 -3.09408 0.540192 2.50979 -0.963305 0.422944 0.52631 Si
15 1 1.39394 1.35139 6.74933 0.984264 1.9977 -0.68748 0.441029 -0.75287 -0.564548 Si
3 1 4.15872 1.3631 4.08912 -1.07275 1.84285 2.94087 -0.641609 -0.220667 -1.34295 Si
47 1 6.72089 1.45122 6.90623 -0.663112 -1.43061 -1.66585 0.911104 -0.846399 -1.0595 Si
35 1 9.49886 1.42355 4.17101 -0.175518 0.374805 0.700711 0.194955 -0.679401 -0.829187 Si
46 1 8.20776 2.73753 5.55777 1.5225 -0.550264 -4.74636 -0.439923 0.96211 0.376848 Si
5 1 1.32716 4.10628 4.08894 2.77437 -2.52817 5.35175 0.472995 -0.573556 0.149422 Si
28 1 -0.0731778 5.47896 5.3436 2.57397 -8.07643 -1.22664 0.671602 0.944727 0.536302 Si
31 1 1.36749 6.85125 6.69251 -4.14675 2.37825 -0.364282 -0.217869 -0.589622 0.558098 Si
9 1 4.12764 4.06374 6.76477 -5.0898 -0.272125 1.87205 -0.145041 0.131414 0.245939 Si
19 1 4.11608 6.85267 4.06841 -3.03652 1.80352 0.246967 0.477796 -0.584472 0.179357 Si
37 1 6.85171 4.12754 4.15746 -1.43221 5.70376 -2.83918 0.839361 -0.495151 -0.463844 Si
60 1 5.50998 5.4545 5.46901 -1.3114 0.464266 -4.26245 -1.17316 0.2804 -0.453241 Si
63 1 6.76818 6.76699 6.85131 -6.19724 -3.04781 -4.6728 1.03516 0.347732 0.602245 Si
41 1 9.68167 4.14018 6.8715 -2.29229 1.23881 0.230957 -1.55346 -0.428477 -0.81522 Si
51 1 9.47962 7.01099 4.07717 0.66632 0.439333 -2.5207 -0.844141 -1.76421 0.296461 Si
21 1 1.39432 9.55028 4.06075 2.16229 5.55135 -5.26326 -1.27731 0.957326 -0.822357 Si
30 1 2.68637 8.20566 5.30806 1.03776 2.13382 4.05784 1.0663 -0.474573 1.56371 Si
44 1 5.40258 0.0495104 5.50262 4.19016 0.388561 -0.309947 0.570102 -1.12406 0.490967 Si
25 1 4.05979 9.43067 6.85417 -4.43073 0.429186 0.213493 -0.155445 0.823223 -0.478403 Si
53 1 6.78808 9.49372 4.14602 2.10584 -3.29469 -0.212217 -0.713289 1.0416 -0.291659 Si
12 1 -0.0591315 -0.0344487 5.44681 -1.15026 0.866497 -1.4936 0.889712 0.373977 -0.0680559 Si
57 1 9.48419 9.53359 6.83111 -2.84939 -0.297372 -0.506047 -0.0871575 0.792574 0.550178 Si
62 1 8.09005 8.24548 5.56596 0.627039 -1.92936 -0.638973 0.126979 -1.13031 -0.608572 Si
6 1 2.78595 2.65614 -0.0538044 -1.09251 2.86206 2.23326 -0.393706 0.106478 0.962332 Si
11 1 4.14528 1.23573 9.51718 -1.1258 1.08469 4.29584 -0.75005 0.930664 0.199502 Si
42 1 5.38568 2.71091 8.22368 1.56451 -0.672195 -0.513853 -0.31521 0.315825 -0.141928 Si
10 1 0.0508168 2.62975 8.06666 -1.65123 -0.714462 -2.09826 0.910367 1.48982 0.946995 Si
43 1 9.58701 1.37525 9.39707 -0.345596 -1.63037 0.165382 -0.436565 -0.405648 1.08619 Si
13 1 1.41278 4.03899 9.50393 3.3309 -1.2178 -1.11321 0.117232 -0.186058 -1.00945 Si
32 1 2.78662 5.45762 8.11967 3.30095 4.84924 -7.56858 -1.12695 -0.277049 -0.383904 Si
52 1 5.35228 5.43696 -0.0208062 -1.90638 0.830294 -2.13259 1.15352 -0.775684 0.581572 Si
27 1 4.03454 6.74732 9.58903 -2.49139 -1.80163 -2.15258 0.207417 0.382923 -1.17597 Si
45 1 6.73802 4.01894 9.55185 0.783634 -2.27079 5.10935 1.33708 0.792778 0.19255 Si
20 1 0.0547895 5.45413 -0.101809 -0.121132 -0.833269 1.53987 0.275752 -0.0404639 0.835162 Si
59 1 9.59231 6.81946 9.4823 1.42646 1.12341 2.61493 -1.05218 0.28153 0.593975 Si
64 1 8.23079 5.4373 8.20067 -1.8105 1.6481 1.49097 -0.955363 -0.473347 0.032672 Si
22 1 2.68618 8.06383 -0.0176857 4.06627 -6.44057 -2.47742 -0.504122 0.929924 0.416336 Si
16 1 2.69668 -0.00860277 8.19756 -1.83451 -1.36309 1.93424 -0.234098 -1.05361 -0.370277 Si
26 1 -0.0211309 8.18161 8.13 1.24411 0.259677 6.54071 0.351337 -0.442292 -0.686577 Si
29 1 1.28743 9.44252 9.53659 2.23646 3.46453 2.02099 0.689168 1.16253 0.27012 Si
58 1 5.43164 8.08623 8.24693 3.70846 0.91526 -1.64105 -0.254672 0.428409 0.14711 Si
61 1 6.74625 9.50492 9.64664 4.31456 5.22563 -3.45346 0.484451 0.497984 -1.87749 Si
48 1 8.12404 0.0671913 8.18368 0.536012 -1.43055 0.901535 -0.55585 -1.22336 0.306388 Si
ITEM: TIMESTEP
14500
ITEM: NUMBER OF ATOMS
64
ITEM: BOX BOUNDS pp pp pp
0.0000000000000000e+00 1.0887404739999999e+01
0.0000000000000000e+00 1.0887404739999999e+01
0.0000000000000000e+00 1.0887404739999999e+01
ITEM: ATOMS id type xu yu zu vx vy vz fx fy fz element
2 1 0.0477033 2.71619 2.74363 -1.1346 -1.21112 -3.43225 -0.232331 -0.311597 -0.659926 Si
7 1 1.50925 1.37535 1.37339 -1.04979 -1.11973 -0.639174 -0.82028 0.245973 -0.295967 Si
34 1 5.31651 2.71092 2.61916 1.28862 -0.0260166 -2.96343 0.485157 -0.356367 0.601378 Si
36 1 5.40088 -0.00315637 -0.0637633 1.11474 0.0165401 0.672088 0.858932 -0.0156973 -0.32879 Si
39 1 6.77019 1.28445 1.33826 2.55915 4.0187 2.08849 0.074216 0.285708 0.448073 Si
38 1 8.11019 2.69051 0.0103849 -1.51495 -3.81853 -3.8888 -0.259008 0.413754 -0.238092 Si
40 1 8.23016 -0.0670922 2.72412 -0.51935 -1.50102 2.06644 -0.547847 0.602067 -0.223064 Si
23 1 1.47357 6.86118 1.27411 2.81961 3.07547 4.24423 -1.15252 -0.336447 -0.038474 Si
24 1 2.59974 5.44605 2.73973 -2.3807 -0.719176 3.77462 1.63738 0.0870127 0.292802 Si
1 1 4.01801 4.15764 1.29716 -5.25102 4.32404 -1.6541 0.436351 0.423231 0.973879 Si
55 1 6.82807 6.77332 1.33663 0.816071 -5.47347 -1.09914 0.0767223 1.12449 0.231378 Si
33 1 9.47867 4.05016 1.36392 -3.04226 1.50652 -0.162774 0.306127 -0.619949 0.477583 Si
56 1 8.14417 5.38015 2.71105 -1.80245 -2.15494 -0.66282 -0.663651 -0.211035 0.019498 Si
4 1 0.0861521 -0.00873083 0.034951 4.09951 0.213054 3.02835 -0.431525 0.513645 0.717874 Si
8 1 2.72755 -0.0637667 2.74997 -0.186002 2.13559 -4.55878 -0.443061 -0.267882 -0.666076 Si
18 1 0.114944 8.12726 2.69011 -2.30567 0.643133 0.605883 -0.865652 -1.12299 1.3428 Si
17 1 4.13836 9.55643 1.38786 0.136118 -3.09434 1.58552 -0.209861 -0.0735245 -0.000226387 Si
50 1 5.40723 8.13508 2.76065 1.7595 -0.513916 -3.25232 0.986201 -0.0491505 -0.353813 Si
49 1 9.66398 9.49906 1.45704 0.781302 -2.62804 -4.65489 -0.760506 0.16365 -1.57658 Si
54 1 8.22344 8.24493 -0.0423335 -3.31894 6.28057 0.881442 -0.650619 -0.194538 1.32755 Si
14 1 2.67169 2.69005 5.51173 3.83509 -0.973956 1.44502 0.763864 -0.244153 -0.447697 Si
15 1 1.2976 1.41051 6.85713 1.18883 -0.144475 -2.1262 -0.130793 0.0169704 0.43712 Si
3 1 3.96407 1.30246 4.02339 -2.081 2.2264 4.41923 1.64405 0.956247 1.49698 Si
47 1 6.91152 1.33554 6.85555 5.5371 -1.91974 2.6912 -1.41552 0.381303 -0.992631 Si
35 1 9.56067 1.32327 4.06132 -3.6543 -3.47981 1.91715 -0.330607 0.581911 0.699891 Si
46 1 8.09742 2.74172 5.42935 0.160345 -2.83969 0.114865 0.672898 -1.00599 -0.995703 Si
5 1 1.36878 4.01354 4.15663 -0.686971 4.18139 -0.769398 -0.487812 0.876543 -0.304835 Si
28 1 0.0425053 5.43534 5.50168 -2.01005 3.33089 -0.0571703 -0.0959477 -0.824047 0.0265283 Si
31 1 1.41009 6.70833 6.95219 4.85785 -6.55499 2.67481 -0.639782 1.13731 -0.725174 Si
9 1 4.04821 4.07641 6.82465 -4.968 5.54282 -2.44237 -0.389891 0.207556 0.310925 Si
19 1 4.06491 6.8109 4.15546 2.09244 0.376425 -3.36208 -1.32668 -0.0610471 -1.00134 Si
37 1 6.7065 4.05082 4.04698 -0.254703 -0.879085 1.2715 -0.443445 0.219894 0.0492162 Si
60 1 5.34556 5.45939 5.46777 3.23222 -4.12424 1.91503 1.57063 -0.271669 -0.0681477 Si
63 1 6.90556 6.87922 6.66287 -2.06999 -1.79227 5.00937 -1.96469 -0.815584 1.08572 Si
41 1 9.4849 4.02738 6.73133 1.80703 3.59654 2.29008 0.344571 0.784375 0.825577 Si
51 1 9.50494 6.63526 4.08983 1.79315 -0.557542 -1.82961 1.51657 1.65852 -0.865408 Si
21 1 1.34016 9.52694 4.10729 2.09161 -2.11299 5.73822 0.492642 -0.459983 -0.00479598 Si
30 1 2.66434 8.15887 5.4943 -0.519443 -5.12408 -0.672678 0.444509 0.0374417 0.503478 Si
44 1 5.50049 -0.00305757 5.43466 -5.00596 0.179527 0.0940111 -0.304536 0.774046 -0.325437 Si
25 1 4.074 9.61826 6.78608 3.78035 -2.93329 6.58037 -0.352402 -0.736368 0.171591 Si
53 1 6.85141 9.50525 4.07866 0.314317 0.934737 -4.8071 -0.380437 -0.252829 -0.259892 Si
12 1 0.0701514 0.0159982 5.46996 0.981213 0.596114 3.97095 -1.37071 -0.27878 0.157954 Si
57 1 9.50257 9.50713 6.81084 2.1526 4.73411 3.85438 0.955166 0.0402137 -0.758365 Si
62 1 8.24575 8.13329 5.34792 0.435535 2.28047 0.180035 0.257067 0.667801 0.0560707 Si
6 1 2.8285 2.78625 -0.0429675 0.600209 1.21582 -1.51723 -1.79286 -0.391781 -0.573314 Si
11 1 4.13908 1.44355 9.4457 -4.33198 -5.9131 -3.51836 -0.435294 -0.593425 0.257881 Si
42 1 5.4849 2.7619 8.09081 4.41781 4.87238 -2.83553 0.428123 -0.112496 0.322862 Si
10 1 -0.115607 2.74055 8.23552 1.20508 -6.05548 -1.0895 0.0849355 -0.491507 -0.33384 Si
43 1 9.47496 1.29167 9.61893 -7.10277 -3.29899 -2.132 0.627779 0.342995 -0.440528 Si
13 1 1.23653 4.12147 9.55563 2.31671 5.40048 3.91969 0.472301 -0.497532 1.0697 Si
32 1 2.72974 5.39885 8.32937 -2.63807 -4.83587 3.09723 0.537002 0.155823 -0.881186 Si
52 1 5.43874 5.47832 -0.0086399 3.57197 -1.85449 2.19483 0.0960339 0.121712 -0.449523 Si
27 1 4.14064 6.88773 9.50525 0.31588 3.19011 0.882099 -0.411683 -0.196261 0.491397 Si
45 1 6.80355 4.15188 9.47326 0.947379 2.29444 -0.628205 -0.0306288 -0.664823 0.338236 Si
20 1 -0.131114 5.48146 0.0717219 -1.10419 2.61188 -1.64362 1.31358 0.208363 -0.411152 Si
59 1 9.42947 6.78756 9.55789 -0.912019 -1.27831 -6.95547 0.646728 0.0295827 -1.02437 Si
64 1 8.1425 5.45794 8.05553 1.2509 -1.32773 1.087 0.359179 0.100309 0.379037 Si
22 1 2.79376 8.31426 -0.0328218 -6.30664 4.47354 0.405004 0.38132 -1.36327 0.186137 Si
16 1 2.67276 0.0639039 8.16906 -4.28086 0.75674 -5.96335 0.503345 -0.125725 0.219161 Si
26 1 -0.0454364 8.15182 8.19425 7.1674 1.35334 -0.877249 0.48489 -0.2845 0.491096 Si
29 1 1.36854 9.5426 9.56751 -0.00325133 -1.86853 -2.40677 -0.277581 0.156365 -1.27601 Si
58 1 5.46004 8.20691 8.10796 2.97642 5.45983 -2.24136 0.727815 0.115488 -0.68525 Si
61 1 6.87056 9.5673 9.4366 -2.74167 -3.22286 0.417548 -1.15851 -0.436739 0.977392 Si
48 1 8.20267 -0.0173327 8.15315 -1.22644 3.53023 -0.272928 0.59059 0.237381 0.218836 Si
ITEM: TIMESTEP
14600
ITEM: NUMBER OF ATOMS
64
ITEM: BOX BOUNDS pp pp pp
0.0000000000000000e+00 1.0887404739999999e+01
0.0000000000000000e+00 1.0887404739999999e+01
0.0000000000000000e+00 1.0887404739999999e+01
ITEM: ATOMS id type xu yu zu vx vy vz fx fy fz element
2 1 0.00399097 2.71563 2.68671 1.77521 -4.26838 6.26853 -0.378975 0.211223 0.718415 Si
7 1 1.27432 1.28764 1.35875 -1.22408 4.3328 -6.74166 -0.53608 -0.0794149 0.131156 Si
34 1 5.52826 2.77221 2.83236 0.206903 0.472424 2.53766 0.360563 -0.592279 -0.872342 Si
36 1 5.40342 -0.0691532 0.0382402 1.16498 -3.46208 1.19088 0.0248701 1.17624 -0.435041 Si
39 1 6.80217 1.3821 1.31199 -0.405805 -1.85655 -1.59789 -0.634945 0.639041 0.168818 Si
38 1 8.16458 2.80627 -0.0299558 0.83651 -1.26601 -0.917198 0.787593 -1.57303 0.314148 Si
40 1 8.07955 0.0654673 2.70141 5.71445 2.16745 1.2222 0.553368 -0.0602979 0.76936 Si
23 1 1.2748 6.80423 1.41086 2.44308 -1.23494 2.89004 0.735487 0.449788 0.284265 Si
24 1 2.77825 5.44422 2.60333 -4.16781 2.57153 -1.26836 -1.00012 -0.315783 0.965178 Si
1 1 4.11426 3.98055 1.44195 -1.33959 -4.21758 3.81036 -0.329096 0.0376667 -0.995261 Si
55 1 6.77334 6.8527 1.39399 -2.24524 3.3792 -1.08321 -0.0163249 -1.10951 -0.766839 Si
33 1 9.52717 4.11162 1.35514 0.287911 -0.894732 -3.00289 0.324552 0.533382 0.169277 Si
56 1 8.23212 5.5962 2.75141 -0.958801 5.61321 -0.548146 -0.115191 -1.13673 -0.596731 Si
4 1 -0.068142 -0.0167434 -0.0753544 0.545527 2.82423 -3.82897 0.146129 -0.0386319 0.355143 Si
8 1 2.69332 0.0420564 2.70853 0.365116 4.52364 0.155172 0.259894 0.160695 0.17729 Si
18 1 -0.102097 8.16743 2.79162 3.00325 -0.928755 -7.27347 0.755949 1.03082 -1.50605 Si
17 1 4.01829 9.54952 1.40177 6.12712 -2.63868 -0.178544 0.533946 -0.251468 0.0700988 Si
50 1 5.46717 8.22506 2.6774 -3.58261 -5.25821 -0.781821 -1.01419 -0.490792 0.546853 Si
49 1 9.43584 9.61303 1.41754 2.4252 -0.703165 5.58544 0.517592 -1.18493 -0.850045 Si
54 1 8.14018 8.12855 0.0250494 -1.96352 -1.29924 -3.5865 0.593007 0.867925 -0.686359 Si
14 1 2.7027 2.77832 5.40727 -1.87134 -1.69731 -1.32749 0.441339 -0.541919 -0.352547 Si
15 1 1.4688 1.31295 6.73728 0.960541 -3.09514 0.38509 -0.743622 0.320969 0.583646 Si
3 1 4.09084 1.41559 4.06786 4.12429 -1.26576 -4.89165 -0.160201 -0.313329 0.287355 Si
47 1 6.74995 1.30429 6.80328 -1.67921 2.26319 -0.618446 0.411205 0.848597 0.558007 Si
35 1 9.5229 1.35042 4.09268 2.54083 1.40059 0.958575 -0.0152782 0.196597 -0.431418 Si
46 1 8.17129 2.65224 5.49614 -0.594737 5.21916 1.3143 0.325886 0.420294 -0.0462326 Si
5 1 1.38044 4.13998 4.04488 3.68884 -3.33614 2.89695 -0.30952 -0.0673721 -0.483872 Si
28 1 -0.0344419 5.47155 5.40943 2.60731 5.36515 -1.7446 0.137525 -0.382724 -0.21476 Si
31 1 1.29907 6.87106 6.66545 -2.53641 3.91298 -0.503197 0.970447 -0.140803 0.6841 Si
9 1 4.0957 4.0377 6.75735 5.36931 -4.86179 -2.9128 0.449407 0.570494 0.0799647 Si
19 1 4.13468 6.70011 3.96528 2.79446 0.33542 3.03409 0.673124 1.24301 1.24701 Si
37 1 6.98935 4.11406 4.10184 -0.438069 -2.57312 1.7721 -0.914262 0.298363 0.426702 Si
60 1 5.54901 5.43263 5.49596 -6.16715 2.42149 -0.954564 -0.572587 -0.292458 -0.735185 Si
63 1 6.77677 6.74696 7.00345 3.33591 -0.378898 1.46676 0.606416 0.424569 -1.67424 Si
41 1 9.51007 4.11155 6.78938 -0.0431155 -2.88565 -3.91206 0.350324 -0.398712 0.309636 Si
51 1 9.54556 6.88258 4.13096 0.479096 -2.1007 0.112962 -1.1082 -0.3013 0.867698 Si
21 1 1.34834 9.54145 3.98793 -10.0345 -1.32692 -1.57467 0.128196 -0.200095 1.18471 Si
30 1 2.78523 8.175 5.35119 -0.115552 2.4577 1.25948 -0.37363 -0.335475 -0.542904 Si
44 1 5.47662 0.0354952 5.40926 -0.134724 -0.259281 4.17895 -1.18429 -0.83149 -0.050697 Si
25 1 4.11748 9.48338 6.79104 -2.53845 3.51161 -1.19898 0.588193 0.0380972 0.292363 Si
53 1 6.77913 9.53545 4.04984 -6.20201 3.59388 0.334161 0.341737 0.138893 0.484597 Si
12 1 0.0140219 0.00191888 5.42296 -0.366271 4.98106 -1.99956 0.304545 -0.0161435 -0.333992 Si
57 1 9.48875 9.61079 6.76875 2.6091 -0.863181 3.50574 0.130046 -1.29058 0.235923 Si
62 1 8.07388 8.15158 5.49928 1.83053 -1.90962 1.64677 0.303627 0.179437 0.237785 Si
6 1 2.56304 2.68601 0.130568 0.0027644 -0.409946 2.66421 2.26036 0.0795027 -0.617889 Si
11 1 3.99819 1.37405 9.61922 2.55907 0.968637 0.305901 0.468154 -0.158128 -0.0619563 Si
42 1 5.40548 2.69815 8.18563 -1.75944 1.86199 1.40621 0.0473103 -0.273352 0.268299 Si
10 1 0.11515 2.76249 8.09422 1.01743 2.14264 1.96871 -0.525424 -0.519967 0.016111 Si
43 1 9.527 1.40036 9.42978 5.85877 1.35294 5.53861 -0.0376273 0.38203 0.307639 Si
13 1 1.4951 4.05452 9.51161 -2.09095 -6.93334 -5.32126 -0.777385 0.628284 -0.688067 Si
32 1 2.72727 5.47232 8.0016 0.132385 2.63589 -1.1818 -0.39092 -0.138957 0.838183 Si
52 1 5.4274 5.33302 0.0256776 0.182394 2.51829 -0.0436128 0.212904 0.750584 0.310549 Si
27 1 3.98878 6.70124 9.58666 3.81517 -0.565195 -2.92686 0.576524 0.497321 0.0244261 Si
45 1 6.83846 4.04471 9.53382 2.90325 0.787162 -0.369299 -1.33786 0.257747 -0.332831 Si
20 1 0.148723 5.38685 0.0170703 3.05316 -0.326309 0.10632 -1.44924 0.0204699 -0.618463 Si
59 1 9.61495 6.76019 9.53782 -3.64572 1.92912 3.25894 -0.418182 0.163995 0.402241 Si
64 1 8.15865 5.40087 8.23963 -3.28589 -3.01154 -1.00827 1.02448 0.15002 -0.0641235 Si
22 1 2.70478 8.14482 0.120005 1.1835 1.01745 -2.06061 -0.447476 -0.14034 -1.11205 Si
16 1 2.76548 -0.0391499 8.18991 -2.45014 -4.47419 -0.225756 0.307535 0.409208 -0.588191 Si
26 1 0.000355858 8.18246 8.11965 -4.78398 -0.20242 -4.42145 0.0159304 0.557705 0.194812 Si
29 1 1.43097 9.53729 9.52798 -4.66174 1.68237 0.617196 -1.0143 -0.905739 0.287922 Si
58 1 5.44497 8.07656 8.27952 -6.10033 -2.2484 5.13211 -1.15597 0.891239 -0.111964 Si
61 1 6.79458 9.57354 9.494 2.30145 -1.34504 -0.720108 -0.125618 -1.36199 1.15752 Si
48 1 8.12111 -0.0185937 8.15146 -0.857619 -4.14496 3.20131 0.418359 0.869525 -0.187151 Si
ITEM: TIMESTEP
14700
ITEM: NUMBER OF ATOMS
64
ITEM: BOX BOUNDS pp pp pp
0.0000000000000000e+00 1.0887404739999999e+01
0.0000000000000000e+00 1.0887404739999999e+01
0.0000000000000000e+00 1.0887404739999999e+01
ITEM: ATOMS id type xu yu zu vx vy vz fx fy fz element
2 1 0.0753084 2.69456 2.71986 0.768731 2.06587 -1.10721 -0.257294 0.41165 0.167966 Si
7 1 1.48712 1.40794 1.34389 -1.54116 -3.91194 4.47008 -0.122783 -0.220861 0.499736 Si
34 1 5.3669 2.627 2.67348 -1.24658 2.83896 1.63507 -0.249292 1.43431 0.582684 Si
36 1 5.4887 -0.0024461 -0.0168959 -2.07221 2.55136 -4.70017 -0.695556 0.102217 0.544827 Si
39 1 6.79716 1.35422 1.41945 -3.08292 -1.60508 -2.45177 0.60125 -0.76631 -0.591941 Si
38 1 8.13699 2.69266 0.00465992 -5.16193 1.59182 -0.706491 0.109994 0.793629 0.457201 Si
40 1 8.20464 -0.00570986 2.78871 -2.15435 2.44861 -6.51841 -0.0882781 -0.785985 -1.12054 Si
23 1 1.34958 6.80256 1.34831 -1.08915 1.67241 -2.44127 0.60907 -0.998821 -0.222333 Si
24 1 2.72091 5.4424 2.72172 4.51368 2.10072 -1.02124 0.308019 0.339678 -0.483605 Si
1 1 4.08945 4.10947 1.24146 4.9636 3.46288 -0.859356 0.52583 0.297029 1.23107 Si
55 1 6.74255 6.82837 1.43565 1.2391 4.0686 -1.70252 0.892254 -0.249046 -0.154104 Si
33 1 9.55622 4.06798 1.38969 1.22216 -6.37645 6.41683 -0.390407 -0.166096 -0.363548 Si
56 1 8.14551 5.39768 2.77039 -3.2523 0.408364 2.74903 -0.0536109 0.473568 -0.307676 Si
4 1 0.0577188 0.0513654 0.114525 -5.7053 -5.16467 0.512847 -0.230169 -0.4277 -1.36245 Si
8 1 2.78707 -0.0310939 2.68811 -0.519474 -2.12772 5.83457 -0.300586 -0.0560583 0.787252 Si
18 1 0.0517762 8.0825 2.69986 -2.96604 -0.719442 5.53713 0.149133 1.40352 -0.210095 Si
17 1 4.12747 9.46289 1.32689 -2.16171 2.72929 -1.34061 -0.592214 0.748907 -0.529612 Si
50 1 5.39444 8.21428 2.75163 2.70237 -1.4375 1.6582 0.587093 -0.405439 0.0353132 Si
49 1 9.60842 9.44391 1.31813 0.0655814 1.30821 -4.31106 -0.922487 0.884969 1.22865 Si
54 1 8.12194 8.15803 0.0229129 4.06467 -0.0606957 6.01676 0.413637 -0.748011 -0.256609 Si
14 1 2.77218 2.66064 5.48515 -3.24068 3.58707 0.0483679 -1.3209 1.15019 0.299811 Si
15 1 1.25509 1.38736 6.82947 -4.01974 3.58381 0.852863 0.648065 -0.505031 -0.35586 Si
3 1 4.09702 1.32835 4.18059 -1.77777 3.01432 3.33488 -0.526191 -0.155051 -1.80562 Si
47 1 6.83737 1.41863 6.75782 -0.725679 -2.22368 -3.02117 0.144118 -0.796261 0.230346 Si
35 1 9.50954 1.40446 4.08903 3.24313 2.05559 0.739289 0.722422 -0.341448 -0.551918 Si
46 1 8.17541 2.72772 5.37856 1.90998 -4.98706 -4.07927 -0.666932 1.35875 0.718294 Si
5 1 1.36996 4.12277 4.09947 -1.10822 0.347927 -4.80066 0.583007 -1.2749 0.253117 Si
28 1 -0.041439 5.39617 5.43396 -2.70492 -8.8413 3.86891 0.403151 0.552246 0.416835 Si
31 1 1.28424 6.73684 6.86621 -2.08822 1.14058 -0.501666 0.422656 0.24704 -0.0923821 Si
9 1 4.08737 4.0682 6.87164 -1.29762 0.805317 1.24534 0.240677 -0.068161 -0.298533 Si
19 1 4.01061 6.92858 4.07648 -5.02316 -5.43396 -3.5444 -0.0869945 -1.30964 0.525182 Si
37 1 6.65871 4.08024 4.08694 1.63708 -0.571529 -0.0443296 1.0993 -0.878742 -0.693215 Si
60 1 5.38021 5.44852 5.40791 0.888314 0.314798 -3.06758 -0.924757 0.534304 0.267406 Si
63 1 6.79341 6.81056 6.66904 -6.18293 -0.0969705 -0.454178 0.470448 0.333696 0.680593 Si
41 1 9.45726 4.15837 6.84244 -1.60955 -5.05741 -0.684966 0.243896 -1.44471 -0.789077 Si
51 1 9.64743 6.79228 4.01333 3.22433 0.666981 0.532239 -1.33767 -1.12327 0.38275 Si
21 1 1.31633 9.51606 4.08358 5.13721 -1.70373 0.515025 0.418909 0.325329 -0.0832086 Si
30 1 2.64144 8.17646 5.5384 7.13209 -0.566103 -2.28014 0.313031 0.343857 -0.0933066 Si
44 1 5.42902 0.0286591 5.45086 -0.847476 1.46697 -3.63569 1.26738 -0.660617 0.402685 Si
25 1 4.1258 9.58164 6.83341 2.16171 -2.63438 -4.16421 -1.50478 0.341887 -0.697106 Si
53 1 6.80462 9.47929 4.10509 3.44289 -5.49323 -0.165397 0.261132 0.759385 0.138129 Si
12 1 -0.0992726 -0.00144494 5.43274 -1.71741 -1.01903 1.12673 1.02599 0.126802 -0.00513463 Si
57 1 9.52937 9.46281 6.75492 2.22796 1.62255 -7.07113 -0.287831 0.707618 1.11418 Si
62 1 8.28716 8.10914 5.34767 -1.26655 0.115644 -1.83168 -1.10139 0.0371323 0.230923 Si
6 1 2.78969 2.74759 -0.0572626 -1.67272 -1.97464 0.17663 -0.601066 -0.0644511 0.523139 Si
11 1 4.10598 1.40596 9.54557 0.358144 4.6343 2.57446 0.793353 -0.643561 -0.83532 Si
42 1 5.56152 2.73072 8.18433 -1.78842 -2.25931 0.869254 -1.57067 -0.165922 -0.351662 Si
10 1 -0.0963003 2.71454 8.19039 -6.08701 2.78546 -1.5733 0.651464 1.07404 0.312009 Si
43 1 9.5242 1.36551 9.57844 2.407 -0.770239 -3.36329 0.073897 -0.559068 0.242831 Si
13 1 1.35586 4.06855 9.607 1.99587 -0.480506 2.07147 -0.675453 -0.278229 -1.10785 Si
32 1 2.69481 5.40197 8.23517 0.841558 0.962657 -1.22494 0.363429 0.522423 -0.33612 Si
52 1 5.51143 5.51202 -0.0564049 -1.15048 -2.7941 0.660969 -0.766772 -0.221403 0.209792 Si
27 1 4.15714 6.86696 9.44675 -1.28343 -1.22948 3.56704 -0.0190233 -0.427206 -0.362907 Si
45 1 6.80227 4.10473 9.49897 -2.12957 -0.732385 0.912689 0.894724 0.0522971 0.71905 Si
20 1 -0.0152182 5.46604 -0.018286 -0.469021 3.59937 1.45632 -0.373627 -0.165533 0.337794 Si
59 1 9.4781 6.77322 9.45642 1.3664 3.65508 0.983698 0.0427869 0.6921 1.20188 Si
64 1 8.11126 5.46814 8.13761 3.5041 2.16216 0.548171 -0.594817 0.364581 -0.32123 Si
22 1 2.74877 8.05733 -0.0191407 0.467103 -0.959976 3.18806 -0.146171 1.38384 -0.171528 Si
16 1 2.71235 0.0494227 8.177 6.01218 3.56354 2.9791 -0.337132 -0.280037 0.299053 Si
26 1 -0.00276683 8.18312 8.21872 -1.28395 -0.317141 5.91444 -0.594406 -0.533002 -0.844078 Si
29 1 1.32355 9.50429 9.55456 4.88241 0.637896 1.91302 1.10295 0.697101 0.553584 Si
58 1 5.51529 8.29522 8.04956 3.20141 1.76267 -3.22345 -0.269663 -2.0982 0.463531 Si
61 1 6.75042 9.46789 9.55252 0.456818 1.00491 1.04433 1.57585 1.48496 -0.576968 Si
48 1 8.18023 0.0432536 8.16829 4.39004 0.812929 -0.062293 -0.350013 -1.16029 -0.0820907 Si
ITEM: TIMESTEP
14800
ITEM: NUMBER OF ATOMS
64
ITEM: BOX BOUNDS pp pp pp
0.0000000000000000e+00 1.0887404739999999e+01
0.0000000000000000e+00 1.0887404739999999e+01
0.0000000000000000e+00 1.0887404739999999e+01
ITEM: ATOMS id type xu yu zu vx vy vz fx fy fz element
2 1 -0.102412 2.6418 2.7643 1.36998 1.52359 0.986634 -0.117361 1.32699 -1.00703 Si
7 1 1.3042 1.44138 1.3517 0.638904 -0.844249 0.663509 0.675914 -0.866944 -0.131706 Si
34 1 5.41743 2.74908 2.6843 1.79591 -2.13713 -4.14329 0.401103 -0.281824 0.122001 Si
36 1 5.37787 0.108936 0.00255557 0.179319 1.39897 0.18934 1.05764 -1.28332 -0.00829588 Si
39 1 6.80825 1.38757 1.31261 1.47701 -0.439306 3.72635 0.417704 -0.216891 0.782957 Si
38 1 8.15753 2.71428 -0.0967005 4.66656 -1.76773 1.09512 -0.289193 0.365903 0.45357 Si
40 1 8.18656 -0.0954542 2.72396 1.01459 -3.35078 7.12548 -0.931014 1.61184 0.165612 Si
23 1 1.3763 6.86505 1.44322 2.80638 -1.73293 3.10475 -0.612331 -0.149454 -0.854567 Si
24 1 2.66812 5.459 2.75616 -0.854024 -5.3555 2.97183 0.195977 -0.247428 0.882722 Si
1 1 3.95404 4.08083 1.37646 -3.45821 1.72343 1.57045 0.948217 -0.0179023 -0.244702 Si
55 1 6.85572 6.72972 1.2564 0.896647 -4.96135 -1.50619 -0.111412 0.796277 0.56387 Si
33 1 9.50924 4.10999 1.25657 0.105062 7.18382 -0.656756 0.432078 -0.356626 0.894165 Si
56 1 8.20455 5.46403 2.71421 0.174749 -3.18604 -2.87947 -0.50302 -0.757853 -0.0973431 Si
4 1 0.0366675 0.0015463 -0.019781 1.04929 1.69818 4.73664 -0.911602 0.0232626 0.48289 Si
8 1 2.70507 0.0462469 2.69894 -2.30629 -2.67032 -6.70543 -0.589609 -0.490401 -0.23098 Si
18 1 -0.0119575 8.22757 2.71694 0.932889 6.44256 -3.64898 -0.23807 -0.94438 1.4486 Si
17 1 4.08644 9.5807 1.34766 -2.88586 0.687891 -0.825064 0.0537129 -0.39036 0.545648 Si
50 1 5.49428 8.11405 2.69723 -2.65282 2.84547 -0.0862199 0.185948 0.757343 -0.5498 Si
49 1 9.52122 9.49177 1.38136 -3.69148 -2.91367 -4.52978 0.41974 0.383454 -1.39409 Si
54 1 8.24155 8.14793 -0.100223 -1.81525 1.21429 -1.03012 -1.22663 0.636727 1.20535 Si
14 1 2.7374 2.76924 5.36116 2.00901 0.423648 -0.491323 0.266258 -0.408046 0.507094 Si
15 1 1.39929 1.37193 6.74352 2.66973 -1.7369 0.338037 0.493293 0.0150753 0.591301 Si
3 1 4.09773 1.31436 4.00932 -0.312731 -2.67654 -1.93498 0.167366 0.632395 0.996156 Si
47 1 6.73763 1.37874 6.78784 2.54381 3.25432 4.13649 0.272726 -0.174844 0.361878 Si
35 1 9.50782 1.31352 4.14365 -5.64434 0.540071 0.301807 -0.455338 -0.363759 0.169042 Si
46 1 8.2433 2.77553 5.56551 1.06893 2.65373 4.49717 -0.87521 -1.8508 -1.19951 Si
5 1 1.22624 4.03787 4.09531 1.36395 5.16603 -0.934419 0.55653 0.992013 -0.291725 Si
28 1 -0.067907 5.51491 5.45356 0.6936 -2.41612 -1.90201 0.754099 -0.536888 -0.0261238 Si
31 1 1.46376 6.76818 6.77869 4.74841 -0.911143 -2.83232 -0.458811 0.0738727 0.0749734 Si
9 1 4.08666 4.13804 6.82075 1.06163 -0.197975 0.115029 -0.506913 -0.27226 -0.200572 Si
19 1 4.20674 6.77747 4.09788 -1.86872 1.7487 1.45639 -0.923613 -0.394553 -0.594687 Si
37 1 6.89549 3.98758 4.10103 -1.63075 5.40212 1.56121 -0.715923 1.43862 -0.12335 Si
60 1 5.52172 5.46593 5.49244 4.72032 -0.420676 2.30681 0.914608 -0.494158 0.0448714 Si
63 1 6.91068 6.85313 6.9048 5.76269 -1.63089 -3.95698 -1.21402 -1.00928 -0.263204 Si
41 1 9.61386 4.04032 6.80713 0.435223 4.74957 4.32001 0.173364 1.16301 0.931366 Si
51 1 9.41108 6.85769 4.15013 -2.17162 2.91573 -2.07949 1.16439 0.542485 -0.845945 Si
21 1 1.39242 9.51793 4.11745 1.87473 2.76444 -1.03155 0.494878 -0.115636 -0.804541 Si
30 1 2.83019 8.13117 5.40111 -5.91138 0.578072 -3.31414 -0.653598 0.0118563 0.17914 Si
44 1 5.41173 -0.082752 5.4594 2.84875 0.876789 1.53793 -0.191098 1.86916 -0.212187 Si
25 1 4.11526 9.47768 6.78302 -2.45634 -0.409622 3.45311 -0.194114 -0.487446 0.563457 Si
53 1 6.75141 9.57265 4.13664 2.19946 1.87184 2.3423 0.773013 -1.46486 -0.955013 Si
12 1 0.0589964 -0.0357954 5.43681 -0.0419521 -3.06559 -2.82945 -1.02148 0.0179655 0.864101 Si
57 1 9.51844 9.51007 6.89175 -7.04934 -0.906319 2.03342 0.559954 0.330166 -1.47284 Si
62 1 8.11529 8.22358 5.52112 -0.371879 1.3464 4.24433 0.262701 0.396492 -0.31732 Si
6 1 2.73389 2.70009 -0.069582 5.98489 0.861511 -0.522541 -0.927166 0.334678 0.396242 Si
11 1 4.09637 1.34303 9.48902 0.202883 -4.99964 -0.70765 -1.1217 0.0733429 0.059404 Si
42 1 5.33693 2.70966 8.18409 1.66828 -2.25612 0.514698 1.26563 0.423372 -0.867803 Si
10 1 0.0820529 2.74565 8.19041 2.44485 -3.238 -4.23892 -0.913644 -1.33869 -0.815804 Si
43 1 9.52383 1.3477 9.50449 -1.61326 1.80491 -5.15239 0.269693 -0.31235 -0.675207 Si
13 1 1.30189 4.08737 9.52024 -0.975154 2.73594 -2.4699 1.06257 0.32869 1.00604 Si
32 1 2.72233 5.42524 8.28414 2.08578 -3.03952 0.0222442 0.19192 0.384462 -1.10431 Si
52 1 5.39826 5.38399 0.0065865 -0.77453 2.8549 2.04844 -0.23101 0.308405 0.0380536 Si
27 1 4.04554 6.84232 9.60973 -2.34147 -0.600605 1.66227 -0.496726 -0.414334 0.494269 Si
45 1 6.74371 4.08357 9.48152 -3.03751 0.355685 -2.09369 0.322421 -0.308775 0.0143005 Si
20 1 0.0252805 5.53686 -0.0310224 0.0469349 -2.16135 -1.70072 0.0369371 -0.412005 0.698207 Si
59 1 9.54847 6.83472 9.49808 -1.26336 -3.53097 -1.10695 0.520584 -0.774421 -0.785856 Si
64 1 8.23647 5.38532 8.17172 1.26938 -1.43043 -2.20407 -0.175301 0.257193 0.18709 Si
22 1 2.639 8.26269 0.0512 -0.0550028 -4.07835 0.00885052 1.07594 -0.813032 -0.01749 Si
16 1 2.78925 -0.0379736 8.11994 -3.36772 -0.684298 0.914202 -0.88349 0.265199 0.056214 Si
26 1 0.0251002 8.11306 8.0979 0.616438 3.57983 -0.89113 0.630205 0.343477 0.76253 Si
29 1 1.35855 9.52985 9.51555 -2.40291 -2.18085 -1.377 -0.132057 0.114986 -0.960718 Si
58 1 5.3782 8.08763 8.20712 0.273984 -0.473626 2.2096 1.15124 1.20828 0.105292 Si
61 1 6.77924 9.56878 9.55423 -0.612863 -1.1435 4.43211 -0.710315 -0.70891 -0.119406 Si
48 1 8.10707 -0.0472096 8.13408 -4.13414 2.3456 -0.843622 0.163426 1.23144 0.52372 Si
ITEM: TIMESTEP
14900
ITEM: NUMBER OF ATOMS
64
ITEM: BOX BOUNDS pp pp pp
0.0000000000000000e+00 1.0887404739999999e+01
0.0000000000000000e+00 1.0887404739999999e+01
0.0000000000000000e+00 1.0887404739999999e+01
ITEM: ATOMS id type xu yu zu vx vy vz fx fy fz element
2 1 0.103381 2.81972 2.67956 0.447397 -0.875281 -0.45149 0.220597 -1.75505 0.913057 Si
7 1 1.44272 1.30831 1.37117 2.58785 3.37874 -0.215113 -1.44795 0.46448 -0.271078 Si
34 1 5.47834 2.75287 2.76585 -3.25225 1.92575 1.17841 -0.208172 -0.942669 -0.21906 Si
36 1 5.44401 -0.111705 0.00334934 -0.591359 -3.34214 1.8036 -0.288812 1.05327 -0.0623357 Si
39 1 6.7611 1.28211 1.37996 -1.46226 -1.67865 -0.408658 -0.561601 1.46049 -0.583103 Si
38 1 8.16771 2.75602 0.136403 0.699145 -0.0406623 -0.805638 0.440814 -0.828363 -1.03847 Si
40 1 8.12029 0.0847104 2.6877 0.755827 -4.05968 -4.37354 0.92217 -0.960865 1.07038 Si
23 1 1.36795 6.69464 1.22635 0.514051 0.161681 0.229934 0.363247 1.23084 0.824617 Si
24 1 2.76201 5.44221 2.64579 -2.55226 1.91799 -3.9714 -0.070662 -0.0760266 -0.185934 Si
1 1 4.15885 4.05699 1.35992 -3.3222 1.78082 -2.08609 -0.636108 -0.0187246 -0.155979 Si
55 1 6.79614 6.87433 1.4297 -1.8776 1.11588 1.18694 -0.78386 -0.913554 -0.323697 Si
33 1 9.60235 4.08913 1.43762 1.72424 -0.912416 -2.9625 -0.888144 0.447267 -0.797502 Si
56 1 8.17536 5.45994 2.70519 3.82486 0.542398 0.570552 0.401308 0.445577 0.368551 Si
4 1 -0.0317019 -0.0331833 0.00304265 5.47159 1.23284 -3.84487 0.919439 0.504112 0.166366 Si
8 1 2.67547 -0.0386179 2.77111 3.88265 -1.86607 2.78357 1.19868 0.649312 -0.667109 Si
18 1 0.0462882 8.11192 2.69564 4.77217 -2.89587 0.732658 -0.416028 0.00468402 -0.697021 Si
17 1 4.00763 9.53993 1.36994 0.535734 1.69402 -1.38433 0.629063 -0.885551 0.0434844 Si
50 1 5.44187 8.24078 2.77935 1.31157 -1.32012 -2.44416 -0.979552 -0.566382 0.351743 Si
49 1 9.50163 9.58954 1.43447 1.49686 0.842332 8.1352 0.26848 -1.00514 -0.420999 Si
54 1 8.12588 8.17862 0.09473 -0.457899 -0.590663 -4.86213 0.62359 0.473871 -0.693291 Si
14 1 2.70484 2.65943 5.47988 -0.730368 1.12078 0.674817 0.464304 -0.203145 0.126956 Si
15 1 1.32076 1.34169 6.93653 -3.93571 1.19947 -0.113458 -0.331145 0.272115 -1.36402 Si
3 1 4.10066 1.30249 4.09131 -4.21151 -1.3067 -2.91719 0.0191556 0.563553 0.237743 Si
47 1 6.79899 1.3464 6.81037 0.132866 1.19518 0.433139 0.424712 0.260065 0.246936 Si
35 1 9.51349 1.41402 4.01505 1.89973 -2.36281 -0.116775 0.559267 0.419889 0.12976 Si
46 1 8.10968 2.69376 5.41938 -3.10537 2.25025 3.43577 0.539821 0.80421 0.0626727 Si
5 1 1.50909 4.09874 4.04779 -1.83558 -4.88804 1.76472 -0.83618 -0.270106 0.475202 Si
28 1 0.0828715 5.37861 5.44737 -0.157179 4.89042 -0.153081 -0.787563 0.77883 -0.424769 Si
31 1 1.28021 6.8768 6.81429 -3.3957 -2.99656 2.50113 0.214522 -0.195652 -0.181285 Si
9 1 4.10875 4.01312 6.83623 2.85788 1.52319 2.16022 -0.286567 0.332839 -0.393573 Si
19 1 3.90123 6.81783 4.1227 3.41416 -0.22907 1.05408 1.68646 0.945026 -0.215412 Si
37 1 6.81704 4.1528 4.06609 -1.10693 -6.8855 0.329955 -0.290849 -0.393188 0.503266 Si
60 1 5.37095 5.45312 5.42948 -4.97238 -0.827911 2.07547 -0.0508646 -0.193229 -0.101099 Si
63 1 6.78729 6.7646 6.76001 1.5514 2.78261 1.87278 -0.271788 0.663344 0.0412976 Si
41 1 9.48577 4.11247 6.79416 -0.55849 -2.48425 -2.00854 -0.262745 -0.0592371 -0.981336 Si
51 1 9.54175 6.81362 4.09948 -2.76681 -1.04859 3.86619 0.309186 -0.603268 -0.0210302 Si
21 1 1.34152 9.53809 4.0015 -2.89733 0.358677 0.705422 -1.19978 0.0449456 1.16069 Si
30 1 2.60504 8.29642 5.45866 -3.69963 -1.94169 0.860883 0.190022 -1.06479 0.0310161 Si
44 1 5.50867 0.00548029 5.47668 4.42752 -0.618827 2.3156 -0.803615 -0.508868 -0.48752 Si
25 1 3.98805 9.61094 6.7855 -0.637975 2.93407 0.591642 1.32627 -0.448169 0.488524 Si
53 1 6.89777 9.55236 4.10195 0.721599 1.85547 -2.08306 -1.30781 0.617109 -0.475523 Si
12 1 -0.042839 0.0196385 5.41426 5.53105 -1.16582 2.28876 0.855396 0.358968 -0.357044 Si
57 1 9.52916 9.50649 6.68792 0.552291 0.596584 2.53954 -0.36791 -0.120039 1.38924 Si
62 1 8.11695 8.16488 5.40995 0.776096 -2.16631 -2.17677 0.881749 -0.728138 0.326694 Si
6 1 2.7266 2.70257 0.0187593 0.0366578 -0.548272 -1.54882 0.756546 0.0828498 0.0108497 Si
11 1 4.0974 1.35136 9.56986 1.95137 1.92958 -2.45495 0.593172 -0.075678 0.372655 Si
42 1 5.49052 2.67784 8.21081 0.0895767 -0.71739 -4.59022 0.0249699 0.496417 0.22297 Si
10 1 -0.0808792 2.82166 8.12862 0.521502 1.03293 5.52398 1.05578 -0.972151 0.923692 Si
43 1 9.5669 1.39212 9.52564 -0.243608 -4.69442 3.66435 -0.965232 0.317351 0.452069 Si
13 1 1.42582 4.04299 9.49153 -4.30703 -2.30609 2.13635 -0.62604 0.440177 -0.343422 Si
32 1 2.68864 5.47441 8.06192 -0.471653 1.68255 4.8217 0.155525 -0.792841 0.525646 Si
52 1 5.44717 5.43715 -0.00200019 0.674356 0.174162 -2.70537 0.900526 0.24801 0.0787369 Si
27 1 4.08601 6.70282 9.45677 3.80916 2.71853 -2.31071 0.669392 0.928914 -0.308043 Si
45 1 6.89703 4.10035 9.53883 -0.412975 3.04245 -3.77834 -0.887639 -0.345592 0.281713 Si
20 1 0.00857243 5.34249 -0.0316157 -2.08648 1.52503 1.8164 -0.168283 0.12324 -0.381737 Si
59 1 9.45906 6.7493 9.61965 -3.73501 0.563172 -0.279639 0.191 0.4251 -0.29537 Si
64 1 8.15558 5.47396 8.13585 -2.82438 2.28506 -2.2186 0.108781 -0.099503 0.308912 Si
22 1 2.79937 8.09862 -0.0890755 -0.0902206 5.24048 -0.114765 -0.928119 0.269248 0.568739 Si
16 1 2.74095 0.0378028 8.25441 -1.52037 3.14322 -1.05433 -0.289907 -0.0468732 -0.615666 Si
26 1 -0.102822 8.14528 8.22791 0.742682 -3.86625 -3.96729 0.401586 0.599152 -0.206529 Si
29 1 1.40288 9.54036 9.51884 3.0155 3.26916 2.68069 -0.882275 -0.892828 0.346271 Si
58 1 5.45609 8.17539 8.11441 1.97907 -4.9915 0.608481 -0.67099 -0.038227 0.0218122 Si
61 1 6.83962 9.5296 9.49975 2.27341 3.9453 -3.07392 0.152969 -0.41862 -0.142268 Si
48 1 8.21784 0.019206 8.1131 -1.7633 -2.22325 -1.86716 0.0276883 -0.302795 0.338976 Si
ITEM: TIMESTEP
15000
ITEM: NUMBER OF ATOMS
64
ITEM: BOX BOUNDS pp pp pp
0.0000000000000000e+00 1.0887404739999999e+01
0.0000000000000000e+00 1.0887404739999999e+01
0.0000000000000000e+00 1.0887404739999999e+01
ITEM: ATOMS id type xu yu zu vx vy vz fx fy fz element
2 1 -0.0798261 2.69285 2.66501 -1.85592 -0.487762 -1.29346 0.276175 0.183314 0.819803 Si
7 1 1.3195 1.33116 1.42421 -0.114292 -2.18438 0.460862 0.640264 0.280871 -0.560646 Si
34 1 5.45288 2.67652 2.6752 0.547054 0.812502 1.36028 0.0830138 1.32054 0.438319 Si
36 1 5.41116 0.150237 -0.0322968 -2.10589 -3.53558 -1.1262 0.426456 -1.56934 0.404724 Si
39 1 6.82691 1.36462 1.37543 -2.18907 2.2522 -3.89195 0.129932 -0.00733182 -0.539366 Si
38 1 8.16403 2.72688 -0.024486 -3.26332 2.60975 -1.80306 -0.427238 0.228114 -0.183588 Si
40 1 8.09887 -0.0512268 2.7419 -1.55274 6.92715 1.65985 1.12852 0.197775 -0.982596 Si
23 1 1.31633 6.86916 1.422 -4.68858 1.62417 -4.17186 -0.124184 -0.465282 0.342257 Si
24 1 2.68015 5.41196 2.73025 1.69224 1.78937 -0.492615 -0.00854092 0.552826 -0.12293 Si
1 1 4.06944 4.08846 1.37766 4.11487 -6.06601 -0.964477 -0.0681531 -0.203752 -0.0459789 Si
55 1 6.83328 6.74097 1.2734 -1.8279 3.83926 2.28548 0.209023 0.930787 0.99665 Si
33 1 9.50005 4.07375 1.35554 1.53429 -2.398 2.23203 -0.446004 -0.315349 -0.169221 Si
56 1 8.15264 5.38549 2.71033 1.83986 4.35033 4.51415 -0.0430171 0.468084 0.13564 Si
4 1 0.00160956 0.0287089 0.0163522 -6.42599 -0.212241 -0.104347 -0.114134 -0.572302 -0.934292 Si
8 1 2.73555 -0.0117597 2.75196 -3.73638 3.34526 -1.80372 0.251494 0.385374 0.369304 Si
18 1 -0.0413257 8.21204 2.84826 -5.44633 -4.57419 4.09759 0.552747 -0.00146333 -0.888191 Si
17 1 4.15358 9.57513 1.40423 -1.02073 -2.44505 3.44063 -0.447714 0.566025 -0.630267 Si
50 1 5.47481 8.17599 2.67667 -0.232479 5.34384 -0.0583395 0.608846 -0.831828 -0.484219 Si
49 1 9.51137 9.50477 1.32819 4.60711 -0.483198 -1.96457 0.216658 0.471088 0.953685 Si
54 1 8.22755 8.15029 -0.0385742 0.862604 0.583598 2.60218 -0.379953 -0.549891 -0.512439 Si
14 1 2.67332 2.76521 5.4498 1.72115 -3.53298 0.325531 -0.0345946 0.594267 -0.812983 Si
15 1 1.40588 1.35521 6.78589 2.55207 1.06521 -2.17504 -0.326559 -0.0726147 0.187803 Si
3 1 4.09329 1.45817 4.06938 4.10594 0.902842 2.63042 -0.993753 -0.632871 -0.20496 Si
47 1 6.77967 1.33081 6.79177 -2.91743 -2.75513 0.765868 -0.466088 0.0302175 -0.315734 Si
35 1 9.53637 1.28627 4.0404 1.15886 1.57079 2.79809 -0.228074 0.00569067 0.723245 Si
46 1 8.11469 2.63968 5.4279 2.10845 -8.34397 -1.89847 1.00483 0.403578 -0.0159195 Si
5 1 1.20899 4.13019 4.04994 -1.48377 1.17612 3.03137 0.81637 -0.87743 0.509552 Si
28 1 -0.0727048 5.45113 5.50631 -2.57759 0.374476 -2.23726 0.543151 -0.199622 -0.0118925 Si
31 1 1.43589 6.78152 6.77763 -3.46473 1.1984 -1.63112 -0.894223 -0.0415211 0.501158 Si
9 1 4.03986 4.14416 6.7882 -3.31424 -4.87093 -1.51256 0.533416 -0.207196 -0.139679 Si
19 1 4.17372 6.75666 3.98972 0.878451 0.861089 -2.95393 -0.279716 -0.316957 0.871713 Si
37 1 6.80317 4.05458 4.09955 4.24825 3.63875 -0.0507664 0.183042 -0.666567 -0.748764 Si
60 1 5.56538 5.43342 5.4523 4.4354 2.37436 0.179923 -1.724 0.193647 -0.16733 Si
63 1 6.80781 6.82268 6.81184 -3.52355 -1.92619 2.89661 0.483233 0.174103 0.393435 Si
41 1 9.47436 4.04537 6.83227 1.94394 1.65878 -1.6706 0.309985 -0.520158 0.0599769 Si
51 1 9.53451 6.74521 4.0871 5.65503 3.01249 0.13288 -0.915097 0.430467 0.163082 Si
21 1 1.46968 9.48658 4.177 -0.965536 -0.778619 -6.02655 -0.526146 0.0112152 -0.880034 Si
30 1 2.79974 8.06304 5.4179 5.01926 2.76785 -3.25406 0.88006 0.316805 0.199259 Si
44 1 5.43925 0.0548001 5.30955 -0.385152 2.6007 -5.00212 0.19736 -1.03687 1.36329 Si
25 1 4.17518 9.46421 6.7863 4.24035 -3.46408 -0.311618 -0.887892 1.22399 -0.779472 Si
53 1 6.80312 9.49012 4.03564 -3.69459 -5.70095 2.32159 -0.256034 -0.038029 0.773307 Si
12 1 0.0846489 -0.0476188 5.44543 -5.96319 2.9896 -1.51846 -0.895246 0.363978 0.147973 Si
57 1 9.52052 9.49997 6.79129 3.43005 1.45771 -3.85964 0.282134 0.541774 0.345735 Si
62 1 8.16142 8.14965 5.43217 -2.14098 -1.75361 0.141192 0.0836444 -0.143637 -0.221585 Si
6 1 2.66181 2.75894 0.0447683 -4.33705 -1.41799 2.27692 0.135323 -0.423246 -0.007045 Si
11 1 4.04649 1.4301 9.50296 0.508828 4.33386 4.78284 -0.451273 0.343991 -0.150913 Si
42 1 5.41342 2.73439 8.09291 -2.13641 1.16874 4.20442 -0.245568 0.097527 0.231363 Si
10 1 0.0684063 2.68383 8.19466 -0.773058 2.49675 -4.82649 -0.430839 1.09463 -0.434012 Si
43 1 9.52032 1.4022 9.47196 -0.895165 1.48526 -3.48557 0.183244 -0.659684 0.877323 Si
13 1 1.30805 4.1592 9.62364 6.22184 1.52681 1.50062 0.216497 -0.935624 -0.668372 Si
32 1 2.69656 5.43126 8.21933 -0.284982 -0.290517 -5.06195 0.394682 0.701808 0.287656 Si
52 1 5.39938 5.46424 0.0143517 -4.66463 -5.14899 -1.31368 -0.0305727 -0.584031 -0.520015 Si
27 1 4.05592 6.86934 9.60355 -4.11053 -0.753246 3.35575 -0.16027 -0.304151 -0.625791 Si
45 1 6.72784 4.08515 9.49272 1.57308 -4.30404 3.39014 0.712708 0.272199 0.262269 Si
20 1 -0.0550474 5.44862 0.0787545 6.06789 0.754302 -2.21494 0.726961 0.640302 0.0575924 Si
59 1 9.65335 6.7719 9.48268 7.08265 -0.451614 2.91342 -0.970212 0.805055 0.293757 Si
64 1 8.18296 5.48151 8.18051 0.340483 -2.68699 1.96377 -0.394692 -0.529023 0.0473951 Si
22 1 2.72517 8.21669 0.122651 3.65624 -3.2853 2.60884 -0.0148349 0.101739 -0.749431 Si
16 1 2.75026 0.01109 8.12937 3.23567 0.658434 2.50811 0.586816 -0.58701 -0.0196159 Si
26 1 0.0920119 8.20414 8.1574 -2.43278 0.015449 4.29866 -0.449254 -0.858324 -0.792731 Si
29 1 1.41291 9.50582 9.49197 -1.75223 -3.98789 0.698236 0.0714435 1.07325 1.21541 Si
58 1 5.45663 8.18358 8.185 2.59966 1.28264 0.97411 -0.0578386 -0.822834 0.299542 Si
61 1 6.75934 9.51279 9.55569 -3.85163 1.25441 -3.63304 0.644105 1.00869 0.0851042 Si
48 1 8.13528 0.0355554 8.16592 2.14726 1.73618 -1.03989 0.179583 -1.03978 -0.0373047 Si
ITEM: TIMESTEP
15100
ITEM: NUMBER OF ATOMS
64
ITEM: BOX BOUNDS pp pp pp
0.0000000000000000e+00 1.0887404739999999e+01
0.0000000000000000e+00 1.0887404739999999e+01
0.0000000000000000e+00 1.0887404739999999e+01
ITEM: ATOMS id type xu yu zu vx vy vz fx fy fz element
2 1 -0.00841866 2.73301 2.78635 3.51732 -2.4716 0.806536 0.407565 0.745709 -1.52304 Si
7 1 1.39114 1.47517 1.263 6.10669 -0.836221 -1.93377 0.112532 -0.700875 1.05577 Si
34 1 5.41912 2.69948 2.73238 -1.78087 -6.10656 -1.57625 -0.162646 -0.628961 -0.292285 Si
36 1 5.48743 -0.0717849 0.0737239 -2.4672 5.04283 -1.01792 -0.0179036 0.89117 -0.731042 Si
39 1 6.84877 1.41879 1.3788 1.12551 -1.62386 2.16754 -0.0780041 -1.42584 0.797377 Si
38 1 8.21537 2.70305 0.0447532 -1.05433 -0.116069 0.0566941 -0.622777 0.606056 -0.160441 Si
40 1 8.2381 0.00479951 2.81778 0.252699 -2.32347 6.08893 -1.31111 0.289507 -0.348218 Si
23 1 1.33686 6.78206 1.29507 1.7161 4.54575 1.04639 0.991032 -0.581531 -0.0728605 Si
24 1 2.78198 5.4713 2.74362 -2.65219 -1.28963 -2.65331 -0.136307 -0.225489 0.372977 Si
1 1 4.11928 4.0237 1.31624 -2.99787 -0.082963 -2.48615 -0.0943039 1.21918 0.493499 Si
55 1 6.74524 6.82512 1.51824 1.13191 -4.87985 0.0159973 0.486193 -0.171698 -1.75684 Si
33 1 9.52209 4.14426 1.2687 -2.53729 2.3314 -0.647859 0.716533 -0.580436 1.59201 Si
56 1 8.21143 5.46357 2.72708 -0.84743 -0.838076 -0.491559 -0.823527 -0.475055 -0.298186 Si
4 1 0.0326891 0.0417091 -0.0169024 4.40839 1.67592 5.77801 -0.876037 -0.154993 0.936146 Si
8 1 2.76892 -0.00116119 2.6213 4.0581 -2.00942 -1.2451 -1.38064 -0.271836 -0.180441 Si
18 1 0.0292027 8.16859 2.57611 0.172908 -2.44473 -2.83612 -0.686542 -0.0475258 1.45268 Si
17 1 4.08458 9.43741 1.29091 1.70299 -0.330485 1.28527 -0.455693 -0.102964 0.581542 Si
50 1 5.36662 8.16401 2.82599 -5.00684 1.04904 2.48277 0.565909 0.872855 -0.623178 Si
49 1 9.51811 9.53397 1.36319 0.890748 -1.92239 0.966855 -0.316921 0.173581 -1.11506 Si
54 1 8.11419 8.11637 -0.063512 -0.273565 2.82736 -0.0831844 0.114932 0.408731 1.77682 Si
14 1 2.81317 2.64424 5.42575 -0.661894 1.27701 -1.85266 0.0118406 0.0945836 0.734491 Si
15 1 1.34798 1.33745 6.70229 -1.1012 0.230466 -0.976815 0.463092 0.0623681 1.11217 Si
3 1 4.05945 1.25494 4.05685 -0.595587 -1.16219 0.795063 1.28884 0.17704 0.540249 Si
47 1 6.8541 1.4092 6.81216 3.91989 -0.721556 -1.21296 0.270719 -0.0909027 0.0987162 Si
35 1 9.52657 1.46532 4.1441 1.14196 1.87771 -1.95082 -0.484796 -0.367249 -0.324937 Si
46 1 8.2317 2.90181 5.43944 -0.187582 3.49712 -1.40773 -1.10884 -0.980884 0.163688 Si
5 1 1.43144 3.9805 4.17664 0.688368 2.37673 -0.539791 -0.120192 1.72019 -1.2795 Si
28 1 0.0627081 5.53762 5.37958 -2.40705 -1.23231 1.28105 -0.0691613 -0.924636 -0.00637242 Si
31 1 1.3235 6.79089 6.84711 3.75418 -3.92987 2.57743 1.07468 0.00873174 -0.422729 Si
9 1 4.18879 4.02119 6.81416 -0.512616 2.09713 1.82588 -1.37784 0.0917131 0.444567 Si
19 1 4.11961 6.93202 4.24822 0.800966 0.896463 -3.13927 -2.0962 -1.16114 -1.16308 Si
37 1 6.73409 4.09265 4.00135 -1.46006 0.684303 2.69407 0.584487 1.04467 1.31106 Si
60 1 5.35488 5.47913 5.47408 -1.83046 -1.90838 0.526854 2.22443 -0.358294 -0.102998 Si
63 1 6.83439 6.86358 6.77946 4.58696 3.47998 -4.40481 -0.467658 -1.08162 0.125208 Si
41 1 9.66656 4.15301 6.78024 -5.00923 3.03046 -1.32705 -0.909138 0.427805 0.845466 Si
51 1 9.51704 6.83954 4.02572 1.00958 -1.50693 -2.72575 1.18597 0.229435 -0.213522 Si
21 1 1.24886 9.59726 4.0166 -1.03044 1.07021 1.82566 1.04658 -0.242179 0.0805756 Si
30 1 2.62877 8.22862 5.49572 -4.23813 -1.21616 4.17307 -0.27939 0.391156 -0.356077 Si
44 1 5.41071 -0.059353 5.60639 -4.7237 1.0664 0.619399 0.511516 1.66153 -1.69029 Si
25 1 4.04363 9.55092 6.82452 5.30915 2.82481 -1.07106 -0.723236 -1.27648 1.06217 Si
53 1 6.71559 9.53969 4.16528 0.782025 0.833122 0.660914 1.21103 0.0160773 -0.362545 Si
12 1 -0.0844439 0.068756 5.43836 -2.02128 -0.441285 -2.10499 0.00969636 -1.08677 0.255638 Si
57 1 9.49105 9.55134 6.91054 -6.13498 -2.84294 -3.18536 0.053142 -0.115892 -1.53816 Si
62 1 8.21325 8.15562 5.41041 5.98547 2.15135 -3.43902 -0.499181 1.07039 0.564245 Si
6 1 2.80926 2.75247 -0.0946631 1.72398 3.06828 -1.12956 -0.829598 -0.219128 -0.10244 Si
11 1 4.0875 1.27004 9.51661 -0.614885 -0.405859 2.27361 0.321336 -0.190487 0.0288103 Si
42 1 5.49053 2.6908 8.23166 5.96482 1.49602 0.132666 -0.0492316 -0.32065 -0.203553 Si
10 1 0.0412333 2.66443 8.15051 -0.846622 1.10885 3.66623 -0.821048 -0.0906035 -0.300251 Si
43 1 9.48815 1.36427 9.60605 -1.02019 2.23451 2.3577 0.771271 -0.256234 -1.35394 Si
13 1 1.34671 4.04977 9.44519 1.17282 -1.17661 2.93033 0.838288 0.315582 0.591155 Si
32 1 2.76897 5.43178 8.17415 -0.498694 -3.44771 3.1688 -0.440143 -0.792032 -1.175 Si
52 1 5.47407 5.44664 -0.0177856 4.68748 2.69628 -0.292707 -0.0920415 0.156516 0.747825 Si
27 1 4.1264 6.76509 9.43173 0.209505 -2.21105 -2.35718 -0.577239 -0.130226 1.57467 Si
45 1 6.82811 4.03084 9.59781 1.68905 1.38366 -2.248 0.291012 0.442058 -0.442858 Si
20 1 0.00190633 5.43167 -0.0901444 -2.54897 -1.45121 2.22558 0.196491 0.0465127 0.112124 Si
59 1 9.51106 6.80429 9.51585 -3.2192 -5.54267 -5.08195 -0.24581 -0.43338 -0.097406 Si
64 1 8.13378 5.4588 8.20168 0.788993 -0.348346 0.04536 0.544474 -0.591315 -0.763165 Si
22 1 2.68119 8.11536 -0.115704 -1.93517 0.650098 2.91045 0.541988 -0.172378 0.534953 Si
16 1 2.62464 -0.053469 8.1555 0.522072 -2.81124 -0.139157 0.0657173 0.358319 0.310623 Si
26 1 -0.0650828 8.082 8.11762 -1.74853 3.33013 -2.62842 0.173272 1.11027 1.05946 Si
29 1 1.23779 9.48436 9.5613 0.746144 -3.00609 0.0106035 0.644813 -0.24275 -1.40002 Si
58 1 5.39793 8.10814 8.1521 -4.43388 5.81799 -2.67653 0.858943 1.47942 -0.621662 Si
61 1 6.78832 9.50502 9.51586 -0.0816231 -3.80315 1.61288 -0.823769 -0.660309 0.193813 Si
48 1 8.11875 -0.0243634 8.25416 -2.08719 -0.210514 1.85419 0.398601 1.04159 -0.528423 Si
ITEM: TIMESTEP
15200
ITEM: NUMBER OF ATOMS
64
ITEM: BOX BOUNDS pp pp pp
0.0000000000000000e+00 1.0887404739999999e+01
0.0000000000000000e+00 1.0887404739999999e+01
0.0000000000000000e+00 1.0887404739999999e+01
ITEM: ATOMS id type xu yu zu vx vy vz fx fy fz element
2 1 -0.0502216 2.69064 2.66674 -1.86303 0.440305 -0.280205 0.401747 -0.689992 1.49544 Si
7 1 1.34705 1.28625 1.43308 -3.30367 5.22146 1.17846 -0.533375 -0.025548 -0.592377 Si
34 1 5.43837 2.77275 2.77934 0.704767 3.59265 1.22776 0.143485 0.0359051 -0.893523 Si
36 1 5.48475 -0.0417331 -0.0203418 1.01953 -0.443338 3.34973 -0.989962 0.969498 -0.126655 Si
39 1 6.77078 1.42713 1.28767 2.51923 -1.33756 -0.874684 -0.338535 0.168609 0.25717 Si
38 1 8.13793 2.75767 -0.071059 0.549733 0.433591 -0.150586 0.628007 -1.06022 0.609869 Si
40 1 8.1468 0.0440297 2.54729 0.200381 -6.11524 -3.04664 0.344229 -0.67675 1.19379 Si
23 1 1.34766 6.80314 1.35681 1.24343 -5.0391 5.78945 -0.0281196 0.685362 0.431611 Si
24 1 2.71025 5.45945 2.71381 -3.54982 -0.53178 -0.193105 -0.555973 -0.689857 -0.579284 Si
1 1 4.06097 4.11103 1.32331 -4.82445 1.76569 1.9734 0.0131871 -0.610157 0.444662 Si
55 1 6.85867 6.79511 1.30807 1.57163 0.999878 -1.24809 -0.0745684 -0.952882 0.12017 Si
33 1 9.48386 4.0032 1.37929 1.12923 -0.927767 -2.83754 0.228064 1.25393 -0.968796 Si
56 1 8.17434 5.40998 2.73076 0.783664 2.15712 -0.732119 0.125083 0.445305 -0.397151 Si
4 1 0.0111517 -0.0486222 -0.047409 4.08863 0.543417 -2.43903 0.659975 0.334695 0.679001 Si
8 1 2.73888 0.0419869 2.83547 -0.5037 2.18578 -0.348429 0.207942 -0.37924 -0.0991156 Si
18 1 -0.0259744 8.09958 2.87169 3.15514 4.43382 -0.652094 0.586193 0.654744 -1.31036 Si
17 1 4.05489 9.55354 1.39829 0.380553 5.18475 -6.34329 0.836212 0.329057 0.00337212 Si
50 1 5.54027 8.15286 2.59862 6.89361 -0.746729 -2.57277 -1.34977 -0.0794726 1.13512 Si
49 1 9.59633 9.51527 1.3665 -4.55043 0.909415 3.26223 -0.187639 -0.530988 0.257271 Si
54 1 8.18302 8.17956 0.0439108 -1.01421 -5.20282 -2.97778 0.0078506 0.83786 -1.12236 Si
14 1 2.70433 2.78144 5.50983 3.12411 1.75826 -2.54118 -1.08483 -0.277323 -0.827853 Si
15 1 1.36276 1.42502 6.86443 1.2199 -3.42753 1.39019 -0.3541 -0.178893 -0.0638556 Si
3 1 4.09642 1.45715 4.18337 -1.57088 -4.52814 -2.35459 -0.36809 -0.26572 -0.832236 Si
47 1 6.76081 1.27172 6.74618 -2.6861 1.24302 -5.19524 -0.218005 0.513664 0.76589 Si
35 1 9.53755 1.20196 4.07176 -5.49556 -2.94919 0.860727 0.169387 0.953089 -0.425104 Si
46 1 8.14874 2.56191 5.4075 0.0504531 4.52538 7.19369 0.539714 0.877137 0.318656 Si
5 1 1.32432 4.08292 4.06131 -2.0562 -1.18418 -3.63071 -0.0419572 -0.25039 -0.0165718 Si
28 1 -0.0485318 5.41906 5.44594 -1.12847 3.14445 2.01009 -0.225027 -0.330332 0.530646 Si
31 1 1.32914 6.7881 6.80524 -0.271977 0.665272 -1.67816 -0.146071 0.591502 -0.36593 Si
9 1 3.87898 4.19715 6.80757 3.61297 1.51057 2.40731 2.64961 -0.506822 -0.175935 Si
19 1 4.07957 6.75343 3.9868 -1.31712 -1.15867 3.31861 1.43323 0.94565 0.528755 Si
37 1 6.90087 4.06927 4.09983 3.2136 -6.58721 -5.03932 -0.731767 -0.708525 -0.0816306 Si
60 1 5.4424 5.36845 5.36534 0.611612 0.869973 3.50391 -0.830613 0.577364 0.827609 Si
63 1 6.68795 6.73732 6.86009 5.8578 -0.563637 6.39964 1.05729 0.581951 -0.702986 Si
41 1 9.44194 4.024 6.84613 1.58293 -2.94744 2.96012 0.590221 -0.267989 -0.891647 Si
51 1 9.45122 6.78262 4.14744 -5.32809 0.463817 3.18809 -0.0870303 -0.0960948 0.139068 Si
21 1 1.42619 9.47255 4.16449 3.17399 -0.316288 -0.805441 -0.0754876 0.0405104 0.301277 Si
30 1 2.84684 8.09994 5.50507 1.36087 0.94707 0.0898362 -1.4368 -0.533067 -0.860452 Si
44 1 5.42507 -0.034847 5.32801 3.79399 -6.35822 2.65285 -0.0804482 -0.591249 1.14553 Si
25 1 4.05524 9.4993 6.81877 -2.9839 3.67236 -2.27676 1.40439 1.02893 -0.785397 Si
53 1 6.8428 9.5328 3.9837 0.903891 5.3347 1.63511 0.0340353 0.111912 -0.0779701 Si
12 1 0.0481274 -0.037201 5.52972 1.88268 -6.54692 2.81145 0.92647 0.68469 -1.18723 Si
57 1 9.6419 9.52586 6.77867 1.04945 0.700114 5.69828 -0.870407 -1.25344 0.588886 Si
62 1 8.11641 8.20323 5.4903 -3.13562 -1.65466 1.9695 -0.0509991 -0.590456 0.162596 Si
6 1 2.61745 2.66456 0.0595681 -2.94957 -0.637948 -0.250803 1.18408 0.631018 -0.00229267 Si
11 1 4.06368 1.42954 9.55048 -2.77598 -1.88681 -3.36337 0.501621 -0.630871 -0.0629724 Si
42 1 5.37653 2.80648 8.11668 -4.39646 -1.17548 -0.00479187 0.502419 -0.235479 -0.0487842 Si
10 1 -0.0523783 2.74777 8.25965 3.85787 4.36972 0.403277 0.661501 -0.0138786 -0.144329 Si
43 1 9.51052 1.2885 9.54317 0.0383845 -0.764888 -0.326912 0.000299673 0.817641 -0.128978 Si
13 1 1.40277 4.12919 9.59806 -2.66149 1.89898 -4.71549 -1.26549 -0.555788 -0.414059 Si
32 1 2.61988 5.48694 8.16233 -2.20132 1.87277 5.21979 0.620191 0.774975 1.28032 Si
52 1 5.4791 5.41584 -0.0433741 -0.531497 -0.591086 -1.2129 -0.539923 0.93061 0.0592022 Si
27 1 4.05095 6.8861 9.54129 -0.0363102 1.90013 -0.0118146 0.772202 -0.791256 -0.640999 Si
45 1 6.87074 4.11071 9.52019 -2.67096 4.08249 -3.7873 -1.62256 -0.525293 -0.701553 Si
20 1 -0.0138971 5.46537 0.00867362 4.18392 -0.334681 -0.396794 -0.513995 -0.371135 0.410594 Si
59 1 9.53859 6.87943 9.5414 -1.08839 1.29411 -1.15737 -0.0687819 -0.787756 -0.295077 Si
64 1 8.15974 5.40636 8.18735 -3.18539 -0.809713 -0.709323 0.3059 1.47845 -0.15085 Si
22 1 2.75799 8.22185 0.0219067 -2.61183 1.31998 0.016461 -0.967154 -0.0949192 0.11098 Si
16 1 2.8002 0.0487789 8.10284 2.18342 -0.104993 -0.0954474 -0.412482 0.549348 0.651637 Si
26 1 0.0858663 8.21383 8.22128 1.91241 -2.99648 -4.9618 -0.306462 -0.205945 -0.576895 Si
29 1 1.47386 9.61418 9.47806 2.57163 4.86534 0.755215 -0.24314 -0.580752 0.546749 Si
58 1 5.46547 8.27185 8.16269 0.314664 -7.53825 0.925178 -0.685218 -1.34827 0.274576 Si
61 1 6.8419 9.59012 9.44197 0.763603 3.30012 2.12586 1.01151 -0.503825 0.883169 Si
48 1 8.28757 -0.026025 8.06381 -0.811225 -2.19976 -5.10433 -1.26128 0.387172 0.39759 Si
ITEM: TIMESTEP
15300
ITEM: NUMBER OF ATOMS
64
ITEM: BOX BOUNDS pp pp pp
0.0000000000000000e+00 1.0887404739999999e+01
0.0000000000000000e+00 1.0887404739999999e+01
0.0000000000000000e+00 1.0887404739999999e+01
ITEM: ATOMS id type xu yu zu vx vy vz fx fy fz element
2 1 0.0720022 2.77095 2.72358 1.05833 3.48952 -1.44477 -0.696378 0.378887 -0.349344 Si
7 1 1.29324 1.36312 1.29574 2.11866 -1.86461 1.70221 0.673245 0.786378 0.418962 Si
34 1 5.5281 2.67847 2.69659 -0.578158 -2.603 -1.48526 -0.525346 0.748747 0.730069 Si
36 1 5.42617 0.0173809 0.00836789 2.1466 -0.157239 -1.80639 0.310476 -1.00448 0.628769 Si
39 1 6.84218 1.2918 1.41671 -7.38518 0.10055 2.53042 -0.286421 0.397702 -0.940435 Si
38 1 8.18569 2.69462 0.0759882 -0.732263 0.641322 4.30319 -0.0137884 0.523383 -0.0133591 Si
40 1 8.12217 0.0130094 2.81763 -1.89233 7.38804 -2.2734 0.758074 -0.287045 -0.55618 Si
23 1 1.42342 6.78659 1.38175 -3.23004 -2.6574 -8.55436 -0.634003 -0.471064 -0.544915 Si
24 1 2.72235 5.41792 2.77846 5.86997 1.05412 -1.35767 0.426541 0.825359 -0.417536 Si
1 1 4.0986 4.09826 1.47733 5.77574 0.197191 -4.99173 0.066432 -0.523238 -1.29058 Si
55 1 6.79929 6.78995 1.37434 -2.0646 2.12779 1.03817 -0.808082 1.25231 0.45744 Si
33 1 9.4967 4.15398 1.42645 5.05825 0.866665 3.82718 0.430021 -1.29892 -0.355269 Si
56 1 8.08306 5.47084 2.68284 2.66667 -4.16944 0.11753 1.02095 0.00129513 0.910098 Si
4 1 -0.0736367 0.0614743 0.0110779 -5.38479 -3.79463 0.542753 -0.156428 -0.558448 -1.22084 Si
8 1 2.64683 0.0311859 2.65293 -3.24426 -1.70474 3.83395 0.739887 -0.165674 0.634104 Si
18 1 -0.0042347 8.19547 2.59395 0.307249 -1.64547 1.57457 -0.0833593 0.130633 0.69577 Si
17 1 4.0793 9.50735 1.42493 -6.49233 -2.53478 3.98902 -0.352584 0.117961 -1.11382 Si
50 1 5.41496 8.14997 2.78082 0.750443 2.7282 2.78374 0.437408 -0.144743 -0.293124 Si
49 1 9.43475 9.59159 1.32039 2.07885 0.74175 -2.6386 0.482831 0.11514 1.03908 Si
54 1 8.10134 8.20004 0.0827861 2.2382 0.0544117 5.72823 0.847338 -1.2648 -0.941239 Si
14 1 2.71409 2.61935 5.37493 -2.95031 -3.00069 2.69014 0.869652 0.502043 0.573716 Si
15 1 1.42244 1.27123 6.81361 -4.08744 5.46602 5.71882 -0.751952 0.338432 -0.697633 Si
3 1 4.14102 1.33677 4.02417 7.04286 -2.02436 1.45134 -0.928693 -0.05571 -0.351562 Si
47 1 6.80707 1.37524 6.86302 -4.94602 1.17703 0.345555 0.350422 -0.0653634 -0.802952 Si
35 1 9.50497 1.48485 4.02178 2.0016 1.89219 -3.34109 0.244934 -0.760218 0.645492 Si
46 1 8.12178 2.77808 5.39818 1.58028 -5.97446 -1.25872 0.255613 -0.0327399 0.813632 Si
5 1 1.4457 4.09822 4.08772 -0.585433 0.69222 0.0363505 -0.836865 -0.768631 0.481081 Si
28 1 0.0999368 5.43584 5.46104 3.39597 -5.25304 -2.434 -0.223567 1.04208 -0.390701 Si
31 1 1.46432 6.90853 6.81371 -2.82169 2.12353 1.13943 -1.05062 -0.985153 -0.0411792 Si
9 1 4.14688 4.00612 6.72652 -2.96585 -1.83447 4.11694 -0.393362 -0.149927 0.182429 Si
19 1 4.02192 6.81639 4.10301 -4.93566 2.97739 -0.68052 0.537714 -0.0838582 0.600424 Si
37 1 6.78221 4.15648 4.08008 -1.40221 5.81692 4.22045 -0.0785773 -0.747315 -0.361138 Si
60 1 5.47001 5.45598 5.46975 3.63935 2.99573 -3.7369 -0.568545 0.456412 -0.460695 Si
63 1 6.86066 6.7801 6.81121 -5.0589 -0.859914 -4.98451 -0.128309 0.444849 0.208102 Si
41 1 9.53821 4.13666 6.7615 1.48665 2.71442 2.41162 0.240397 -0.920577 0.0721313 Si
51 1 9.58659 6.76803 3.9772 0.889014 4.88409 1.80013 -0.248287 0.441864 1.0135 Si
21 1 1.32601 9.55097 4.04974 0.190671 -1.30929 -0.94017 -0.614499 0.344687 -0.785249 Si
30 1 2.66699 8.26001 5.39365 -1.09567 4.34648 1.10006 1.14771 -0.229162 0.328351 Si
44 1 5.39647 0.0455264 5.47403 2.75994 2.54854 -1.72918 1.04019 -0.299641 -0.000200445 Si
25 1 4.08469 9.55803 6.79891 -5.07254 -3.47018 2.00329 -0.510258 -0.638942 0.0868965 Si
53 1 6.78321 9.52526 4.12509 1.56906 -1.83318 3.63264 -0.169907 -0.0907565 0.624956 Si
12 1 -0.0276526 0.0522467 5.38317 -1.18878 5.07721 -3.34921 -0.184133 -0.131323 0.337162 Si
57 1 9.52305 9.52306 6.77785 1.80403 -4.4343 -6.91513 0.14241 1.23875 0.335522 Si
62 1 8.23244 8.17982 5.45776 -5.37885 2.38715 1.28533 -0.497226 -0.983149 -1.0138 Si
6 1 2.70379 2.76228 -0.000970609 3.53392 -3.41892 -2.52806 0.651541 -0.570812 0.104573 Si
11 1 4.04048 1.26691 9.5274 4.33587 2.18163 0.740533 0.0645084 1.45735 -0.318487 Si
42 1 5.50154 2.74559 8.19322 2.0093 -7.63365 2.80274 -1.07306 -0.66537 0.573507 Si
10 1 0.0456886 2.69133 8.07514 -4.9921 -0.660339 -2.55551 -0.254753 0.614891 -0.00583667 Si
43 1 9.53064 1.47117 9.4801 5.27151 1.29297 -1.82562 -0.0588157 -0.937298 0.470498 Si
13 1 1.38192 4.05422 9.45068 0.905115 -2.51472 2.25869 0.181789 0.296683 -0.0945235 Si
32 1 2.80829 5.40113 8.06658 -1.25169 1.06633 -4.3264 -0.799977 -0.31592 0.236395 Si
52 1 5.43994 5.48867 0.0826128 -2.61063 -1.2696 1.40934 -0.193333 -1.31672 -0.424473 Si
27 1 4.07179 6.67481 9.51405 0.63731 -1.5386 1.27838 0.293052 1.55928 0.0405164 Si
45 1 6.81348 4.07359 9.6223 2.27118 -1.51694 2.09596 0.11159 0.330367 -0.157525 Si
20 1 0.0433489 5.34286 0.0332763 -1.90953 1.68443 -3.97113 -0.14103 1.35769 -0.545135 Si
59 1 9.48839 6.75709 9.55282 0.921268 3.35086 5.19165 0.758815 0.800647 0.595143 Si
64 1 8.19406 5.40473 8.18846 4.16979 -0.239854 -2.65175 -0.596685 -0.0521815 0.129987 Si
22 1 2.71212 8.12881 -0.0266789 3.68155 -6.95234 -6.16205 0.381144 0.208047 -0.0380031 Si
16 1 2.64925 -0.113705 8.19903 1.95577 1.53066 0.935994 0.782769 0.457298 -0.0551088 Si
26 1 -0.0357175 8.19666 8.13351 0.531429 -2.78895 8.05492 -0.233928 -1.23672 0.336758 Si
29 1 1.25756 9.48436 9.5208 -2.94441 -1.19247 -3.7066 0.274709 0.326297 1.06815 Si
58 1 5.42086 8.13999 8.14983 2.62268 3.51727 -3.60888 0.305702 -0.308603 0.407714 Si
61 1 6.80859 9.46939 9.58974 -3.66315 -0.227261 -2.32226 -0.838793 0.837604 -0.839998 Si
48 1 8.16602 0.000700503 8.22513 1.58973 1.96622 -1.11139 0.103694 -0.268578 -0.36008 Si
ITEM: TIMESTEP
15400
ITEM: NUMBER OF ATOMS
64
ITEM: BOX BOUNDS pp pp pp
0.0000000000000000e+00 1.0887404739999999e+01
0.0000000000000000e+00 1.0887404739999999e+01
0.0000000000000000e+00 1.0887404739999999e+01
ITEM: ATOMS id type xu yu zu vx vy vz fx fy fz element
2 1 -0.00866448 2.7097 2.7535 -3.72111 -3.37591 0.151383 0.125959 -0.487694 -0.822172 Si
7 1 1.37992 1.34505 1.40854 -2.24281 0.446491 0.251937 0.756126 -0.270314 -0.296384 Si
34 1 5.4111 2.7424 2.7139 0.716089 1.91012 -4.39989 -0.160252 -1.09676 -0.249656 Si
36 1 5.47642 0.108451 -0.0249836 -6.81936 6.27667 -3.4365 0.202292 -0.865651 -0.182235 Si
39 1 6.84306 1.37879 1.37444 5.78938 0.504866 1.08999 -0.236317 -0.198822 0.525344 Si
38 1 8.16944 2.67553 0.00293363 3.01487 -1.28183 -0.658609 -0.202953 0.701488 -0.824097 Si
40 1 8.23598 -0.0468985 2.69333 -0.85974 -5.59858 4.52771 -0.699425 0.87772 0.613455 Si
23 1 1.35971 6.85368 1.38321 1.01693 4.48595 1.70804 -0.406767 -0.0578541 -0.338878 Si
24 1 2.70132 5.44942 2.69936 -1.27733 -3.64881 2.11219 0.519838 -0.14353 0.221234 Si
1 1 4.13446 4.10502 1.3421 -0.92873 -2.24525 6.31119 -0.251973 0.612581 0.247435 Si
55 1 6.81992 6.78778 1.28811 2.33124 -4.18801 -5.36012 0.486084 0.0609675 0.44622 Si
33 1 9.51985 3.99869 1.36154 -1.36531 0.573352 -2.8389 -0.319305 1.0677 0.0896474 Si
56 1 8.10272 5.41124 2.67662 -1.38923 -0.0689277 -1.98469 0.590322 -0.347662 0.134992 Si
4 1 0.0708798 -0.0833281 -0.00921812 2.12016 1.78341 2.25076 -0.303796 0.831107 1.32928 Si
8 1 2.77887 -0.0545922 2.81743 0.905923 0.101642 0.467754 -0.449554 -0.0540626 -1.45611 Si
18 1 0.0126417 8.24237 2.72339 -2.90656 0.060845 0.891646 -0.186715 -1.28881 1.04377 Si
17 1 4.18653 9.54173 1.2923 5.75342 1.6701 1.79661 -0.830178 -0.335678 1.22331 Si
50 1 5.44921 8.01814 2.73709 -1.11262 -0.873129 2.12061 0.176259 1.77302 -0.649076 Si
49 1 9.55023 9.50525 1.36296 -1.22796 -0.459659 0.267015 0.0818781 -0.172423 -0.925204 Si
54 1 8.23935 8.11254 -0.0554486 4.28364 1.82019 -4.06155 -0.73049 0.925267 1.06591 Si
14 1 2.65868 2.83001 5.46321 -1.07282 -3.70249 -3.03296 0.306205 -0.662117 0.142254 Si
15 1 1.30045 1.41338 6.80463 2.43663 -3.10161 -2.41174 0.976257 0.091746 0.165068 Si
3 1 3.98422 1.41583 4.09609 -0.102358 5.88875 -1.23345 1.26785 0.0686872 0.760546 Si
47 1 6.86019 1.37273 6.77572 0.457841 -0.685455 2.43 -0.585857 -0.0965072 0.434558 Si
35 1 9.59504 1.34818 4.10121 -0.181762 0.813939 0.92904 -0.925351 -0.179799 0.353271 Si
46 1 8.18833 2.78657 5.45861 -1.08135 -1.76184 -2.87494 -0.107345 -1.30181 -1.02539 Si
5 1 1.31421 4.06524 4.01852 -4.64325 -0.115121 0.869594 0.251415 1.11093 0.826593 Si
28 1 -0.0224266 5.41621 5.4739 -3.91566 3.65981 4.55613 -0.115117 -0.491537 -0.551498 Si
31 1 1.341 6.74263 6.81658 4.23198 1.73748 -1.95836 0.249431 0.205452 0.368703 Si
9 1 4.13987 4.10338 6.8262 1.78703 2.60282 -5.06806 -1.37763 0.607334 0.182515 Si
19 1 4.11881 6.74403 4.13819 4.62111 0.337735 0.251892 -1.46474 0.191301 -1.57933 Si
37 1 6.74996 4.02394 4.02676 -1.10897 -3.95746 -0.61799 0.403446 1.35798 1.11201 Si
60 1 5.40147 5.49222 5.41767 -0.508749 0.265847 0.993094 1.72718 -1.44048 0.723187 Si
63 1 6.77286 6.92357 6.72397 -0.865178 4.08983 1.57958 -0.628113 -1.14513 0.699587 Si
41 1 9.57307 3.96827 6.83623 -0.404032 -2.72056 -5.22768 -0.861234 2.209 0.256453 Si
51 1 9.47031 6.76337 4.09127 -0.307006 -3.9179 -0.688764 0.640527 0.352044 -0.728505 Si
21 1 1.39976 9.49491 4.16678 1.27142 -0.298757 5.18799 0.152235 -0.293433 -0.293512 Si
30 1 2.75047 8.03642 5.46093 1.99684 -4.14832 -4.15925 -0.410811 0.936729 0.161183 Si
44 1 5.42571 0.0015411 5.46481 -4.60024 -1.17417 -2.29976 0.0803223 0.806684 -0.878273 Si
25 1 4.07495 9.51483 6.7375 7.83748 0.643098 -2.62282 -0.592848 -0.128914 0.946945 Si
53 1 6.76491 9.54978 4.04752 -0.748356 -1.05152 -3.98692 0.00804617 -0.396216 -0.347791 Si
12 1 0.0631864 -0.00522726 5.48448 5.02512 0.203623 -1.2355 -1.06614 -0.269581 0.0675656 Si
57 1 9.4715 9.56429 6.86017 -0.888199 -0.350581 -0.678523 0.161364 -0.44843 -0.90192 Si
62 1 8.10936 8.16638 5.37112 2.28879 -0.764214 -3.33737 0.899149 1.19327 0.511319 Si
6 1 2.83994 2.73396 0.0138884 1.00909 3.75608 0.771475 -1.86144 -0.191474 -0.516358 Si
11 1 4.12085 1.39833 9.43998 -2.48472 -2.09818 2.48912 -0.602762 -0.517539 0.824727 Si
42 1 5.4339 2.69626 8.1355 -0.767295 4.51137 -3.4505 0.93052 0.476745 -0.629906 Si
10 1 -0.0286307 2.68225 8.21815 4.6162 -1.41557 2.20233 0.0927171 -0.481815 0.134069 Si
43 1 9.60462 1.29098 9.62029 -3.62635 5.01723 -0.638725 -0.96092 0.329668 -0.643088 Si
13 1 1.26084 4.06879 9.52926 -4.30907 2.5066 3.78535 1.01298 0.380105 1.45697 Si
32 1 2.69523 5.46273 8.27907 0.886817 0.129669 2.752 0.58794 -0.442693 -0.93527 Si
52 1 5.48273 5.46642 -0.0170225 -2.92688 -0.367679 0.7844 -0.465088 -0.330759 -0.0713037 Si
27 1 4.14138 6.84195 9.56691 -0.657722 0.766538 0.866994 -1.62932 -0.324013 0.382947 Si
45 1 6.73924 4.11087 9.46977 -4.12327 -0.596605 2.0177 1.48198 -0.337899 0.191042 Si
20 1 -0.105457 5.52708 0.03051 -4.17719 -3.29795 2.29438 1.04324 -0.983239 -0.0327651 Si
59 1 9.5479 6.86549 9.4762 1.66723 -5.5117 -0.798197 -0.405794 -1.04737 -0.316111 Si
64 1 8.13809 5.54625 8.09227 3.65733 3.75522 2.77316 0.304706 -1.1277 0.0855835 Si
22 1 2.67288 8.22676 -0.00851621 -1.51206 7.24056 4.12194 1.31885 -0.59854 0.291461 Si
16 1 2.71482 0.0495226 8.11309 0.15874 -0.0452122 0.799155 -0.0367863 -0.545583 0.0942909 Si
26 1 -0.00741285 8.15066 8.14194 0.160946 -0.424409 -0.964725 0.513642 0.843436 -0.126675 Si
29 1 1.36688 9.53746 9.52873 2.39994 -2.82934 0.632337 0.260954 -0.198771 -1.48804 Si
58 1 5.36056 8.15202 8.17364 -3.24264 -1.27339 -0.632587 1.32954 1.08981 -0.441253 Si
61 1 6.80379 9.47963 9.58649 0.533004 -2.78055 2.0335 -0.488227 0.393163 -0.658401 Si
48 1 8.12635 0.0264873 8.25398 -0.869333 2.57083 1.59108 0.423998 -0.19331 -0.204249 Si
ITEM: TIMESTEP
15500
ITEM: NUMBER OF ATOMS
64
ITEM: BOX BOUNDS pp pp pp
0.0000000000000000e+00 1.0887404739999999e+01
0.0000000000000000e+00 1.0887404739999999e+01
0.0000000000000000e+00 1.0887404739999999e+01
ITEM: ATOMS id type xu yu zu vx vy vz fx fy fz element
2 1 -0.0774315 2.74479 2.77577 0.341193 2.91601 -0.912496 0.594452 -0.267285 0.137794 Si
7 1 1.24103 1.38195 1.34046 3.33306 1.97251 -3.94942 -0.125203 -0.106321 0.145179 Si
34 1 5.41447 2.75434 2.74428 0.429446 0.584069 5.42375 0.562342 0.222494 -0.31821 Si
36 1 5.49301 -0.0939657 -0.0176275 4.87992 -8.49439 4.50823 -1.08659 0.984456 -0.104998 Si
39 1 6.7425 1.39661 1.32445 1.36898 -0.254801 -0.779977 0.809973 0.00387226 -0.0655137 Si
38 1 8.18745 2.75619 -0.0717177 -0.288622 2.11515 3.3714 0.0336541 -0.868705 1.0166 Si
40 1 8.17847 0.021605 2.64558 1.78062 2.83044 1.24293 -0.58208 -0.517789 0.0558317 Si
23 1 1.35186 6.72147 1.3784 -0.767292 -4.39637 -0.783229 0.4641 0.87325 0.42743 Si
24 1 2.8367 5.43842 2.79828 -0.875908 2.44283 -3.40943 -1.92963 -0.297227 -0.787304 Si
1 1 4.08347 4.12872 1.35268 -1.61489 -4.08164 -2.86228 -0.753007 -1.32398 0.450103 Si
55 1 6.78598 6.86645 1.38841 -1.68359 3.53998 7.54064 -0.107236 -1.17841 0.090132 Si
33 1 9.55064 4.11031 1.33223 -3.68873 0.319916 -2.52027 -0.322542 -0.122109 -0.0274597 Si
56 1 8.22644 5.46679 2.74094 0.368458 0.029627 1.07134 -0.582886 0.37465 -0.184871 Si
4 1 -0.125602 0.0197527 -0.0614554 0.101858 1.50528 -5.01142 1.29314 -0.0142378 0.0936379 Si
8 1 2.67556 0.0345374 2.65326 2.77449 -0.386464 -1.86512 0.356178 0.0815887 0.530428 Si
18 1 -0.0268533 8.21737 2.75048 0.798074 1.32725 -2.66243 0.490012 -0.64833 -1.17393 Si
17 1 4.00274 9.49759 1.31587 2.06673 -1.43611 -1.49252 0.896618 0.317552 0.238433 Si
50 1 5.43899 8.23071 2.71911 -3.15127 -1.32998 -0.874832 -0.42941 -0.377891 0.368023 Si
49 1 9.49716 9.5072 1.26858 -2.00426 2.42223 4.76619 0.152261 0.284693 1.22733 Si
54 1 8.14226 8.15253 0.0218673 -5.6078 -2.06125 -2.24237 -0.362241 0.43602 -0.621625 Si
14 1 2.75121 2.69638 5.50412 2.0198 3.6518 3.73525 0.115848 -0.395976 -0.938403 Si
15 1 1.38428 1.35048 6.80182 1.91505 -4.85444 -0.723941 -0.33813 -0.420691 -0.179012 Si
3 1 4.14494 1.34279 4.09102 -3.98553 -3.81699 -1.87381 -0.986117 -0.246487 -0.0586016 Si
47 1 6.7551 1.38946 6.79046 5.03401 -1.6931 -3.79783 0.48058 -0.455129 0.319864 Si
35 1 9.45811 1.28236 4.11074 0.257127 -1.68649 -0.246349 0.607982 0.871693 -0.4034 Si
46 1 8.16901 2.68432 5.45727 -2.37646 6.56748 -0.12139 -0.121873 0.853823 0.245871 Si
5 1 1.42247 4.0597 4.14507 7.32649 -0.505625 -0.386609 -0.153044 -0.271384 -0.898412 Si
28 1 0.0194045 5.39956 5.40606 5.0479 3.71085 -2.64662 -0.0846794 0.723395 0.734874 Si
31 1 1.31695 6.89281 6.72515 -0.555471 -1.37562 1.50554 0.405956 -0.585385 0.44099 Si
9 1 4.05102 4.08952 6.77793 0.786871 -3.12286 -0.15707 0.86617 -0.0692238 0.446436 Si
19 1 4.05111 6.83055 4.09678 0.987828 -0.37988 4.47908 1.57 0.621305 0.44162 Si
37 1 6.82809 4.10921 4.10937 -0.0075672 0.93923 -4.40555 0.349734 -0.610027 -0.613407 Si
60 1 5.45814 5.41299 5.42239 -3.68231 -0.472542 0.322045 -0.999125 0.176914 0.0204117 Si
63 1 6.75237 6.64244 6.86656 4.71215 -2.08173 -0.346637 1.11246 1.17658 -0.0668152 Si
41 1 9.53348 4.11484 6.84029 -1.264 1.14829 1.85259 -0.0578638 -0.740801 -0.713645 Si
51 1 9.58371 6.84027 4.11749 0.538448 -2.26166 -1.95629 -0.852306 -0.249245 0.197499 Si
21 1 1.38496 9.52108 4.05416 -2.17571 2.16742 -2.45428 -0.386952 1.02053 0.135991 Si
30 1 2.74046 8.24298 5.42756 -2.79881 1.31115 6.36913 -0.43608 -0.771171 0.0526175 Si
44 1 5.52056 -0.0420861 5.42704 1.18622 -0.680603 3.65021 -1.1629 -0.549043 0.63759 Si
25 1 4.01648 9.47514 6.90408 -6.27725 2.94283 1.58813 1.72771 1.05165 -0.764469 Si
53 1 6.90142 9.48817 4.08506 -0.551744 2.87142 1.29643 -0.327693 0.335838 -0.169208 Si
12 1 -0.0199834 -0.00715446 5.44219 -3.68129 0.996413 0.985907 0.970293 -0.218988 -0.21433 Si
57 1 9.62659 9.49787 6.82437 -0.213764 5.17436 4.28903 -0.906823 -0.200079 0.419377 Si
62 1 8.14445 8.11806 5.55891 0.776961 -1.66176 -1.65269 0.558217 -0.395415 -0.358449 Si
6 1 2.64679 2.71207 0.0148572 -1.91222 3.74789 3.00409 0.701415 0.47023 0.00620214 Si
11 1 4.05403 1.35778 9.55162 -4.95372 -0.162694 -3.89088 0.206962 -0.528222 0.89159 Si
42 1 5.3655 2.66972 8.19169 2.19656 0.960625 1.37342 0.572384 1.07428 -0.338736 Si
10 1 0.00311071 2.68036 8.1006 1.02318 0.302379 1.04621 0.378714 0.833715 0.428871 Si
43 1 9.51557 1.36862 9.42305 -0.202463 -2.78255 5.60998 -0.313178 0.405677 0.531922 Si
13 1 1.39136 4.08699 9.45907 3.56257 0.210855 -3.91949 -0.18532 0.195714 -0.420923 Si
32 1 2.7485 5.53078 8.05822 -0.671087 -1.74734 -1.02718 -0.590069 -0.145505 0.770667 Si
52 1 5.36025 5.45049 0.0403551 3.8979 1.66337 -0.730417 1.57243 0.662128 -0.76844 Si
27 1 4.08878 6.859 9.5189 2.47773 -0.646649 -3.5248 0.734487 -0.929781 -0.839137 Si
45 1 6.78561 4.04075 9.56502 6.93904 1.07848 -0.468637 -1.08323 0.594331 -0.377628 Si
20 1 0.0149189 5.44007 -0.0586223 -0.16648 -1.22463 0.828741 0.23653 -0.327769 0.505461 Si
59 1 9.53818 6.85944 9.61026 0.275709 -0.190028 0.280545 -0.25724 -0.819361 -0.955373 Si
64 1 8.18232 5.38817 8.25132 -6.75356 -0.595661 -0.0418334 0.0397404 0.626243 0.12951 Si
22 1 2.75017 8.09425 -0.0425012 1.00077 -1.56478 -2.64396 -1.51817 0.743204 0.809297 Si
16 1 2.71174 0.037342 8.21358 -3.68745 -3.58689 -5.21147 0.0198143 -0.244237 -0.449102 Si
26 1 0.0636142 8.17038 8.2749 -2.1899 -0.379999 -4.02967 -0.350354 0.162205 -0.9081 Si
29 1 1.39225 9.58461 9.55156 -0.310788 3.13285 -1.08971 -0.26214 -0.431634 0.67148 Si
58 1 5.55474 8.16275 8.17666 -3.23398 0.348075 3.84992 -1.39308 -0.338012 -0.127165 Si
61 1 6.86442 9.54601 9.46413 2.06573 -0.419048 0.0250925 0.52216 -0.246885 0.548781 Si
48 1 8.20231 0.0226508 8.09694 -0.936973 -4.59652 2.69709 -0.355118 -0.265305 -0.321176 Si
ITEM: TIMESTEP
15600
ITEM: NUMBER OF ATOMS
64
ITEM: BOX BOUNDS pp pp pp
0.0000000000000000e+00 1.0887404739999999e+01
0.0000000000000000e+00 1.0887404739999999e+01
0.0000000000000000e+00 1.0887404739999999e+01
ITEM: ATOMS id type xu yu zu vx vy vz fx fy fz element
2 1 0.105051 2.71947 2.66453 -1.95109 -1.41758 -0.35154 -0.509101 0.0728238 0.0970583 Si
7 1 1.47581 1.28763 1.32735 -2.88016 -2.51728 4.11164 -0.361473 0.665953 0.475862 Si
34 1 5.47214 2.76327 2.71332 2.205 -1.73423 1.4966 -0.331913 -0.35282 0.734265 Si
36 1 5.41165 -0.0481766 0.0456779 4.31251 2.17954 -0.132759 0.330562 0.299566 0.519046 Si
39 1 6.85031 1.34255 1.42441 -0.949651 4.32872 -2.39832 -1.00254 0.0726623 -0.856004 Si
38 1 8.20313 2.67099 0.0480725 -2.35488 1.0987 -5.4959 -0.510915 0.900141 -0.206362 Si
40 1 8.16902 0.0131085 2.74292 -2.34596 2.74367 -6.61213 0.432974 -0.00584468 0.170216 Si
23 1 1.3947 6.85101 1.34328 -0.936678 0.474777 -0.348651 -0.37721 -0.788476 -0.416652 Si
24 1 2.68395 5.42046 2.66523 3.08364 2.29852 2.4145 0.752714 0.924003 0.221344 Si
1 1 4.05802 4.07396 1.37682 4.85756 5.91861 -2.50361 1.05436 0.18946 -0.889777 Si
55 1 6.83848 6.76349 1.37298 1.5438 -1.16401 -0.0513194 -0.378944 0.79617 -0.0987282 Si
33 1 9.52438 4.10805 1.38945 0.886708 -1.88815 2.86695 0.509301 -0.603756 -0.20697 Si
56 1 8.1324 5.39562 2.75255 -0.319791 -0.677651 -0.0967025 0.291716 0.453857 0.145038 Si
4 1 0.0572598 -0.0268899 0.057435 -1.50604 -1.09085 1.10224 -0.76741 0.134583 -0.855473 Si
8 1 2.71808 -0.0570538 2.77445 -0.730831 2.36456 1.85606 0.0398669 0.617643 0.465516 Si
18 1 0.0209189 8.10946 2.69493 -1.06527 -1.14524 4.79475 -0.499319 1.12082 0.453164 Si
17 1 4.04001 9.48158 1.44827 -2.81748 -1.57435 0.870322 0.195 0.553106 -1.12461 Si
50 1 5.40611 8.15611 2.6946 4.38439 0.826619 -3.57437 0.804115 -0.642147 0.00894024 Si
49 1 9.53067 9.55504 1.39947 3.79559 -2.72886 -7.66298 0.314577 -0.342695 0.0313679 Si
54 1 8.12501 8.26545 0.0364644 0.670214 -1.02232 4.23981 0.539856 -1.48802 -0.0719457 Si
14 1 2.69659 2.71777 5.42951 -0.727455 -0.625163 3.13107 -0.198172 1.05651 0.402702 Si
15 1 1.35433 1.38193 6.79747 -0.0266832 4.45328 -2.09821 -0.146071 0.429078 0.316984 Si
3 1 4.032 1.431 4.11273 2.40524 2.84352 4.80718 0.753448 -0.76685 -0.842519 Si
47 1 6.89378 1.35788 6.88726 -2.1103 -2.49724 0.378731 -0.897843 -0.00271017 -1.25738 Si
35 1 9.5409 1.42019 4.04395 1.62067 -2.52546 2.22539 0.647638 -0.453406 -0.0323361 Si
46 1 8.1712 2.69728 5.41177 1.10747 -4.78278 -2.37146 0.00784581 0.418665 0.665968 Si
5 1 1.38764 4.14426 4.04791 -4.18195 -2.70752 1.60308 -0.44523 -0.853327 0.462334 Si
28 1 0.0145998 5.48981 5.41309 -4.29487 -2.73965 -0.361252 -0.30936 -0.340701 -0.0919147 Si
31 1 1.39294 6.72444 6.83797 -0.889108 -0.909029 2.47001 -0.351808 0.615357 -0.181794 Si
9 1 4.0902 4.08651 6.78475 -7.97525 7.46523 1.22632 -0.301055 -0.579098 -0.1304 Si
19 1 4.08183 6.79879 4.02237 -1.27145 -0.0366104 -7.10844 -0.46891 -0.600123 0.464559 Si
37 1 6.78606 4.10616 4.16314 2.4141 3.51651 1.19224 0.0650868 -0.647173 -0.855492 Si
60 1 5.4084 5.42101 5.44771 3.42836 -3.60911 -1.87693 0.0391264 1.13417 -0.0696362 Si
63 1 6.78714 6.83179 6.77951 -8.81005 -2.4887 2.89452 0.28642 0.199466 -0.145437 Si
41 1 9.4981 4.13337 6.74988 0.766145 0.691756 2.1438 0.836896 -0.883234 0.414308 Si
51 1 9.49944 6.81708 4.04274 -2.04932 0.88379 -0.917606 0.282481 -0.234561 0.220863 Si
21 1 1.28737 9.54678 4.13034 2.71062 -2.41802 1.71936 0.639566 -0.916691 -0.542638 Si
30 1 2.6816 8.1024 5.4196 4.88259 0.368549 0.646135 0.444007 0.691374 0.357441 Si
44 1 5.3651 0.06109 5.50519 -2.498 -0.136002 -2.76127 1.30688 0.0367879 -0.630235 Si
25 1 4.05993 9.54877 6.80617 1.29208 -4.80547 2.20435 -0.712889 -0.694617 -0.19991 Si
53 1 6.73208 9.56711 3.99556 -1.55247 -3.76392 -2.28905 0.163549 -0.000549545 1.67683 Si
12 1 0.037747 0.0744961 5.44951 -0.114412 -0.868443 5.74407 -1.30505 -0.138223 -0.181559 Si
57 1 9.49554 9.58873 6.76289 3.94966 -1.37035 -0.691422 0.676267 0.0484074 0.451115 Si
62 1 8.20547 8.22398 5.40554 -1.51416 2.87847 5.11889 -1.37987 -0.172073 -0.393204 Si
6 1 2.79811 2.68254 -0.0226575 -6.50935 -5.11569 -1.53491 -0.136412 -0.281925 0.480053 Si
11 1 4.09841 1.29123 9.5154 2.41863 -0.243735 2.52744 0.577849 0.852555 -1.10369 Si
42 1 5.54382 2.81567 8.0971 -2.09739 0.731446 -1.25084 -1.05889 -1.33222 1.27971 Si
10 1 -0.032379 2.68302 8.20776 0.768616 -2.91858 0.818141 -0.211904 0.715188 -0.324559 Si
43 1 9.4803 1.31292 9.57367 -1.82682 -2.83433 -3.89785 1.2102 -0.128111 0.235319 Si
13 1 1.36795 4.01881 9.63073 2.40358 2.46878 0.672968 -0.21333 0.0977371 -1.23201 Si
32 1 2.72511 5.34115 8.17922 -2.58042 1.36255 -3.10499 -0.24466 0.211211 0.428064 Si
52 1 5.53561 5.41439 -0.0312398 -0.0527428 -2.2942 1.31305 -1.21657 0.0297703 0.534745 Si
27 1 4.09011 6.73194 9.49328 -3.98467 1.05715 -0.944397 0.0921978 0.999472 0.528942 Si
45 1 6.87925 4.11063 9.50443 0.669153 -1.78546 2.76452 0.423015 -0.707751 0.319041 Si
20 1 0.010001 5.44737 0.00320925 2.43873 1.85462 -1.68997 -0.607632 0.638717 -0.0808643 Si
59 1 9.41378 6.7969 9.48144 2.69197 4.97252 -0.974882 1.65735 1.08984 1.09802 Si
64 1 8.18446 5.46805 8.13108 -0.129059 -2.69269 3.07176 -0.92355 -0.174416 -0.609192 Si
22 1 2.71145 8.21529 0.00490344 -2.25232 -1.84387 1.28253 0.46626 -0.73239 -0.893526 Si
16 1 2.63685 -0.0123886 8.12388 0.67793 1.17432 0.00749659 1.01927 0.224438 0.418549 Si
26 1 -0.0197186 8.16898 8.10082 4.7825 3.60219 2.64469 -0.43903 -0.388245 0.353318 Si
29 1 1.32734 9.52873 9.47963 1.419 -0.308839 -2.08258 -0.0747475 -0.343385 0.459054 Si
58 1 5.44667 8.21702 8.16432 5.09815 5.95685 -4.02196 -0.381619 -0.850709 -0.0367766 Si
61 1 6.7812 9.52185 9.55521 -1.18631 3.70722 -6.60527 -0.351413 0.412913 -0.00197898 Si
48 1 8.15191 -0.0245401 8.23637 2.80777 1.05889 -0.549034 0.254439 -0.256186 -0.326164 Si
ITEM: TIMESTEP
15700
ITEM: NUMBER OF ATOMS
64
ITEM: BOX BOUNDS pp pp pp
0.0000000000000000e+00 1.0887404739999999e+01
0.0000000000000000e+00 1.0887404739999999e+01
0.0000000000000000e+00 1.0887404739999999e+01
ITEM: ATOMS id type xu yu zu vx vy vz fx fy fz element
2 1 -0.0506276 2.63609 2.79754 2.46999 -0.385524 2.28356 -0.609144 1.4028 -0.276265 Si
7 1 1.28079 1.41532 1.4024 -4.15546 -0.28107 -2.46173 0.843328 -0.313183 -0.761851 Si
34 1 5.47208 2.68761 2.67148 -1.35329 0.207734 -3.86485 -0.496796 -0.121739 -0.282227 Si
36 1 5.47702 0.0498622 -0.0518018 -4.39502 0.880814 -2.62905 -0.109743 0.189349 -0.762945 Si
39 1 6.82093 1.34023 1.27899 -0.635957 1.41087 0.597215 0.600425 -0.390554 1.39392 Si
38 1 8.08505 2.72337 -0.0620314 5.09301 -5.28774 5.08783 0.744195 -0.00301532 0.136275 Si
40 1 8.22984 -0.0737428 2.76119 2.45884 -1.93019 4.08542 -0.950559 0.671499 -0.371156 Si
23 1 1.37799 6.86765 1.45456 1.13194 4.36737 0.225488 0.0267562 -0.558169 -0.709412 Si
24 1 2.63356 5.4771 2.81098 -2.89096 -3.73343 4.8323 0.742162 -0.778902 0.677356 Si
1 1 4.00178 4.07565 1.4558 -1.21353 -3.17456 6.91778 0.619391 0.867813 -0.332572 Si
55 1 6.76641 6.83073 1.30767 0.400748 -3.89519 -1.31316 0.869538 -0.158746 -0.610627 Si
33 1 9.42875 4.04058 1.36259 -3.275 1.56609 0.0770636 0.830255 0.28142 0.35865 Si
56 1 8.09596 5.51413 2.69073 -3.72443 -1.02351 -2.2549 0.403783 -1.14938 -0.418866 Si
4 1 0.0100786 0.0511462 -0.00967942 0.643351 2.34379 0.550694 -0.3842 -0.418808 0.668251 Si
8 1 2.74244 0.0544507 2.63111 -2.21953 0.772881 -0.836438 -0.44448 -0.707153 0.0264381 Si
18 1 -0.0119634 8.15148 2.69897 1.84362 -1.46533 -5.90179 0.142198 -0.103544 1.02613 Si
17 1 4.23963 9.61732 1.35873 1.28912 -0.482193 0.739565 -1.25843 -0.763177 0.403862 Si
50 1 5.44519 8.06069 2.69066 -2.99105 -4.6336 4.35308 0.206372 1.58182 0.464148 Si
49 1 9.59887 9.50094 1.39149 1.03777 0.592367 -0.317404 -0.8915 0.249897 -1.37565 Si
54 1 8.21659 8.14656 -0.090041 -3.07711 3.19303 0.825475 -0.0149647 0.312567 1.13484 Si
14 1 2.72631 2.72153 5.42609 1.41538 -4.60817 -6.79628 0.0408082 -1.12916 -0.323144 Si
15 1 1.39064 1.30888 6.75713 -1.78359 0.989466 0.430753 0.218123 0.156721 0.500099 Si
3 1 4.05013 1.35199 3.97672 0.908413 1.55851 -0.339553 0.813236 0.335954 1.25773 Si
47 1 6.76971 1.36022 6.80284 -0.218595 1.93802 3.23817 -0.217471 0.599237 0.142061 Si
35 1 9.54378 1.31619 4.17007 0.857981 6.96139 -2.42252 -1.05915 0.0400019 -0.153089 Si
46 1 8.10144 2.76941 5.4371 1.95335 1.42938 -0.484129 0.352711 -1.34877 -0.370297 Si
5 1 1.2915 4.00255 4.18319 2.86233 -1.51388 0.301466 0.083476 1.00006 -0.965725 Si
28 1 -0.00668896 5.44956 5.50063 6.08871 0.972861 0.367605 0.0790307 -0.469541 -0.0330839 Si
31 1 1.38459 6.84211 6.8231 3.48208 2.56496 0.0667384 0.0730967 0.0416235 -0.26081 Si
9 1 4.04405 4.06886 6.73047 4.29687 -5.03036 -2.22225 0.513171 0.767475 0.838302 Si
19 1 4.18575 6.75395 4.1253 3.65485 4.15724 6.6296 -1.63831 0.340961 -0.591115 Si
37 1 6.80404 4.0498 3.98495 -5.72379 0.372628 -0.44405 -0.393161 0.957135 0.975851 Si
60 1 5.47811 5.45406 5.4634 -3.96457 2.74163 -1.31783 0.751359 -0.977898 -0.0635911 Si
63 1 6.84996 6.83582 6.81638 2.52694 2.87272 -6.59003 -0.694316 -0.590737 -0.0205297 Si
41 1 9.51386 3.99724 6.76647 2.94978 -2.26056 -2.90212 0.00592709 1.25478 0.802187 Si
51 1 9.56941 6.69849 4.02733 -0.334981 0.944678 -3.15716 -0.164985 0.987941 0.387186 Si
21 1 1.36696 9.54204 3.98645 -4.3373 2.69268 0.555344 0.531833 -0.247798 0.632033 Si
30 1 2.78295 8.17765 5.40384 -0.814132 -2.06273 -2.70321 -0.26615 0.170185 0.0600453 Si
44 1 5.49185 -0.00439887 5.37073 -3.46034 -0.662181 2.63699 -0.739992 0.534959 0.13592 Si
25 1 4.17993 9.54057 6.76922 1.81472 4.0675 -3.58949 -0.60754 -0.309762 0.245406 Si
53 1 6.78679 9.45446 4.10429 -2.46016 0.192272 2.20042 0.800379 -0.455094 -0.83789 Si
12 1 0.00876338 -0.0617479 5.44163 1.33175 2.32467 -4.68787 0.211181 0.0116889 0.335448 Si
57 1 9.50977 9.5829 6.90315 -0.716372 -2.43556 -0.31933 0.162302 -1.5282 -1.99452 Si
62 1 8.21666 8.06984 5.40636 5.61429 -0.158147 0.32189 0.435596 1.27544 0.586656 Si
6 1 2.64711 2.82079 0.0659902 6.91926 2.44018 -2.52814 -0.0648976 -0.626609 -0.835955 Si
11 1 4.05177 1.47122 9.52669 2.8726 -4.1587 0.564849 -0.512663 -0.812939 0.71857 Si
42 1 5.36668 2.78708 8.18534 1.46522 3.13701 -1.21091 0.487606 -0.656637 -1.15305 Si
10 1 0.0881251 2.75269 8.13069 -2.59417 -2.24814 0.288439 -0.958292 -1.00031 0.117529 Si
43 1 9.52155 1.36901 9.53239 -0.174457 4.88855 1.25451 0.180571 0.524017 -0.877974 Si
13 1 1.37452 4.16906 9.45196 -7.47484 -3.04063 -2.35312 -0.276489 -0.412601 1.51014 Si
32 1 2.75147 5.4514 8.16573 6.67412 -0.124091 1.5778 0.321323 0.839568 -0.462288 Si
52 1 5.40462 5.4429 0.0250045 3.22263 7.64211 -1.7393 -0.785806 -0.110694 0.117101 Si
27 1 4.03336 6.88327 9.59121 4.53211 -2.57317 -0.0725001 -0.0655328 -0.80185 0.153634 Si
45 1 6.71663 4.07306 9.52934 -5.73124 -0.760352 4.06542 0.294278 0.676888 -0.128645 Si
20 1 0.048267 5.45927 0.0957724 -0.738905 -1.53239 0.799137 -0.262919 -0.500076 -0.382938 Si
59 1 9.60747 6.74294 9.53209 -3.66488 0.310317 0.889302 -1.02172 -0.299397 -0.446672 Si
64 1 8.10466 5.39814 8.13953 5.00228 -0.00767307 -0.647016 1.21329 -0.109427 0.553071 Si
22 1 2.7231 8.25338 0.143289 0.606398 0.824515 -3.77063 0.513644 -0.22077 -0.536986 Si
16 1 2.77747 -0.0265995 8.16479 -3.16602 -2.96756 1.35328 -0.530974 -0.0183187 0.372628 Si
26 1 -0.0341684 8.17028 8.17451 -2.1344 -0.579134 0.401072 0.856308 0.0489744 0.491139 Si
29 1 1.33593 9.49703 9.62162 -7.14446 -1.20006 1.06453 0.554641 0.570781 -1.20911 Si
58 1 5.42893 8.12154 8.20018 -4.20437 -4.61043 3.17816 0.669529 0.964493 -0.258165 Si
61 1 6.84452 9.5584 9.50238 0.40432 -3.2854 6.80494 -0.561921 -0.620074 -0.0865598 Si
48 1 8.15468 0.00331972 8.14065 2.94812 0.753438 0.310858 -0.20971 1.05699 0.671096 Si
ITEM: TIMESTEP
15800
ITEM: NUMBER OF ATOMS
64
ITEM: BOX BOUNDS pp pp pp
0.0000000000000000e+00 1.0887404739999999e+01
0.0000000000000000e+00 1.0887404739999999e+01
0.0000000000000000e+00 1.0887404739999999e+01
ITEM: ATOMS id type xu yu zu vx vy vz fx fy fz element
2 1 0.0981 2.81841 2.67941 0.297398 3.34255 -2.20794 0.475107 -1.51531 0.0542689 Si
7 1 1.40508 1.28056 1.3193 -2.17902 -0.513726 2.79643 -1.08605 0.117564 0.77289 Si
34 1 5.3864 2.7062 2.88548 3.02375 1.96 5.25628 0.56447 0.756396 -1.42589 Si
36 1 5.42274 -0.0926664 0.0240822 2.44501 -0.643105 2.09483 -0.736691 0.367853 0.145263 Si
39 1 6.66556 1.38121 1.35186 0.695171 -4.07771 0.498705 0.636118 0.572796 0.140066 Si
38 1 8.1731 2.71172 0.00188993 2.0742 0.304613 -1.7359 0.32365 -0.255598 0.647379 Si
40 1 8.1183 0.152526 2.67949 1.62797 -2.96158 -1.69652 0.612612 -1.74409 0.516642 Si
23 1 1.28704 6.79571 1.26582 4.17256 -2.76065 2.22691 0.658918 0.133281 0.517708 Si
24 1 2.82048 5.51424 2.57876 2.00556 2.60497 -1.54572 -0.557361 -0.974391 -0.513707 Si
1 1 4.24216 4.07026 1.19863 -0.061322 5.18734 -0.856059 -1.94486 -1.04561 1.69585 Si
55 1 6.77138 6.85574 1.48706 -1.1285 3.25437 -5.77416 -0.220467 -0.91702 -0.287518 Si
33 1 9.6066 4.09182 1.37749 1.57055 -3.10448 0.663878 -1.1776 0.595271 -0.668821 Si
56 1 8.24386 5.4973 2.78964 -0.553601 1.70001 -2.8083 -0.270975 0.000542912 -0.0297135 Si
4 1 -0.0511932 -0.0510307 -0.0306778 -1.93557 -3.32139 -6.07557 1.06817 0.0788113 0.23121 Si
8 1 2.72878 -0.041075 2.75651 4.27022 -1.18882 6.0321 -0.0643532 0.129294 -0.109876 Si
18 1 -0.00680368 8.19946 2.73307 -2.44499 5.34039 1.63316 0.187414 -0.404337 -1.06478 Si
17 1 3.95148 9.43683 1.29901 3.09415 3.19047 -1.80843 0.833782 0.472996 0.26086 Si
50 1 5.38345 8.27442 2.75907 1.59581 -6.71543 -3.66777 -0.21548 -1.03781 0.385253 Si
49 1 9.51262 9.50029 1.33555 -3.67811 2.5115 2.51182 -0.669923 0.972232 1.06771 Si
54 1 8.1133 8.1204 0.116394 4.12705 -2.31574 -1.54212 0.0222713 0.721894 -1.35957 Si
14 1 2.75291 2.80576 5.48357 -1.58593 7.30875 2.01317 -0.296046 -0.433241 0.121209 Si
15 1 1.27869 1.46726 6.79113 -0.132861 -0.683762 3.36039 0.285538 -0.918893 0.229559 Si
3 1 4.0567 1.33689 4.20972 -4.06141 1.56015 -3.91942 -0.670397 0.181118 -0.86562 Si
47 1 6.84202 1.34509 6.78987 0.308582 0.404346 -1.86622 0.639162 -0.25407 0.42525 Si
35 1 9.58138 1.45138 4.04346 1.07344 -3.05748 -0.472653 -0.365974 -0.0324014 -0.518782 Si
46 1 8.23429 2.6989 5.47402 -5.28948 3.74348 2.73399 -0.396967 1.15164 0.0910582 Si
5 1 1.49183 4.1363 3.99761 -0.66218 0.395328 -2.60161 -0.0399043 0.189162 0.108266 Si
28 1 -0.00639822 5.36363 5.35163 -0.7963 -1.33429 -0.962319 0.359311 0.967281 0.650422 Si
31 1 1.26161 6.7657 6.81217 0.756886 1.98856 -2.0183 0.608124 0.0701378 -0.566172 Si
9 1 4.17239 4.03846 6.89671 0.748877 0.467784 -4.26353 -0.518899 -0.111455 -0.211076 Si
19 1 3.99259 6.80311 4.0839 -3.47871 -9.78601 -1.16407 1.18123 0.605104 0.364051 Si
37 1 6.81865 4.13997 4.16004 2.37303 -2.66643 0.102992 0.533866 -0.839379 -0.369204 Si
60 1 5.39144 5.40343 5.4708 -1.05996 -0.993996 -0.116424 -0.0409346 0.851092 -0.196127 Si
63 1 6.75968 6.77905 6.79182 0.940129 2.0159 2.5076 0.550079 0.409569 0.146167 Si
41 1 9.55218 4.14428 6.86548 -0.82446 -4.49294 0.748158 -0.866082 -0.274718 -1.20387 Si
51 1 9.58539 6.93825 4.1533 -3.19286 -2.45887 3.79562 -0.480696 -1.4197 -0.496106 Si
21 1 1.33526 9.4849 4.06356 3.56947 -2.91325 2.62823 -0.253094 1.28915 0.863295 Si
30 1 2.65547 8.17698 5.47406 -1.12535 -1.69054 -2.68726 -0.181385 -0.745613 0.0269806 Si
44 1 5.44588 0.061062 5.48755 3.09438 3.21392 -3.03424 -0.0598797 -1.79079 0.423851 Si
25 1 4.04434 9.47598 6.84304 -4.51658 -1.77197 0.00938015 0.273329 1.27465 -0.15797 Si
53 1 6.82787 9.52959 4.14272 2.80773 3.81975 -0.609943 -0.344186 1.54774 -0.858848 Si
12 1 -0.117768 0.0208459 5.4353 2.7713 -3.6641 1.85783 1.92819 0.0698601 -0.563832 Si
57 1 9.52628 9.47936 6.72517 -0.836248 6.36547 1.80266 -0.62858 1.3265 1.72504 Si
62 1 8.16576 8.2035 5.47072 -5.41537 -1.22907 -5.01771 -0.746648 -1.06727 -0.0406338 Si
6 1 2.7031 2.58254 -0.0435408 1.45323 -0.0781358 4.25767 1.18519 1.69272 0.189246 Si
11 1 4.15021 1.33473 9.54942 -2.80722 3.2793 -6.8058 -0.348213 -0.871745 -0.00619437 Si
42 1 5.52526 2.59322 8.20285 -1.96376 -1.3416 0.56538 0.0119027 1.42506 -0.0596096 Si
10 1 -0.13073 2.75319 8.18203 0.654668 -0.0854389 -0.177118 2.06199 0.0705268 0.0539841 Si
43 1 9.56977 1.35073 9.51454 5.18401 -3.65299 4.18065 -1.34947 -0.189877 0.61503 Si
13 1 1.40488 4.02332 9.49676 2.35581 -1.62039 -2.47477 -0.558449 0.296463 -0.258048 Si
32 1 2.73394 5.45148 8.11709 -0.182704 -0.168134 -0.931292 -0.312799 -0.815678 0.233984 Si
52 1 5.51079 5.46666 -0.0503018 -3.03715 -2.95923 4.23675 1.17162 0.164456 -0.0279829 Si
27 1 4.1111 6.71447 9.4766 -1.90079 1.7572 5.76391 0.555353 0.432486 -0.500946 Si
45 1 6.88602 4.05153 9.49674 2.77801 2.53729 -3.74776 -0.666915 0.128504 0.232447 Si
20 1 -0.0181478 5.43818 -0.102827 -6.17555 -0.235019 3.86752 0.192597 -0.347849 0.346094 Si
59 1 9.51665 6.89138 9.53747 -1.35012 0.773149 2.82573 -0.485626 -0.520157 -0.113704 Si
64 1 8.17141 5.47246 8.18454 -3.91301 1.55993 -4.42878 0.0569355 0.532942 -0.178659 Si
22 1 2.7488 8.01282 -0.136813 1.56332 2.9546 -0.55226 -1.09297 1.05426 0.900239 Si
16 1 2.71372 0.0586535 8.20783 2.27024 1.09833 -0.933801 -0.308333 -0.192137 -0.920703 Si
26 1 -0.0307104 8.21223 8.13209 -0.513503 0.658654 -2.17557 0.278225 -0.347883 0.293729 Si
29 1 1.37812 9.50752 9.51732 3.54708 2.3187 0.790196 -0.158172 -0.0425352 -0.220727 Si
58 1 5.45496 8.17177 8.18173 -3.88421 -2.32225 2.82328 -0.462895 -0.725543 -0.281054 Si
61 1 6.75605 9.50336 9.54737 2.52887 -1.4676 2.86516 1.17462 -0.273766 0.410427 Si
48 1 8.17127 -0.0149186 8.21127 -1.09164 0.659328 3.22896 0.147502 -0.540487 -0.809681 Si
ITEM: TIMESTEP
15900
ITEM: NUMBER OF ATOMS
64
ITEM: BOX BOUNDS pp pp pp
0.0000000000000000e+00 1.0887404739999999e+01
0.0000000000000000e+00 1.0887404739999999e+01
0.0000000000000000e+00 1.0887404739999999e+01
ITEM: ATOMS id type xu yu zu vx vy vz fx fy fz element
2 1 -0.0826904 2.6422 2.74635 -2.19788 2.17159 4.255 -0.239227 0.479304 0.495054 Si
7 1 1.35033 1.38368 1.4506 2.75353 -4.30357 -2.97947 0.658718 0.266773 -1.07632 Si
34 1 5.42597 2.71164 2.59088 -3.15313 3.16979 -2.9744 0.944677 0.00808175 1.40775 Si
36 1 5.41401 0.0980055 -0.00843588 3.16613 -1.39527 -4.78839 1.84624 -1.20988 0.737175 Si
39 1 6.94938 1.33803 1.36738 1.03664 0.0499586 0.0442511 -0.981769 0.125125 -0.620073 Si
38 1 8.22503 2.75227 -0.0623998 -4.33842 0.466643 -1.98094 -0.914595 0.0222361 -0.291188 Si
40 1 8.18382 -0.174766 2.70219 -0.585224 3.67732 -4.67854 0.258594 1.70984 -0.260467 Si
23 1 1.43545 6.79914 1.46987 -0.524853 -2.51724 0.381475 -0.942701 -0.0686523 -0.354296 Si
24 1 2.60768 5.31824 2.84358 3.47005 -3.02375 0.742461 0.711048 1.6559 0.0322559 Si
1 1 3.95342 4.11433 1.45556 3.90807 3.34435 0.0115722 1.37613 0.109084 -1.75569 Si
55 1 6.87341 6.71614 1.18836 3.85546 3.15542 4.04258 -0.420236 1.19995 1.55516 Si
33 1 9.56707 4.06897 1.33454 -1.35834 0.67397 3.09705 0.0481553 -0.143587 0.125863 Si
56 1 8.18718 5.37962 2.68795 -1.94293 -1.5037 1.50611 -0.449763 0.256866 -0.0419488 Si
4 1 0.0287712 0.0453075 0.065196 -3.97915 -1.21336 2.92619 -0.357786 -0.167505 -1.18285 Si
8 1 2.70671 -0.0101984 2.73088 -6.23178 -2.90696 -5.32428 0.620642 0.53405 0.197837 Si
18 1 0.0148326 8.15327 2.79243 0.913075 3.38525 -1.4066 -0.18168 0.274782 -0.429497 Si
17 1 4.08427 9.60225 1.34127 -5.87756 -3.46628 -0.389914 0.426257 -0.081006 0.443024 Si
50 1 5.5025 8.20955 2.6443 -0.155707 7.05984 3.79953 0.179091 -0.859551 -0.41443 Si
49 1 9.54076 9.49555 1.30842 -1.53519 -2.10815 -7.07171 0.775318 -0.610061 0.475133 Si
54 1 8.17871 8.21261 -0.0882265 -0.621353 1.85446 4.89452 0.349222 -0.850584 -0.00124746 Si
14 1 2.75144 2.70549 5.38447 -4.31981 -3.20833 6.33257 -0.512833 0.37913 0.68571 Si
15 1 1.43488 1.32416 6.8253 2.78431 -1.50514 -0.980679 -0.273436 0.381841 -0.196531 Si
3 1 4.13971 1.3569 4.04152 1.03897 -0.893339 3.45664 -0.344866 -0.0729939 -0.309789 Si
47 1 6.74761 1.4348 6.80382 2.0077 -0.253223 2.22778 -0.337203 -0.627636 -0.225555 Si
35 1 9.42356 1.25307 4.09865 -2.74855 -1.78186 0.741685 1.06825 -0.0178432 0.762395 Si
46 1 8.13744 2.723 5.51979 2.70557 -4.47715 -1.93082 0.333291 -0.551673 -1.12262 Si
5 1 1.20665 4.05441 4.14571 4.81918 3.67152 0.546511 -0.102175 -0.527509 0.559433 Si
28 1 -0.117805 5.50817 5.5194 0.621845 -5.24999 2.08922 0.558286 -0.751958 -0.746769 Si
31 1 1.40725 6.78934 6.73568 -2.51171 -1.31379 -0.368099 -0.435674 0.381938 1.1752 Si
9 1 3.99601 4.1685 6.82612 0.742522 0.701153 2.8389 0.187719 -0.0795169 -1.16508 Si
19 1 4.09659 6.83212 4.01106 -4.60643 1.33041 -0.638193 0.203669 -0.678998 0.183989 Si
37 1 6.83449 4.02512 4.10433 -1.42245 5.29773 -0.52848 -0.815353 0.296988 -0.82864 Si
60 1 5.47913 5.46475 5.4407 2.45477 0.56098 1.10959 -0.520237 -0.113581 -0.203605 Si
63 1 6.87013 6.77522 6.81514 -3.33878 -8.72753 0.774452 -0.559141 -0.0886687 0.241695 Si
41 1 9.48054 4.06859 6.82073 -1.29234 3.96804 3.38195 0.948949 -0.337169 0.500668 Si
51 1 9.44789 6.79686 4.08632 6.1252 -2.12104 -0.935442 0.342331 0.254604 0.0116987 Si
21 1 1.41995 9.55198 4.11722 3.54463 -0.836007 -2.77776 -0.34655 -0.979185 -0.767714 Si
30 1 2.73841 8.15376 5.3892 1.49829 4.63619 0.559987 0.732048 0.335556 0.531366 Si
44 1 5.46389 -0.00723036 5.41563 3.22649 -1.42254 1.2607 0.33442 0.483813 -0.00744916 Si
25 1 4.10352 9.56656 6.77898 -2.29245 -0.0997557 3.76148 -0.164615 -0.89562 0.493963 Si
53 1 6.85305 9.52797 4.07289 2.43042 -5.50798 -2.50115 -0.881723 -0.971684 0.602728 Si
12 1 0.0988128 -0.095777 5.47443 -0.921661 4.97267 1.11243 -1.76246 1.11014 0.346583 Si
57 1 9.48954 9.46363 6.82469 2.31797 -3.23442 -0.352935 1.39749 0.647682 0.0657165 Si
62 1 8.15508 8.16463 5.49625 -1.03737 -1.40987 5.43329 -0.179572 -0.219121 -0.94996 Si
6 1 2.7484 2.76221 -0.023681 -4.12272 0.0162002 1.99774 -0.792638 -0.764181 0.80811 Si
11 1 4.12982 1.33925 9.55546 -0.219418 -0.435244 0.0793258 -1.07377 1.65342 -1.05217 Si
42 1 5.32687 2.78863 8.07615 0.317097 -3.18736 -0.709778 0.460626 -0.72168 1.11961 Si
10 1 0.0433822 2.7118 8.17816 -2.49486 -2.05458 -5.68714 -0.248117 0.226039 -0.822005 Si
43 1 9.52641 1.3634 9.43222 -1.02648 -0.519679 -7.35819 0.570958 -0.230053 1.11795 Si
13 1 1.30793 4.09556 9.57419 1.10245 4.49736 0.0150045 0.850267 -0.0731254 -0.399626 Si
32 1 2.69766 5.48055 8.24878 -1.10659 2.92584 -4.49652 -0.414062 0.216944 -0.398324 Si
52 1 5.35877 5.49956 -0.0625933 -2.75494 -1.71199 0.784283 -0.515824 -1.08954 1.06202 Si
27 1 4.05458 6.89644 9.55066 -0.153338 -1.0046 -3.67698 -0.390784 0.106528 -0.0695489 Si
45 1 6.66321 4.10371 9.48843 -0.753718 -0.342297 0.266483 1.32554 -0.302556 0.0486962 Si
20 1 0.0490883 5.4668 0.0378121 3.79315 1.44321 -3.60497 -0.556517 0.607509 0.13994 Si
59 1 9.51795 6.76321 9.46529 0.254709 1.69999 0.365499 0.995032 0.687794 0.981628 Si
64 1 8.20122 5.4038 8.17483 -1.22885 -0.947914 2.32026 -1.27407 -0.184303 0.0953317 Si
22 1 2.71019 8.23159 0.103061 -0.653699 -2.77675 0.392703 0.334496 -0.685606 -0.565936 Si
16 1 2.74335 -0.00073821 8.23837 -4.46844 2.26809 1.84936 0.484668 -0.273309 -0.560214 Si
26 1 0.0730511 8.17014 8.19611 2.61936 1.26798 5.50344 -0.450825 -0.485127 -0.628285 Si
29 1 1.403 9.52469 9.57167 2.56381 2.37144 0.484459 -0.588399 0.501606 0.423569 Si
58 1 5.48766 8.13269 8.16408 9.3679 3.04141 -3.63709 -0.206706 0.938773 -0.219189 Si
61 1 6.82792 9.58591 9.51478 2.91096 1.22667 -4.41607 -0.546097 0.47875 -0.620004 Si
48 1 8.17247 0.0662286 8.05484 -2.37417 2.55516 0.808076 -0.540733 -0.617582 0.859764 Si
ITEM: TIMESTEP
16000
ITEM: NUMBER OF ATOMS
64
ITEM: BOX BOUNDS pp pp pp
0.0000000000000000e+00 1.0887404739999999e+01
0.0000000000000000e+00 1.0887404739999999e+01
0.0000000000000000e+00 1.0887404739999999e+01
ITEM: ATOMS id type xu yu zu vx vy vz fx fy fz element
2 1 0.0807398 2.78147 2.69822 2.87815 -6.90873 0.951585 -0.654255 -0.130436 -0.591428 Si
7 1 1.43431 1.40041 1.30177 -0.716297 1.62488 0.172475 -0.434406 -0.12914 0.103619 Si
34 1 5.43262 2.73965 2.68977 -0.859905 0.486111 -3.03243 -1.16917 -0.672565 0.321982 Si
36 1 5.41182 -0.0682184 0.0414038 -4.34182 1.48839 3.08479 -0.773229 0.854099 -0.87041 Si
39 1 6.69921 1.28855 1.41768 0.389476 2.65026 1.91307 0.881063 0.283356 -0.0128715 Si
38 1 8.09064 2.69623 0.141171 0.936937 -1.07765 -0.903905 0.493108 0.139736 -0.824281 Si
40 1 8.14769 0.0496484 2.81858 4.52026 -1.83267 3.3107 -0.194351 0.270743 -0.601959 Si
23 1 1.37426 6.81853 1.2665 -1.08189 5.44784 2.44697 -0.0994087 0.224874 0.209021 Si
24 1 2.74876 5.53209 2.64313 -3.00826 0.250846 -0.868963 -0.174763 -0.71875 0.888173 Si
1 1 4.04555 4.07945 1.34182 -5.03157 -6.0142 1.47557 0.760698 0.222845 0.747229 Si
55 1 6.75914 6.82537 1.46994 -2.21902 -2.77743 -2.03871 0.536768 -0.257081 -1.18188 Si
33 1 9.50017 4.14315 1.36982 2.32126 0.764903 -5.66755 0.16149 -0.83726 0.601985 Si
56 1 8.15339 5.44825 2.76322 -0.0818653 0.612509 3.73631 -0.127215 0.0100586 0.018738 Si
4 1 0.0308346 -0.0313255 0.0120215 1.98981 -0.569593 3.20976 -0.496524 0.473464 0.697362 Si
8 1 2.70537 -0.0186104 2.67019 0.818956 0.804797 0.94672 -0.642669 0.235134 -0.242782 Si
18 1 0.0337868 8.17243 2.62598 0.317027 -3.32575 -2.80022 -0.347906 -0.632517 1.11448 Si
17 1 4.0472 9.53173 1.42361 3.67452 -1.84724 0.314972 0.332841 -1.21983 -0.855341 Si
50 1 5.41676 8.16012 2.80374 -4.43189 -4.11329 -1.09484 -0.227522 0.688299 0.40585 Si
49 1 9.51612 9.59246 1.50539 4.36797 -0.160828 1.28597 -0.0850676 -0.241485 -1.85079 Si
54 1 8.18846 8.18894 0.0366359 -1.95804 2.91378 -4.67784 -0.612404 0.0484352 1.06719 Si
14 1 2.69604 2.69147 5.4063 0.473704 2.88657 -3.95139 0.65308 -0.562228 0.251652 Si
15 1 1.28449 1.37479 6.82325 -2.79257 1.97441 -3.5074 0.569371 0.0588531 -0.942533 Si
3 1 4.03589 1.25859 3.98339 -0.194876 2.57113 -1.16587 1.18369 1.18666 1.60969 Si
47 1 6.81975 1.34143 6.82909 2.41594 2.98549 1.87585 0.732892 0.234867 -0.262563 Si
35 1 9.53043 1.46064 4.03505 1.68005 -0.077711 0.162796 0.0755385 0.23433 0.178054 Si
46 1 8.18422 2.75793 5.46014 1.04237 3.06547 2.14516 -0.426093 -0.247979 -0.35096 Si
5 1 1.42365 4.10027 4.05419 -2.18245 -1.20211 1.29409 0.655345 0.250936 -0.666172 Si
28 1 0.142601 5.41839 5.41008 -0.973516 5.19891 -0.399549 -1.04184 0.940639 0.133501 Si
31 1 1.39742 6.77411 6.87259 1.49019 -3.53686 -2.49668 -0.0903007 -0.263322 -0.437468 Si
9 1 4.15947 3.9638 6.81845 1.89064 0.791787 0.592249 -0.235708 0.573253 0.271844 Si
19 1 4.059 6.78656 4.18041 8.58263 1.44236 -1.44724 -0.177327 0.483279 -0.429118 Si
37 1 6.75649 4.05161 4.05287 0.141689 -3.25707 6.41899 0.545648 0.649902 0.944424 Si
60 1 5.47361 5.46574 5.51127 -2.47674 1.51709 -1.9736 0.0687488 -0.611985 -0.312802 Si
63 1 6.89277 6.88401 6.77238 -1.14457 3.52425 -0.0721272 -1.27802 -0.460077 -0.0403888 Si
41 1 9.59763 4.12788 6.71833 1.22827 0.148908 -3.7805 -0.458167 0.130886 0.353489 Si
51 1 9.5577 6.78938 4.07564 -0.79687 4.10515 -2.725 0.855387 0.0163067 -0.392492 Si
21 1 1.32644 9.56014 3.97999 -7.82848 3.30366 2.44103 0.0588285 -0.319883 1.00456 Si
30 1 2.632 8.19325 5.47596 -0.0755067 -7.55717 -0.287522 0.4935 0.157958 -0.465797 Si
44 1 5.50855 -0.016488 5.49269 -5.25897 -0.607373 5.62772 -1.57874 0.613444 -0.553535 Si
25 1 4.06272 9.54198 6.79778 3.91999 -0.164857 -0.0709952 0.207385 -0.412309 -0.140876 Si
53 1 6.81525 9.59326 4.1295 -4.04248 2.86375 -2.73336 -0.422014 -0.96578 -0.71178 Si
12 1 -0.0246158 0.084552 5.33699 2.93817 2.00688 -1.62697 -0.00755904 -0.74166 0.807057 Si
57 1 9.5095 9.57635 6.78076 -2.04699 4.23208 0.279202 0.0333608 -0.885409 -0.531637 Si
62 1 8.14231 8.15358 5.32706 0.742837 0.779423 0.172428 1.24682 0.896664 1.1633 Si
6 1 2.81566 2.76387 -0.0259828 7.03219 1.43645 -3.72659 -1.38102 -0.478555 -0.669708 Si
11 1 4.0468 1.39096 9.44916 2.93361 -3.04455 2.8076 1.07525 -1.08398 1.11473 Si
42 1 5.58153 2.6603 8.2426 1.75285 3.82045 -1.40883 -1.12129 0.485277 -0.80544 Si
10 1 -0.0226793 2.78167 8.12463 2.59447 -3.22969 2.74164 -0.728277 -1.00589 1.17531 Si
43 1 9.47907 1.34657 9.64458 -0.999603 -2.29 2.14466 0.109588 0.350382 -1.33734 Si
13 1 1.36529 4.06107 9.49594 -2.21004 -7.83469 2.66749 -0.264433 0.403634 0.886506 Si
32 1 2.76098 5.38262 8.19386 -0.168997 -3.91282 2.08015 0.329804 -0.202217 -0.590119 Si
52 1 5.46661 5.3503 0.0626341 6.3839 1.15336 -2.15516 0.497116 1.12483 -0.747262 Si
27 1 4.08745 6.73672 9.55618 3.77326 1.02604 -0.592607 0.689278 0.0796594 -0.129151 Si
45 1 6.90231 4.08324 9.49474 -2.00172 -2.43827 -1.6206 -0.328189 0.0981294 0.889842 Si
20 1 -0.0440255 5.4533 0.0206537 -0.113428 5.24053 0.212378 0.715025 -0.525872 -0.819182 Si
59 1 9.44767 6.75209 9.5865 -3.36006 -0.149112 -4.14013 0.300709 0.271359 -0.844345 Si
64 1 8.1708 5.47216 8.05197 4.29435 1.17229 1.82563 0.715732 -0.42809 0.903691 Si
22 1 2.73702 8.16738 -0.0616498 -5.0739 2.51947 1.977 -0.0395115 0.431497 0.326731 Si
16 1 2.70321 0.0134753 8.10346 -2.07767 -0.66913 -2.34087 -0.569776 -0.0839374 0.581318 Si
26 1 -0.0657528 8.05263 8.15623 1.37487 -2.18326 -0.64318 -0.106922 1.24291 0.298475 Si
29 1 1.31063 9.52238 9.49096 -4.20406 -1.94629 -1.61039 0.420237 -0.538033 -0.544221 Si
58 1 5.42347 8.13199 8.13927 -1.83203 0.534349 1.40916 0.196392 0.279058 0.548227 Si
61 1 6.78862 9.51074 9.56314 -1.70683 -3.44836 1.98935 -0.462436 -0.731495 -0.157971 Si
48 1 8.09254 -0.0497222 8.19375 -1.60745 -1.16784 1.84756 1.16182 0.74201 0.296564 Si
ITEM: TIMESTEP
16100
ITEM: NUMBER OF ATOMS
64
ITEM: BOX BOUNDS pp pp pp
0.0000000000000000e+00 1.0887404739999999e+01
0.0000000000000000e+00 1.0887404739999999e+01
0.0000000000000000e+00 1.0887404739999999e+01
ITEM: ATOMS id type xu yu zu vx vy vz fx fy fz element
2 1 -0.0664779 2.66652 2.73572 -0.986948 -0.438669 1.72408 0.910794 -0.020678 0.469409 Si
7 1 1.33736 1.30347 1.41048 -0.221304 3.79075 -2.75247 -0.563791 -0.397713 0.460876 Si
34 1 5.51232 2.73128 2.77171 2.30297 -0.298868 4.68201 0.23422 0.320077 -0.637436 Si
36 1 5.48077 0.0466443 -0.0545453 3.42976 -4.90976 -0.886524 -0.285815 -0.424882 0.861733 Si
39 1 6.83818 1.40091 1.32126 -3.45636 -3.80084 -4.59868 -0.155546 0.111744 -0.0935506 Si
38 1 8.16249 2.76051 -0.0949419 -1.00013 -1.47504 -1.47825 0.811734 -0.445559 0.860021 Si
40 1 8.15228 0.0377072 2.68024 1.99213 -0.86211 0.307506 0.089309 -0.903748 0.520073 Si
23 1 1.26754 6.78499 1.38281 1.23679 -1.85212 1.21812 1.0233 0.164202 0.276736 Si
24 1 2.74348 5.40023 2.65834 -0.231156 4.55668 2.90678 -0.637825 -0.0684576 -0.0660825 Si
1 1 4.13995 4.00025 1.32929 -3.72266 3.48697 -0.642013 -0.930052 -0.101015 0.771723 Si
55 1 6.78658 6.87111 1.27446 -2.18958 5.30868 0.147676 0.118612 -1.29364 0.420347 Si
33 1 9.57687 4.03142 1.36588 -0.619865 -1.9972 1.33465 -0.663371 0.981308 -0.9852 Si
56 1 8.22164 5.50897 2.69212 -0.833576 3.37715 -0.570605 -0.267168 -0.236466 -0.0583819 Si
4 1 0.00549229 -0.0306377 -0.0179675 1.26613 3.61476 -2.72532 -0.0383641 0.024697 -0.0715711 Si
8 1 2.77032 0.00999032 2.77126 3.04028 1.83964 -1.94964 0.0534721 -0.0311087 0.374593 Si
18 1 -0.0548602 8.13851 2.80488 -1.19686 -1.01787 1.3674 0.491304 0.36216 -0.836846 Si
17 1 4.11601 9.5372 1.34953 2.94639 3.19581 -0.327718 0.210957 1.00725 0.227284 Si
50 1 5.47392 8.21875 2.6878 1.32116 -2.45233 -3.16962 -0.66734 -1.11388 -0.479059 Si
49 1 9.49806 9.48293 1.36354 1.23028 -3.39594 4.46709 0.505491 0.487675 0.117523 Si
54 1 8.25437 8.10951 -0.042658 1.55521 0.0776567 0.982411 -0.909928 0.74408 -0.680917 Si
14 1 2.69493 2.72955 5.51273 6.80445 -1.18069 -0.402231 -0.166716 0.85634 -1.06913 Si
15 1 1.3928 1.32098 6.81361 -0.935237 -1.568 1.39427 -0.0687329 0.137524 0.867007 Si
3 1 4.15907 1.46887 4.15925 0.111525 -0.427316 -1.25158 -1.36095 -0.725963 -0.88635 Si
47 1 6.73149 1.36362 6.75171 -3.35521 0.992149 -2.65173 0.134853 -0.137173 0.674952 Si
35 1 9.54067 1.29061 4.13439 -1.23767 1.84759 4.77495 -0.26161 0.0476624 -0.786118 Si
46 1 8.16637 2.61249 5.42634 -0.0673337 -1.59729 -1.88191 -0.0688002 1.29161 0.526354 Si
5 1 1.28013 4.13324 4.06247 -2.01272 -2.44447 3.05537 0.414064 -0.742326 0.551018 Si
28 1 -0.140809 5.45657 5.47124 -0.21064 -0.771564 -3.41649 0.999148 -1.07647 0.305539 Si
31 1 1.22869 6.84738 6.73084 -1.90125 4.68369 1.0654 1.17344 0.198474 -0.0484169 Si
9 1 4.04094 4.15869 6.79944 -1.62323 -2.71822 -6.20641 0.281906 -0.417955 0.0687049 Si
19 1 4.07715 6.78448 3.97644 -2.50043 -2.52639 1.3926 0.799154 0.136635 0.634562 Si
37 1 6.88868 4.10126 4.09987 -2.76131 -3.36822 -3.68767 0.158379 -0.0486282 -0.397145 Si
60 1 5.48259 5.4432 5.40518 -1.61435 -2.4605 1.04034 -0.92655 0.146401 0.0516166 Si
63 1 6.67743 6.77675 6.91059 0.876343 -1.57066 1.85081 1.64851 0.131072 -1.02763 Si
41 1 9.42863 4.05908 6.86646 -1.64553 -2.6174 -2.20053 0.372138 -0.209995 -0.638198 Si
51 1 9.55477 6.82549 4.16678 2.69666 -0.924833 0.899872 -1.8565 0.155672 -0.737522 Si
21 1 1.37334 9.4511 4.11391 -0.422281 -4.01956 -3.51507 0.155253 1.17752 -0.161988 Si
30 1 2.80449 8.15767 5.41628 -0.168739 3.32209 -2.16345 -0.945081 -0.832693 0.255586 Si
44 1 5.44362 0.0122646 5.35626 3.48748 2.48174 -5.29832 0.0429435 -0.913277 1.09321 Si
25 1 4.14196 9.46958 6.80312 -0.498874 -0.632841 -0.323442 -0.149626 1.37343 -0.564759 Si
53 1 6.77258 9.48073 4.03821 0.878764 -0.0175569 1.08553 0.977117 1.21474 0.257679 Si
12 1 0.00594476 -0.0168029 5.47865 -5.41909 -3.24094 -1.09402 0.678031 -0.563785 -0.355525 Si
57 1 9.53833 9.50532 6.77126 4.64796 1.40838 1.74092 -0.832826 0.317109 0.760961 Si
62 1 8.0924 8.1518 5.4704 4.42449 -4.18823 -4.2504 -0.0425915 -0.387847 0.403147 Si
6 1 2.62516 2.64754 0.101514 -4.84319 -1.4092 3.36456 1.17379 1.03925 -0.52644 Si
11 1 4.0803 1.44289 9.62104 -2.42486 4.72122 -1.25223 -0.313235 -0.748833 -0.56096 Si
42 1 5.37191 2.71651 8.1818 -1.98451 2.65902 2.75592 0.561922 0.887033 -0.464197 Si
10 1 0.0478411 2.78364 8.1671 -0.890736 5.02429 0.99888 0.654 0.104157 -0.200816 Si
43 1 9.59557 1.41842 9.44053 -0.44385 0.0836893 5.14298 -0.592097 -0.679871 0.929634 Si
13 1 1.44177 4.13593 9.603 1.85954 4.04107 -1.15963 -0.144964 -1.07441 -1.43252 Si
32 1 2.61298 5.51634 8.08101 3.52179 -1.19186 1.99613 0.788048 0.167999 0.834974 Si
52 1 5.38319 5.37109 -0.0358576 -3.91086 -2.43045 0.784962 0.514845 1.50487 -0.0447939 Si
27 1 4.03939 6.85233 9.51311 -2.81847 3.29426 2.65714 -0.303168 -0.650364 0.164155 Si
45 1 6.79219 4.09994 9.52524 1.79633 2.17537 -2.17081 -0.675326 -0.49717 -0.430437 Si
20 1 0.0744772 5.42216 -0.0661332 3.05527 -2.61917 1.30624 -1.0309 -0.136625 1.64032 Si
59 1 9.65571 6.77202 9.50968 0.0752434 -1.57525 3.5361 -1.32338 -0.0712366 -0.213583 Si
64 1 8.13477 5.44164 8.23123 -5.18257 -2.80699 -3.4054 0.208893 0.617969 -0.322654 Si
22 1 2.73302 8.16811 0.114414 6.10423 0.0293445 2.77932 -0.294739 -0.566688 -0.696652 Si
16 1 2.85054 0.00621134 8.20385 5.71676 1.91335 2.14711 -0.712788 -0.0941855 -0.209481 Si
26 1 0.00377311 8.18568 8.17703 -5.49082 -0.487408 -2.22089 0.515128 0.544763 -0.0971851 Si
29 1 1.4687 9.50149 9.55725 -0.349794 1.5565 4.27881 -0.684757 0.320009 -0.281747 Si
58 1 5.43071 8.19834 8.18605 -0.445038 -1.02386 1.13834 -0.620651 -0.691103 0.255929 Si
61 1 6.75694 9.51034 9.47928 0.444313 4.46738 0.438651 1.80817 0.506146 0.634794 Si
48 1 8.15588 0.0625214 8.13156 2.79478 -1.62962 -3.10983 -0.0137237 -0.775832 -0.207172 Si
ITEM: TIMESTEP
16200
ITEM: NUMBER OF ATOMS
64
ITEM: BOX BOUNDS pp pp pp
0.0000000000000000e+00 1.0887404739999999e+01
0.0000000000000000e+00 1.0887404739999999e+01
0.0000000000000000e+00 1.0887404739999999e+01
ITEM: ATOMS id type xu yu zu vx vy vz fx fy fz element
2 1 0.0201846 2.70105 2.71436 3.38471 4.59045 -2.9808 -0.189369 1.02847 -0.243446 Si
7 1 1.40075 1.45846 1.29691 3.68069 -7.36976 2.87931 0.298275 -0.210368 0.0257059 Si
34 1 5.30936 2.63216 2.66122 0.47099 -2.15525 1.30511 1.12876 0.739457 1.06627 Si
36 1 5.36976 -0.0054171 0.00775828 -2.06766 1.83429 -1.98427 1.52642 -0.0941555 -0.0295983 Si
39 1 6.78775 1.36364 1.38179 -1.54056 -0.622162 1.28457 -0.135024 -0.52241 -0.302062 Si
38 1 8.14233 2.74082 0.0188227 -2.13442 1.18092 0.855017 -0.235936 -0.233326 -0.0587187 Si
40 1 8.16562 0.00559439 2.77381 -3.07893 6.02738 -3.63574 -0.292675 -0.398089 -1.15694 Si
23 1 1.35852 6.81566 1.33999 -2.96877 2.39354 -1.87426 0.363787 -0.594859 -0.192568 Si
24 1 2.7146 5.46312 2.72619 -1.21881 -1.49126 -4.50261 0.566863 0.299612 0.354822 Si
1 1 4.05128 4.07088 1.31885 5.23779 -0.918395 -4.20969 0.523543 1.41914 -0.579279 Si
55 1 6.81741 6.77957 1.46993 2.01121 -1.40428 1.89053 -0.224152 1.07117 -0.159473 Si
33 1 9.5143 4.12163 1.29544 -1.68155 1.72042 5.66424 -0.0685582 -0.770261 1.68314 Si
56 1 8.1712 5.39092 2.81177 2.81141 -1.03543 0.592702 -0.267362 -0.275786 -0.710375 Si
4 1 -0.0198199 0.0830676 0.0478495 -2.54903 -4.84204 1.52213 0.351645 -0.508108 -1.12797 Si
8 1 2.69553 -0.00416709 2.65826 -1.60016 -2.67535 1.8256 -0.0546936 -0.448776 0.115489 Si
18 1 0.0457709 8.13541 2.69386 2.54042 0.433326 -1.14999 -0.292923 1.01893 -0.00505111 Si
17 1 4.10468 9.48077 1.3053 -7.71184 -0.577302 0.907198 -1.49493 0.143916 0.196867 Si
50 1 5.36967 8.23062 2.7661 -0.0478609 5.93758 0.643541 1.48311 -0.576851 -0.062698 Si
49 1 9.55337 9.54434 1.33143 -2.14941 4.00698 -0.834516 -0.779089 -0.411659 0.57796 Si
54 1 8.07742 8.17712 -0.0265127 0.00982339 -0.599611 2.99435 1.29862 -0.63634 1.15561 Si
14 1 2.76367 2.68269 5.41123 -4.14464 3.16228 0.845606 0.307357 -0.0887538 1.04007 Si
15 1 1.35037 1.34355 6.77831 0.988503 3.35159 -1.05439 -0.47625 0.250275 -0.00869069 Si
3 1 4.07028 1.24737 4.09178 -2.56878 -1.15172 2.57131 -0.260731 0.41797 -0.273897 Si
47 1 6.89478 1.35725 6.75808 2.15644 -2.77793 3.04623 -0.39545 -0.255217 0.372122 Si
35 1 9.49106 1.3695 4.03801 0.747652 0.554024 -4.82163 0.560033 0.404079 0.427319 Si
46 1 8.19848 2.79039 5.38479 0.556258 -1.85832 1.52339 -0.141154 -0.819683 0.643037 Si
5 1 1.42631 4.05585 4.12335 4.89544 5.40126 -5.8294 -0.945981 0.388436 -0.470649 Si
28 1 0.0336513 5.45882 5.49526 -0.684388 -3.06215 1.17478 0.456539 -0.0915109 -0.678354 Si
31 1 1.43823 6.78157 6.86024 0.181619 -5.65819 3.25001 -0.66285 -0.190191 0.444352 Si
9 1 4.13215 4.04064 6.8786 -0.877225 2.20139 7.21797 -1.01618 0.262674 -0.853453 Si
19 1 4.07645 6.92042 4.16626 -3.90034 -1.63461 -2.15573 -0.820284 -1.18028 -0.363716 Si
37 1 6.7231 4.02722 4.13701 5.32864 6.03721 4.93498 -0.584933 0.214392 -1.26918 Si
60 1 5.39382 5.44845 5.47839 3.73051 -1.20353 2.5911 0.666649 0.228985 0.0875083 Si
63 1 6.93189 6.78217 6.7479 0.507973 -0.349817 -2.22431 -0.95585 0.151286 0.58961 Si
41 1 9.4938 4.14646 6.78955 -3.98418 3.62155 3.62309 0.691288 -0.640743 0.532557 Si
51 1 9.60528 6.77007 4.01113 -1.50217 1.13046 2.86516 -0.041261 0.0476437 1.11472 Si
21 1 1.31183 9.56319 4.12402 2.60656 -0.0634948 -2.53926 0.728092 -0.653058 -0.710302 Si
30 1 2.69026 8.21132 5.56034 0.801047 2.45328 -1.01757 0.289876 0.619912 -0.916644 Si
44 1 5.4033 -0.0397759 5.51439 -0.757027 2.72361 -0.502431 1.57278 1.00191 -1.07939 Si
25 1 4.08988 9.61966 6.82584 -0.64967 0.2837 -1.56115 -0.726771 -1.56638 0.846485 Si
53 1 6.82121 9.53301 4.12589 0.445632 -4.70363 3.37158 -0.0333689 -0.391315 0.398856 Si
12 1 -0.0749116 -0.00432101 5.40384 0.110558 -0.361484 0.547094 0.293115 0.506475 0.68979 Si
57 1 9.56645 9.47465 6.81208 -7.56165 -2.7723 -4.72368 0.181908 0.762766 0.146229 Si
62 1 8.31604 8.1524 5.44432 -0.742664 5.27808 4.60713 -1.10844 -0.281795 -1.05544 Si
6 1 2.72827 2.83823 -0.158466 -1.43523 -3.27175 -0.957629 0.251688 -1.58079 1.79277 Si
11 1 4.048 1.30959 9.55223 3.26239 1.1614 2.82082 0.110384 0.828151 -1.45962 Si
42 1 5.49568 2.70549 8.13718 2.05801 -5.97989 -1.37232 -0.0160123 -1.10069 0.856286 Si
10 1 -0.0207571 2.73358 8.18355 -3.52269 1.77085 -0.782051 -0.587261 -0.41575 -0.927966 Si
43 1 9.46511 1.37968 9.53635 0.142871 -0.294625 -7.89531 0.460759 -0.170138 -0.0384064 Si
13 1 1.27436 4.04567 9.55239 3.05048 2.652 0.712365 0.0909109 1.58654 -0.760928 Si
32 1 2.7565 5.39849 8.25902 -0.102336 -0.0988937 -4.2536 -0.319176 -0.305056 -0.675659 Si
52 1 5.51372 5.58277 -0.0462077 1.93708 0.476858 -2.13 -0.592817 -2.05903 0.922045 Si
27 1 4.16779 6.81216 9.44077 -3.24747 -7.70557 -1.34215 -0.533663 0.40513 0.363854 Si
45 1 6.8047 4.06804 9.53289 1.35262 0.914188 0.480594 0.0099107 0.568256 0.0317505 Si
20 1 -0.0351074 5.45417 0.0170765 2.78398 -0.405834 -2.16049 0.209528 0.552633 -0.674513 Si
59 1 9.47893 6.80407 9.49977 0.561751 0.700731 -1.12834 0.923622 0.842044 1.00552 Si
64 1 8.20602 5.45048 8.23219 3.00478 -2.14398 -0.614297 -0.965724 -0.555502 -1.06049 Si
22 1 2.7263 8.0891 -0.082615 -0.648737 -1.60809 -1.55999 0.0662297 0.898955 0.0677386 Si
16 1 2.64869 -0.0352998 8.16998 0.746747 -1.67254 1.09994 0.514611 0.748023 0.0620577 Si
26 1 0.0212383 8.16565 8.1618 0.707221 3.39594 -1.37564 -0.358434 -0.985451 -0.102259 Si
29 1 1.29772 9.5154 9.486 2.79263 -2.08083 0.243125 0.316509 0.316846 1.43659 Si
58 1 5.48437 8.18972 8.0971 1.91066 -0.123964 2.42705 0.419849 -0.158182 -0.340704 Si
61 1 6.79516 9.50332 9.54055 -1.60272 -0.482083 0.315262 -0.889328 0.762158 -0.390668 Si
48 1 8.19358 -0.0807715 8.18204 -0.834194 -0.239231 0.540336 -0.196031 0.684274 -0.308025 Si
ITEM: TIMESTEP
16300
ITEM: NUMBER OF ATOMS
64
ITEM: BOX BOUNDS pp pp pp
0.0000000000000000e+00 1.0887404739999999e+01
0.0000000000000000e+00 1.0887404739999999e+01
0.0000000000000000e+00 1.0887404739999999e+01
ITEM: ATOMS id type xu yu zu vx vy vz fx fy fz element
2 1 -0.0712373 2.73685 2.71958 0.87069 -4.0638 0.768448 0.438979 -1.03337 -0.12269 Si
7 1 1.37734 1.35164 1.42577 -2.94386 1.86994 6.45015 -0.36058 -0.0332474 -0.277164 Si
34 1 5.57455 2.76395 2.78078 -3.59046 -1.2074 -6.62184 -1.66137 -0.742007 -1.27083 Si
36 1 5.52374 0.0352737 0.114565 -4.4356 5.32819 1.62383 -1.32621 -0.325542 -1.32095 Si
39 1 6.8748 1.36585 1.37371 4.32588 0.641768 0.782471 -0.161315 0.441346 0.98717 Si
38 1 8.19157 2.72092 0.0708284 2.26054 1.44185 -1.78458 0.317361 0.094286 -1.14416 Si
40 1 8.15995 -0.0325418 2.72392 -1.77968 -11.1463 4.95954 0.652984 1.03794 0.585921 Si
23 1 1.37849 6.79507 1.34866 4.26789 0.92435 1.17999 -1.11096 0.753011 0.547828 Si
24 1 2.66518 5.45501 2.72063 -3.65303 -3.91227 0.171381 0.369555 -0.700549 0.276348 Si
1 1 4.04042 4.07627 1.38237 -1.67383 -0.994496 6.41476 0.647403 -0.856398 0.783322 Si
55 1 6.82523 6.70509 1.29708 1.15227 -5.70027 -3.86598 -0.29873 0.694378 -0.461911 Si
33 1 9.56212 4.09055 1.36381 4.14398 -0.228951 -5.57549 -0.0148057 0.333633 -0.678595 Si
56 1 8.16339 5.43553 2.61656 -0.207758 1.58326 -1.48992 0.746069 0.398612 0.742 Si
4 1 0.101276 -0.0459207 -0.0159582 2.59716 3.28509 4.68034 -1.25512 0.105894 1.09947 Si
8 1 2.75655 0.0329819 2.77804 -1.25788 0.327206 -2.13459 -0.407382 0.135206 -0.650926 Si
18 1 -0.0180941 8.21547 2.75256 -0.36905 1.19995 1.52031 0.294459 -0.924483 0.0633701 Si
17 1 4.04406 9.58714 1.41808 3.69633 2.94219 -3.89649 1.16693 -0.976666 -0.216935 Si
50 1 5.52878 8.08321 2.66881 -0.804887 3.28259 0.7734 -0.79283 1.2217 0.283811 Si
49 1 9.5044 9.49637 1.40426 2.59416 -2.58453 -2.5914 0.707025 0.562321 -1.04263 Si
54 1 8.1868 8.1425 0.00419052 0.435253 0.255949 -5.25469 -0.291979 0.08576 -0.756289 Si
14 1 2.76569 2.77062 5.37682 -0.117507 -0.530506 -2.36484 -1.24619 -0.417827 0.097089 Si
15 1 1.3883 1.37755 6.76919 -0.0931777 -0.980031 0.775238 0.360623 0.085522 -0.0916164 Si
3 1 4.08127 1.3704 4.0485 0.364556 -4.21858 -3.83756 1.14761 0.725914 0.605271 Si
47 1 6.76545 1.34295 6.80936 -0.382123 2.329 0.555891 -0.365742 1.0067 0.277342 Si
35 1 9.53942 1.3822 4.14651 -2.33325 -0.935792 1.8571 -0.546987 -0.587037 -0.200162 Si
46 1 8.19397 2.76738 5.54388 -1.43428 4.31797 4.36677 -0.191593 -0.568249 -0.992115 Si
5 1 1.24769 4.0362 4.03969 -6.55636 -3.82612 5.27042 1.31775 0.948617 0.267053 Si
28 1 -0.0305472 5.49325 5.35302 -2.6497 1.0582 4.85737 -0.431069 0.0892299 0.592293 Si
31 1 1.40276 6.7597 6.79745 2.80241 -0.809705 -2.22674 -0.900733 0.393202 -0.629391 Si
9 1 3.99017 4.15872 6.76697 2.11283 -0.0123719 4.40079 1.53781 -0.392008 0.552027 Si
19 1 4.15488 6.7427 4.03847 1.24658 3.15199 1.26328 -0.55281 0.433466 -0.0361325 Si
37 1 6.9315 4.10048 3.99538 -1.50903 -5.20556 -1.97681 -0.359856 0.277372 2.08972 Si
60 1 5.50873 5.45128 5.4272 -1.20198 3.42498 1.58635 0.144083 -0.333438 0.126008 Si
63 1 6.78745 6.8767 6.85842 5.23539 4.38756 -0.796991 -0.84091 -0.4313 -0.385311 Si
41 1 9.65071 4.04105 6.82258 3.3017 -1.18807 -1.53679 -0.823749 1.21049 -0.202182 Si
51 1 9.32688 6.90598 4.07428 -1.11358 -0.380813 -2.85477 1.44168 -0.500098 -0.149542 Si
21 1 1.44181 9.55919 4.05737 0.476029 5.56222 -0.415619 -1.26043 -0.426941 0.65298 Si
30 1 2.72027 8.11165 5.36482 -5.90291 -3.4523 1.4971 0.400858 -0.377472 0.211884 Si
44 1 5.39159 -0.00237362 5.45214 4.20396 -2.41374 2.60899 -0.282564 0.136612 0.0866311 Si
25 1 4.03878 9.43141 6.76254 5.6005 3.282 0.293694 0.024709 0.84508 -0.294428 Si
53 1 6.76361 9.6207 4.08414 4.45243 4.77721 0.273438 -0.61715 -1.03006 -0.627651 Si
12 1 0.015819 -0.0392051 5.488 3.60586 -5.0777 -1.52723 0.219305 0.572797 -0.664996 Si
57 1 9.46235 9.61461 6.84213 -2.88231 -2.22594 3.08688 0.182708 -1.44952 -0.932172 Si
62 1 8.00968 8.26932 5.46097 -0.935528 -3.07925 1.27213 1.1481 0.174402 0.512643 Si
6 1 2.76289 2.63281 0.0374703 3.51496 4.50107 -5.08819 -0.280068 0.601807 -0.725183 Si
11 1 4.10051 1.29154 9.47778 3.63365 -3.58809 1.34492 0.418385 0.254126 1.33039 Si
42 1 5.39183 2.7707 8.22225 -1.22959 2.75201 -3.28578 0.235357 -0.09795 -1.31685 Si
10 1 0.0541742 2.69859 8.18605 5.1242 1.2036 -0.670631 -0.0726564 -0.568456 0.620607 Si
43 1 9.52258 1.2872 9.59361 -0.755981 0.617944 -0.274887 0.360634 0.812684 -0.668831 Si
13 1 1.44683 4.08907 9.49206 -4.93387 -2.10159 -3.5712 -1.21794 -1.41528 1.67829 Si
32 1 2.66914 5.42096 8.2206 -1.61765 3.04432 4.46351 0.992359 0.951168 -1.01844 Si
52 1 5.4361 5.31819 0.0235783 -1.35995 6.05658 -2.92066 -0.309561 1.19852 -0.58133 Si
27 1 3.98115 6.75842 9.62301 -0.144716 4.27084 -0.45837 0.644511 0.263451 0.0269552 Si
45 1 6.85169 4.0893 9.52191 -7.99176 -3.74779 -1.60852 -0.0311258 -0.49871 0.116463 Si
20 1 0.0358226 5.45276 -0.0253239 -1.46026 0.53918 3.11654 0.206793 -0.509542 -0.113553 Si
59 1 9.57293 6.78388 9.48489 0.206721 -2.55912 -3.2839 -0.883099 0.0019396 0.0719639 Si
64 1 8.15796 5.4425 8.08686 -1.19265 3.47973 1.18406 0.890397 -0.134086 0.737981 Si
22 1 2.64814 8.23889 0.0563119 -1.92251 -2.08844 2.06242 0.886265 -0.446855 -0.302214 Si
16 1 2.76415 -0.00314867 8.09105 -3.97077 1.63802 4.73439 -0.673218 -0.555549 0.218466 Si
26 1 -0.0519929 8.13848 8.0794 3.12849 -0.795475 0.462939 0.828755 0.563836 0.477912 Si
29 1 1.36797 9.51888 9.48369 -0.490419 -3.75536 0.0503518 -0.00182677 -0.243001 -0.960752 Si
58 1 5.30298 8.15138 8.19822 0.434231 -5.30168 -3.93203 1.13369 -0.0430646 0.858684 Si
61 1 6.78898 9.59731 9.52233 2.26778 0.976849 -1.94726 -0.326268 -1.42924 0.314333 Si
48 1 8.12593 0.0159579 8.14354 -3.15855 3.65841 -2.91543 0.0336956 0.636916 0.943716 Si
ITEM: TIMESTEP
16400
ITEM: NUMBER OF ATOMS
64
ITEM: BOX BOUNDS pp pp pp
0.0000000000000000e+00 1.0887404739999999e+01
0.0000000000000000e+00 1.0887404739999999e+01
0.0000000000000000e+00 1.0887404739999999e+01
ITEM: ATOMS id type xu yu zu vx vy vz fx fy fz element
2 1 0.0371241 2.78496 2.69243 -4.46992 4.42281 0.649578 -0.226402 -0.441672 0.783431 Si
7 1 1.30027 1.31801 1.41359 3.41093 3.92839 -7.79596 0.21476 0.534074 -0.76093 Si
34 1 5.39278 2.68376 2.67549 -0.70756 0.982567 5.40536 0.330105 1.05693 0.53028 Si
36 1 5.42422 -0.0428479 -0.0930776 2.74711 -7.66725 3.03022 -0.235182 0.34974 0.431117 Si
39 1 6.67597 1.36964 1.32565 -5.49029 -0.353643 0.858702 1.14676 -0.464134 -0.650478 Si
38 1 8.14724 2.7305 0.0302766 -1.38905 -0.883827 4.97819 -0.302788 -0.236887 0.157779 Si
40 1 8.1233 0.0677297 2.65971 0.643953 4.74987 0.672352 -0.305391 -1.29813 0.358216 Si
23 1 1.35977 6.74795 1.30743 -2.44562 -1.95945 -3.08819 1.037 -0.00574754 0.115275 Si
24 1 2.76209 5.43779 2.78897 0.863797 3.0472 -1.42444 -0.156778 0.388139 -1.2243 Si
1 1 4.16945 4.14923 1.36817 -2.65954 1.09459 -7.49932 -1.95552 -0.662145 0.0137059 Si
55 1 6.7911 6.86857 1.40381 -3.89533 5.83185 2.2511 -0.127606 -0.772926 0.132405 Si
33 1 9.44141 4.06698 1.45683 2.59422 -1.90739 -0.529964 0.717722 -0.404136 -1.18379 Si
56 1 8.14215 5.42771 2.7119 4.37639 -2.87432 2.26375 -0.498162 0.674661 0.659458 Si
4 1 -0.0589026 0.0304405 -0.0147521 1.38321 1.09012 -4.12546 0.598252 0.175383 -0.389884 Si
8 1 2.69144 0.00756335 2.74085 2.74126 -0.439025 0.219788 0.517257 -0.302259 0.0121511 Si
18 1 0.0588998 8.10494 2.70286 -1.32858 0.142145 3.10886 -0.921183 0.000374818 0.138137 Si
17 1 4.07022 9.52538 1.37519 -3.73668 -1.62304 1.91419 0.484133 0.271741 -0.2032 Si
50 1 5.48302 8.21998 2.76089 1.61379 0.840464 0.108064 -1.36818 -0.888623 -0.0480545 Si
49 1 9.55139 9.57394 1.37879 -1.02343 -2.10796 6.17111 -0.295755 -0.701428 0.302981 Si
54 1 8.16253 8.15546 0.0960882 -0.849241 1.84772 2.63844 0.118978 0.99746 -0.676515 Si
14 1 2.66492 2.58991 5.50946 5.15582 -0.444211 -1.40112 0.9859 0.848515 -0.562042 Si
15 1 1.30362 1.36177 6.92301 -4.36676 -0.0410911 0.249419 -0.0115332 -0.586938 -0.502236 Si
3 1 4.12652 1.35985 4.07032 2.8455 -1.58764 -1.26366 -0.995555 -0.48732 0.197586 Si
47 1 6.74782 1.32663 6.78448 -5.20852 1.55681 -4.27153 1.08177 -0.427705 -0.172319 Si
35 1 9.54717 1.34362 3.96233 0.512732 0.506431 -0.305798 0.0690324 0.397757 1.06453 Si
46 1 8.05858 2.61528 5.33493 2.303 -4.87825 1.31282 0.849179 1.2269 0.393533 Si
5 1 1.46729 4.05133 4.09317 -0.807134 1.95528 -3.18722 -0.854232 -0.422433 0.558204 Si
28 1 0.0914195 5.35953 5.51565 3.26352 3.37233 -6.24433 -0.451369 0.23698 -0.127857 Si
31 1 1.30096 6.91349 6.85727 -3.80232 -0.618238 -0.39995 0.919605 -0.647817 -0.702607 Si
9 1 4.06471 4.03839 6.77548 1.58605 -4.2369 -2.02219 0.0250329 -0.136619 0.311791 Si
19 1 3.99324 6.86704 4.12966 2.44411 -1.23431 0.121587 1.43822 0.0487272 0.0527077 Si
37 1 6.72767 4.1185 4.03358 -2.90125 -4.54562 -1.10075 0.303642 -1.1077 -0.124957 Si
60 1 5.41495 5.41243 5.43173 0.647767 -1.06556 1.18746 -1.06046 0.310239 -0.562466 Si
63 1 6.74744 6.7606 6.71159 1.64674 -0.118444 0.241582 1.22678 0.269127 0.856305 Si
41 1 9.42991 4.06903 6.78763 3.91279 0.737127 -0.0757457 0.15748 -0.694103 -0.653977 Si
51 1 9.59986 6.64825 4.10745 3.32789 4.91956 5.91588 0.0415951 0.950129 -0.415976 Si
21 1 1.36954 9.47908 4.06678 1.19708 -4.799 -1.21916 -0.337648 1.01289 0.128346 Si
30 1 2.7059 8.27834 5.48752 -3.02345 1.49134 1.1812 -0.233933 -0.969854 0.322571 Si
44 1 5.53825 -0.0156298 5.3295 1.22562 2.53519 -2.50773 -1.06283 -0.478401 1.0844 Si
25 1 4.09758 9.59219 6.80355 -2.00933 -4.07694 0.270404 0.941912 0.115582 0.195254 Si
53 1 6.87186 9.40765 4.10783 0.897993 0.820476 1.94734 0.7489 1.76945 -0.773933 Si
12 1 0.0182245 0.0156677 5.43897 -4.66642 4.20103 -2.20453 -0.00280584 -0.335182 -0.3922 Si
57 1 9.63134 9.39763 6.74232 6.82854 0.111805 -3.89472 -0.506833 1.26462 0.626165 Si
62 1 8.233 8.08459 5.42246 -3.11573 -0.774418 -7.26341 0.0818678 -0.833945 0.0321534 Si
6 1 2.61295 2.76529 0.0589642 0.7801 -1.97791 5.03566 0.951629 0.547818 -0.367328 Si
11 1 4.08315 1.47671 9.5375 -1.36935 5.43876 -5.71741 -0.512084 -0.837867 0.556254 Si
42 1 5.47758 2.68833 8.15566 3.37021 -4.57801 3.68454 -0.19448 1.33791 0.272869 Si
10 1 -0.0585185 2.77101 8.17333 -6.18997 -0.514049 1.32546 0.540093 0.919738 -0.387571 Si
43 1 9.52384 1.47118 9.46481 3.07389 0.307614 6.48588 -0.499267 -1.25081 1.09443 Si
13 1 1.30694 4.1937 9.49041 1.10583 -0.176675 2.609 0.876094 -0.940158 -0.255114 Si
32 1 2.76117 5.5379 8.08051 0.596498 0.334349 4.39436 -0.54299 -0.708011 0.620829 Si
52 1 5.40627 5.53596 0.0267624 -3.70011 -6.62436 0.795007 1.08877 -0.205178 -0.339456 Si
27 1 4.14177 6.82888 9.45767 4.60656 1.44027 2.153 0.219861 -0.0911046 -0.238432 Si
45 1 6.79928 4.10689 9.6117 4.1766 1.43957 -4.0731 -0.493915 0.0660185 -0.868608 Si
20 1 -0.0544363 5.33589 0.0482005 -2.41961 2.29441 -2.09528 -0.27598 1.15087 0.304388 Si
59 1 9.51237 6.81 9.66173 2.41482 -0.045112 2.41021 -0.126157 -0.628093 -1.24242 Si
64 1 8.12122 5.44003 8.15846 -0.0182238 -0.243782 -3.38091 0.103712 0.638099 0.60412 Si
22 1 2.84677 8.1342 -0.0661264 3.40081 2.10967 -2.63534 -1.43542 0.0193275 1.08321 Si
16 1 2.74957 0.0407775 8.23263 3.23119 4.12944 -3.94967 -0.0531716 0.0401181 -0.251135 Si
26 1 0.0213587 8.18172 8.28162 -3.40164 -7.28357 -0.898403 -0.43881 -0.129215 0.266787 Si
29 1 1.42299 9.53939 9.58658 -0.290415 2.34267 1.73393 -0.336579 0.272564 0.0130264 Si
58 1 5.54176 8.15965 8.13763 -4.09488 0.756072 5.11649 -1.00835 0.384931 -0.682597 Si
61 1 6.87052 9.50674 9.4727 -3.91632 -1.74397 3.16254 0.727128 0.446836 0.302596 Si
48 1 8.28354 0.0201976 8.06881 -1.62963 0.646033 -1.02818 -0.715809 -0.627113 0.183396 Si
ITEM: TIMESTEP
16500
ITEM: NUMBER OF ATOMS
64
ITEM: BOX BOUNDS pp pp pp
0.0000000000000000e+00 1.0887404739999999e+01
0.0000000000000000e+00 1.0887404739999999e+01
0.0000000000000000e+00 1.0887404739999999e+01
ITEM: ATOMS id type xu yu zu vx vy vz fx fy fz element
2 1 0.00464929 2.737 2.65333 1.19525 -4.67054 -1.11444 -0.0233562 -0.0476409 0.296396 Si
7 1 1.33451 1.31925 1.3284 0.301619 -2.07857 4.51573 1.06615 0.055996 -0.0517963 Si
34 1 5.47218 2.74521 2.78447 0.653496 -0.400924 -4.80582 0.763483 -0.542952 0.19478 Si
36 1 5.40056 0.0550856 0.0447527 -2.14064 2.89521 -2.88045 1.09004 -0.635569 0.392154 Si
39 1 6.92666 1.41441 1.406 2.14982 -0.717382 1.2956 -1.16125 -0.294322 -0.287149 Si
38 1 8.29686 2.71984 -0.0323333 -0.945687 2.75825 -4.20924 -1.51528 0.262593 0.0703568 Si
40 1 8.12218 -0.0502007 2.79791 1.37323 2.769 0.470558 0.90109 1.13229 -0.499386 Si
23 1 1.34911 6.87175 1.36067 -1.04999 -0.279614 0.5244 -0.52719 -0.620529 0.215887 Si
24 1 2.7666 5.39007 2.6158 2.57619 -2.15434 -0.827993 -0.545668 0.927408 1.12085 Si
1 1 4.13588 3.98827 1.39215 2.66422 -2.3344 1.23973 0.351498 1.02107 -1.45364 Si
55 1 6.83185 6.76081 1.30754 0.871194 0.4979 -3.37213 0.229411 0.777424 0.668341 Si
33 1 9.56906 4.0963 1.2805 -1.41088 1.50518 1.64085 -0.482563 0.282315 1.30324 Si
56 1 8.20533 5.45313 2.73111 1.42538 3.13911 0.81229 -0.227755 -0.317416 -0.061025 Si
4 1 -0.0241206 -0.0207225 -0.0675065 -2.80266 -3.7834 4.37098 0.186298 0.0371858 0.511428 Si
8 1 2.75445 -0.0202472 2.77753 -0.114139 1.7407 2.9634 -0.534246 0.216969 -0.306022 Si
18 1 -0.0952845 8.22935 2.75284 0.954682 -2.57815 -2.61686 0.86994 0.560416 -0.63258 Si
17 1 4.09451 9.47577 1.35984 0.974049 -0.696723 1.78668 -0.929145 0.695799 -0.204862 Si
50 1 5.3819 8.11593 2.69064 0.736446 5.07981 0.717441 1.53878 0.109474 -0.110356 Si
49 1 9.43633 9.58148 1.27904 -0.633343 4.12557 0.0904699 0.467416 -0.62745 0.783366 Si
54 1 8.19408 8.12987 -0.0853019 6.2305 -2.86646 -2.71071 -0.371084 -0.0809901 0.972765 Si
14 1 2.69045 2.82236 5.3907 -4.46883 -4.39436 2.86295 0.173415 0.0872917 0.840589 Si
15 1 1.41284 1.35237 6.74305 4.67054 -1.63748 -1.28656 0.247642 0.224824 0.098079 Si
3 1 4.05494 1.44152 4.1433 4.57074 2.24689 0.683019 0.095837 -0.542792 -0.680347 Si
47 1 6.84048 1.36512 6.82748 0.0931206 -0.327379 -1.13883 -0.0824361 -0.156533 0.0289018 Si
35 1 9.57574 1.40048 4.09663 -2.73033 -1.71741 -1.15113 -0.434732 -0.463388 -0.233347 Si
46 1 8.22245 2.76652 5.48345 -0.0133352 -1.62344 -2.79878 -0.00130989 -0.56473 0.174973 Si
5 1 1.2898 4.15332 4.03552 0.139974 2.48314 0.179932 0.496104 0.0313902 -0.244975 Si
28 1 -0.0286902 5.52692 5.44638 -6.45369 -0.277531 3.73783 -0.0772798 -0.521891 -0.351511 Si
31 1 1.41175 6.78732 6.74457 -1.14733 0.823072 -0.623442 -0.22815 -0.279687 0.857195 Si
9 1 4.17027 4.07817 6.82742 -3.83219 4.48442 -0.0406878 -1.41793 0.628498 -0.905409 Si
19 1 4.14955 6.76062 4.06709 -5.87127 1.44072 -4.61186 -1.03753 -0.714862 -0.491038 Si
37 1 6.8323 4.09709 4.17454 6.61338 2.70051 3.89807 0.283922 0.320806 -0.939546 Si
60 1 5.48144 5.47887 5.46769 2.30145 -0.328426 -0.375182 0.447688 0.0629625 0.663923 Si
63 1 6.81621 6.88606 6.88083 -5.1209 -1.03334 4.66164 0.229724 -1.00845 -0.377707 Si
41 1 9.59969 4.08492 6.84616 -7.13617 3.51451 -4.0233 -0.212368 0.394858 0.429028 Si
51 1 9.47811 6.9045 4.11139 -0.297851 -5.39239 1.37226 0.0142915 -0.789908 -0.0408804 Si
21 1 1.32362 9.56239 4.18731 -3.3627 0.483341 0.434038 1.11688 -1.40524 -1.39449 Si
30 1 2.76942 8.05296 5.42133 6.58651 3.46752 -1.78424 0.00779494 1.59107 -0.257371 Si
44 1 5.34379 0.0536008 5.52159 -1.47353 -4.10263 -1.49861 1.14842 0.0140942 -0.60516 Si
25 1 4.10149 9.48575 6.80571 1.50703 0.9339 -1.91026 -1.01788 -0.572667 0.0659073 Si
53 1 6.68708 9.57231 4.07351 -4.58884 -1.70038 -0.8444 -0.102235 -0.818028 0.907103 Si
12 1 0.0587439 0.0245412 5.45484 2.1669 1.5855 -1.89123 -1.73161 0.324342 0.592056 Si
57 1 9.44392 9.58511 6.81636 -1.77101 -0.725957 -1.49986 0.992271 0.496171 0.448088 Si
62 1 8.15308 8.23121 5.47687 -0.237462 1.21308 1.31917 -1.2262 0.289115 -0.436341 Si
6 1 2.80195 2.69192 -0.0585343 -1.83762 -0.822829 0.181061 -0.857091 -0.680676 1.09482 Si
11 1 4.04954 1.27021 9.48804 -0.860915 1.7765 7.53523 0.173876 0.469437 -1.00572 Si
42 1 5.44651 2.72299 8.11574 -1.98589 2.13547 1.91131 0.05909 -1.06519 1.18802 Si
10 1 0.0713946 2.60763 8.14962 4.11457 5.331 0.774828 -0.530829 0.901019 -0.316709 Si
43 1 9.57439 1.37061 9.52193 -4.11233 2.80245 -5.13192 -0.303177 -0.639004 -0.321851 Si
13 1 1.31496 3.95891 9.5735 4.8699 2.21316 3.48644 0.637 1.58067 -0.624128 Si
32 1 2.72374 5.41112 8.16628 -3.39826 0.0274673 -6.80389 -0.338652 -0.620066 0.430323 Si
52 1 5.48862 5.4688 -0.0380507 -2.00803 -5.14123 1.42582 -0.836505 -1.40182 1.02993 Si
27 1 4.06025 6.75132 9.58101 -4.738 -1.35788 -1.78321 -0.635061 0.134607 -0.554619 Si
45 1 6.76204 4.03904 9.54373 2.65073 1.08751 5.02733 1.39454 0.278094 -0.309656 Si
20 1 -0.0434121 5.47055 -0.0118842 4.81163 -2.98495 -2.71727 1.15054 0.383739 -0.612422 Si
59 1 9.56433 6.85787 9.43942 -3.42763 -2.29429 2.90477 0.84116 0.0742352 0.808217 Si
64 1 8.21978 5.49983 8.25542 0.529566 -2.72819 3.24258 -1.07895 -1.30704 -1.30942 Si
22 1 2.67615 8.16974 -0.0451567 0.256279 -0.349901 3.44569 0.139709 0.403318 0.0602467 Si
16 1 2.63151 -0.101774 8.10013 3.74966 -5.15435 1.99286 1.17681 0.789717 0.168148 Si
26 1 0.043387 8.18327 8.05912 0.907471 2.17426 3.04066 -0.959352 -0.270272 -0.384304 Si
29 1 1.27622 9.5065 9.43496 3.74439 -2.92445 -1.90203 0.697602 -0.191528 0.97458 Si
58 1 5.35345 8.09606 8.20854 2.86674 2.88513 -3.68963 0.497912 0.631202 0.131495 Si
61 1 6.71213 9.41688 9.61037 -0.653682 -0.810349 -4.78896 -0.315087 1.14482 -0.391848 Si
48 1 8.08461 -0.0105269 8.33208 1.36853 0.0693797 0.287322 0.255572 -0.154587 -1.12558 Si
ITEM: TIMESTEP
16600
ITEM: NUMBER OF ATOMS
64
ITEM: BOX BOUNDS pp pp pp
0.0000000000000000e+00 1.0887404739999999e+01
0.0000000000000000e+00 1.0887404739999999e+01
0.0000000000000000e+00 1.0887404739999999e+01
ITEM: ATOMS id type xu yu zu vx vy vz fx fy fz element
2 1 -0.0751524 2.67429 2.85678 1.20741 -1.61417 1.21513 0.77107 0.393291 -0.986503 Si
7 1 1.37052 1.45395 1.33427 1.65115 0.837314 -2.14116 -0.621941 -0.190231 0.900428 Si
34 1 5.37835 2.72221 2.65954 -1.22353 -0.0475657 -2.01401 -0.495111 -0.811014 -0.299618 Si
36 1 5.55579 -0.0356667 -0.0331044 0.829123 2.73944 -1.70368 -1.15751 0.776463 -0.487001 Si
39 1 6.84467 1.36212 1.34332 2.25053 -0.00574062 -0.400385 -0.256513 -0.498292 0.684994 Si
38 1 8.09705 2.7209 -0.0241685 -3.30896 -0.844845 3.11486 0.965814 -0.133538 0.193176 Si
40 1 8.29471 -0.0528821 2.68664 -2.58727 -2.81612 2.41753 -0.944946 0.39247 -0.22349 Si
23 1 1.40662 6.72505 1.39994 -0.993233 2.37619 -0.78998 -0.559431 0.940582 -0.341711 Si
24 1 2.71994 5.45141 2.84882 -2.12943 -0.572516 -5.70458 -0.283403 -0.282878 -0.100856 Si
1 1 3.99805 4.17904 1.36437 -4.27649 -2.69003 2.63788 0.775421 -0.542673 0.871463 Si
55 1 6.79079 6.84734 1.3943 2.1558 -3.75963 4.01808 -0.164605 -0.737077 -0.741073 Si
33 1 9.46628 4.02607 1.37075 -2.63146 0.76112 -2.85019 0.687808 0.0936293 -0.179569 Si
56 1 8.09839 5.39133 2.66174 -5.3916 -1.87496 -1.25695 0.461338 0.398551 -0.0928606 Si
4 1 0.0567033 0.021528 0.0277309 4.79924 1.53214 0.624559 -0.360382 -0.268833 0.422441 Si
8 1 2.72715 0.0098253 2.60067 -1.18201 -2.10185 -3.15882 0.0852313 0.0193794 0.646123 Si
18 1 0.0278507 8.17902 2.6958 0.426338 -1.21789 -1.35984 0.590038 -1.04496 0.486642 Si
17 1 4.13492 9.52998 1.32558 1.71936 2.46127 0.524323 0.322313 -0.406257 0.249426 Si
50 1 5.46983 8.13019 2.78311 -2.6294 -4.39995 0.881937 -0.428934 1.11986 -0.263351 Si
49 1 9.5909 9.4321 1.299 -0.768551 -0.721711 0.959845 0.0819007 1.23804 0.247461 Si
54 1 8.13839 8.19551 0.00748236 -2.82152 2.31087 -0.629403 0.413514 -0.902305 -0.454743 Si
14 1 2.77658 2.63851 5.51643 -0.526841 2.17365 -3.53418 -0.872762 -0.493682 -0.711794 Si
15 1 1.3409 1.30285 6.8217 -1.53095 -2.33449 2.18913 -0.209665 0.928891 -0.228785 Si
3 1 4.05804 1.26909 4.07054 -4.51566 -2.67046 1.26673 0.693776 0.559593 -0.131833 Si
47 1 6.82797 1.37096 6.77111 4.08369 -3.3008 -0.520264 -0.497675 0.453387 0.218607 Si
35 1 9.47158 1.30721 4.18364 0.810401 1.82565 1.61131 0.17306 0.23681 -0.612441 Si
46 1 8.1474 2.79097 5.39268 3.86085 1.29065 -1.67799 -0.623215 -0.300717 0.188685 Si
5 1 1.39494 4.0024 4.20529 -0.148955 -0.607377 1.17191 -0.0860664 -0.0784135 -0.867504 Si
28 1 0.0122318 5.38544 5.43415 5.93328 -2.72567 5.06456 -0.132563 0.489265 0.478455 Si
31 1 1.32322 6.79554 6.83663 5.37672 -0.82924 3.55343 0.0899252 0.279957 -0.0946004 Si
9 1 3.99307 4.10912 6.75387 0.967931 -1.07924 4.70834 1.44331 0.0897731 1.19424 Si
19 1 4.05033 6.86368 4.15424 3.25501 2.75984 6.36663 -0.203834 0.24525 -0.23652 Si
37 1 6.72368 4.05871 3.93301 -4.73224 -1.82855 -2.05578 0.120809 0.380619 1.71029 Si
60 1 5.3795 5.45326 5.37967 -0.707366 2.59892 -0.337483 0.517134 -0.768948 0.17205 Si
63 1 6.7947 6.75506 6.73013 5.63575 1.62277 0.0866684 -0.626801 0.657706 0.0377992 Si
41 1 9.52608 4.07403 6.81067 -2.68412 -1.42085 3.87751 -0.291256 -0.0142427 -0.214802 Si
51 1 9.55425 6.68391 3.98224 1.12889 1.10359 -5.42402 -0.16869 0.783849 0.520416 Si
21 1 1.44442 9.5453 4.05484 0.46951 2.68834 1.73064 -1.50824 0.593502 0.126689 Si
30 1 2.6919 8.24675 5.50906 -0.403773 -2.06696 6.75968 -0.0177485 -0.954509 0.0032969 Si
44 1 5.47717 -0.0811677 5.43861 -2.28125 -2.03043 4.80245 -0.23396 0.792541 0.0487845 Si
25 1 4.02315 9.57969 6.85141 0.76442 5.5668 1.22371 0.558604 0.285292 -0.678766 Si
53 1 6.89655 9.53521 4.06899 2.04368 3.34219 -1.60278 -0.463805 -0.523468 -0.29869 Si
12 1 -0.0498282 -0.00219183 5.49961 -0.397578 -0.502066 -2.12436 1.37442 -0.722994 -0.762513 Si
57 1 9.60293 9.55177 6.90818 -2.91262 1.50334 2.16452 -1.25373 -1.56334 -1.26577 Si
62 1 8.16544 8.07921 5.37517 4.31752 0.181585 0.697472 1.55644 0.683472 0.848103 Si
6 1 2.71417 2.83581 0.0445112 -0.398793 6.06309 -4.73652 -0.204454 -0.658722 -1.48717 Si
11 1 4.02897 1.37791 9.48957 -4.64682 -3.05014 -0.612662 1.09776 0.435799 1.58198 Si
42 1 5.43089 2.76593 8.20123 4.04171 1.81525 -2.11206 -0.186599 -0.205697 -1.23351 Si
10 1 -0.024335 2.67927 8.15068 0.837904 1.96252 -2.98341 0.127275 0.149579 0.872704 Si
43 1 9.51475 1.29886 9.62827 -1.02287 -0.44602 1.56718 0.242176 1.18091 -1.074 Si
13 1 1.37995 4.15098 9.46443 -2.58953 0.276718 0.833078 -1.09241 -1.0003 0.998369 Si
32 1 2.72144 5.47068 8.20318 -0.796769 -2.25685 4.90927 0.631629 0.898266 -0.834484 Si
52 1 5.41896 5.41741 0.0328391 7.73004 6.80905 -4.26375 0.385898 1.42551 -0.678658 Si
27 1 4.14548 6.92005 9.48575 2.05619 -1.61948 -2.44341 -0.323284 -0.694283 0.458239 Si
45 1 6.82017 4.10245 9.52703 -1.5777 2.00202 -2.03037 -0.81172 0.115652 0.0553102 Si
20 1 -0.0388074 5.459 -0.00538042 -0.270566 1.7028 2.68101 0.415637 -0.862423 0.486838 Si
59 1 9.51231 6.78634 9.53685 0.204184 -3.17531 -6.65669 -1.23576 -0.101898 0.0373167 Si
64 1 8.10104 5.43161 8.11041 1.92016 2.9201 0.227203 1.05379 0.224831 0.595706 Si
22 1 2.69323 8.20368 0.0149686 -2.43432 -2.71784 0.0894891 0.844524 -0.758662 0.200143 Si
16 1 2.70463 0.0721557 8.16155 -0.603904 -2.88458 -2.85033 -0.346922 -1.11844 0.626849 Si
26 1 -0.0145795 8.13192 8.27504 1.80815 -1.57441 -1.58864 0.872408 0.661672 -0.473046 Si
29 1 1.38594 9.5737 9.58915 -3.64814 3.23463 -2.92299 -0.203727 -0.162509 -1.01509 Si
58 1 5.48145 8.27292 8.05628 -1.66003 -0.0656864 -4.33433 0.580438 -0.881797 0.818411 Si
61 1 6.92235 9.56282 9.46217 0.965864 0.525404 2.27843 -0.84788 -0.232323 -0.201405 Si
48 1 8.23139 0.055203 8.13437 -2.81657 -5.1338 0.566543 -0.21793 -0.00896884 0.290723 Si
ITEM: TIMESTEP
16700
ITEM: NUMBER OF ATOMS
64
ITEM: BOX BOUNDS pp pp pp
0.0000000000000000e+00 1.0887404739999999e+01
0.0000000000000000e+00 1.0887404739999999e+01
0.0000000000000000e+00 1.0887404739999999e+01
ITEM: ATOMS id type xu yu zu vx vy vz fx fy fz element
2 1 0.0534795 2.74952 2.65732 -4.52082 1.83182 -1.67593 -0.425449 -0.0593783 -0.12651 Si
7 1 1.33591 1.269 1.34241 -4.14551 4.83248 1.79494 -0.559294 0.147765 0.268326 Si
34 1 5.49658 2.79762 2.79463 5.11164 -3.60934 6.98183 0.0394465 0.443256 -0.0551058 Si
36 1 5.40364 -0.0396087 0.0425057 3.51171 -1.12444 4.91412 -0.345359 -0.0213157 0.140196 Si
39 1 6.69585 1.40107 1.38227 -3.07509 0.93358 1.40626 0.416142 0.421654 -0.852372 Si
38 1 8.15205 2.70486 0.0163762 2.81981 0.000481004 0.207372 0.385895 0.0680595 0.320521 Si
40 1 8.1071 0.139715 2.64284 1.8677 2.72339 -1.81002 -0.189473 -1.79749 1.14719 Si
23 1 1.3302 6.82746 1.38833 -1.76008 -4.32285 1.29056 0.380803 0.0592777 -0.718864 Si
24 1 2.75161 5.49639 2.67356 -0.33695 3.87236 4.99499 0.368759 -0.664782 -1.18719 Si
1 1 4.12058 4.04456 1.33734 3.55167 1.9646 -4.81964 -0.726182 -0.144448 0.599931 Si
55 1 6.82517 6.77276 1.4028 -4.18279 3.05474 -2.36091 -0.281832 0.00348036 -0.0380124 Si
33 1 9.50967 4.15488 1.38614 7.30359 -1.58157 0.804778 0.251655 -0.482736 -0.486353 Si
56 1 8.15529 5.49059 2.7869 2.69221 0.510687 -3.92622 0.688742 -0.0701318 0.048327 Si
4 1 -0.0837435 -0.0607245 -0.0101207 -0.83102 1.69919 -2.79732 0.842124 0.797119 -0.647363 Si
8 1 2.66247 0.0523268 2.82561 1.15211 3.68058 1.49174 0.644397 -0.796097 -0.451418 Si
18 1 -0.00788102 8.18452 2.69831 0.306333 6.23781 2.42094 -0.671673 -0.0519699 0.704439 Si
17 1 4.01709 9.48011 1.45277 1.5829 -1.07567 -3.19483 -0.334467 0.880048 -0.856963 Si
50 1 5.45786 8.14624 2.65603 4.65281 -1.97166 -2.36152 -0.288739 -0.372049 0.556111 Si
49 1 9.51239 9.59562 1.43009 0.153422 -3.42906 -0.743206 -0.803916 -0.846918 -0.522484 Si
54 1 8.1251 8.15264 0.103541 -2.50128 -4.94307 1.18085 0.205757 1.17079 -0.401456 Si
14 1 2.65497 2.77802 5.42626 6.79683 -0.47989 0.616548 1.4254 0.481914 -0.562907 Si
15 1 1.3999 1.42766 6.76896 -1.09347 -0.354055 -0.814287 -0.873038 -0.40813 0.726927 Si
3 1 4.11157 1.46511 4.08488 3.23759 0.740385 -0.403408 -0.811912 -0.606657 0.577124 Si
47 1 6.8148 1.30759 6.79736 -2.56599 2.93602 -1.87494 -0.28995 0.00424733 0.177442 Si
35 1 9.54928 1.35485 3.97485 0.781765 0.112789 0.336042 0.115304 0.92451 0.710577 Si
46 1 8.20168 2.64825 5.45672 -3.28024 2.89686 2.94127 0.485654 0.210302 -0.0287287 Si
5 1 1.44938 4.13498 3.93918 -2.28104 -3.23925 -2.70027 -1.26157 -0.2733 1.33153 Si
28 1 0.0263984 5.44771 5.38764 -3.07443 3.37356 -6.72941 0.143665 0.0254494 -0.125055 Si
31 1 1.40102 6.79677 6.77192 -1.78548 2.75368 -1.32372 -0.510615 0.297902 -0.330889 Si
9 1 4.10474 4.10746 6.75955 -1.55277 2.19089 -4.68886 -0.370184 -1.04442 0.502553 Si
19 1 4.14745 6.72362 3.97139 -0.805212 -2.20889 -1.40035 0.508669 0.62286 1.28791 Si
37 1 6.92412 4.12888 4.20234 2.70341 -0.86504 -1.7676 -0.590074 -0.999072 -1.08967 Si
60 1 5.47842 5.37591 5.43605 1.75207 -1.96404 -0.328009 -0.345195 1.1625 -0.016722 Si
63 1 6.74311 6.71553 6.89003 -2.34268 -1.45172 1.34311 0.640944 1.00619 -0.188349 Si
41 1 9.53454 4.10035 6.77509 5.60067 -1.54401 3.50557 0.466439 -0.516211 0.102311 Si
51 1 9.49395 6.87646 4.1333 -2.9623 3.79159 2.65266 0.158346 0.0312297 -0.114501 Si
21 1 1.31062 9.47107 4.10704 3.71772 -3.7687 0.543439 1.0564 0.378236 0.387345 Si
30 1 2.82832 8.08685 5.40381 -3.39615 2.02956 -4.08598 -1.12583 -0.0697716 -0.652963 Si
44 1 5.37113 0.00202946 5.45394 -1.11199 2.35205 -3.355 0.332081 -0.252686 -0.28887 Si
25 1 4.04771 9.44322 6.79695 -2.66431 -7.8073 1.55166 0.826866 0.694896 0.144386 Si
53 1 6.72117 9.52252 4.01974 0.574563 1.29905 3.08435 0.987411 0.91645 0.601571 Si
12 1 0.0389172 0.092977 5.39925 -3.60221 -3.89256 4.26725 -0.458162 -0.900835 0.153447 Si
57 1 9.56206 9.53078 6.74207 5.6811 2.21547 1.53955 0.0317266 0.85182 0.62351 Si
62 1 8.09373 8.22001 5.53207 -6.12022 0.353783 0.0618511 -0.482865 -0.830237 -0.866234 Si
6 1 2.69522 2.59185 0.0475862 -2.09442 -6.16455 2.32653 0.63371 1.12011 -0.338477 Si
11 1 4.07776 1.33386 9.54592 1.41598 -2.18217 -4.18872 0.0225649 -0.453456 -0.646864 Si
42 1 5.468 2.70097 8.16618 -2.61582 -3.51295 3.03339 0.0757976 0.503564 0.163296 Si
10 1 -0.0233523 2.72995 8.19968 1.30721 -3.03959 2.33758 0.3344 -0.105644 -0.784133 Si
43 1 9.49 1.34309 9.48344 4.19696 -0.172012 1.76083 -0.119658 -0.163554 0.710121 Si
13 1 1.38916 4.01207 9.56076 0.731593 0.204089 -4.26945 0.046039 0.535699 -0.340223 Si
32 1 2.68972 5.41952 8.08668 -1.31585 0.845324 1.50835 0.534047 -0.476639 1.24191 Si
52 1 5.5173 5.3835 0.0750731 -3.11865 -2.97342 3.79891 -0.228355 0.334043 -1.19234 Si
27 1 4.08286 6.70429 9.54757 0.748249 2.72101 2.61163 -0.0240146 0.79977 0.178236 Si
45 1 6.91268 4.10459 9.53003 0.413613 -0.941282 -0.159249 -1.49978 -0.991012 0.247668 Si
20 1 0.0487651 5.46716 -0.0230806 -1.86314 -1.00801 -3.03317 -0.83879 -0.00639469 0.210857 Si
59 1 9.46534 6.88712 9.59062 6.06153 1.48867 2.71384 1.31445 -0.604842 -0.940671 Si
64 1 8.21407 5.39597 8.19868 -2.28092 -0.77269 -1.06036 0.18917 1.2478 -0.305254 Si
22 1 2.66283 8.18059 -0.0225571 -0.903316 1.0569 -2.60952 0.508807 -0.237353 -0.0926136 Si
16 1 2.72113 -0.0241278 8.08783 1.1965 4.88256 -1.33279 0.531881 1.04405 0.134185 Si
26 1 0.0454018 8.21452 8.12885 -3.342 0.863375 -3.782 -0.59008 -0.695738 0.226308 Si
29 1 1.38094 9.61129 9.4407 1.30128 -3.32971 1.14511 -0.618744 -0.928623 1.0769 Si
58 1 5.44997 8.20861 8.24247 -4.51605 0.361777 3.05763 -0.7412 -1.45137 -0.525331 Si
61 1 6.78879 9.53058 9.54626 -3.52312 -1.46493 1.11209 0.30907 -0.170442 1.06748 Si
48 1 8.14136 -0.0662487 8.1746 2.64077 4.3833 -1.74086 0.503844 0.308709 -0.593762 Si
ITEM: TIMESTEP
16800
ITEM: NUMBER OF ATOMS
64
ITEM: BOX BOUNDS pp pp pp
0.0000000000000000e+00 1.0887404739999999e+01
0.0000000000000000e+00 1.0887404739999999e+01
0.0000000000000000e+00 1.0887404739999999e+01
ITEM: ATOMS id type xu yu zu vx vy vz fx fy fz element
2 1 0.0564988 2.68595 2.74026 -0.580355 3.30964 0.468941 -0.938006 0.661277 0.410194 Si
7 1 1.3343 1.38289 1.36762 1.7296 -5.18038 2.57803 1.71686 -0.115858 -0.345425 Si
34 1 5.48622 2.67942 2.68789 -6.29764 2.30909 -2.97852 -0.0871861 -0.390564 -0.231154 Si
36 1 5.46374 0.0458499 -0.0718098 -3.90518 1.14874 -3.07431 1.02822 -0.702404 0.941022 Si
39 1 6.90859 1.29601 1.31868 -1.15569 1.39851 -1.67635 -0.417418 0.0725269 0.599498 Si
38 1 8.22973 2.69568 -0.0247118 2.75139 0.657689 2.70945 -0.564254 0.447835 -0.257642 Si
40 1 8.19817 -0.124387 2.77725 -1.46103 2.13445 -3.46226 0.498126 1.57384 -0.560879 Si
23 1 1.41182 6.79435 1.36919 1.95378 0.557438 -5.79193 -0.0777045 -0.778111 0.264721 Si
24 1 2.6997 5.39132 2.80231 1.5116 -2.40862 3.70728 -0.359283 0.814185 0.628026 Si
1 1 4.07398 4.09265 1.49109 5.37887 0.988817 2.71671 0.570239 0.348385 -2.25609 Si
55 1 6.79829 6.85482 1.26656 5.86098 -3.80422 1.52325 0.414958 0.131412 0.918532 Si
33 1 9.55226 4.03381 1.38091 -5.09572 0.27546 2.2578 -0.389374 0.472306 0.351968 Si
56 1 8.07296 5.46701 2.68345 -0.810845 -3.95674 0.885625 0.672442 -0.736923 -0.0998557 Si
4 1 0.0286046 0.0684686 -0.00501804 -4.16131 -0.311518 1.23724 -0.635589 -0.693312 -0.113987 Si
8 1 2.7472 -0.0304702 2.7228 -1.64828 -1.48848 4.02977 -0.0767992 0.434247 -0.0835797 Si
18 1 -0.0107953 8.08734 2.68284 1.14286 -2.64291 0.0605328 0.382554 1.34556 -0.625911 Si
17 1 4.19188 9.55444 1.30646 -3.7925 -2.23015 3.82202 -0.910278 -0.439314 0.807655 Si
50 1 5.4123 8.06667 2.72453 -2.27983 4.6085 2.25728 0.504926 1.37591 -0.335597 Si
49 1 9.53233 9.51361 1.28536 2.34477 2.46991 -1.58936 0.667522 0.0997251 0.867108 Si
54 1 8.18234 8.20791 -0.0414695 1.88487 -0.583431 2.04852 0.163431 -0.950607 -0.311343 Si
14 1 2.74324 2.66985 5.43454 -6.86221 -4.01702 1.75136 -0.658845 0.0849887 0.915274 Si
15 1 1.36946 1.3106 6.88839 0.948258 4.1247 -1.10791 0.705983 -0.137593 -0.734708 Si
3 1 4.11952 1.40991 4.09546 1.9398 1.0883 -1.48282 -0.18917 -1.07298 -0.685329 Si
47 1 6.81768 1.4406 6.85632 -1.9783 -1.4451 0.118503 -0.0116135 -0.405871 -0.174396 Si
35 1 9.53647 1.43449 4.13686 3.38938 -0.753528 -4.2489 -0.134977 -1.59653 -0.384628 Si
46 1 8.09725 2.77669 5.40051 -1.17883 -4.01859 -4.36319 -0.111917 -0.303062 0.209214 Si
5 1 1.30576 4.037 4.18799 3.9805 -3.90452 -0.0584572 0.524527 0.432366 -0.391529 Si
28 1 -0.0214373 5.45978 5.5413 1.26424 -2.49122 1.91941 -0.232348 -0.251867 -0.893316 Si
31 1 1.33889 6.91259 6.77778 0.743512 1.82179 0.755108 0.434242 -1.0481 0.908195 Si
9 1 4.11477 4.04062 6.75432 2.29297 -0.740088 0.103895 -0.844873 1.127 -0.347812 Si
19 1 4.03392 6.86843 4.15032 -0.476287 3.79118 0.410564 -0.516009 -0.867717 -1.22905 Si
37 1 6.67623 4.08049 4.06225 -1.93847 2.76592 0.334745 0.990585 0.883121 -0.060633 Si
60 1 5.38013 5.52433 5.4067 -3.57917 -0.452671 -1.18949 0.495119 -0.872157 0.629184 Si
63 1 6.78856 6.85008 6.75009 -3.76386 -0.932725 -6.38419 0.821229 -0.832234 -0.282987 Si
41 1 9.45685 4.02476 6.79328 -0.85513 -1.24043 -5.1933 0.304838 0.99798 0.563373 Si
51 1 9.59205 6.7562 3.98564 -1.90669 -5.66944 0.194291 -0.970569 -0.585484 1.23153 Si
21 1 1.26856 9.52898 4.07559 -1.11393 1.45419 2.03914 0.760667 -0.232798 -0.789408 Si
30 1 2.67845 8.22385 5.39499 3.71379 1.34783 0.512259 0.186862 0.852666 0.924922 Si
44 1 5.46106 0.070456 5.47508 0.751624 -0.967747 -2.27734 0.640366 -0.29176 -0.436927 Si
25 1 4.09841 9.60828 6.78798 -0.996876 3.05341 -4.36201 -0.359858 -1.2335 0.424621 Si
53 1 6.79395 9.48115 4.07437 -1.05161 -5.15266 -0.665202 -0.213097 -0.442201 0.899958 Si
12 1 0.0112156 -0.0432458 5.49155 4.87656 4.67911 -3.53766 -0.685831 1.02284 0.159512 Si
57 1 9.49771 9.54111 6.85942 0.334603 -9.48814 -4.42286 0.632586 -0.369368 -0.41866 Si
62 1 8.28827 8.13193 5.42826 3.90479 2.55873 2.72941 -1.09682 0.278423 -0.44839 Si
6 1 2.73255 2.78694 -0.0607236 0.053855 1.76863 -0.0356874 0.130307 -0.723475 1.3904 Si
11 1 4.11401 1.3296 9.55113 6.78412 3.14319 2.51727 -0.808924 1.28641 -0.778695 Si
42 1 5.37997 2.79073 8.15066 -3.12608 0.864924 -2.3744 0.639853 -1.22039 0.751804 Si
10 1 0.0255787 2.72269 8.13394 -4.47984 -0.462149 3.15254 -0.317933 0.365744 -0.176619 Si
43 1 9.60072 1.39864 9.46456 -1.43498 3.28748 -1.15115 -0.326882 -0.266377 0.736105 Si
13 1 1.31912 4.08139 9.51376 -5.71108 1.22602 1.54738 0.821613 0.495021 -0.564216 Si
32 1 2.76737 5.43023 8.126 3.2888 4.2696 -0.379624 -0.93308 0.34723 -0.122618 Si
52 1 5.44816 5.57492 -0.0328721 -3.56276 5.86562 -2.30013 -1.13187 -1.89582 1.08528 Si
27 1 4.10229 6.82462 9.49207 2.48019 -2.4305 -1.55659 -0.653963 -0.151963 -0.149962 Si
45 1 6.68842 4.08479 9.58583 1.04177 -0.907109 4.41393 1.55516 0.202955 -0.520895 Si
20 1 0.0295143 5.40156 0.0398825 -2.61987 -3.14536 2.00656 -0.516459 0.605955 -0.390421 Si
59 1 9.5071 6.74213 9.48263 -4.71336 4.2302 6.52194 0.160645 0.236393 1.29734 Si
64 1 8.11113 5.46514 8.16292 0.0784331 0.679093 1.61864 -0.61103 -1.04061 -0.28 Si
22 1 2.77716 8.13031 0.0438216 5.03874 -1.61974 -2.58264 -0.293281 0.757048 -0.68994 Si
16 1 2.72332 -0.0629452 8.28553 -2.7544 -1.19049 3.54041 -0.18898 0.201808 -0.696423 Si
26 1 -0.0617458 8.14967 8.21063 0.085229 1.77904 4.92027 0.279796 0.206688 -0.556071 Si
29 1 1.28298 9.46856 9.57771 1.83611 2.16399 -0.0424889 1.06419 0.029156 0.432079 Si
58 1 5.45714 8.08792 8.11834 4.0863 -1.38476 0.21733 -0.280091 2.06639 0.209519 Si
61 1 6.80489 9.50503 9.53884 4.38697 2.18841 -2.51014 -0.0559552 0.400729 -1.24711 Si
48 1 8.22057 0.0331537 8.1895 3.43283 -2.98916 -0.828459 -1.1676 -0.00918585 0.115163 Si
ITEM: TIMESTEP
16900
ITEM: NUMBER OF ATOMS
64
ITEM: BOX BOUNDS pp pp pp
0.0000000000000000e+00 1.0887404739999999e+01
0.0000000000000000e+00 1.0887404739999999e+01
0.0000000000000000e+00 1.0887404739999999e+01
ITEM: ATOMS id type xu yu zu vx vy vz fx fy fz element
2 1 -0.0458147 2.79025 2.74508 0.981399 1.26155 -3.96891 0.58763 -0.977962 -0.587353 Si
7 1 1.3335 1.34101 1.33332 -2.40914 -3.38002 0.680174 -0.167453 0.22208 0.19535 Si
34 1 5.39976 2.7115 2.7708 5.85081 4.25052 -0.0297022 -1.18864 0.557424 -0.320482 Si
36 1 5.4429 -0.00346965 -0.0333276 -0.511262 -0.726838 1.01566 -1.08983 0.732127 -0.225335 Si
39 1 6.67954 1.38859 1.35937 8.72796 1.4085 -1.07837 1.41125 -0.441749 0.171362 Si
38 1 8.12895 2.67218 -0.0228059 1.16139 1.01661 1.28941 -0.35416 0.605916 0.270896 Si
40 1 8.20127 0.0413716 2.69277 -2.66078 -6.83318 5.59714 -0.905613 -0.595788 0.000363851 Si
23 1 1.31059 6.88982 1.35323 4.35752 1.93198 -0.246782 0.0800953 0.217801 -0.0530691 Si
24 1 2.73025 5.54593 2.68376 1.26523 -3.77405 -3.63153 0.00912454 -1.03273 -0.424886 Si
1 1 4.0797 4.13159 1.22755 -5.19592 -1.38363 5.22504 -0.309692 -0.808907 2.40138 Si
55 1 6.79694 6.79743 1.40657 -0.160605 -1.71854 -2.12399 0.394461 -0.501437 -0.50479 Si
33 1 9.47548 4.09025 1.33491 -2.5093 1.9603 -3.10801 0.131141 -0.47389 -0.23015 Si
56 1 8.20019 5.38193 2.73713 -1.29384 1.58622 -1.19624 -0.746826 1.17865 0.193389 Si
4 1 -0.0236019 -0.0700899 -0.0510492 1.53706 -2.87722 -3.12641 0.4947 0.372985 1.13114 Si
8 1 2.74505 -0.0417141 2.66691 1.23918 -2.25187 0.154958 -0.837925 0.584695 -0.176527 Si
18 1 0.0124613 8.29595 2.77058 -4.21963 0.308851 0.265938 -0.0683767 -1.76365 0.458896 Si
17 1 4.06991 9.54289 1.32085 -1.29953 3.36013 0.105362 0.674937 -0.604978 0.0916654 Si
50 1 5.40548 8.12887 2.74478 -0.114069 -7.71217 -1.4563 0.200537 0.542241 0.32822 Si
49 1 9.55 9.48244 1.34347 -6.00961 4.12773 -4.26208 -0.521132 1.02626 0.156082 Si
54 1 8.19531 8.15226 0.000202438 0.535762 4.76528 -1.72341 -0.459064 -0.200316 0.395165 Si
14 1 2.71501 2.84387 5.44958 0.9388 3.81722 -2.31773 -0.824122 -1.01842 -0.0401439 Si
15 1 1.2701 1.4332 6.74914 -0.114173 -2.76612 1.23428 0.676857 -0.380451 -0.446292 Si
3 1 3.9007 1.32352 4.10099 -5.64539 1.37683 1.5485 2.08497 0.749572 0.0926195 Si
47 1 6.83065 1.31706 6.82734 3.11857 -2.49986 4.8053 0.337627 -0.158227 -0.922565 Si
35 1 9.54708 1.33464 4.11036 0.236029 1.31268 2.17311 -0.104492 0.506834 -0.130621 Si
46 1 8.21369 2.72961 5.49301 -0.764647 2.41101 1.95404 -0.303377 -0.178302 -0.159333 Si
5 1 1.37716 4.13487 4.03853 -1.43843 3.11929 0.882868 0.676889 -0.364938 -0.832584 Si
28 1 0.0518889 5.3433 5.38014 3.77902 2.55125 2.69466 -0.708381 1.63657 1.61523 Si
31 1 1.41663 6.70539 6.8779 4.23985 -1.38001 -0.7167 -0.672931 0.195062 -0.829736 Si
9 1 4.08856 4.0741 6.85095 -2.70233 -1.35149 -0.127204 0.845226 -0.139167 0.398705 Si
19 1 4.12423 6.70267 4.15963 3.39979 -4.67412 1.91304 -0.00277158 0.755401 -0.492288 Si
37 1 6.80673 4.08845 4.09165 2.20005 3.01487 -1.90893 0.405736 -0.927209 0.237972 Si
60 1 5.5035 5.37978 5.50035 2.5408 2.29093 0.284473 -0.235337 0.397577 0.055151 Si
63 1 6.87552 6.83772 6.73809 1.86202 5.56697 3.47736 -1.54741 -0.22229 1.67235 Si
41 1 9.62433 4.04428 6.87292 1.6381 0.228288 1.78464 -0.771195 0.424611 -1.32067 Si
51 1 9.48097 6.81104 4.14803 -4.77389 0.905752 -2.99111 1.47902 -0.352129 -1.20024 Si
21 1 1.51691 9.51093 4.09345 1.40953 6.11818 0.285294 -1.48729 0.131809 0.62428 Si
30 1 2.74175 8.06393 5.47781 -0.920512 -4.34506 -2.36006 0.360838 0.112181 0.265242 Si
44 1 5.45532 0.00757065 5.40277 -3.54814 1.01286 5.07103 -0.911338 -0.259971 0.790904 Si
25 1 4.07201 9.46863 6.83886 3.70375 1.25272 2.23979 0.0861089 1.13292 -0.601167 Si
53 1 6.83484 9.50657 4.13436 1.03564 2.18442 -1.78506 -0.406015 0.436204 -1.67572 Si
12 1 -0.0404987 -0.0774213 5.46017 2.97124 -2.18912 3.94277 1.26293 0.655166 -0.707276 Si
57 1 9.49254 9.56649 6.8281 -5.01096 11.7961 1.17642 -0.51271 -0.977146 -0.156105 Si
62 1 8.14425 8.14825 5.42476 -2.76292 -0.519039 -0.841285 0.904186 1.04563 0.689421 Si
6 1 2.75996 2.69621 -0.0304295 3.41243 2.95924 -0.115902 -1.38647 0.616857 -0.361479 Si
11 1 4.05352 1.43293 9.42123 -6.49979 -5.8611 -4.08128 0.843187 -1.26954 1.1332 Si
42 1 5.51739 2.62507 8.13434 3.24967 6.16713 -1.60806 -0.944124 1.43009 -0.405553 Si
10 1 -0.0405337 2.65722 8.18214 6.08006 -6.11452 -5.91873 0.246566 0.0278606 1.01603 Si
43 1 9.50769 1.28575 9.60113 -2.53368 -1.98659 -1.88653 -0.184799 0.57574 -1.04657 Si
13 1 1.31229 4.10081 9.48387 5.06664 0.633168 -1.34856 -0.203259 -0.385431 1.47681 Si
32 1 2.7825 5.41702 8.27845 1.57119 -4.36193 -3.49922 -0.177114 0.208087 -0.628552 Si
52 1 5.45407 5.40295 -0.0147054 4.55041 -2.93097 0.487537 0.91788 1.04178 -0.818485 Si
27 1 4.03551 6.8571 9.62764 -5.36372 -1.62972 1.64353 1.10894 -0.816242 -0.715613 Si
45 1 6.81925 4.05337 9.40839 -2.10606 -2.1539 1.90398 0.52465 0.559313 0.825 Si
20 1 -0.113836 5.52692 0.0126841 -2.35 0.62623 3.53759 1.78647 -1.01765 0.0152627 Si
59 1 9.61273 6.89289 9.52262 2.05444 -3.13462 -6.859 -1.45319 -0.266016 -1.04277 Si
64 1 8.24504 5.48558 8.08348 2.19282 2.23875 2.49786 0.00245681 0.0640254 1.0889 Si
22 1 2.70403 8.2338 -0.0543947 -3.287 4.9384 2.16789 -0.56594 -0.192751 1.30205 Si
16 1 2.70864 0.133697 8.07189 -2.53936 -4.70427 -4.38702 -0.524319 -1.50273 0.322713 Si
26 1 0.0284727 8.21041 8.1012 2.88581 -2.45472 0.554229 0.403453 -0.277796 0.361234 Si
29 1 1.36454 9.5492 9.50938 -4.55455 -1.21186 -1.44529 0.365185 0.673994 -1.41629 Si
58 1 5.41187 8.19767 8.25761 -3.59714 -2.76713 0.856031 0.994228 -0.859264 -0.734978 Si
61 1 6.82264 9.53863 9.59107 -0.458194 -5.15875 2.37285 -0.174232 -0.499854 -0.335342 Si
48 1 8.12984 -0.0173068 8.22675 -2.43839 2.35249 4.32666 0.452237 0.0494706 -0.233998 Si
ITEM: TIMESTEP
17000
ITEM: NUMBER OF ATOMS
64
ITEM: BOX BOUNDS pp pp pp
0.0000000000000000e+00 1.0887404739999999e+01
0.0000000000000000e+00 1.0887404739999999e+01
0.0000000000000000e+00 1.0887404739999999e+01
ITEM: ATOMS id type xu yu zu vx vy vz fx fy fz element
2 1 0.0337622 2.73019 2.73636 0.497183 -3.24598 4.23718 -0.414096 -0.329442 0.59411 Si
7 1 1.37527 1.31639 1.43303 -1.72171 3.42846 -5.18484 -0.856881 0.518142 -0.876692 Si
34 1 5.49151 2.76095 2.73597 -1.78236 -4.76014 1.47053 1.13818 -0.413011 0.241681 Si
36 1 5.45061 -0.0774701 0.0866223 8.56226 -4.20567 -1.3506 0.590802 0.0199359 -0.321459 Si
39 1 6.86927 1.34837 1.35412 -5.7062 0.969072 1.63556 -0.769314 0.868657 -0.44991 Si
38 1 8.23975 2.77707 -0.00809751 0.289607 -3.52244 -6.03048 -0.1967 -0.896082 0.507164 Si
40 1 8.16157 -0.0196304 2.63332 6.94918 3.47015 -1.93065 0.0201427 0.411927 1.74157 Si
23 1 1.42072 6.69119 1.39724 -2.577 -4.27359 5.12066 -0.756409 0.589086 -0.192918 Si
24 1 2.74144 5.34223 2.75459 0.947631 4.96327 1.21666 -0.243227 0.711591 -0.230326 Si
1 1 4.08976 4.05643 1.46518 0.89725 5.71161 -4.88351 -0.150037 -0.496916 -1.41104 Si
55 1 6.82941 6.80125 1.40655 -2.62992 6.11966 2.06737 -1.26724 0.40824 -0.290445 Si
33 1 9.56755 4.11975 1.40104 -3.08747 -2.90806 1.30257 0.831679 -0.180343 -0.914496 Si
56 1 8.24905 5.49957 2.70404 -0.904429 -0.0612059 -2.786 -0.433084 -0.0872352 0.297933 Si
4 1 -0.014959 0.00639958 0.0192508 2.74015 3.3292 -1.87814 0.0726082 0.133539 -0.435181 Si
8 1 2.70686 0.00818299 2.71123 1.58665 1.99773 -6.08664 0.514205 0.0454274 0.697351 Si
18 1 -0.000783348 8.15997 2.68933 1.61806 3.19141 -1.40108 -0.172154 0.0409276 -0.174261 Si
17 1 3.94672 9.49491 1.36708 4.69307 -4.33418 -1.0432 1.37598 0.681893 0.0705131 Si
50 1 5.45463 8.3418 2.71346 1.31641 0.176911 0.707353 -0.262245 -2.17841 -0.34262 Si
49 1 9.46813 9.55549 1.35208 4.05579 -5.50305 0.0204992 0.992516 -1.11552 -0.606766 Si
54 1 8.11811 8.15023 0.0140768 -1.98728 -4.11305 1.49651 -0.0722653 0.969697 -0.279808 Si
14 1 2.75918 2.67875 5.49601 1.9174 -3.44926 7.88905 1.15079 0.60762 -1.24715 Si
15 1 1.44069 1.35112 6.74731 1.07334 -3.32507 1.36281 -0.949872 -0.351991 1.8513 Si
3 1 4.16575 1.3439 4.04054 -0.304057 0.517671 2.12896 -0.613644 0.0827909 0.744808 Si
47 1 6.78905 1.41687 6.82235 -1.2529 1.8283 -1.81403 -0.332093 -0.0953017 -0.0151188 Si
35 1 9.46529 1.34104 4.08421 -0.480434 -2.41713 2.44813 0.368141 0.693938 -0.103791 Si
46 1 8.12056 2.75953 5.49574 -1.50924 -0.0816069 -1.67889 0.947988 -0.146711 -0.681966 Si
5 1 1.42971 4.0542 4.11584 3.2981 2.83852 2.6355 -1.28392 0.09703 0.652549 Si
28 1 -0.0895162 5.52607 5.37367 0.126377 -2.55893 -5.32955 1.07819 -1.51853 -0.0991604 Si
31 1 1.25379 6.80402 6.71271 -4.08254 1.62314 2.53252 0.571721 1.23099 0.112103 Si
9 1 4.09067 4.13536 6.80137 -0.775532 1.27911 -3.90159 -0.414212 -0.881342 -0.316505 Si
19 1 4.03587 6.82236 3.93815 -5.85079 -0.834195 -0.722434 0.830154 0.627608 1.506 Si
37 1 6.92406 4.15946 4.08147 -5.44929 0.265266 -1.88657 -1.27577 -0.448784 -0.190117 Si
60 1 5.4011 5.42126 5.39608 -1.61932 -3.81479 1.0917 0.0955425 0.659047 -0.735154 Si
63 1 6.72291 6.68825 6.84321 -0.761575 -5.46977 -1.0535 1.14343 0.5484 -0.692723 Si
41 1 9.52285 4.15421 6.76379 -2.4706 0.676422 3.02584 -0.174905 -0.569361 0.8757 Si
51 1 9.49367 6.85839 4.09132 6.27851 -4.62754 0.596212 -0.240445 0.945491 -0.314884 Si
21 1 1.29154 9.61982 4.02222 -0.343425 -5.07856 -0.375983 0.265771 -0.774455 0.0991713 Si
30 1 2.64413 8.21872 5.34201 -2.3879 2.03841 6.91909 0.157601 -0.619278 0.243994 Si
44 1 5.5165 0.00849656 5.46527 5.66495 -0.719721 -4.56391 -1.00351 -0.199147 0.0420027 Si
25 1 4.01825 9.50993 6.8004 -5.61704 -0.672965 6.12701 0.841675 0.00177101 0.194062 Si
53 1 6.8439 9.55628 4.0869 -2.25947 2.43636 -0.531003 0.136012 0.408489 0.174982 Si
12 1 0.0291988 0.0548698 5.43712 -3.57874 0.987684 2.37021 -1.21533 -0.66731 0.237727 Si
57 1 9.47558 9.49432 6.80008 7.86253 -0.776479 6.551 1.22221 1.0761 0.0978778 Si
62 1 8.10738 8.18477 5.51145 1.08324 -4.93703 -3.51271 -0.337989 -1.1996 -0.495634 Si
6 1 2.71548 2.6559 0.075821 -3.15461 -0.861764 5.89771 0.876503 0.425349 -0.549041 Si
11 1 4.19238 1.28717 9.62136 -4.43811 4.33237 -3.73773 -1.81863 0.388844 -0.366497 Si
42 1 5.36179 2.70384 8.16712 4.84876 -2.6592 -0.259674 1.02931 0.444479 0.65136 Si
10 1 0.0299282 2.74165 8.13258 -0.781537 -1.18428 2.61397 0.271113 0.125448 -0.809309 Si
43 1 9.52363 1.40113 9.44366 2.34458 -0.478036 7.45887 0.525287 -0.276011 0.889733 Si
13 1 1.45274 4.06769 9.46953 -2.90429 1.49686 -3.92361 0.193362 -0.551532 -0.183494 Si
32 1 2.66814 5.49913 8.00807 -0.957873 0.620356 -0.212081 0.249294 -0.374626 1.1256 Si
52 1 5.38501 5.40729 0.0370049 0.709149 -1.24418 3.58868 0.528194 0.396945 0.119113 Si
27 1 4.05875 6.75563 9.45961 4.44507 6.8617 -1.89864 0.00612882 0.56551 0.601901 Si
45 1 6.79438 4.03331 9.60271 3.57609 2.76867 -3.85201 -1.13469 -0.128174 -0.473863 Si
20 1 0.122623 5.37336 -0.0745018 -1.36965 -0.358317 -2.302 -1.35791 0.757396 0.914089 Si
59 1 9.46654 6.80351 9.59786 -0.223614 2.77462 3.38679 0.975775 -0.708526 -0.910414 Si
64 1 8.08543 5.36238 8.24103 -7.47739 -1.95174 -3.92367 0.909814 0.825598 -0.462401 Si
22 1 2.70125 8.12087 0.0503394 0.538637 -1.06531 -2.74312 0.516382 -1.29393 -0.570044 Si
16 1 2.67623 -0.0396943 8.28195 -3.02355 4.23688 -2.11487 1.28142 0.687146 -0.989675 Si
26 1 -0.00280347 8.17985 8.18979 -0.210663 4.05479 -2.35508 -0.328687 -0.306958 0.317506 Si
29 1 1.43059 9.47854 9.62252 2.31008 2.5601 0.478686 -1.87947 0.160317 -0.369833 Si
58 1 5.52162 8.11797 8.15315 0.37427 6.78837 -2.08508 -1.59594 0.863112 0.124302 Si
61 1 6.84506 9.6118 9.43733 2.54722 0.407977 -2.72123 -0.408649 -1.15082 1.21997 Si
48 1 8.16805 0.0607529 8.09475 0.528971 0.74218 1.69654 0.251409 -0.0591159 0.156537 Si
ITEM: TIMESTEP
17100
ITEM: NUMBER OF ATOMS
64
ITEM: BOX BOUNDS pp pp pp
0.0000000000000000e+00 1.0887404739999999e+01
0.0000000000000000e+00 1.0887404739999999e+01
0.0000000000000000e+00 1.0887404739999999e+01
ITEM: ATOMS id type xu yu zu vx vy vz fx fy fz element
2 1 0.0313516 2.67188 2.65805 0.298861 -0.532571 1.41171 -0.246995 0.472307 0.289681 Si
7 1 1.46338 1.35838 1.32657 -3.32468 -0.875931 -0.667642 -0.182248 0.305916 0.287336 Si
34 1 5.3486 2.74194 2.63523 -1.55085 4.6111 1.86197 0.456006 -0.731569 0.550758 Si
36 1 5.3811 -0.00579846 0.00751396 -3.97792 4.15237 -0.629106 0.765655 1.00334 -0.576483 Si
39 1 6.79892 1.34526 1.36049 0.595523 2.82463 0.800371 -0.967842 -0.237468 0.287064 Si
38 1 8.07515 2.70634 0.0167418 -1.86091 0.0912007 -2.02805 0.916441 0.139879 -0.8348 Si
40 1 8.10171 -0.0203155 2.78209 0.28736 3.17743 -8.26158 1.11427 -0.0836522 -1.47995 Si
23 1 1.40767 6.90028 1.35684 -2.39044 4.40082 3.13801 -0.0576104 -0.854641 -0.161578 Si
24 1 2.65237 5.47641 2.69728 0.680923 -1.25857 0.995797 0.941556 0.329836 0.793031 Si
1 1 4.01616 4.12776 1.35729 3.07448 -4.49066 1.85071 0.779577 1.03086 -0.757349 Si
55 1 6.83071 6.78749 1.35692 0.00541227 -1.14076 0.685543 0.507574 0.153179 -0.140011 Si
33 1 9.49943 4.04979 1.33796 2.32661 0.0275157 0.649299 -0.686358 0.299165 1.22273 Si
56 1 8.08304 5.40329 2.84944 -0.832045 1.64962 3.41019 0.404352 -0.840491 -1.27325 Si
4 1 0.0379114 0.0417917 0.0523813 -5.84974 -3.82672 0.605731 -0.305152 -0.370604 -0.451628 Si
8 1 2.71924 -0.0312984 2.7577 -1.64523 2.71782 5.65529 0.082697 -0.169657 -0.0751626 Si
18 1 0.00910577 8.00635 2.76686 -0.316742 -3.05564 -0.957304 0.169065 2.09172 -0.53347 Si
17 1 4.15562 9.56097 1.39694 -0.68436 -3.36652 2.02811 -1.29951 -0.375224 -0.0613547 Si
50 1 5.44171 8.11392 2.63971 -0.943051 -1.52853 -0.279876 0.325493 0.257605 0.935041 Si
49 1 9.62365 9.52488 1.42121 1.0484 2.80293 -0.470429 -0.988324 0.00343573 0.347743 Si
54 1 8.14858 8.27725 0.0135559 -0.611389 -0.781767 0.764468 1.15209 -1.75848 0.33055 Si
14 1 2.68586 2.76682 5.37802 -3.84243 1.93512 -4.50312 -0.169655 -0.597392 1.05936 Si
15 1 1.30477 1.40657 6.87966 1.08342 4.74246 -5.37501 0.587908 -0.0478874 -1.28078 Si
3 1 4.07055 1.37358 4.07165 4.03558 3.92712 0.169613 -0.376827 0.235628 -0.25992 Si
47 1 6.81266 1.33509 6.79727 1.26368 0.558121 -2.42571 0.158008 0.160579 0.122558 Si
35 1 9.53052 1.32284 4.02274 -0.371519 0.310986 0.184237 0.302709 0.0184223 0.224479 Si
46 1 8.15853 2.60693 5.39037 4.2969 -0.00836012 -1.31841 -0.070856 0.966355 0.237521 Si
5 1 1.30075 4.12969 4.06961 1.06108 -4.93668 -4.84124 0.189752 -0.445934 -0.337723 Si
28 1 0.0605926 5.44788 5.54136 -3.4338 2.55787 1.52171 -0.755364 -0.233969 -0.924668 Si
31 1 1.41639 6.76415 6.86119 -1.46682 -1.69519 -4.45579 0.279525 -0.118449 0.571709 Si
9 1 4.07402 4.02507 6.84254 4.26921 1.99436 -0.215835 -0.700047 1.47155 -0.844359 Si
19 1 4.14588 6.80718 4.10094 7.09594 1.47434 -3.96573 -1.15201 -0.333703 -0.561928 Si
37 1 6.66499 3.96374 4.13479 3.84748 -2.7361 5.74302 0.767456 0.745734 -0.130057 Si
60 1 5.4292 5.46558 5.49404 -2.86165 0.0840975 -4.26413 0.172053 -0.626139 0.183303 Si
63 1 6.87553 6.86625 6.75088 -5.0685 -2.54226 4.13159 -0.493774 -0.250936 0.150681 Si
41 1 9.48789 4.06998 6.74238 2.39899 -1.05989 -3.04615 0.0743151 -0.386543 0.314498 Si
51 1 9.5849 6.71372 4.06437 1.35655 5.57439 -0.345717 -0.439309 -0.604099 1.01556 Si
21 1 1.31517 9.45497 4.09634 -4.07629 -2.26819 3.30979 0.8196 -0.108153 0.323915 Si
30 1 2.75256 8.10272 5.51041 9.2315 -2.01242 -5.98185 0.481342 1.3325 -0.378682 Si
44 1 5.44664 0.0652223 5.41936 -8.99083 -1.32528 4.43492 0.727028 -0.637842 -0.716566 Si
25 1 4.19344 9.62683 6.8008 0.725713 0.794206 -5.69599 -1.36559 -1.31337 0.285126 Si
53 1 6.78648 9.48018 4.01763 -4.30624 -5.79542 -1.37373 -0.494498 -0.105559 1.04929 Si
12 1 0.00976319 0.0154907 5.42442 3.03667 6.22841 -3.85138 0.312464 0.161684 0.038627 Si
57 1 9.60579 9.5029 6.7383 -2.22788 -3.23914 -2.69287 -0.569311 -0.57619 0.787951 Si
62 1 8.24664 8.12716 5.33188 -0.303184 3.04992 5.04274 -0.217051 0.705784 0.428044 Si
6 1 2.72145 2.83016 -0.0283265 0.372478 -2.64323 -2.37748 0.280711 -1.46838 0.497932 Si
11 1 4.07002 1.45521 9.49591 4.36872 -1.25725 4.68048 0.580817 -0.118928 -0.116118 Si
42 1 5.51348 2.82212 8.08732 -6.91639 -1.41743 -0.805345 -0.449043 -1.96121 0.802312 Si
10 1 -0.0948689 2.72336 8.19782 -4.00672 -2.40288 -0.829308 0.106292 0.272945 0.395746 Si
43 1 9.48154 1.30196 9.56005 1.1352 -0.498802 -4.20275 -0.219328 0.498404 0.0749072 Si
13 1 1.28624 4.05582 9.63586 -0.270009 -6.03646 5.77751 -0.759203 1.30581 -0.918956 Si
32 1 2.73149 5.39652 8.27109 -0.414175 1.81528 -1.97732 -0.132011 -0.174272 -0.32369 Si
52 1 5.48894 5.50364 -0.0551544 0.893427 0.937007 -0.901192 -0.474465 -1.08287 0.599125 Si
27 1 4.11617 6.83688 9.52792 4.33594 -5.92597 0.423738 -0.18204 0.135748 -0.172837 Si
45 1 6.82116 4.09997 9.44905 -1.60322 0.439342 4.38577 0.409892 0.75871 0.660096 Si
20 1 -0.0441626 5.52603 0.133302 6.00905 5.05494 -2.02124 0.0366245 -0.336185 -1.63937 Si
59 1 9.47708 6.77956 9.44966 -2.30778 5.08565 0.260788 0.50321 0.941394 2.00605 Si
64 1 8.19256 5.48627 8.09277 5.71822 -2.51376 7.21863 -0.633363 -0.874599 -0.207189 Si
22 1 2.78708 8.21741 0.0133904 -6.48052 0.908465 1.39181 -0.543275 0.732911 -0.63698 Si
16 1 2.72568 0.0270538 8.15981 1.53125 -3.75715 0.65378 0.0651107 0.275956 -0.00427793 Si
26 1 0.056023 8.09581 8.20488 2.34063 -0.175317 1.90292 -0.767792 0.701286 -0.967567 Si
29 1 1.29626 9.57935 9.48518 -0.61744 4.20247 1.4067 1.3622 -0.482369 1.00957 Si
58 1 5.49877 8.1832 8.17409 3.15933 -1.91345 1.18955 -0.206481 -0.0441424 -0.521486 Si
61 1 6.77441 9.50276 9.58287 0.110931 0.515796 1.02213 0.00392607 1.21929 -0.819479 Si
48 1 8.16306 -0.0528426 8.13812 1.55731 -1.62753 2.05266 0.069604 -0.377039 0.225388 Si
ITEM: TIMESTEP
17200
ITEM: NUMBER OF ATOMS
64
ITEM: BOX BOUNDS pp pp pp
0.0000000000000000e+00 1.0887404739999999e+01
0.0000000000000000e+00 1.0887404739999999e+01
0.0000000000000000e+00 1.0887404739999999e+01
ITEM: ATOMS id type xu yu zu vx vy vz fx fy fz element
2 1 -0.0378528 2.70286 2.80678 1.65948 -1.03303 0.519854 0.69849 1.0833 -1.15663 Si
7 1 1.26942 1.40954 1.29805 3.05881 -0.972416 0.644685 0.408642 -0.88187 0.876234 Si
34 1 5.5397 2.65649 2.77425 0.250631 1.88779 -3.56447 -0.879407 1.14651 -0.549241 Si
36 1 5.48319 0.0337934 -0.0389545 -2.08822 0.225669 -0.22767 -1.00868 -1.03962 0.243212 Si
39 1 6.7748 1.31704 1.35302 2.45842 -3.88855 -2.07576 1.61582 0.0988759 0.439504 Si
38 1 8.16287 2.67276 -0.0427394 -1.41971 -0.872776 2.90311 0.122988 0.779448 0.900995 Si
40 1 8.22698 0.0286984 2.82299 -0.209305 -5.42475 6.19904 -1.00291 -0.0507189 -0.550808 Si
23 1 1.29436 6.80939 1.36589 5.51045 -1.52116 -1.94699 0.26567 0.0946238 0.128815 Si
24 1 2.75246 5.48384 2.68693 -0.355941 0.134234 2.55213 -0.779167 -1.12957 0.0516733 Si
1 1 4.06473 3.98694 1.31048 -2.37649 2.45953 4.64725 0.114246 -0.444953 2.03292 Si
55 1 6.68376 6.86928 1.28026 1.00041 -1.22924 -4.19073 1.08993 -0.784748 0.591176 Si
33 1 9.58104 4.08902 1.32765 1.74507 0.68895 -0.86315 -0.27198 0.231017 -0.289818 Si
56 1 8.22415 5.58588 2.65578 -6.52695 0.929647 1.725 -0.295617 -0.478841 0.181647 Si
4 1 -0.0178869 -0.0208197 -0.0632134 0.479794 0.404544 3.41101 0.0297317 -0.36723 0.588623 Si
8 1 2.7647 0.0627997 2.63576 -2.24071 -2.13953 0.327726 -0.720556 -0.26607 0.322353 Si
18 1 -0.0556758 8.26128 2.6632 -1.55029 1.52773 -2.96489 0.730022 -1.20968 0.614835 Si
17 1 4.11907 9.50751 1.34514 2.32742 2.67265 -2.47699 -0.0830488 0.353617 -0.0272588 Si
50 1 5.41878 8.15184 2.80484 -1.63586 -4.87552 0.804347 0.128205 0.615185 -0.670776 Si
49 1 9.48772 9.51319 1.35089 2.27831 -3.41847 -3.84487 -0.195762 1.16924 -0.498339 Si
54 1 8.2386 8.10999 -0.0465256 1.07169 6.50439 3.10589 -1.18839 0.36568 -0.171216 Si
14 1 2.78744 2.68304 5.4382 2.57122 0.811711 -0.990249 -1.16935 0.460836 -0.309394 Si
15 1 1.36801 1.29769 6.75168 1.14406 -0.693821 6.45435 0.237894 0.204237 0.410128 Si
3 1 4.12595 1.34637 4.09218 -0.885162 0.0192199 -1.18604 -0.145739 -0.193045 -0.389188 Si
47 1 6.76274 1.40296 6.81541 4.20127 0.493472 3.66949 0.242897 -0.071422 0.306126 Si
35 1 9.5376 1.47519 4.18041 -1.04654 3.86187 0.569187 -0.706258 -1.17063 -0.0564071 Si
46 1 8.21829 2.8102 5.54337 -1.76238 3.3727 0.806882 -0.914886 -0.66221 -0.503716 Si
5 1 1.31164 4.12535 4.12703 0.443729 1.80421 6.00284 1.3987 -0.591823 -0.757726 Si
28 1 -0.0687053 5.4535 5.39457 2.83081 -5.49647 1.54646 0.751343 0.550598 1.07906 Si
31 1 1.32666 6.82026 6.78607 5.40022 2.4502 -0.895662 -0.153384 -0.188135 -0.427327 Si
9 1 4.09679 4.06989 6.77014 -2.18842 -5.12064 -2.72933 1.21677 -0.415883 0.696519 Si
19 1 4.07305 6.77702 4.09519 -3.64884 -0.0675517 5.86318 0.248104 0.0806516 0.719308 Si
37 1 6.91632 4.11032 4.06661 -3.66469 0.636453 -1.59218 -0.0542272 0.442648 -0.0544133 Si
60 1 5.54574 5.45547 5.47501 -0.416518 4.64962 -2.93438 -0.658394 -0.0667537 -0.353788 Si
63 1 6.82484 6.84833 6.89051 3.97738 0.898098 -6.04577 -0.521743 -0.36802 -0.173712 Si
41 1 9.57355 4.10342 6.82664 -2.26847 -1.03451 -1.82182 0.209068 0.339887 0.222435 Si
51 1 9.57203 6.9262 4.14155 -0.438662 -1.60568 -4.99053 -0.846921 -0.315769 -1.21576 Si
21 1 1.35085 9.53668 3.9955 -0.156035 0.859813 -3.80797 0.0885008 0.987534 0.411424 Si
30 1 2.68805 8.1981 5.41631 -3.71983 0.358699 -1.58656 -0.179315 -0.878054 -0.309536 Si
44 1 5.43024 -0.0169818 5.45349 1.35923 1.22052 0.481533 -0.545557 0.104921 1.22175 Si
25 1 4.09329 9.38269 6.81736 -0.662473 0.0294049 1.78792 -0.514829 2.16263 -0.947384 Si
53 1 6.75329 9.55814 4.1747 4.51666 3.2223 -1.79299 1.03942 -0.492179 -1.16764 Si
12 1 -0.0918204 -0.0289222 5.42913 -2.12706 -4.67116 1.11669 1.001 0.0125736 0.0852958 Si
57 1 9.44901 9.59268 6.8903 0.351618 5.46699 0.938741 -0.48234 -0.325972 -0.815264 Si
62 1 8.12411 8.16822 5.47736 -0.147534 -1.45162 -1.54659 0.294198 0.877004 0.64264 Si
6 1 2.73634 2.62273 -0.00483974 4.89794 3.39375 -3.71174 -0.715049 1.24993 -0.56253 Si
11 1 4.03475 1.32758 9.52952 -0.780075 -4.52234 -0.871158 0.596787 -0.704194 0.181246 Si
42 1 5.43699 2.67279 8.30994 0.973492 5.98955 3.63896 -0.41298 0.916333 -2.0014 Si
10 1 0.103276 2.78713 8.14224 -0.173644 2.95653 -1.96015 -0.334553 -1.00684 -0.140518 Si
43 1 9.58429 1.40234 9.52176 -0.800546 -3.26345 -0.589789 -0.187461 -0.00167084 -0.737579 Si
13 1 1.5098 4.10724 9.43457 1.61079 1.15179 -4.20453 -0.500833 -0.765609 1.0557 Si
32 1 2.75765 5.43722 8.08368 1.0107 -4.9263 1.98185 0.12997 0.915881 0.0200212 Si
52 1 5.39426 5.2943 0.0419683 1.07607 1.43208 2.15839 0.287184 1.89011 -0.958572 Si
27 1 4.00453 6.77519 9.6027 -2.97526 1.6961 2.7759 0.301351 -0.560147 -0.173845 Si
45 1 6.80961 4.09297 9.52327 -0.809779 -1.40537 -0.740519 0.241412 -0.540914 0.419724 Si
20 1 0.0994762 5.45304 -0.128351 -3.2742 0.125096 2.5507 0.0285804 -1.07915 1.32442 Si
59 1 9.6252 6.74929 9.50434 -2.93503 -4.4367 -0.752554 -1.55504 0.15534 -0.596637 Si
64 1 8.17822 5.40475 8.14947 -0.739623 1.4818 -6.0432 0.307598 0.669267 0.617552 Si
22 1 2.64833 8.16708 0.0522339 3.39054 -3.45372 0.633847 0.746763 -0.360742 0.0825412 Si
16 1 2.77669 -0.0589426 8.14388 0.402053 1.00794 2.81831 -1.07617 -0.529527 0.0100291 Si
26 1 -0.0934067 8.16186 8.12212 -4.7889 -0.724558 5.62943 1.17205 0.000957689 0.22967 Si
29 1 1.34187 9.4214 9.52667 -4.27745 -1.78052 -1.96064 -0.12388 1.23609 -0.831522 Si
58 1 5.3144 8.14438 8.20192 -2.33553 1.47898 -2.81441 1.55552 -1.0407 0.800188 Si
61 1 6.75318 9.49486 9.50107 2.41801 0.279354 1.66595 0.499901 -0.260409 0.478974 Si
48 1 8.088 0.0630301 8.24997 1.00984 1.44647 -2.20636 0.425657 0.0481708 -0.588795 Si
ITEM: TIMESTEP
17300
ITEM: NUMBER OF ATOMS
64
ITEM: BOX BOUNDS pp pp pp
0.0000000000000000e+00 1.0887404739999999e+01
0.0000000000000000e+00 1.0887404739999999e+01
0.0000000000000000e+00 1.0887404739999999e+01
ITEM: ATOMS id type xu yu zu vx vy vz fx fy fz element
2 1 0.0773718 2.70543 2.74518 -1.15451 3.65623 0.695134 -1.16523 -0.543965 -0.20235 Si
7 1 1.44191 1.34247 1.42404 -0.524804 -2.21474 -3.14416 -0.593783 0.195008 -0.586154 Si
34 1 5.34204 2.72517 2.69479 4.32574 -1.87159 4.73693 0.56567 -0.222139 0.534732 Si
36 1 5.42763 0.0166783 -0.0260061 3.89256 -0.45352 -1.76003 0.407583 0.0795248 0.40034 Si
39 1 6.74794 1.3772 1.3852 -5.4221 -3.19195 1.25022 0.00715386 0.253296 -0.927069 Si
38 1 8.12526 2.74046 -0.00940827 0.986769 -3.13814 -0.783383 -0.0025299 -0.346919 0.106194 Si
40 1 8.19084 0.0227777 2.58275 0.942597 1.25223 -4.61461 -0.950537 -0.508103 1.36247 Si
23 1 1.3153 6.77694 1.35527 -1.43424 -0.253443 2.12607 1.11337 -0.20811 -0.579989 Si
24 1 2.70886 5.40536 2.67994 -1.42515 2.42343 -0.73369 0.441752 0.865432 -0.0865299 Si
1 1 4.12346 4.12565 1.29264 -2.99715 3.5651 -5.60755 -0.409217 0.426315 -0.17395 Si
55 1 6.86515 6.81077 1.45054 0.757283 2.03245 -1.55678 -0.827905 -0.0453414 -0.639738 Si
33 1 9.51089 4.04209 1.39014 -4.20395 2.2567 0.692958 0.55633 -0.174546 -0.219277 Si
56 1 8.16579 5.34812 2.76738 2.41624 -3.33013 -4.06649 -0.212261 0.461415 0.309316 Si
4 1 0.0438768 -0.0348388 0.0814456 0.172152 -1.27199 -4.01977 -0.0605321 0.963265 -0.747318 Si
8 1 2.71736 -0.0518285 2.75921 2.9988 -3.17149 -2.3588 0.256224 -0.134328 -0.0552768 Si
18 1 0.0899693 8.12494 2.74153 1.93922 4.13227 1.79243 -1.24479 0.27144 0.571377 Si
17 1 4.05394 9.54964 1.29963 -1.48828 2.72656 1.09069 0.312701 -0.366016 0.455271 Si
50 1 5.46674 8.27036 2.72487 -0.638221 0.516688 -1.90506 -0.637522 -1.17533 -0.120543 Si
49 1 9.56185 9.53213 1.41868 -3.79462 0.457898 4.99135 0.394304 -1.28516 -0.878917 Si
54 1 8.16449 8.149 0.0235944 0.6878 -1.61164 -1.21514 0.00382332 0.976263 0.552641 Si
14 1 2.66784 2.74072 5.47386 -2.68302 2.0349 2.8589 1.22073 -0.0177488 0.429832 Si
15 1 1.33112 1.40304 6.84944 -2.91769 -1.48373 -0.767508 -0.392091 -0.195724 0.348986 Si
3 1 4.03266 1.33367 4.09625 -4.23073 0.588128 -0.825833 0.401155 0.157127 0.398285 Si
47 1 6.87209 1.31597 6.70775 -3.09268 0.905295 1.70102 -0.362446 -0.130126 0.724722 Si
35 1 9.47048 1.26721 4.00959 0.582494 -4.49561 -0.898122 1.54382 1.04516 0.0269624 Si
46 1 8.21005 2.66343 5.36844 -3.31122 -0.900626 4.48104 -0.702513 0.294039 0.243541 Si
5 1 1.43128 4.05512 4.03987 1.59535 5.36602 -4.62441 -1.19481 0.530289 1.09921 Si
28 1 -0.0297713 5.35275 5.52364 1.03355 -1.56338 -1.83832 0.419164 0.175092 -1.38786 Si
31 1 1.29621 6.76118 6.81778 -0.955602 -0.657735 2.47684 0.795497 0.674924 0.125676 Si
9 1 4.05948 4.14519 6.91195 1.7501 4.0326 -0.5858 -0.83578 -0.713241 -0.657919 Si
19 1 3.98632 6.87405 4.07663 0.135158 -6.65002 -3.05926 1.11646 -0.372043 -0.373223 Si
37 1 6.73982 4.01026 4.11969 0.97974 1.30806 1.20848 -0.0930082 0.299378 -0.41229 Si
60 1 5.34817 5.4324 5.43587 2.51306 -6.71764 6.22427 0.293198 0.265435 -0.207982 Si
63 1 6.79992 6.75517 6.74674 1.10617 -1.58118 1.286 0.400476 0.379812 -0.21509 Si
41 1 9.406 4.08576 6.80553 -0.0375589 -1.54975 4.88043 0.638399 -0.481059 -0.146518 Si
51 1 9.55045 6.74203 4.09892 -0.0745297 0.979116 5.57086 0.242015 0.0878017 -0.0586859 Si
21 1 1.3984 9.47588 4.14965 4.97509 -2.46655 0.360482 -0.200211 0.376088 -0.397205 Si
30 1 2.75203 8.20484 5.53629 -3.21851 0.132105 1.24801 -0.982201 -0.67624 -0.0344425 Si
44 1 5.47979 -0.0591892 5.42469 5.47895 3.81754 -2.49402 0.030247 1.01031 -0.883888 Si
25 1 4.02239 9.6867 6.77833 -2.38365 -2.7051 1.3769 1.36841 -1.66123 1.09826 Si
53 1 6.89497 9.51985 4.04719 2.474 -1.70333 0.949662 -0.236962 0.786635 -0.181052 Si
12 1 0.00360742 0.00556617 5.40729 1.85692 -3.03956 3.19481 -0.245533 -0.506744 0.697119 Si
57 1 9.51532 9.41274 6.74749 -1.38128 -1.56031 0.271738 1.4541 1.35746 0.322192 Si
62 1 8.19489 8.16917 5.41487 0.381781 0.930771 1.73964 -0.54172 -1.48639 -0.45208 Si
6 1 2.68145 2.78373 0.00551339 -3.59262 -3.77975 5.27518 0.476026 -0.49372 0.481927 Si
11 1 4.113 1.43622 9.60032 -1.81122 5.27736 -5.6825 -0.291589 -0.0394464 -0.545506 Si
42 1 5.44606 2.64601 8.10654 3.29736 -6.2293 -2.91957 0.768445 1.00089 0.463076 Si
10 1 -0.104202 2.81413 8.18584 1.24671 -0.346123 2.39162 0.611155 -0.921112 0.000439125 Si
43 1 9.50672 1.34621 9.51901 2.37098 1.00542 -0.966825 0.337609 -0.291366 0.484665 Si
13 1 1.25565 4.09346 9.62434 -1.4533 1.97658 -1.13998 0.860111 -0.0816327 -1.43709 Si
32 1 2.63265 5.50458 8.26765 1.74765 2.26429 -0.0830826 0.073137 -1.04233 -0.584434 Si
52 1 5.47473 5.5508 -0.082576 -2.72557 -1.92476 -0.0998466 0.41156 -0.633261 1.07212 Si
27 1 4.15232 6.81377 9.4006 -1.94305 -0.0819211 0.413393 -0.217901 1.04428 0.59214 Si
45 1 6.81204 4.13309 9.49435 1.14438 3.38363 -7.7795 -0.62281 -0.95891 -0.138999 Si
20 1 -0.0206702 5.41955 0.0048352 -0.308905 -0.0346188 -0.615355 -1.54267 0.915573 0.704574 Si
59 1 9.44574 6.83023 9.54029 2.99691 0.361972 0.459366 1.63848 -0.29905 -0.323822 Si
64 1 8.1592 5.4488 8.17062 -0.544066 -0.192102 -2.19734 -0.524507 0.513189 -0.334495 Si
22 1 2.7607 8.09701 -0.0435406 -1.51623 7.20287 0.766722 -0.0261562 0.183437 0.235173 Si
16 1 2.78207 0.0736414 8.258 -0.18774 4.10284 -1.3411 -0.594582 0.878559 -0.728157 Si
26 1 0.0491946 8.19162 8.17619 0.63631 1.61676 -7.02717 -0.46531 -0.038113 0.740853 Si
29 1 1.48033 9.60303 9.57238 6.75562 0.99869 1.50237 -1.18844 -1.16024 -0.163482 Si
58 1 5.55086 8.20837 8.07345 -0.111724 -0.982895 6.76665 -1.24619 0.754858 0.0583048 Si
61 1 6.85156 9.58017 9.52835 1.78826 0.990854 0.785979 0.00900785 -0.561094 -0.305191 Si
48 1 8.24377 -0.0591009 8.076 -4.4018 -1.14073 1.14488 -0.556386 0.5485 0.54611 Si
ITEM: TIMESTEP
17400
ITEM: NUMBER OF ATOMS
64
ITEM: BOX BOUNDS pp pp pp
0.0000000000000000e+00 1.0887404739999999e+01
0.0000000000000000e+00 1.0887404739999999e+01
0.0000000000000000e+00 1.0887404739999999e+01
ITEM: ATOMS id type xu yu zu vx vy vz fx fy fz element
2 1 -0.0800352 2.73873 2.64553 4.49891 -0.58912 -2.01411 0.638694 -0.437944 1.11363 Si
7 1 1.35433 1.41409 1.38198 -1.10703 0.0258804 6.30679 -0.0160879 -0.166868 -0.789102 Si
34 1 5.53257 2.71394 2.71254 -3.60625 0.618874 -2.14945 -0.245896 0.0183327 0.207398 Si
36 1 5.41576 0.0209436 0.117233 -3.65273 -2.19504 2.02822 0.411566 -0.245834 -0.640119 Si
39 1 6.90155 1.32228 1.41448 1.91472 2.54724 -0.968529 -1.15298 0.787737 -0.610682 Si
38 1 8.18808 2.78567 0.0887989 1.98316 1.7635 -1.12916 0.260852 -0.53657 -1.25973 Si
40 1 8.04993 -0.0500591 2.79165 0.214174 0.180059 -1.47474 2.30455 0.837336 -0.599959 Si
23 1 1.43171 6.79929 1.3853 -1.19016 0.757106 -0.724559 -1.20118 0.549963 0.388334 Si
24 1 2.68315 5.39944 2.73544 1.44106 -2.77032 -2.26296 0.235141 0.330076 0.633907 Si
1 1 4.0064 4.02207 1.45641 4.68122 -4.86318 3.98197 1.10746 -0.0220832 -1.2403 Si
55 1 6.79988 6.736 1.3094 0.158368 2.43355 6.048 0.393393 0.93127 0.626101 Si
33 1 9.64972 4.15118 1.32471 2.72961 -1.84212 1.31489 -2.00086 0.017008 0.522966 Si
56 1 8.18312 5.43939 2.72376 4.65749 3.50809 4.4357 0.409926 0.0967138 -0.437868 Si
4 1 -0.0301698 0.0472029 0.0268914 -0.989162 -0.680077 1.74734 -0.198913 -0.429258 -0.449043 Si
8 1 2.66137 0.0366357 2.73567 -1.67311 0.623355 -0.590875 0.691071 0.2631 -0.21396 Si
18 1 -0.0429856 8.20764 2.74417 1.54281 -3.30213 -0.842407 0.360865 -0.0343498 -0.850075 Si
17 1 4.03591 9.56778 1.41615 -1.46192 -3.11465 -4.03056 0.0232888 -0.383006 -0.128842 Si
50 1 5.46665 8.17964 2.65752 -1.55344 7.57693 2.12689 0.176245 -0.0853058 0.728332 Si
49 1 9.42237 9.5473 1.36185 0.975104 3.26588 -1.71687 0.806292 0.222903 0.38792 Si
54 1 8.13342 8.19671 -0.0119715 0.677606 -3.21878 -2.67907 0.124551 -1.06563 -0.511986 Si
14 1 2.77424 2.76853 5.3218 2.24443 -2.03486 3.0067 -0.633257 -0.704034 0.507049 Si
15 1 1.41653 1.34618 6.78435 -1.1624 3.00822 -4.69336 0.266563 0.143054 -1.23901 Si
3 1 4.16801 1.32133 4.01274 0.603608 -2.18793 -0.712881 -0.836403 0.737605 0.323243 Si
47 1 6.77536 1.40375 6.82257 1.29281 1.72768 -0.629096 -0.251375 0.272802 -0.0944285 Si
35 1 9.47438 1.37223 4.06107 -2.08798 0.715517 1.60117 0.0462705 -0.195986 0.463959 Si
46 1 8.15384 2.76805 5.50385 0.978829 -0.924977 -1.60132 0.83323 -0.524284 -0.170528 Si
5 1 1.23123 4.09817 4.04607 0.940164 -3.16089 0.227965 1.01587 -0.386837 -0.0549914 Si
28 1 0.0304271 5.52903 5.41136 -3.71173 5.9444 2.43043 -0.921419 0.0144032 0.258063 Si
31 1 1.48769 6.81751 6.73595 -7.38408 -2.8887 -1.44763 -1.2495 -0.258061 0.587141 Si
9 1 4.07831 4.07992 6.78806 4.58716 -2.44073 4.88751 0.629444 0.719523 -0.879764 Si
19 1 4.15247 6.7582 4.04278 -2.06052 3.658 -0.518932 -0.246691 0.205816 -0.334482 Si
37 1 6.87761 4.07321 4.10106 0.120527 0.623442 0.601045 -0.309415 0.121422 -0.451807 Si
60 1 5.58015 5.47799 5.41669 -2.533 2.59902 -1.76847 -1.06452 -0.503705 0.912144 Si
63 1 6.89528 6.79059 6.88225 -4.69348 0.528689 -0.19018 -0.983138 -0.131146 -0.0514644 Si
41 1 9.59278 4.11298 6.82505 1.42215 2.46241 -3.88188 0.174621 -0.0370411 -0.413166 Si
51 1 9.4441 6.89816 4.07938 1.28236 -0.678111 -1.21809 0.564167 -0.684061 0.4436 Si
21 1 1.33978 9.59921 4.05744 -6.688 5.29618 -0.765102 0.121862 -1.30085 -0.0497342 Si
30 1 2.71865 8.1309 5.31923 0.70005 -0.545001 -4.94479 1.02708 0.864565 0.414813 Si
44 1 5.4302 0.0459367 5.47326 1.54874 -0.955041 2.4563 0.0688374 -0.858999 0.258373 Si
25 1 4.12074 9.42164 6.82552 1.77809 4.10101 -2.71914 -0.689217 0.587743 -1.08936 Si
53 1 6.79857 9.58946 4.10743 -3.04012 -1.05012 1.38681 -1.39351 -1.72036 0.887723 Si
12 1 0.0223114 -0.0275 5.41419 2.58216 3.22382 -2.84859 -0.62109 1.39428 0.272001 Si
57 1 9.52184 9.57052 6.77532 -2.11538 -1.32997 1.47279 0.0740661 -0.775545 0.695476 Si
62 1 8.10607 8.18128 5.5174 1.94327 -0.995575 -0.0517636 0.504011 0.735991 -0.765091 Si
6 1 2.75579 2.69203 -0.0681801 1.67391 0.931442 -3.49738 -0.226753 -0.239653 1.13038 Si
11 1 4.0671 1.24763 9.53996 7.72887 0.0256503 6.46079 0.231865 0.786442 -0.69797 Si
42 1 5.39123 2.75631 8.16801 -4.64956 -1.16371 -2.53427 -0.116505 -1.13647 0.432309 Si
10 1 0.090496 2.69542 8.11846 1.30471 -1.22083 -2.91256 -0.76923 0.213809 0.380185 Si
43 1 9.51459 1.39059 9.4711 -1.93706 2.38866 -3.31378 -0.247013 0.162055 0.547579 Si
13 1 1.40541 4.03569 9.51412 -1.166 -1.30047 0.612241 -0.532964 0.61063 0.042731 Si
32 1 2.71776 5.40517 8.14847 -0.713935 0.414376 -3.34453 0.436496 0.497837 0.342001 Si
52 1 5.40433 5.4209 0.0530034 -0.782508 2.18486 -3.07761 -0.744171 -0.755891 -0.0922168 Si
27 1 4.02028 6.7896 9.62051 0.541783 0.534783 -2.9169 0.540607 -0.689889 -1.03207 Si
45 1 6.7381 4.05825 9.55105 -4.12923 -5.9454 4.13982 0.902394 0.490517 0.19362 Si
20 1 0.0587682 5.46137 0.0262839 5.04077 -1.60003 -2.99945 0.906943 0.134414 -1.0606 Si
59 1 9.56632 6.75713 9.51738 -1.66099 4.97981 1.3828 -0.20737 0.888468 0.660192 Si
64 1 8.22152 5.41745 8.1982 -0.989378 -0.513283 5.80125 -0.508783 -0.606715 0.38462 Si
22 1 2.74231 8.16075 0.0445917 1.80307 -6.93756 1.32968 -0.99535 1.14215 -0.500527 Si
16 1 2.69746 -0.0740132 8.11216 -2.86045 -0.718119 6.08503 0.461423 -0.10487 0.426325 Si
26 1 0.026817 8.10811 8.13397 1.18695 -0.377543 1.88317 -0.505748 0.183551 -0.88399 Si
29 1 1.27451 9.51309 9.46067 -4.26016 -4.17231 3.40366 0.968729 0.00886378 1.48015 Si
58 1 5.41266 8.08159 8.2057 7.6882 -6.03049 -1.85268 0.288242 -0.0951322 0.383528 Si
61 1 6.69976 9.51678 9.56438 -3.77324 1.17771 -1.42641 0.4953 0.449643 -0.328431 Si
48 1 8.08881 0.0103391 8.12515 3.16616 1.92093 -0.708882 0.367434 -0.303646 0.885486 Si
ITEM: TIMESTEP
17500
ITEM: NUMBER OF ATOMS
64
ITEM: BOX BOUNDS pp pp pp
0.0000000000000000e+00 1.0887404739999999e+01
0.0000000000000000e+00 1.0887404739999999e+01
0.0000000000000000e+00 1.0887404739999999e+01
ITEM: ATOMS id type xu yu zu vx vy vz fx fy fz element
2 1 0.01022 2.73344 2.74894 -6.92087 -5.52823 3.31804 1.00723 0.338728 -0.779908 Si
7 1 1.43847 1.378 1.34992 5.05476 -0.0107819 -4.05709 -0.446335 -0.143155 0.807238 Si
34 1 5.41886 2.69274 2.67662 -2.75209 -0.986538 -1.67031 -0.791328 0.531532 -0.0357425 Si
36 1 5.46727 -0.030405 -0.0650666 -0.0782277 0.776375 0.821036 -0.53859 0.000699442 -0.0611308 Si
39 1 6.71353 1.33026 1.32941 0.524005 1.25728 -1.52138 1.41442 -0.338996 0.659563 Si
38 1 8.15649 2.66096 0.0549723 -3.90072 0.840172 0.869849 -0.423041 0.609805 -0.101635 Si
40 1 8.24327 0.0771403 2.77844 -2.30626 -1.21145 5.04411 -0.746905 -0.901789 -0.894353 Si
23 1 1.32786 6.76774 1.24146 1.05203 5.36636 -0.977929 0.388968 0.257864 0.633314 Si
24 1 2.74296 5.52971 2.74016 -1.04146 0.773032 -1.41868 -0.348593 -0.893902 -0.290316 Si
1 1 4.10288 4.14774 1.29274 -5.49345 1.17397 -1.50692 -0.55881 -0.53435 1.53287 Si
55 1 6.78466 6.83415 1.35975 -1.42577 -4.08297 -0.796275 -0.252917 -0.453715 -0.211325 Si
33 1 9.44947 4.04092 1.41326 -0.0769927 0.154052 -3.82611 0.885089 -0.322322 -0.556133 Si
56 1 8.15591 5.41644 2.6792 -0.799165 -2.04245 2.93397 -0.556715 0.670844 0.630053 Si
4 1 0.0920236 0.0100719 0.00869868 3.2462 2.78118 1.93481 -0.203633 -0.76767 0.206652 Si
8 1 2.79836 -0.0490744 2.68764 3.48194 -0.988721 -1.60389 -0.612625 0.453903 0.215282 Si
18 1 0.0362142 8.11705 2.70742 -3.21487 -4.77191 4.05002 0.215652 -0.38596 0.257714 Si
17 1 4.13099 9.49997 1.35288 -0.82424 2.17314 4.99584 0.202194 -0.14599 -0.290824 Si
50 1 5.42409 8.14987 2.81452 -0.766035 -2.27155 -3.09654 0.147561 0.0358347 -0.8958 Si
49 1 9.60316 9.49508 1.3872 4.59428 -6.71509 0.548905 -0.581765 0.961308 -0.153466 Si
54 1 8.18613 8.18237 -0.00347555 -0.578594 7.29077 0.0330072 0.176847 -0.335891 0.222901 Si
14 1 2.70009 2.59117 5.51946 3.02487 5.28627 -5.96175 0.102805 1.09885 -0.354647 Si
15 1 1.23962 1.34827 6.85467 -1.26042 2.98045 1.07202 0.685002 0.272511 0.425784 Si
3 1 4.07478 1.33499 4.0829 1.27389 -0.81544 1.07939 0.268211 -0.109301 -0.141825 Si
47 1 6.73062 1.35937 6.83549 -2.31765 -0.950003 1.09618 1.36613 -0.396479 -0.709022 Si
35 1 9.63209 1.42769 4.09622 2.69093 0.382968 0.6363 -1.4227 -0.47248 0.332345 Si
46 1 8.12108 2.69009 5.39743 3.46709 -1.74417 -1.84841 -0.092195 0.529204 0.189497 Si
5 1 1.4021 4.04821 4.13761 -6.11107 0.921824 6.42408 0.327394 0.3201 -0.406682 Si
28 1 0.00527486 5.41423 5.45244 2.3668 -2.8594 -3.75651 0.722897 -0.0262243 0.457711 Si
31 1 1.26595 6.80635 6.9415 5.65166 -2.17726 2.18377 0.734032 -0.635176 -1.05456 Si
9 1 4.09547 4.04906 6.81183 -7.1903 -0.950463 1.90367 -0.404898 -0.406906 1.03875 Si
19 1 4.04688 6.8577 4.18903 7.16502 0.474233 -0.456695 -0.622629 0.0111792 0.112176 Si
37 1 6.72621 4.10019 4.00126 -1.78167 -2.7197 2.01532 0.341812 -0.0595535 1.13196 Si
60 1 5.37805 5.45217 5.50942 0.423667 0.392948 -1.61481 0.514048 -0.171405 -1.35349 Si
63 1 6.71505 6.93638 6.68719 4.38387 1.89182 -3.28056 0.400357 -0.48829 0.715125 Si
41 1 9.55671 4.0442 6.75439 -0.290439 0.227656 -0.231905 -1.26942 0.366084 0.336699 Si
51 1 9.56669 6.70959 4.08372 -1.27298 2.7356 -1.69142 -0.517461 0.769784 -0.733227 Si
21 1 1.41274 9.50121 4.06078 0.941227 -0.470931 -1.53012 -1.12377 0.821541 0.246945 Si
30 1 2.60236 8.21534 5.56187 0.326593 -5.12226 2.90809 0.819508 -0.873018 -0.222245 Si
44 1 5.47961 -0.0203096 5.39528 -0.124223 3.04276 -4.81778 -0.662569 0.144391 0.676767 Si
25 1 4.10049 9.53099 6.78795 5.02809 -2.56744 2.31146 -0.696763 1.05813 0.291182 Si
53 1 6.81028 9.50689 4.09053 1.0069 0.916748 -1.11955 0.557274 0.952742 -0.956853 Si
12 1 -0.0417474 0.0323184 5.46558 -4.99888 -1.23529 -2.71207 1.16745 -1.06669 -0.705234 Si
57 1 9.59091 9.48317 6.79288 0.976428 1.14112 -5.13171 -1.89078 0.447145 -0.207257 Si
62 1 8.165 8.16553 5.3317 0.167873 -1.33715 -4.06933 0.990075 -0.110326 1.04126 Si
6 1 2.73125 2.76685 0.0288411 2.73433 2.2057 -0.173043 0.105619 0.249399 -1.258 Si
11 1 4.1362 1.44155 9.48207 -1.16442 2.78369 2.07625 -0.540989 -0.55473 1.25088 Si
42 1 5.53991 2.72608 8.22522 3.6051 5.8268 -1.0237 -0.785246 0.987755 -0.866067 Si
10 1 -0.0392953 2.76173 8.23903 -4.0618 0.0347766 1.30901 -0.00542916 -0.280399 -0.270804 Si
43 1 9.54251 1.36932 9.6393 -1.53407 -3.79155 4.77267 -0.00960611 -0.476286 -1.08526 Si
13 1 1.34562 4.15811 9.50768 2.72742 -1.31281 2.79979 0.145543 -0.865094 0.889284 Si
32 1 2.76689 5.47203 8.23026 0.466908 -1.57699 4.38438 -0.491012 -0.315426 -1.30039 Si
52 1 5.41353 5.40946 -0.0609391 0.0868024 -1.18278 -0.933352 1.49363 1.06642 -0.270615 Si
27 1 4.12541 6.83434 9.46163 -3.86694 2.09221 3.94033 -0.273454 -0.0774482 1.13835 Si
45 1 6.92021 4.0932 9.50131 -0.588822 -2.99819 -2.69557 -0.362463 0.466405 0.162042 Si
20 1 -0.128947 5.38743 -0.0275561 -4.47199 5.83721 5.07133 1.00192 -0.196495 0.618403 Si
59 1 9.52343 6.75853 9.53103 3.11129 -4.02269 -3.49185 -1.84154 0.183858 -0.271605 Si
64 1 8.11488 5.56004 8.0005 4.43793 0.0938759 -4.01471 0.696939 -0.959439 0.76575 Si
22 1 2.75847 8.19461 -0.0559103 2.78129 0.685225 1.85124 0.543046 -1.41444 0.972563 Si
16 1 2.73567 0.100849 8.17008 2.57974 0.3412 -3.35165 -0.300569 -1.58494 0.0634411 Si
26 1 -0.121553 8.10325 8.20692 2.41961 -3.25856 2.96748 1.51844 0.882166 0.496312 Si
29 1 1.39929 9.41224 9.54609 -4.04046 0.157582 -1.42708 -0.857755 2.02109 -1.43628 Si
58 1 5.40324 8.20951 8.16476 -4.15182 6.0275 0.3447 0.878002 0.104477 -0.560727 Si
61 1 6.8471 9.50077 9.48696 0.256791 1.95734 2.14727 -0.231228 0.237866 0.182272 Si
48 1 8.17434 0.0184365 8.17424 -2.64864 -1.32108 -2.03567 0.64564 -0.0873197 -0.265657 Si
ITEM: TIMESTEP
17600
ITEM: NUMBER OF ATOMS
64
ITEM: BOX BOUNDS pp pp pp
0.0000000000000000e+00 1.0887404739999999e+01
0.0000000000000000e+00 1.0887404739999999e+01
0.0000000000000000e+00 1.0887404739999999e+01
ITEM: ATOMS id type xu yu zu vx vy vz fx fy fz element
2 1 -0.057658 2.73275 2.67069 3.93205 1.93237 -1.80386 -0.614897 -0.818329 0.678054 Si
7 1 1.24679 1.29707 1.41302 -1.4322 3.28452 -1.787 0.214932 0.00840592 -0.951239 Si
34 1 5.44536 2.74014 2.79537 5.1458 -1.27154 1.79432 0.964923 -0.191106 -0.404643 Si
36 1 5.43104 0.01081 -0.0293268 -0.118461 -2.31084 0.404566 0.310327 0.58272 0.191824 Si
39 1 6.83873 1.43896 1.30937 -2.83515 -6.7157 2.42276 -0.61179 -0.251183 0.164898 Si
38 1 8.20385 2.78808 -0.0915378 0.375736 -2.92973 -1.24569 -0.573508 -0.964334 0.659352 Si
40 1 8.11201 0.0225318 2.69149 2.8531 1.92227 1.13409 -0.569763 -0.639766 0.503826 Si
23 1 1.31936 6.86488 1.38627 0.493697 -4.93691 1.24745 0.525402 -0.441215 0.271149 Si
24 1 2.72747 5.39258 2.67247 -4.1984 2.32712 1.21647 0.237339 0.319227 -0.340682 Si
1 1 4.11071 3.94557 1.31798 -1.75085 -0.312053 -3.14443 -0.469233 1.5185 0.363967 Si
55 1 6.8455 6.80762 1.36588 -1.64423 3.86923 -3.16761 -0.19653 -0.214785 -0.29028 Si
33 1 9.49452 4.0677 1.302 -0.119077 1.54789 2.774 0.721269 0.791712 0.30426 Si
56 1 8.25444 5.46553 2.7337 -0.114941 4.97221 -3.41059 -0.83958 -0.21829 -0.300791 Si
4 1 -0.0839799 -0.0237495 -0.106138 -0.0305475 0.153438 -1.17738 0.290673 0.990576 0.784934 Si
8 1 2.70067 0.0681105 2.78423 -1.11184 1.91775 -2.00438 -0.0578535 -0.969158 -0.636093 Si
18 1 -0.038756 8.19262 2.79666 0.977008 3.01005 -4.9489 -0.264037 0.408822 -0.379301 Si
17 1 4.08448 9.57056 1.34375 1.55294 -0.378436 -2.61942 -0.458615 0.65968 0.578717 Si
50 1 5.44556 8.22561 2.65208 3.36853 3.70172 1.68027 0.280185 -0.911593 0.292583 Si
49 1 9.48254 9.59536 1.35815 -3.66135 4.39396 5.7177 -0.00391612 -1.59573 -0.512867 Si
54 1 8.20573 8.06814 -0.0982747 -2.00967 -3.16384 2.11435 -0.67597 2.02393 1.49703 Si
14 1 2.68074 2.78894 5.45883 3.65272 -5.50104 0.91908 0.42091 0.0782921 -0.816255 Si
15 1 1.42166 1.34677 6.71145 3.41321 -5.92443 -0.0573781 -0.38444 -0.0712369 1.68849 Si
3 1 4.04077 1.40739 4.11533 0.763558 0.30249 -0.552058 0.379222 -0.0110154 0.428767 Si
47 1 6.83127 1.29056 6.73603 1.18278 0.949495 -1.10925 -0.772401 0.346893 1.25261 Si
35 1 9.5128 1.24357 4.07465 -5.31418 2.74931 -0.790533 0.436907 1.45731 -0.476505 Si
46 1 8.2325 2.63858 5.45638 -2.95692 1.77573 5.56381 -0.181538 0.476421 -0.147966 Si
5 1 1.31975 4.05971 3.99547 4.12492 2.4346 -3.91155 -0.418533 0.924913 1.32216 Si
28 1 -0.0546634 5.49822 5.51198 -3.17889 3.94929 1.73435 0.381769 -1.45495 -1.14384 Si
31 1 1.38901 6.80645 6.72776 -1.82635 -0.163812 0.576692 0.109463 1.09314 0.151305 Si
9 1 4.04288 4.13419 6.81399 1.71718 2.45498 -3.65174 -0.0594079 -0.0910974 -0.528893 Si
19 1 4.16321 6.77049 4.00343 -6.41217 -0.533584 -1.19024 -0.0696389 -0.30532 0.150734 Si
37 1 6.92945 4.09876 4.12196 6.31803 -3.30213 -2.96365 -0.682398 -0.479753 -0.175755 Si
60 1 5.48242 5.40566 5.46335 0.64133 -4.7522 7.14054 0.285386 0.563572 -0.0125473 Si
63 1 6.81765 6.75448 6.93836 2.37234 -0.727164 6.63392 0.368896 -0.333808 -0.388011 Si
41 1 9.49735 4.06081 6.85894 -0.46815 1.88204 -2.81831 0.307724 0.236298 0.181065 Si
51 1 9.47694 6.81782 4.15867 4.82557 0.047412 5.47004 0.709737 0.320808 -0.264788 Si
21 1 1.34796 9.56007 4.14261 2.29519 -3.77013 -4.01511 1.24885 -1.03922 -0.238081 Si
30 1 2.88786 8.12036 5.43799 -5.74405 6.96892 1.69464 -1.54503 0.40952 -0.767827 Si
44 1 5.39547 -0.0369193 5.43733 -0.181154 -2.84538 1.25995 0.750691 0.770685 -0.790368 Si
25 1 4.16196 9.51958 6.76877 -2.12149 -1.72189 -1.5381 -0.312042 -0.945996 1.31296 Si
53 1 6.76126 9.45688 4.12106 1.27861 0.430955 2.95566 0.743096 0.818532 -0.314092 Si
12 1 0.0316873 0.0153215 5.43485 -3.34234 -1.55612 2.0211 -0.943422 -0.67012 0.695693 Si
57 1 9.49369 9.50958 6.82263 0.475715 0.127857 3.60261 1.35726 0.612866 0.0169229 Si
62 1 8.17401 8.14473 5.54145 -1.0517 2.58504 -0.440636 -1.16087 -0.303586 -0.329606 Si
6 1 2.62369 2.66192 0.0562329 -5.0083 -2.80916 3.23921 0.121707 0.103285 -0.0803321 Si
11 1 4.02723 1.41968 9.57195 -3.40847 -4.16286 -3.23117 -0.123911 -1.22495 -0.863544 Si
42 1 5.3366 2.71803 8.11099 1.13465 -0.714237 5.23199 1.54937 -0.22899 0.46709 Si
10 1 0.0559215 2.72556 8.15533 1.14839 8.25272 2.54288 0.323556 -0.0472523 -0.582394 Si
43 1 9.499 1.42446 9.42354 -2.22145 0.990976 -0.613163 0.333782 -0.656343 0.588409 Si
13 1 1.39475 4.09892 9.54814 5.891 6.68311 -4.02652 -0.109519 0.11346 -0.506609 Si
32 1 2.67495 5.51578 8.08504 0.881633 -0.359673 -2.82684 0.408685 -0.793264 1.36846 Si
52 1 5.40684 5.47691 -0.0104513 -1.73515 -5.58181 0.756615 -0.0271549 -0.427331 0.742843 Si
27 1 4.03583 6.81831 9.51888 0.335028 -4.60253 -2.83703 -0.293482 0.0407301 0.298869 Si
45 1 6.73925 4.06166 9.5976 6.30862 8.19528 -1.00333 -0.578575 -0.0381262 -1.13687 Si
20 1 0.0393906 5.44667 0.0148813 6.65798 -5.10839 -5.8513 -0.336085 0.27166 -0.0439727 Si
59 1 9.63034 6.87094 9.5246 -2.38425 -5.58893 0.221695 0.721948 -1.02624 -0.565783 Si
64 1 8.19905 5.39055 8.36833 -5.32896 -3.71146 -1.09853 -0.0700273 0.448209 -1.46849 Si
22 1 2.72299 8.213 0.0422288 -4.84473 6.15459 -0.69472 -0.379005 -0.144066 -0.585391 Si
16 1 2.75536 -0.0855169 8.14036 2.03111 -1.39982 1.84694 0.471587 1.90676 -0.4048 Si
26 1 0.124235 8.2331 8.12066 -5.66154 0.302162 -6.20376 -0.762566 -0.424393 0.07618 Si
29 1 1.40225 9.60561 9.51547 8.74755 -2.66258 3.22168 -0.174138 -1.18967 0.405059 Si
58 1 5.45046 8.13138 8.23578 -2.65707 -1.45977 2.28372 -0.562613 0.172158 -1.11305 Si
61 1 6.7572 9.4925 9.50282 0.713584 -0.649114 -2.45903 0.853119 0.115339 0.914972 Si
48 1 8.16601 -0.0550305 8.20385 -0.735501 1.35778 -0.229869 -0.546225 0.537799 -0.791523 Si
ITEM: TIMESTEP
17700
ITEM: NUMBER OF ATOMS
64
ITEM: BOX BOUNDS pp pp pp
0.0000000000000000e+00 1.0887404739999999e+01
0.0000000000000000e+00 1.0887404739999999e+01
0.0000000000000000e+00 1.0887404739999999e+01
ITEM: ATOMS id type xu yu zu vx vy vz fx fy fz element
2 1 0.0631868 2.6975 2.72179 3.66043 -0.223984 1.49785 0.335626 1.00721 0.327676 Si
7 1 1.43229 1.43574 1.33862 1.11502 -4.3314 4.97463 0.571835 0.232507 0.277087 Si
34 1 5.41502 2.66855 2.72649 -3.77182 -1.38055 -1.75098 0.0545117 0.343431 -0.25386 Si
36 1 5.48654 -0.0618304 0.104304 0.362277 4.92316 -0.873169 -0.35655 0.402951 -0.375536 Si
39 1 6.89128 1.38473 1.4123 0.498104 1.16031 0.914289 -0.981121 -0.484279 -0.112949 Si
38 1 8.19361 2.76512 0.0676221 -3.2738 2.19448 0.522247 0.565407 -0.500334 -0.338782 Si
40 1 8.15671 -0.0331407 2.77154 -2.21679 1.58454 -4.21156 1.55499 1.27865 -1.14462 Si
23 1 1.39099 6.73491 1.34961 -4.00165 2.38158 -2.42694 -0.451691 0.0782054 -0.0238439 Si
24 1 2.75167 5.40941 2.7077 -1.51662 -3.13786 -4.24734 -0.939064 0.74209 1.32292 Si
1 1 4.1172 4.17649 1.41747 5.98942 -3.19082 -1.30626 0.689552 -1.43508 -1.5238 Si
55 1 6.78008 6.78852 1.4595 1.55541 -0.67025 -0.0278214 0.550915 0.757152 -0.242374 Si
33 1 9.59216 4.08163 1.40772 2.16378 -2.98137 -0.84492 -0.728442 -0.142693 0.233579 Si
56 1 8.12007 5.41271 2.7175 -0.796435 -2.49376 2.77906 0.531345 -0.334262 -0.0569204 Si
4 1 0.0891689 0.103297 0.0902581 -0.195952 -3.75808 2.22206 -1.14531 -1.59487 -1.00718 Si
8 1 2.71822 -0.0195428 2.64445 -1.54995 -0.122372 5.05904 -0.0655428 0.219635 0.991834 Si
18 1 0.0119214 8.1439 2.68788 2.68502 -1.21282 0.901605 0.200021 0.485237 -0.747155 Si
17 1 4.0262 9.45183 1.36653 0.957292 1.55446 -1.74131 0.726241 -0.466098 -0.401012 Si
50 1 5.45483 8.15207 2.75945 -0.84515 1.31614 -1.59552 -0.901009 0.587719 0.429886 Si
49 1 9.50088 9.51685 1.28847 1.63134 3.05433 1.51828 0.853286 0.79527 1.51666 Si
54 1 8.03252 8.23309 0.10489 3.66451 -1.97454 -1.33454 0.939784 -1.65879 -1.52973 Si
14 1 2.83267 2.71145 5.41795 -9.00977 5.12232 0.629501 -1.15097 -0.878562 0.491938 Si
15 1 1.41829 1.3457 6.82525 -0.0766162 2.60031 3.11146 -0.629178 0.149712 -1.15272 Si
3 1 4.10789 1.28307 4.08458 1.15877 -1.40142 -2.71033 -0.384566 0.279088 -0.572859 Si
47 1 6.88895 1.37831 6.79954 1.79691 -1.38391 -4.31551 -0.248366 0.295572 -0.418613 Si
35 1 9.51626 1.48171 4.04841 0.567451 -3.87485 -3.83291 0.0301662 -1.61806 0.358997 Si
46 1 8.14839 2.83858 5.34849 3.62134 -2.78641 -1.27778 -0.153114 -0.552714 1.05054 Si
5 1 1.41008 4.06438 4.16737 -2.09611 -1.48687 -2.51954 0.424633 -0.526527 -1.66608 Si
28 1 0.0676675 5.42949 5.38711 0.699802 -4.75229 6.33909 -1.2086 1.08712 0.801191 Si
31 1 1.38843 6.81075 6.8268 0.180933 -1.25459 -2.41314 -0.583478 -0.765148 0.200302 Si
9 1 4.05083 4.04659 6.81002 0.600139 -1.46549 8.01478 1.72076 0.398391 -0.222119 Si
19 1 3.95743 6.8843 4.11873 -1.01335 2.30518 0.451847 0.868525 -0.385832 -0.16731 Si
37 1 6.70708 4.09198 4.04051 -2.2156 -0.480433 3.87169 0.262491 0.230337 0.0310059 Si
60 1 5.41318 5.48544 5.40401 0.866955 5.07996 -1.19193 -0.734606 -0.146348 0.476286 Si
63 1 6.84298 6.8078 6.74006 1.85344 -0.305459 -0.923263 -0.212063 0.354592 -0.564805 Si
41 1 9.4665 4.17282 6.78518 -5.15825 0.457528 1.80161 1.35076 -1.17891 -0.4557 Si
51 1 9.53191 6.78783 3.95259 0.489491 -1.68107 0.0609483 0.137274 -0.123692 1.55558 Si
21 1 1.33665 9.55817 4.06952 -2.0722 -0.72751 2.90182 -0.526319 0.0918426 -0.486085 Si
30 1 2.59907 8.24104 5.48551 4.63918 -0.502414 5.99861 0.975078 -0.0410067 0.00482077 Si
44 1 5.43076 0.0133672 5.48276 1.2438 -0.911691 2.24022 0.143168 -0.256039 0.596462 Si
25 1 3.96213 9.57735 6.88662 -1.27502 5.83665 -2.46063 1.02975 -0.47372 -1.76829 Si
53 1 6.8024 9.63306 4.04626 -0.12462 0.292415 -1.60879 -0.724396 -1.75414 1.22728 Si
12 1 -0.0498992 -0.00114016 5.43693 3.82034 2.39769 -5.0775 0.646949 1.35105 -0.281867 Si
57 1 9.51143 9.60285 6.80869 -5.52352 -4.61833 -0.950869 0.213641 -1.41928 0.0363051 Si
62 1 8.2117 8.21044 5.3741 -0.561567 0.954983 3.29014 -0.237638 -0.0548564 -0.0531634 Si
6 1 2.76055 2.79444 -0.0717281 -0.659372 1.74322 -2.79504 0.875169 -0.706623 1.07032 Si
11 1 4.05049 1.19603 9.55898 2.80725 5.56397 2.24377 1.1141 1.84946 -0.317317 Si
42 1 5.52819 2.74492 8.15826 -2.25669 -4.22289 -2.27788 -1.24112 -1.10093 0.747117 Si
10 1 -0.0230848 2.65768 8.12774 -0.194036 3.58296 -1.25001 -0.516468 0.750319 0.306247 Si
43 1 9.52734 1.31651 9.60828 4.17404 -0.297644 -3.50363 0.25643 1.02976 -0.310862 Si
13 1 1.34749 4.02986 9.51587 -4.65997 -2.98073 4.71556 -0.748152 0.370809 -0.386336 Si
32 1 2.73665 5.34057 8.17125 -6.54103 3.50657 2.94839 -0.376862 1.14523 0.0109158 Si
52 1 5.57907 5.49415 0.0522705 0.00615306 7.89831 -3.87829 -1.66429 -0.605044 -0.714449 Si
27 1 4.15084 6.75454 9.4592 1.74924 0.3278 -1.84933 0.556526 -0.169203 -0.123473 Si
45 1 6.85443 4.07961 9.57775 -1.75477 -0.321774 -1.4594 -0.103315 0.171892 -0.347323 Si
20 1 -0.0258106 5.39701 0.0182574 1.58769 1.90018 2.04525 0.196281 0.57413 -0.896099 Si
59 1 9.41393 6.76226 9.50181 -0.219043 3.19709 -1.14117 0.445062 0.900276 1.26778 Si
64 1 8.11667 5.43279 8.12376 0.861634 0.865569 -0.68182 -0.307336 0.223058 0.492327 Si
22 1 2.74885 8.01291 -0.057578 3.77287 -8.64285 0.951068 -0.698093 1.56695 -0.207583 Si
16 1 2.63228 -0.0512131 8.19136 1.70978 -3.7733 2.77282 -0.0139542 0.398288 0.710309 Si
26 1 -0.0336992 8.13778 8.16945 3.9573 1.19485 1.92849 -0.853763 -0.0466129 -0.372318 Si
29 1 1.25672 9.51182 9.50657 -2.07331 5.3091 -4.13644 1.06675 -0.489126 1.33186 Si
58 1 5.45548 8.19828 8.01483 1.76269 -1.15611 -1.71424 -0.0549335 -0.293177 1.69261 Si
61 1 6.78909 9.53243 9.53008 -2.28562 0.604112 -0.747667 -0.36337 -0.0432524 -0.571122 Si
48 1 8.20454 0.00778202 8.19984 -0.271153 -4.40392 -1.62866 -0.583361 0.0972488 0.25441 Si
ITEM: TIMESTEP
17800
ITEM: NUMBER OF ATOMS
64
ITEM: BOX BOUNDS pp pp pp
0.0000000000000000e+00 1.0887404739999999e+01
0.0000000000000000e+00 1.0887404739999999e+01
0.0000000000000000e+00 1.0887404739999999e+01
ITEM: ATOMS id type xu yu zu vx vy vz fx fy fz element
2 1 -0.0887038 2.71288 2.75436 -7.65393 -2.30804 2.48416 -0.161964 -0.282025 -0.734192 Si
7 1 1.26706 1.35149 1.37581 -2.69611 6.85281 -1.49471 0.292348 -0.397876 0.173862 Si
34 1 5.5012 2.76795 2.69637 2.52803 -1.70788 -0.914844 -1.47548 0.02271 0.270841 Si
36 1 5.4788 0.0724404 -0.0682519 -0.788331 3.15942 1.36101 -0.793734 -0.615293 0.274548 Si
39 1 6.74019 1.37015 1.38657 1.65971 0.726001 1.74892 1.13687 -0.302309 -0.601962 Si
38 1 8.11244 2.6521 -0.0234403 -0.64466 0.0528143 3.79942 -0.233479 1.30909 0.0340523 Si
40 1 8.23594 0.0252808 2.64639 -1.05093 -2.98212 3.24413 -1.13076 -0.916346 0.930181 Si
23 1 1.33969 6.84904 1.43454 0.562648 -0.0370554 -0.656412 0.330898 0.316038 -0.842284 Si
24 1 2.64684 5.49329 2.83344 4.48103 -0.892997 2.08937 1.29275 -0.41656 -1.3536 Si
1 1 4.03358 4.08845 1.34903 -2.08573 1.61744 2.3517 -0.151172 0.216334 1.43551 Si
55 1 6.78205 6.7393 1.23448 -3.4457 -0.951753 -1.18217 0.345719 0.0910987 0.39132 Si
33 1 9.45796 4.07504 1.36228 7.21697 1.10129 -1.30457 0.48225 -0.336666 -0.765259 Si
56 1 8.08626 5.42201 2.6246 2.50002 -1.73339 -0.650642 0.796559 0.642534 1.18815 Si
4 1 -0.0211283 -0.0801766 -0.0327628 0.124791 2.8938 3.95332 0.405653 0.831091 0.500387 Si
8 1 2.71899 0.0623578 2.77613 0.112678 -0.34188 -3.95086 0.296436 -0.225029 -0.557665 Si
18 1 0.0225657 8.21091 2.74507 -2.98192 4.09508 1.89635 -0.205371 -0.934516 1.40218 Si
17 1 4.17485 9.57412 1.4544 -3.07162 1.96606 -0.271085 -0.602287 0.375215 -1.0624 Si
50 1 5.5319 8.05315 2.65446 0.637173 -1.44692 4.38474 -0.35409 0.962375 0.251551 Si
49 1 9.60238 9.47893 1.38643 -3.94206 -5.11891 -4.62566 -1.12092 0.147442 -0.868736 Si
54 1 8.19697 8.1147 -0.0128188 2.16247 3.76926 1.70314 0.232642 0.622284 0.113921 Si
14 1 2.64426 2.6995 5.38513 6.03943 -1.72558 -6.82367 0.168099 1.16428 0.696166 Si
15 1 1.32346 1.38753 6.81241 -4.55532 0.678499 -1.46374 0.168485 0.0884919 -0.0611316 Si
3 1 4.07637 1.45442 4.08612 1.62584 -2.1125 2.02631 0.531488 -0.712878 -0.355751 Si
47 1 6.69811 1.35325 6.82031 -3.59678 3.13553 1.46918 0.496035 -0.069471 -0.455365 Si
35 1 9.52247 1.30094 4.11918 -0.339847 4.95538 1.36451 0.0526593 0.248328 0.262669 Si
46 1 8.17194 2.67902 5.50372 2.39293 2.62108 -2.01014 -0.204959 -0.0605094 -0.465535 Si
5 1 1.28522 4.05101 4.0097 -7.32055 0.682117 3.84547 0.279165 0.0730757 1.0459 Si
28 1 -0.00179558 5.39273 5.42329 1.72949 -1.97631 -4.14746 -0.029092 0.450189 0.423515 Si
31 1 1.38908 6.79608 6.80648 0.901036 2.21072 -0.842751 0.0284417 -0.141598 -0.396258 Si
9 1 4.03293 4.16477 6.73866 -0.128747 0.899284 -1.79736 -0.260437 -0.971504 0.875958 Si
19 1 4.22086 6.7754 4.07129 0.207652 0.618325 1.45492 -0.75503 -0.505683 0.0220632 Si
37 1 6.84809 4.05368 4.04661 -1.77679 -2.93978 -2.98296 0.309502 -0.0424557 0.682639 Si
60 1 5.50726 5.38695 5.43249 3.55893 2.88543 -2.64738 -0.105106 0.376584 -0.184615 Si
63 1 6.73807 6.80466 6.83013 -1.67947 2.83972 0.745024 -0.0254043 -0.0539371 0.533386 Si
41 1 9.6135 3.99254 6.83754 5.0517 -0.0262114 0.761537 -1.07602 0.944785 -0.51621 Si
51 1 9.45322 6.80257 4.13472 -1.60698 3.9031 -1.13598 0.334684 -0.325836 -1.16175 Si
21 1 1.49956 9.4592 4.10722 2.59466 1.92151 -0.229617 -0.973479 0.683499 0.31263 Si
30 1 2.85194 8.08242 5.43582 -0.549299 -0.455591 -6.91583 -0.766659 -0.246274 -0.087493 Si
44 1 5.39037 -0.0491796 5.38978 -1.61636 0.573866 -1.33454 0.493359 0.532434 -0.0843699 Si
25 1 4.10992 9.45849 6.74725 4.17527 -5.53933 4.29645 0.0623021 0.791997 0.623227 Si
53 1 6.79825 9.45947 4.05763 2.28326 3.15041 0.924177 0.486151 0.91485 -0.677012 Si
12 1 0.0505412 -0.032788 5.47586 -2.96435 -2.99771 0.10985 -0.0621636 -0.646619 -0.515603 Si
57 1 9.55495 9.46403 6.8138 3.20609 4.1663 -4.11119 -0.797103 0.619284 -0.368978 Si
62 1 8.06398 8.12223 5.48306 -1.20211 -3.21569 -1.24027 0.985368 0.524734 0.0597837 Si
6 1 2.71746 2.6728 0.0759018 4.09124 -0.698028 -3.86113 -0.821911 0.556669 -1.23517 Si
11 1 4.05276 1.43667 9.43402 -1.48733 -5.60221 2.64795 0.361017 -0.467322 1.20288 Si
42 1 5.42752 2.7822 8.17731 2.04517 -1.97858 1.83714 -0.396168 0.743007 -1.00165 Si
10 1 -0.0176165 2.7146 8.24264 1.99056 -3.201 -4.65143 0.629879 -0.504591 0.196212 Si
43 1 9.51433 1.31478 9.5717 -0.810615 2.90231 0.252058 -0.181421 0.0616184 -0.653969 Si
13 1 1.33866 4.12907 9.55071 0.49101 -0.834783 -1.49946 0.557163 -0.531683 0.692907 Si
32 1 2.73499 5.52767 8.25686 3.85922 -0.164722 3.12377 0.0241677 -0.632812 -0.721984 Si
52 1 5.39151 5.38099 0.00258211 -1.55721 -4.13939 3.09883 0.0671058 0.54234 -0.293594 Si
27 1 4.08981 6.84053 9.64469 -1.78253 2.76736 2.04281 -0.848361 0.926824 -0.10882 Si
45 1 6.78315 4.18521 9.47883 -6.7803 -2.82497 2.70922 0.813234 -1.25084 0.271165 Si
20 1 -0.00465754 5.49609 0.0341574 -4.0961 1.15071 -0.827373 -0.0373039 -0.678983 0.492418 Si
59 1 9.57846 6.80252 9.52985 4.97832 -3.00467 -1.03478 -0.24863 0.180248 -0.661108 Si
64 1 8.22395 5.471 8.09297 5.69402 1.6746 2.41788 -0.0554687 -0.163012 0.531535 Si
22 1 2.64147 8.35332 0.0332439 0.044241 0.378773 -1.2304 1.73051 -1.91799 1.21461 Si
16 1 2.81232 0.0726442 8.02597 2.26697 2.92691 -1.18108 -0.82784 -0.827599 0.7799 Si
26 1 0.0477281 8.17286 8.15239 1.14632 -6.05547 3.45745 0.380961 0.0382807 0.676334 Si
29 1 1.43306 9.61185 9.5064 -2.27956 -6.86337 1.85223 -0.631099 0.317683 -1.62123 Si
58 1 5.39739 8.2199 8.24642 -2.07725 -1.48006 -5.94995 0.667722 -0.758062 -0.371159 Si
61 1 6.87067 9.53531 9.52569 -4.43496 -3.37772 3.13189 -0.330742 0.214587 0.054621 Si
48 1 8.15195 0.0349926 8.1197 -1.35544 5.45871 0.384544 0.424041 -0.593724 0.167818 Si
ITEM: TIMESTEP
17900
ITEM: NUMBER OF ATOMS
64
ITEM: BOX BOUNDS pp pp pp
0.0000000000000000e+00 1.0887404739999999e+01
0.0000000000000000e+00 1.0887404739999999e+01
0.0000000000000000e+00 1.0887404739999999e+01
ITEM: ATOMS id type xu yu zu vx vy vz fx fy fz element
2 1 0.133646 2.80762 2.69532 1.62749 1.22726 -3.30005 -0.926858 -0.645646 0.250888 Si
7 1 1.3399 1.322 1.35384 4.10142 0.467975 1.7447 0.432918 0.28392 -0.669807 Si
34 1 5.41853 2.74417 2.74741 0.0185844 1.86897 -0.970458 1.60136 -0.391655 -0.0901939 Si
36 1 5.36619 -0.0390492 -0.0215217 1.52818 -6.05792 0.880375 1.31997 -0.574622 0.178804 Si
39 1 6.76884 1.33341 1.32066 -3.49742 -0.707549 0.400185 0.248943 0.494561 0.3125 Si
38 1 8.23846 2.73686 -0.00837306 5.54326 -0.759555 2.10587 -0.0437959 -1.02501 0.722021 Si
40 1 8.15866 0.00880274 2.73208 5.04734 4.78328 -0.0563213 -0.585727 0.652728 0.595684 Si
23 1 1.3938 6.73463 1.25654 0.517443 -4.27407 0.0780232 -0.195477 -0.0949558 0.735101 Si
24 1 2.83825 5.43447 2.71943 -2.48497 1.7586 1.14414 -1.32143 -0.136585 -0.351803 Si
1 1 4.18345 4.06783 1.38052 -3.67948 -1.36785 -1.9947 -1.27553 0.236628 -1.02312 Si
55 1 6.81786 6.88241 1.40552 3.5614 -0.45627 -0.375441 -0.557391 -0.329811 0.421621 Si
33 1 9.54953 4.09614 1.38776 -7.86414 0.595197 1.41633 -0.0588479 0.674309 0.00611708 Si
56 1 8.17683 5.54218 2.78086 2.1373 -3.38261 -2.65746 0.0876523 -1.08572 -0.402928 Si
4 1 -0.089421 0.010381 -0.057021 1.50008 -1.74224 -2.37433 1.09011 0.411447 0.433959 Si
8 1 2.67794 -0.0228789 2.76972 0.956887 -0.967243 0.677724 0.306055 -0.508021 -0.83954 Si
18 1 -0.0407755 8.18733 2.59 1.72622 -0.31562 -1.00273 0.508271 -0.221729 0.299233 Si
17 1 4.03799 9.44207 1.28353 1.36537 -2.81753 1.27705 -0.434898 0.366734 1.2312 Si
50 1 5.35818 8.16123 2.81526 -1.4591 3.60005 -1.31484 0.591765 0.320786 -0.690281 Si
49 1 9.45171 9.62958 1.33034 0.232769 2.80934 6.87006 0.480585 -1.09861 -0.090354 Si
54 1 8.20034 8.14189 0.035224 -2.36892 -3.76388 -4.0417 -1.32975 1.41093 0.44767 Si
14 1 2.70091 2.67018 5.52557 -0.43126 -5.14694 5.21925 1.46089 -0.307507 -1.0194 Si
15 1 1.37936 1.3452 6.85582 0.535717 -2.6317 -0.625825 -0.0341312 -0.546875 0.258326 Si
3 1 4.13233 1.34987 4.04993 -1.41175 0.755322 -1.06591 -1.06653 -0.280969 1.30004 Si
47 1 6.86204 1.34701 6.8108 -1.58547 0.163035 -2.16729 -0.405637 -0.0780347 0.974737 Si
35 1 9.5775 1.44679 4.04266 -0.518902 -3.6736 -0.264621 -0.522365 0.212639 -0.229792 Si
46 1 8.13306 2.7478 5.44272 -1.62223 -2.45067 1.09857 0.486524 -0.233633 -0.420764 Si
5 1 1.48556 4.056 4.11693 5.64651 1.37334 -4.73762 -0.699135 1.18096 0.238581 Si
28 1 0.00866477 5.46661 5.49066 0.169976 4.30936 -2.53342 0.771467 -0.583399 -0.966006 Si
31 1 1.31148 6.92203 6.76408 -2.17256 -1.05957 2.16438 0.2146 -0.451215 0.785512 Si
9 1 4.20499 3.9639 6.77084 0.73954 2.50152 -2.2283 -1.07905 1.09602 0.191703 Si
19 1 3.9854 6.82174 4.1504 -1.00225 -0.558903 1.97156 0.29384 0.667943 -0.462457 Si
37 1 6.78785 4.13731 4.13391 0.547571 2.90741 0.50223 -0.170482 0.174096 -0.767368 Si
60 1 5.38238 5.52854 5.41353 -2.56721 -4.11417 2.60381 0.66953 -1.18642 0.770445 Si
63 1 6.78375 6.77851 6.80837 -2.12376 -1.18797 -1.43304 0.688554 0.0420298 -0.471924 Si
41 1 9.49704 4.08949 6.75911 -1.0898 -0.249931 -1.18148 -0.0513865 0.374599 0.921811 Si
51 1 9.62619 6.81448 4.08525 -0.980558 -3.39502 3.08761 -0.874099 0.816264 0.169277 Si
21 1 1.20052 9.55014 4.09613 1.21986 0.483579 1.63762 1.18737 -0.145371 -0.929394 Si
30 1 2.67369 8.28285 5.41633 -1.75448 -0.352752 4.91727 -0.602276 -0.497062 0.122945 Si
44 1 5.43775 0.000693008 5.53689 2.71985 -2.54929 -1.87344 -0.00871132 0.208891 -0.816857 Si
25 1 4.0294 9.53644 6.82066 -4.61148 -0.550988 -2.03287 0.422209 -0.295806 0.661942 Si
53 1 6.7836 9.52807 4.15699 -1.05684 2.15994 0.453367 0.143108 0.0882183 -0.354255 Si
12 1 0.0161511 0.109575 5.4105 1.56125 3.92538 -1.59997 -0.938433 -0.665345 1.12804 Si
57 1 9.54437 9.5464 6.8414 3.38364 -3.61639 1.46949 0.449322 0.502421 -0.670002 Si
62 1 8.20425 8.18965 5.49463 -2.31429 1.56965 -2.60813 -0.0948364 -0.656969 -0.426338 Si
6 1 2.73392 2.71783 -0.0585533 1.09722 1.39407 5.6501 0.179618 -0.118859 0.874113 Si
11 1 4.11332 1.3107 9.52889 0.337266 2.5706 -3.29737 -1.5077 -0.219323 0.269831 Si
42 1 5.42299 2.63753 8.25568 1.104 1.66475 0.29126 1.78808 0.598566 -0.780912 Si
10 1 0.00786414 2.7397 8.10393 -0.549018 2.49517 5.601 -0.0213687 0.21613 -0.629877 Si
43 1 9.60817 1.43355 9.43787 -1.60175 1.39152 7.23193 -1.2095 -0.550596 0.83543 Si
13 1 1.34356 4.03677 9.43783 -2.19519 2.04058 0.490645 0.895638 0.791503 -0.136815 Si
32 1 2.72972 5.42989 8.00789 0.533004 0.769999 1.64044 0.272188 -0.172864 0.806649 Si
52 1 5.46388 5.50283 0.0320436 -2.23651 -0.3349 -4.33822 0.849781 -0.753337 0.0774577 Si
27 1 4.1759 6.74993 9.44702 3.71892 1.07286 -2.21466 -1.26516 -0.779922 -0.231233 Si
45 1 6.84127 4.02296 9.63034 9.35408 3.58407 -2.99078 -1.03764 0.812229 -0.940288 Si
20 1 -0.0166682 5.39032 -0.109781 -1.81798 -4.43869 -2.5647 0.0064266 0.273369 0.887778 Si
59 1 9.45215 6.85662 9.61051 -5.57188 1.29948 3.87515 0.669029 -1.61948 -1.30216 Si
64 1 8.11883 5.43324 8.21515 -3.22567 1.15405 -4.52068 0.418636 -0.131289 -0.135443 Si
22 1 2.76654 8.03488 -0.11224 2.22676 4.15923 -3.4848 -0.619217 0.94149 0.102937 Si
16 1 2.67246 -0.0859587 8.27967 -1.40667 1.60127 -2.83737 0.574164 1.1106 -1.28253 Si
26 1 -0.0960761 8.17126 8.2479 -4.88959 1.29504 -4.65198 0.740885 -0.0240509 -0.758232 Si
29 1 1.3055 9.50722 9.54155 6.01833 0.891864 0.47664 -0.0837143 -0.892713 0.855145 Si
58 1 5.44702 8.08176 8.11802 -1.35902 2.29991 8.02105 -0.0362369 1.53071 -0.0228456 Si
61 1 6.80017 9.45569 9.51564 1.26424 -0.813139 0.300487 -0.0339553 0.318047 0.18011 Si
48 1 8.22864 -0.0297331 8.20675 -0.59136 -3.20671 -1.95782 -0.758203 0.494636 -0.134689 Si
ITEM: TIMESTEP
18000
ITEM: NUMBER OF ATOMS
64
ITEM: BOX BOUNDS pp pp pp
0.0000000000000000e+00 1.0887404739999999e+01
0.0000000000000000e+00 1.0887404739999999e+01
0.0000000000000000e+00 1.0887404739999999e+01
ITEM: ATOMS id type xu yu zu vx vy vz fx fy fz element
2 1 -0.0944526 2.66995 2.72681 -1.3189 1.90487 -3.72832 1.45283 -0.274226 -0.203014 Si
7 1 1.41457 1.29394 1.32753 -1.50958 -4.42818 2.27943 -0.642171 0.701672 1.47964 Si
34 1 5.43299 2.75629 2.74453 0.651591 0.212481 1.39132 -0.349119 -0.755056 -0.366284 Si
36 1 5.50546 0.0384883 -0.00855926 0.952705 -0.270598 -0.458852 -0.473922 0.890411 0.377676 Si
39 1 6.94632 1.41364 1.37381 5.92445 -0.753183 -3.66593 -2.06014 -0.2969 0.157454 Si
38 1 8.16184 2.7357 -0.0423084 -3.21685 5.46379 -1.95533 0.225925 0.418945 -1.01061 Si
40 1 8.15101 -0.0634072 2.69417 -6.12328 -0.928984 -2.14305 1.46306 0.173926 -0.732685 Si
23 1 1.38407 6.8615 1.46685 2.11856 2.85425 -2.47273 -0.630819 0.199009 -0.447874 Si
24 1 2.71394 5.40805 2.68998 1.85425 -0.603821 -1.36662 -0.381839 0.636015 0.574863 Si
1 1 4.04757 4.13112 1.36985 2.61673 0.248281 1.02653 0.937757 -0.846936 -0.419546 Si
55 1 6.88393 6.78041 1.30685 1.17517 -0.261541 2.05579 -0.391272 -0.0314446 0.0534862 Si
33 1 9.5243 4.04604 1.31869 0.378891 -1.54699 -0.366157 -0.738143 -0.16776 0.788617 Si
56 1 8.12079 5.32586 2.71379 -0.786605 2.69086 1.23888 0.264714 0.806426 -0.553658 Si
4 1 0.0311892 -0.0134627 0.0309502 -1.06299 1.82058 -2.85844 -0.369604 -0.435357 -0.780493 Si
8 1 2.75955 -0.0559263 2.74486 -1.36551 1.99813 3.0274 -0.396068 1.13498 0.513475 Si
18 1 -0.0211549 8.17783 2.87711 0.517115 -3.72742 0.538784 0.231378 -0.0632637 -1.27936 Si
17 1 4.1114 9.61454 1.37296 -0.287899 3.44506 0.949829 0.784514 -0.82717 -0.282157 Si
50 1 5.4458 8.10516 2.63078 0.804848 -0.612379 -3.48656 0.0475069 0.241634 0.275864 Si
49 1 9.54627 9.43543 1.28809 -1.69607 3.69417 -2.04343 0.625094 1.24971 1.84177 Si
54 1 8.17508 8.24716 -0.0318184 0.44132 0.814206 -4.02295 0.520848 -2.34803 -0.655404 Si
14 1 2.66922 2.83685 5.42343 -5.15853 3.76171 3.49679 -0.542677 -0.596503 0.654261 Si
15 1 1.35523 1.35755 6.82049 1.73768 0.193347 -0.190068 0.243103 0.587501 -1.20445 Si
3 1 4.00012 1.40365 4.16588 0.291946 -1.36956 -2.26709 0.586398 0.24882 -1.37334 Si
47 1 6.81993 1.37737 6.797 2.82081 -4.68199 0.513361 0.118415 -0.0423207 -0.632192 Si
35 1 9.51743 1.23692 4.11424 3.02324 -2.39786 0.743024 0.254482 0.115226 -0.125288 Si
46 1 8.17557 2.6926 5.37312 -1.41022 -0.2775 -2.90635 -0.0323251 0.38989 1.07276 Si
5 1 1.29618 4.15776 4.0489 -1.60537 -6.55966 1.34168 -0.078676 -1.3957 -0.445755 Si
28 1 -0.0279801 5.38035 5.46066 -0.921293 1.7832 7.60637 -0.694451 1.10919 0.434396 Si
31 1 1.416 6.78338 6.78046 3.88071 0.387062 1.62306 -0.379423 -0.671655 0.365243 Si
9 1 4.03189 4.15271 6.8066 -2.94309 -0.145054 1.6487 -0.0532043 0.0799625 -0.134327 Si
19 1 4.10425 6.71084 4.02216 2.9885 -1.63072 -3.10657 0.225142 0.632407 -0.0304418 Si
37 1 6.7469 4.09079 4.10139 4.64716 0.65448 0.553937 0.596761 -0.716537 -0.0366294 Si
60 1 5.44267 5.42832 5.42942 0.530001 0.900729 -0.48956 -0.238288 0.330886 0.441381 Si
63 1 6.82418 6.78674 6.76851 0.642531 -0.872422 6.65053 -0.242924 0.611462 0.438052 Si
41 1 9.49407 4.04641 6.91455 -3.0732 0.714483 0.0474725 0.295837 -0.393792 -1.50247 Si
51 1 9.43334 6.74782 4.04192 -1.41083 -2.71119 -2.07795 0.895767 -0.555974 0.8241 Si
21 1 1.46689 9.49067 4.16227 -3.41784 2.32146 2.18295 -0.897599 0.0462836 0.0158109 Si
30 1 2.80232 8.06845 5.4266 2.01023 3.03932 -0.0543829 0.565653 0.794831 0.530299 Si
44 1 5.43678 0.0776682 5.40844 -3.12428 0.46049 2.85879 0.546771 -1.17151 0.0611463 Si
25 1 4.11254 9.582 6.83315 5.02619 2.15323 -0.0843692 -0.269895 -0.33308 -0.984667 Si
53 1 6.81209 9.51549 3.95504 -0.404036 -4.47762 0.340622 -1.03806 -0.428199 1.67209 Si
12 1 0.0306728 -0.0775532 5.54423 3.92259 1.2374 1.37598 0.748443 0.989629 -1.70646 Si
57 1 9.53437 9.55011 6.74664 -1.47351 1.9507 0.862569 -0.817017 -1.09015 1.89087 Si
62 1 8.17838 8.15018 5.39839 0.60686 -0.044046 4.18901 -0.608721 0.449614 -0.127042 Si
6 1 2.71701 2.72886 0.0413314 -7.85979 -0.883261 -1.16906 0.233811 -0.215906 0.123738 Si
11 1 4.01475 1.39011 9.51932 -1.69021 1.20221 1.15481 1.60277 0.438755 -0.453435 Si
42 1 5.44662 2.77367 8.01758 -4.80955 4.41134 -2.50097 -1.02336 -0.691446 1.49927 Si
10 1 -0.00237447 2.61074 8.15105 3.4399 -2.26387 -3.4646 -0.0369169 1.28871 1.23207 Si
43 1 9.53871 1.30947 9.53655 -1.15917 -0.732354 -7.096 -0.161825 0.240632 0.340825 Si
13 1 1.31489 4.02157 9.6511 4.84348 1.45642 0.45842 -0.8505 0.780024 -0.770353 Si
32 1 2.69241 5.43177 8.29206 -2.48452 2.27217 -8.33168 -0.367947 0.0168775 -0.572021 Si
52 1 5.44913 5.45044 -0.0121966 -0.0661457 1.89654 2.1996 -0.400746 0.280303 -0.252014 Si
27 1 4.00596 6.87151 9.58942 -3.29607 -1.14834 -2.82087 1.19748 -0.0214842 -0.254396 Si
45 1 6.74149 4.10748 9.41871 0.273073 -2.25246 4.98276 0.880331 -0.0104735 0.895617 Si
20 1 -0.0766309 5.51244 0.1265 1.31776 0.000165401 3.8991 1.31623 -0.0268573 -1.24065 Si
59 1 9.58812 6.81704 9.43305 2.27518 -0.00325368 -1.19641 -0.171292 0.996814 1.71142 Si
64 1 8.21152 5.50224 8.185 -2.51584 -0.896733 4.92881 -1.03761 -0.65523 -0.500774 Si
22 1 2.72887 8.26003 0.0794668 -0.745456 -1.0768 3.60388 -0.730957 -0.0238294 -0.499838 Si
16 1 2.70367 0.0734029 8.11394 -2.62072 -7.32639 0.447715 0.407722 -0.808533 0.704188 Si
26 1 0.100287 8.18171 8.13701 5.20016 0.411928 2.956 -0.958 0.109701 -0.838869 Si
29 1 1.36426 9.5776 9.46887 -1.90844 3.96211 -3.32802 0.662736 -0.0343469 0.916975 Si
58 1 5.45797 8.22083 8.16977 3.05501 -1.83465 -1.84566 -0.0651855 -0.933063 0.295601 Si
61 1 6.8146 9.52656 9.58343 1.62226 0.402166 -4.57375 -0.411222 0.597652 -1.05954 Si
48 1 8.12253 0.0244738 8.20693 -0.125119 -4.00051 2.89781 0.610452 -0.725175 -0.706925 Si
ITEM: TIMESTEP
18100
ITEM: NUMBER OF ATOMS
64
ITEM: BOX BOUNDS pp pp pp
0.0000000000000000e+00 1.0887404739999999e+01
0.0000000000000000e+00 1.0887404739999999e+01
0.0000000000000000e+00 1.0887404739999999e+01
ITEM: ATOMS id type xu yu zu vx vy vz fx fy fz element
2 1 0.0292397 2.74069 2.76723 -1.0044 -2.81358 2.46661 -1.06841 1.21131 0.326338 Si
7 1 1.29546 1.49503 1.35274 -1.84092 -0.383714 -2.05033 0.520939 -1.07117 -1.09485 Si
34 1 5.45054 2.71991 2.69168 -1.38722 -1.76276 1.36852 -0.691538 0.429811 0.705676 Si
36 1 5.4489 -0.0783483 0.0155276 0.780124 0.721134 -0.902461 -0.610742 -0.193508 -0.283267 Si
39 1 6.68243 1.32293 1.38098 -0.57792 7.08932 0.375537 1.94282 -0.183004 -0.181677 Si
38 1 8.15822 2.6875 0.0661101 0.935857 -4.7659 2.38642 -0.744885 0.33322 0.476547 Si
40 1 8.21814 0.0254961 2.7339 0.135351 2.34938 6.51821 -1.14363 0.046838 0.213413 Si
23 1 1.35829 6.73523 1.39075 -4.63223 1.10004 -0.954539 -0.104124 0.672998 -0.840836 Si
24 1 2.73312 5.51589 2.76415 -0.639882 0.319697 -1.83791 0.376373 -0.859612 0.0117585 Si
1 1 4.00589 4.07724 1.40704 6.52178 -0.244575 0.111099 1.01592 0.369481 0.247262 Si
55 1 6.72897 6.79965 1.46976 -1.7652 -1.07326 1.42192 0.0790543 0.102905 -0.566107 Si
33 1 9.46076 4.14834 1.39653 2.50858 -1.41793 0.272433 1.86873 -1.02087 -0.873562 Si
56 1 8.18768 5.48832 2.69465 -3.32702 -0.174049 -1.1036 -0.270836 0.53342 0.649771 Si
4 1 0.0012694 0.0159862 -0.00914561 2.46008 3.42536 3.87091 -0.199843 0.167278 0.502177 Si
8 1 2.68459 0.0646856 2.55635 -0.699987 -0.282942 -3.99204 0.543771 -0.245784 0.700096 Si
18 1 0.0458483 8.20328 2.62031 -1.26494 3.12653 1.035 -0.350662 -0.318207 0.976127 Si
17 1 4.07489 9.42579 1.39309 -0.238149 -3.46519 -0.163263 -0.222712 0.961654 -0.5384 Si
50 1 5.42312 8.19812 2.84342 0.772666 -3.29838 4.21356 0.440185 -0.0772917 -0.591022 Si
49 1 9.53106 9.53187 1.36606 5.37172 -6.44007 -7.72428 -0.52887 -0.098801 -0.893133 Si
54 1 8.07591 8.09951 0.0389765 -4.60163 2.05629 7.83379 0.47471 1.05362 0.304372 Si
14 1 2.82471 2.59679 5.48775 6.42891 -2.19642 -4.1124 -0.302243 1.08226 -1.39632 Si
15 1 1.34976 1.33082 6.67716 0.821872 0.385046 -1.52635 -0.267886 0.461308 1.59409 Si
3 1 4.09435 1.28681 4.00462 -2.47615 2.58173 5.71911 0.552166 -0.055799 0.470439 Si
47 1 6.79909 1.37425 6.83852 2.8645 -0.388436 2.49171 -0.305793 -0.000288404 -0.212216 Si
35 1 9.48388 1.42903 4.14003 4.32349 8.17967 -0.511409 0.0895334 0.230994 -0.0851841 Si
46 1 8.0946 2.83748 5.51638 2.64662 0.913202 -2.70518 0.493706 -0.985302 -0.947781 Si
5 1 1.48234 4.06907 4.10899 -0.0733946 1.86637 3.71986 -0.563857 -0.129176 0.368328 Si
28 1 0.0246092 5.52245 5.34933 3.05681 -4.24737 -4.32784 0.439073 -1.22257 0.608598 Si
31 1 1.31976 6.77617 6.84063 0.445881 0.178471 0.268453 0.372633 0.576592 -0.526074 Si
9 1 4.11783 4.07027 6.74564 -1.35089 -2.85111 -1.34851 0.829337 -1.19042 0.650208 Si
19 1 4.10631 6.82756 4.11223 -0.368783 4.41627 5.27244 -0.502299 -0.209428 0.845549 Si
37 1 6.85193 4.13237 3.99963 -5.65076 1.12841 -4.2527 -0.58249 -0.613259 0.518604 Si
60 1 5.47651 5.38366 5.42315 -0.463556 2.31896 0.978273 -0.206579 0.734015 -0.610186 Si
63 1 6.79206 6.74858 6.77546 -0.948428 3.2273 -6.31424 0.272441 0.180387 0.456667 Si
41 1 9.58437 4.11098 6.73662 3.01171 -0.38225 2.12192 0.106379 0.260462 0.860998 Si
51 1 9.56944 6.83329 4.02173 0.87822 0.793215 -3.96654 -0.325309 0.802285 -0.137838 Si
21 1 1.35645 9.64147 3.94468 3.31026 -0.936097 -3.39174 -0.0478133 -0.874881 0.72777 Si
30 1 2.62697 8.18643 5.40916 -1.68527 -1.18198 0.217835 0.11433 -0.102875 -0.153105 Si
44 1 5.48884 -0.0760357 5.44946 -2.5047 1.2974 -1.88413 -1.39995 1.11405 0.759186 Si
25 1 3.99623 9.47756 6.81578 -0.706059 -2.38858 4.42397 0.75134 0.494319 -0.112151 Si
53 1 6.82103 9.5488 4.15064 -3.40263 -0.155031 -3.01054 1.03943 -0.5194 -0.934296 Si
12 1 -0.00187524 0.0228759 5.39626 -6.49769 -1.29951 2.46042 -0.946016 -0.723663 0.106377 Si
57 1 9.51051 9.56273 6.9136 1.3708 3.6201 -1.0991 0.176817 -0.188057 -2.01982 Si
62 1 8.16793 8.12912 5.46251 1.47899 0.948874 -1.90752 0.608181 0.490582 0.213108 Si
6 1 2.76923 2.75246 0.014643 2.41349 0.292144 -0.694828 -0.917537 -0.138677 -1.35329 Si
11 1 4.11265 1.30664 9.51768 -0.256606 -6.57406 0.516111 -0.696518 0.127319 0.441673 Si
42 1 5.46165 2.71782 8.24539 4.74873 0.969914 0.682715 -0.253337 0.187251 -0.947944 Si
10 1 0.0410509 2.70104 8.15578 -3.20619 -3.10915 -1.03952 -0.660698 -0.181227 -0.605893 Si
43 1 9.46647 1.37848 9.59302 0.414159 -1.53947 3.63013 1.13787 -0.00638157 -0.945098 Si
13 1 1.42956 4.13212 9.37255 -1.80867 1.13043 -2.51845 0.199003 -1.02157 1.5132 Si
32 1 2.82371 5.401 8.06204 2.40995 -4.25492 5.01048 -0.39567 1.35771 0.528273 Si
52 1 5.47047 5.35869 0.0816838 7.20024 1.20141 0.0489004 -0.647192 0.89027 -0.335814 Si
27 1 4.13663 6.78594 9.52837 1.19684 -0.786822 -0.400978 -0.356433 -0.0270713 0.389745 Si
45 1 6.83179 4.05608 9.58212 -2.46951 -0.926166 0.396154 0.0102742 -0.183751 0.0304662 Si
20 1 0.0676629 5.42423 -0.07253 -3.64157 0.986942 0.200381 -0.883795 -0.212786 0.642494 Si
59 1 9.47735 6.80708 9.58667 3.5389 -0.807227 -3.47226 0.144096 -0.576267 -0.849302 Si
64 1 8.14618 5.38286 8.15921 1.69119 1.82123 -1.20355 0.614304 0.574423 0.123498 Si
22 1 2.63757 8.16441 0.0262555 -0.21458 -3.03312 -2.46109 1.69347 -1.57535 0.181095 Si
16 1 2.63257 0.0374917 8.1226 -1.73476 3.33033 -1.68008 0.562841 -0.986782 0.799255 Si
26 1 -0.058091 8.16746 8.183 -2.31961 1.30237 0.910259 0.574178 -0.404237 0.894111 Si
29 1 1.35873 9.46841 9.60311 -5.17981 -4.70376 -0.0695155 -0.801614 1.2818 -1.65689 Si
58 1 5.50288 8.17983 8.15814 -3.75457 2.2774 -4.08928 -0.782366 -0.385013 -0.266786 Si
61 1 6.84207 9.54837 9.48766 -2.47544 -1.93236 1.70526 -0.189297 -0.497461 0.769155 Si
48 1 8.16522 0.037249 8.17988 1.4314 4.46124 4.06779 -0.0729603 0.351364 0.352422 Si
ITEM: TIMESTEP
18200
ITEM: NUMBER OF ATOMS
64
ITEM: BOX BOUNDS pp pp pp
0.0000000000000000e+00 1.0887404739999999e+01
0.0000000000000000e+00 1.0887404739999999e+01
0.0000000000000000e+00 1.0887404739999999e+01
ITEM: ATOMS id type xu yu zu vx vy vz fx fy fz element
2 1 0.0660582 2.70092 2.65083 0.868294 1.07112 3.00691 -0.506417 -0.944448 0.0899208 Si
7 1 1.43401 1.18215 1.36956 -6.09714 3.82317 2.04416 -0.280031 0.933852 0.426154 Si
34 1 5.45764 2.78476 2.76351 0.920492 -2.55016 3.01198 0.499958 -0.516972 -0.713773 Si
36 1 5.42065 0.00275527 0.00892373 1.71484 1.64589 1.16608 0.241236 0.696325 -0.230707 Si
39 1 6.78157 1.42317 1.288 -6.22158 -0.437398 3.59145 0.168498 0.107014 0.539423 Si
38 1 8.19125 2.73526 -0.111885 5.2578 -0.0136235 -3.58507 0.202282 -0.595043 0.939352 Si
40 1 8.12312 0.0462103 2.67494 8.10932 -1.47755 -8.69954 0.407395 -0.78435 0.620962 Si
23 1 1.32956 6.8883 1.31218 -0.56015 -1.43566 4.98415 1.19521 -1.6141 0.382644 Si
24 1 2.72635 5.44237 2.67549 -1.38778 0.50543 8.00038 -0.209247 -0.17332 -0.115244 Si
1 1 4.17933 4.06868 1.31924 -3.57751 0.310737 -0.836821 -1.52701 0.220884 0.0315734 Si
55 1 6.84084 6.8022 1.3482 -3.05274 -0.427551 -4.5981 0.318396 -0.355132 -1.1415 Si
33 1 9.52269 4.06931 1.34413 -3.69916 0.750256 -1.44658 -0.221816 0.547314 0.315257 Si
56 1 8.13969 5.4851 2.79522 1.02844 -1.91135 -5.75212 0.136509 -1.08444 -0.359802 Si
4 1 0.0135866 -0.0434255 -0.0495446 -4.26622 -3.91472 -6.03082 -0.198436 0.326327 0.920579 Si
8 1 2.78114 -0.0408845 2.91437 3.13464 4.59237 4.11248 -0.901309 -0.686458 -0.927216 Si
18 1 0.00736467 8.02751 2.74534 0.221955 1.83847 0.262901 -0.589597 1.66533 0.360001 Si
17 1 4.07847 9.55746 1.37521 3.97267 -1.14826 2.5447 -0.277302 -0.41386 -0.0713469 Si
50 1 5.48211 8.1299 2.57537 -0.278892 -2.9268 -5.31614 -0.677604 0.457247 1.2563 Si
49 1 9.62232 9.51415 1.41542 -0.20826 2.6537 4.69495 -1.09455 -0.152927 -0.471477 Si
54 1 8.20032 8.19251 -0.0367563 0.931137 -7.90765 -3.09424 -0.0961337 0.441946 0.866275 Si
14 1 2.66035 2.83023 5.47664 -0.649842 0.745258 -2.37084 0.758212 -1.31152 0.15929 Si
15 1 1.36611 1.46416 6.89848 -0.175195 0.66115 -1.81593 0.267394 -1.1927 -0.179663 Si
3 1 4.08774 1.48002 4.10119 0.383372 2.12437 -4.15507 -0.37058 -0.261321 0.8683 Si
47 1 6.80383 1.33991 6.81997 -4.13436 3.07618 -4.07129 0.350618 -0.127314 -0.11496 Si
35 1 9.59093 1.33545 4.09088 -2.68351 -6.36774 0.846734 -0.273495 0.0641111 -1.38877 Si
46 1 8.22383 2.60704 5.42514 -2.61707 4.40583 3.36705 -0.745681 1.17503 0.571556 Si
5 1 1.32859 4.02058 4.07581 0.859463 -5.1466 -3.0597 -0.105544 1.93792 -0.357273 Si
28 1 -0.0438804 5.44285 5.48356 -2.43161 1.33778 -3.11296 0.34258 -0.141965 -0.848585 Si
31 1 1.31961 6.80354 6.81871 -0.744569 0.566037 -4.29671 0.505316 0.0214189 -0.491006 Si
9 1 4.05277 4.08252 6.84232 -0.247261 5.6868 -5.63752 -0.835416 1.06349 -0.257259 Si
19 1 4.14722 6.80608 4.0066 3.38896 -1.69744 -4.41797 -0.78645 -0.0401068 -0.188627 Si
37 1 6.77589 4.06009 4.18614 1.26567 -1.41592 1.01978 0.710343 0.414126 -0.357619 Si
60 1 5.34289 5.44835 5.45265 -0.969475 -6.51774 -2.11639 1.11148 0.0474444 0.455389 Si
63 1 6.7419 6.84336 6.82578 -1.09769 -3.38318 0.267901 0.279834 -0.327663 -0.508696 Si
41 1 9.51307 4.0651 6.78913 -0.248373 -3.19787 -1.25009 -0.465829 -0.120909 0.295455 Si
51 1 9.4779 6.8492 4.14108 -2.05569 2.27853 3.26644 0.273006 -1.01692 -0.0822565 Si
21 1 1.25837 9.39783 4.18111 2.54971 -0.932561 3.51393 1.46034 0.784278 -0.40809 Si
30 1 2.78787 8.09975 5.45263 3.50797 -0.775708 1.07109 -0.508795 0.240713 0.0138463 Si
44 1 5.41606 0.0592801 5.44434 -0.887632 -1.148 -1.37841 0.607776 -0.253474 -0.816656 Si
25 1 4.1303 9.56273 6.75184 -5.47098 -0.781885 -4.48072 -0.4007 -0.81341 1.17149 Si
53 1 6.72971 9.44935 4.05498 2.54601 -0.47126 3.39495 0.372462 1.6697 -0.379966 Si
12 1 0.0179364 0.0475072 5.46875 4.45914 -2.37582 -1.11811 0.279709 -0.561616 0.767156 Si
57 1 9.52383 9.47359 6.7433 -3.19718 -5.46559 2.25658 0.523677 0.72022 0.053101 Si
62 1 8.13031 8.20559 5.42885 -0.477949 -1.19814 1.95626 -0.638793 -0.651102 0.318713 Si
6 1 2.70357 2.64003 0.0193177 1.66699 -1.59205 3.49422 0.607925 0.693343 0.594514 Si
11 1 4.15053 1.45349 9.53183 -0.158868 4.3589 -3.93231 -0.538974 -1.18152 0.00649646 Si
42 1 5.41519 2.75614 8.10112 -3.30264 -0.980516 0.238005 1.16575 -0.137496 0.732817 Si
10 1 -0.0771161 2.74423 8.22953 -0.706672 -0.400411 6.94744 0.636961 0.14174 -0.149955 Si
43 1 9.53354 1.27671 9.47933 2.05943 1.14001 4.15512 -0.381136 0.281819 0.242782 Si
13 1 1.30048 4.04263 9.6525 -3.43841 -2.604 0.19039 0.493081 0.38556 -1.19909 Si
32 1 2.63218 5.46301 8.17889 3.58989 4.1611 0.846267 0.173148 -1.09272 0.524523 Si
52 1 5.43262 5.48124 -0.0641014 -3.62534 3.76189 0.493927 0.887273 -0.501406 0.357191 Si
27 1 4.04185 6.77952 9.49712 5.29068 1.47848 4.46753 0.142165 0.185321 -0.0389413 Si
45 1 6.835 4.07343 9.4976 -1.17013 4.1622 -0.0409442 -0.808732 0.648304 -0.655164 Si
20 1 0.00970408 5.49087 0.0252173 0.397996 -1.534 -0.105433 -0.832422 -0.147455 -0.0160507 Si
59 1 9.52918 6.84035 9.5175 -4.02285 2.74733 5.47844 0.315183 -0.362901 -0.464766 Si
64 1 8.15575 5.47136 8.13531 0.454976 -2.42675 0.602745 0.0964277 -0.0448179 0.0734158 Si
22 1 2.75685 8.13386 -0.0256922 -1.55463 6.74054 -1.16784 -0.677954 1.54818 -0.101064 Si
16 1 2.80709 -0.0229134 8.23965 2.68235 0.118821 -0.946287 -0.236888 1.3963 -1.19206 Si
26 1 0.0108549 8.19117 8.12146 1.49329 3.38925 -3.73252 -0.181905 0.123273 0.658251 Si
29 1 1.35216 9.60554 9.49594 5.93233 5.55654 4.44021 0.71865 -1.99422 0.109555 Si
58 1 5.44483 8.16963 8.24334 -1.44732 -0.0431968 5.98984 -0.269105 0.731298 -0.804229 Si
61 1 6.82157 9.60488 9.529 4.78367 -0.362391 -1.25606 -0.089717 -1.0195 0.19409 Si
48 1 8.2103 -0.0903452 8.10485 3.39318 -0.71864 -1.90243 -0.521218 0.953278 0.115438 Si
ITEM: TIMESTEP
18300
ITEM: NUMBER OF ATOMS
64
ITEM: BOX BOUNDS pp pp pp
0.0000000000000000e+00 1.0887404739999999e+01
0.0000000000000000e+00 1.0887404739999999e+01
0.0000000000000000e+00 1.0887404739999999e+01
ITEM: ATOMS id type xu yu zu vx vy vz fx fy fz element
2 1 -0.0664161 2.73304 2.74366 4.50914 6.54203 -4.84447 1.16447 0.126 0.401403 Si
7 1 1.31855 1.43673 1.29811 4.84618 -6.13584 -2.40088 0.243522 0.00763478 0.613606 Si
34 1 5.41841 2.63368 2.7095 -0.795691 8.11708 -1.04334 0.411825 0.541915 -0.37267 Si
36 1 5.39743 0.0362722 -0.0724979 -2.951 -3.8528 0.470708 0.969574 -0.625083 1.03165 Si
39 1 6.87541 1.2839 1.3631 6.10836 -3.25651 -1.94555 -1.36086 0.0992151 -0.0551795 Si
38 1 8.14292 2.68916 -0.000621964 -1.67069 1.67751 0.132176 0.433514 0.85241 -0.378361 Si
40 1 8.1094 -0.0994537 2.78993 -6.2048 -2.14972 -2.07878 1.53405 0.717733 -1.13693 Si
23 1 1.42676 6.80467 1.36754 6.23952 0.0347278 -4.09462 -0.957975 0.564907 0.317295 Si
24 1 2.66669 5.42246 2.76689 5.51138 -2.17995 -1.6847 0.680355 0.526053 0.224259 Si
1 1 4.0407 4.09412 1.39268 3.13622 5.14523 3.47422 0.255734 -0.408601 -0.377428 Si
55 1 6.77231 6.84701 1.29069 6.00595 1.17304 3.35524 0.411894 -0.0389879 1.61234 Si
33 1 9.60051 4.08008 1.34335 -0.708076 -0.438457 5.5104 -1.77323 0.220211 0.148464 Si
56 1 8.15821 5.48574 2.73146 -3.62705 3.1515 5.79014 0.345055 -0.41072 -0.501425 Si
4 1 -0.0617875 0.102024 -0.0110684 0.40189 -1.50074 2.0646 0.548732 -1.06007 -0.543135 Si
8 1 2.70551 0.010479 2.63957 -3.34372 -4.0678 3.01634 0.136621 0.672579 0.325795 Si
18 1 -0.0441924 8.19943 2.72684 0.758672 0.489261 -6.55222 0.765697 -0.69174 -1.11053 Si
17 1 4.09025 9.5442 1.31239 -7.92334 0.955887 -2.53253 0.512445 0.18278 0.703351 Si
50 1 5.42892 8.17158 2.75863 3.09577 -0.936479 1.63132 -0.0872574 -0.0552544 -0.334944 Si
49 1 9.51401 9.5175 1.27533 -7.17537 1.23109 -4.18853 0.0530083 0.945971 1.65357 Si
54 1 8.15047 8.21749 0.029812 4.31634 5.5938 6.54229 0.352387 -1.43291 -1.82362 Si
14 1 2.79958 2.69714 5.38232 -2.38392 1.01242 3.97663 -1.80178 0.216134 0.963725 Si
15 1 1.39932 1.29656 6.82338 1.84393 1.24653 6.10777 -0.560607 0.44587 -0.891725 Si
3 1 4.10151 1.33461 4.11893 0.929922 -2.12816 -0.129103 -0.577043 -0.34847 -1.71672 Si
47 1 6.8377 1.3847 6.84646 3.72702 -3.01321 3.89771 -0.947561 0.126375 -0.401399 Si
35 1 9.46718 1.37725 4.09034 -1.92351 4.1107 -0.457887 -0.00180447 -0.902099 0.64329 Si
46 1 8.09214 2.75186 5.46268 0.50769 -3.4995 -1.24497 0.948095 -0.367208 -0.060557 Si
5 1 1.30676 4.15654 4.1611 3.73144 1.43685 -0.305672 0.562897 -1.9164 -0.913241 Si
28 1 0.0170166 5.44 5.49668 2.90572 -1.85864 3.99057 -0.32249 0.517458 0.929349 Si
31 1 1.42729 6.86075 6.78879 -0.320499 2.75519 2.03884 -0.680732 -0.339709 0.584811 Si
9 1 4.08649 4.01854 6.78911 3.4464 -7.08293 1.14438 0.928497 0.715523 -0.525511 Si
19 1 4.02634 6.82606 4.1519 -6.7973 -2.34368 4.03486 0.646307 -0.429139 -0.634475 Si
37 1 6.793 4.02729 4.05271 -2.0863 2.10455 0.979655 -0.25095 0.721484 -0.375369 Si
60 1 5.52023 5.44712 5.44628 -0.330883 6.09889 -1.25055 -0.797772 -0.201402 0.0649944 Si
63 1 6.94698 6.8032 6.76535 -1.40786 -2.98809 3.77632 -0.966208 -0.380895 0.909859 Si
41 1 9.48044 4.07088 6.83477 0.518037 3.08745 -0.797921 0.45802 -0.0109063 -0.779686 Si
51 1 9.622 6.78576 4.11627 -0.130058 -2.58067 -0.455667 -0.687358 -0.142428 -0.485495 Si
21 1 1.35062 9.53924 3.98787 -3.76941 0.100572 0.837954 -0.422513 0.466636 0.595636 Si
30 1 2.67455 8.25953 5.39511 -0.717091 3.55581 -5.28788 0.851546 -0.084007 0.814669 Si
44 1 5.4559 0.0693842 5.41764 -0.310588 -0.128091 4.76602 0.846185 -1.54167 1.26409 Si
25 1 4.12586 9.52606 6.86471 -1.78499 3.56304 1.60052 -0.621261 0.56107 -1.53077 Si
53 1 6.8636 9.46837 4.13473 -0.034911 1.36434 -1.7619 -0.894104 -0.356127 0.778327 Si
12 1 -0.0630305 -0.124361 5.47726 3.10299 4.23144 1.11332 1.24269 2.15776 -1.18659 Si
57 1 9.52313 9.54602 6.82645 2.84011 3.89822 1.64567 -0.0369882 -0.675039 1.38235 Si
62 1 8.32979 8.12944 5.48621 -0.901077 0.476272 0.484401 -1.08816 0.40558 -0.711177 Si
6 1 2.6829 2.77899 -0.0956658 0.367992 1.18869 -4.12381 0.382919 -0.171316 1.0878 Si
11 1 4.00222 1.31147 9.54417 -1.9819 -3.87365 -1.74513 0.414899 1.16319 -0.819095 Si
42 1 5.40992 2.71438 8.1798 0.335656 -0.112246 0.206106 -0.254304 -0.676921 0.296148 Si
10 1 -0.013976 2.74207 8.12856 -0.0318049 -1.10709 -6.26177 1.12087 0.0545186 -0.170575 Si
43 1 9.54504 1.40815 9.4409 -1.88928 -2.46268 -5.88186 -0.423963 0.363389 1.14427 Si
13 1 1.41485 4.14839 9.44237 -0.113811 0.967932 -1.34342 -1.14356 -0.504398 0.208181 Si
32 1 2.79793 5.4086 8.11729 -3.18556 -2.22226 -3.11 -0.351167 1.17444 -0.080562 Si
52 1 5.43031 5.48241 0.0267272 0.941161 -3.27839 1.25299 -1.02616 -0.27959 0.0722316 Si
27 1 4.0418 6.8175 9.56674 -1.73026 -2.79389 -2.46856 0.716864 -0.322269 -0.824106 Si
45 1 6.68162 4.1064 9.55712 2.7456 -1.61912 3.09194 1.40965 -0.58004 -0.0408696 Si
20 1 0.0544757 5.42803 0.025039 1.48018 -0.583651 -3.55135 0.708292 0.093923 -0.42363 Si
59 1 9.60451 6.71388 9.5171 -5.97822 3.31839 0.298428 -1.32886 1.10342 0.938599 Si
64 1 8.18625 5.37637 8.20564 -2.40665 1.07549 -1.65865 -0.64572 0.54343 0.184706 Si
22 1 2.76367 8.19724 0.0195564 2.74084 -7.60319 -2.75766 -0.874468 -0.344713 -0.14939 Si
16 1 2.70967 -0.0536122 8.20331 -3.44545 -3.23814 3.22956 -0.245043 -0.333559 0.0156554 Si
26 1 -0.00920076 8.17262 8.22941 -1.30933 -0.731325 4.93473 0.207079 -0.445662 -1.21213 Si
29 1 1.3161 9.48268 9.56594 -5.46333 4.49488 -4.19389 0.278453 1.12284 0.521997 Si
58 1 5.42442 8.11679 8.11783 4.39915 -4.20942 -5.55244 1.02249 -0.371595 0.696156 Si
61 1 6.77743 9.51437 9.5159 1.05291 1.39147 2.26872 0.221288 0.491732 -0.637054 Si
48 1 8.19896 0.0785709 8.16731 2.28757 -1.61394 -1.95882 -0.656041 -1.45326 0.0757703 Si
ITEM: TIMESTEP
18400
ITEM: NUMBER OF ATOMS
64
ITEM: BOX BOUNDS pp pp pp
0.0000000000000000e+00 1.0887404739999999e+01
0.0000000000000000e+00 1.0887404739999999e+01
0.0000000000000000e+00 1.0887404739999999e+01
ITEM: ATOMS id type xu yu zu vx vy vz fx fy fz element
2 1 0.104417 2.74175 2.77978 -5.78961 -7.61746 2.95872 -1.2943 0.239455 -1.13998 Si
7 1 1.41302 1.35237 1.40953 0.165292 -1.89401 -1.86329 -0.487138 -0.121575 -0.997976 Si
34 1 5.43684 2.74831 2.72755 2.0134 -1.63083 -3.69832 -0.495899 0.348684 1.04966 Si
36 1 5.44752 0.0315865 0.0866713 3.24222 4.92533 -5.57311 -0.204988 -0.885 -1.0554 Si
39 1 6.70652 1.3691 1.45867 1.7714 2.68515 1.27415 1.73606 0.0719139 -0.769242 Si
38 1 8.14956 2.68246 0.0583883 -3.17487 -2.71706 -0.267271 -0.381727 0.143405 -0.136412 Si
40 1 8.24597 0.0686863 2.70186 2.0979 -0.320107 3.99811 -1.44257 0.274906 0.402167 Si
23 1 1.27951 6.79714 1.39121 -0.92467 1.15955 5.41294 0.10809 0.273615 -0.839965 Si
24 1 2.72881 5.47705 2.60839 -1.87835 0.289383 -1.5054 0.459744 -0.249597 0.349797 Si
1 1 4.10412 4.06838 1.31988 -4.67887 -2.27481 0.600024 0.254146 0.383607 0.523425 Si
55 1 6.79306 6.73449 1.41017 -0.311436 -0.191572 -5.76815 -0.659033 0.755545 -0.387396 Si
33 1 9.47573 4.10416 1.36143 -0.490142 1.94792 -2.86282 1.61922 -0.983552 0.0372704 Si
56 1 8.182 5.41255 2.69325 -1.961 -3.02274 -1.38306 -0.169447 0.715019 0.709038 Si
4 1 0.0442999 -0.12598 0.0392241 -1.38948 -1.72991 2.01069 0.42944 1.15107 -0.00833751 Si
8 1 2.75392 -0.015165 2.67028 -0.338907 -1.04166 -2.81305 0.119183 -0.179595 0.25474 Si
18 1 0.0234774 8.23605 2.72738 -2.79312 1.44045 1.39033 -0.090169 -0.613441 0.947244 Si
17 1 4.07408 9.49252 1.36901 3.34626 1.33522 3.31527 -0.204654 -0.0517301 -0.608064 Si
50 1 5.40506 8.19891 2.76629 -3.02193 -3.56556 0.637523 0.830617 -0.49993 -0.0918092 Si
49 1 9.53179 9.56507 1.45745 5.44345 -5.44015 -3.6316 -0.189645 -1.15174 -1.54823 Si
54 1 8.15092 8.11272 0.0431529 0.390221 4.35571 -3.12469 0.127438 0.95553 0.694338 Si
14 1 2.67235 2.74948 5.41312 -5.04092 -0.139167 -0.0407473 1.44952 0.122756 0.317074 Si
15 1 1.3246 1.38764 6.75027 -2.06842 -2.80115 1.42434 -0.387255 0.290485 0.466818 Si
3 1 4.03958 1.306 4.0346 -1.03742 2.75842 4.22517 0.96084 0.772277 1.08755 Si
47 1 6.8068 1.34878 6.76054 -2.39081 2.20036 3.60166 0.432563 -0.0626207 0.255472 Si
35 1 9.52434 1.39503 4.05962 4.37724 -5.16747 0.260797 0.497373 0.789684 0.736272 Si
46 1 8.20202 2.78491 5.51458 -3.23605 1.16148 -0.154627 -0.219923 -0.801714 -1.19618 Si
5 1 1.46166 4.14917 4.0024 -1.01494 6.28383 2.25856 -0.709321 -0.194777 0.636406 Si
28 1 -0.0248375 5.38952 5.35254 0.834012 -2.72883 -1.17094 0.446555 0.645788 -0.25158 Si
31 1 1.2942 6.66833 6.80619 1.88126 1.3047 0.634903 0.287297 0.580974 0.153196 Si
9 1 4.11744 4.1208 6.88002 -1.06872 3.59606 -0.234477 -0.698035 -1.35976 0.199038 Si
19 1 4.05037 6.74978 4.05943 4.90452 -1.52096 -0.991736 0.156753 0.506807 0.834963 Si
37 1 6.85749 4.12591 4.0899 1.04721 2.93061 1.68407 -0.707486 -0.640979 0.410206 Si
60 1 5.44 5.42006 5.50536 2.31624 0.138015 -1.53791 0.0975731 0.487119 -1.1793 Si
63 1 6.79834 6.84891 6.74309 -1.33679 0.423806 -5.105 -0.879785 0.244129 0.740283 Si
41 1 9.59743 4.10748 6.76936 -1.14082 -2.79168 6.92056 -0.372165 0.0235702 0.941515 Si
51 1 9.48453 6.82695 4.05672 0.0893781 -0.868919 -3.2021 0.141899 0.468105 0.0640975 Si
21 1 1.48043 9.55357 4.06576 1.36982 -0.343655 -0.995986 -1.29371 -0.502079 0.475947 Si
30 1 2.663 8.09239 5.51537 0.702396 -5.3079 1.195 0.286187 -0.252645 -1.10463 Si
44 1 5.48665 -0.0586556 5.46128 2.26095 3.47878 -1.96273 -1.42556 1.25785 -0.501465 Si
25 1 3.98055 9.55666 6.74632 4.01525 -1.43551 2.87409 0.999807 -0.427546 1.22383 Si
53 1 6.82399 9.65678 4.05225 -1.05174 -0.433195 -2.89948 -0.309145 -1.00262 -0.86943 Si
12 1 -0.013396 0.00486166 5.37913 0.448764 0.228045 3.94028 -0.200522 -0.533386 0.591597 Si
57 1 9.40816 9.52431 6.80309 1.15061 1.09104 -2.11034 0.610163 0.781599 -0.919283 Si
62 1 8.03629 8.24242 5.38122 -1.63286 -0.869364 0.930518 1.43269 -0.632741 -0.0144103 Si
6 1 2.79584 2.71574 0.0390946 2.42872 0.706528 2.93163 -0.669473 -0.765247 -0.782114 Si
11 1 4.15023 1.36482 9.4959 -0.456051 2.33296 1.17843 -0.445075 -0.182328 0.930892 Si
42 1 5.54789 2.6357 8.1851 2.83455 0.26025 -1.26618 -0.752363 1.40868 -0.673392 Si
10 1 0.0247915 2.76879 8.21684 1.50039 -3.59811 -3.03501 -0.886907 -1.42979 -0.580227 Si
43 1 9.53989 1.31404 9.63681 4.09911 0.200686 -1.25538 0.143257 0.00994357 -1.06506 Si
13 1 1.35919 4.01042 9.56344 3.27486 -3.90285 0.11923 0.434165 0.757732 0.918421 Si
32 1 2.68814 5.42582 8.29605 -0.41651 -0.830512 -0.850503 0.0768328 -0.38883 -1.34306 Si
52 1 5.46097 5.38308 -0.0305968 0.180677 -2.24675 1.21957 0.849946 -0.0393935 -0.117515 Si
27 1 4.08768 6.74168 9.56449 -2.60594 2.56047 3.23371 -0.24486 1.04339 0.291416 Si
45 1 6.91517 4.07157 9.43295 -3.6443 0.337147 -4.56513 -0.544064 -0.0642512 0.991116 Si
20 1 -0.023903 5.44261 -0.0348377 -4.06179 5.97791 4.41064 -0.508498 0.059386 0.0338213 Si
59 1 9.46047 6.85889 9.49521 6.81132 -1.97906 -5.19519 1.10565 -0.453455 -0.438825 Si
64 1 8.17274 5.50294 8.05846 4.40755 1.73595 0.484777 0.485435 -0.255907 0.291369 Si
22 1 2.64589 8.13147 0.0115547 -4.72894 8.40162 2.09307 1.42587 -0.633381 0.43169 Si
16 1 2.70591 0.100284 8.13742 -1.42041 3.41925 -5.77056 0.147482 -0.828023 0.0853553 Si
26 1 -0.0271105 8.18698 8.03307 3.06928 -1.76157 3.57501 0.21975 -0.329502 1.5654 Si
29 1 1.45802 9.47429 9.50436 -0.297145 -5.66895 -1.11136 -1.55823 0.592978 -1.03954 Si
58 1 5.39849 8.18016 8.19668 -1.85513 5.28678 2.22378 0.081594 0.183034 -0.544541 Si
61 1 6.84151 9.52845 9.56874 0.991866 -2.88474 0.461508 -1.25346 -0.237943 0.479016 Si
48 1 8.0829 0.00636525 8.19487 -6.20802 3.77279 2.46711 1.23226 0.416022 0.0829383 Si
ITEM: TIMESTEP
18500
ITEM: NUMBER OF ATOMS
64
ITEM: BOX BOUNDS pp pp pp
0.0000000000000000e+00 1.0887404739999999e+01
0.0000000000000000e+00 1.0887404739999999e+01
0.0000000000000000e+00 1.0887404739999999e+01
ITEM: ATOMS id type xu yu zu vx vy vz fx fy fz element
2 1 -0.0810669 2.69939 2.7324 3.45048 1.27988 1.17625 0.153298 -1.19686 0.413992 Si
7 1 1.36045 1.40519 1.37988 -2.73934 7.36536 -0.696452 -0.462689 -0.477002 0.398777 Si
34 1 5.44623 2.75325 2.6672 -3.41374 1.74013 3.31345 0.134358 -1.12245 -0.398344 Si
36 1 5.45856 0.00156531 -0.0233529 -2.53209 -2.41629 2.59946 -0.333731 0.645297 -0.0571664 Si
39 1 6.85932 1.3254 1.29384 -8.28371 -2.32873 0.584614 -1.0731 0.96105 0.240323 Si
38 1 8.10443 2.80752 -0.0272688 3.10068 -0.432103 -1.19982 1.0312 -0.89507 -0.114721 Si
40 1 8.09578 -0.0594138 2.64055 3.40722 -0.673135 -1.62506 0.584895 0.0308322 1.28328 Si
23 1 1.44937 6.78828 1.3696 -1.74517 -1.57111 0.681265 -0.245683 -0.406139 0.553584 Si
24 1 2.71734 5.37346 2.81185 3.6502 5.14405 -0.093969 -0.63565 0.331363 -0.542769 Si
1 1 4.00979 4.08294 1.37847 0.869372 -1.56144 -0.131552 0.249972 -0.118134 0.129114 Si
55 1 6.82696 6.84564 1.3677 -1.90714 3.67686 6.02223 0.135928 -0.579006 -0.512368 Si
33 1 9.58232 4.04793 1.37461 -1.09286 -1.24556 -0.932296 -0.881266 1.28779 -0.756607 Si
56 1 8.19524 5.44409 2.75767 2.06427 2.22889 1.85339 -0.189237 -0.306736 -0.520913 Si
4 1 0.00157017 0.0335343 0.0259167 -0.438453 0.89219 -3.14131 -1.05778 0.363618 -0.166609 Si
8 1 2.67815 0.0117647 2.76461 -0.227838 3.48578 -4.03911 0.143445 -0.0811544 -0.328506 Si
18 1 0.0166967 8.08961 2.71187 0.532061 -0.37699 0.0442067 -0.408563 0.516817 -0.0116638 Si
17 1 4.06861 9.60674 1.33776 6.31091 -4.89328 -4.81218 0.500559 -0.39303 0.938726 Si
50 1 5.51071 8.24181 2.7005 -3.53332 1.73959 3.71645 -1.0825 -0.372992 -0.266065 Si
49 1 9.48876 9.48946 1.39733 0.401095 2.37956 5.44626 1.12985 0.00166673 -0.837754 Si
54 1 8.22675 8.16841 -0.0643999 -1.62709 -7.13724 -1.70136 -1.12112 0.28849 0.385047 Si
14 1 2.7173 2.70187 5.47859 6.22532 -3.03037 2.6774 0.0346983 -0.18775 -0.947836 Si
15 1 1.33904 1.37397 6.8449 -0.833337 -1.13605 -7.62167 1.23125 -0.730955 -0.00301116 Si
3 1 4.16596 1.31984 4.05276 0.532078 0.474562 -2.66875 -1.01327 0.751875 0.448138 Si
47 1 6.75634 1.38597 6.7487 1.29403 2.39249 -5.06204 0.181694 0.0404306 0.89487 Si
35 1 9.44482 1.24717 4.09947 -3.44673 3.08361 4.44011 0.681159 0.3404 -1.00268 Si
46 1 8.17029 2.63502 5.41 0.411772 1.76573 0.241751 -0.483795 1.19877 0.195205 Si
5 1 1.23449 4.01813 4.09196 5.93522 -3.67524 -2.47901 0.915175 0.729767 1.09895 Si
28 1 -0.030034 5.50017 5.53413 -5.02643 5.2477 -0.143795 -0.176924 -1.06771 -1.03147 Si
31 1 1.3413 6.85862 6.77336 -4.74037 -0.383275 -1.61514 0.809309 0.404373 -0.251045 Si
9 1 4.05515 4.11344 6.79576 5.88457 -1.88333 -4.06839 -0.116361 0.945726 -0.538934 Si
19 1 4.1138 6.81246 4.01216 -0.917476 -1.1212 -1.60547 0.180361 0.482165 -0.0131232 Si
37 1 6.77885 4.02934 4.04947 -1.9034 -3.23291 -1.84792 0.835137 0.512242 0.293652 Si
60 1 5.4708 5.49463 5.35187 -5.49835 -5.2782 0.911098 -0.277227 -0.999584 1.22665 Si
63 1 6.80689 6.70785 6.90251 0.270325 -2.1332 1.15294 0.613461 0.0330271 -1.32484 Si
41 1 9.48672 4.06393 6.80925 1.66035 -2.02243 -8.21087 -0.26446 0.123454 -0.169786 Si
51 1 9.52901 6.80969 4.12249 5.87024 2.00793 -1.11136 0.254224 -0.578414 -0.375438 Si
21 1 1.27017 9.51026 4.08808 -2.34441 0.116956 0.241248 1.36567 -0.125028 -0.224291 Si
30 1 2.79067 8.18244 5.37834 -2.64229 0.944239 -0.278254 -0.642108 0.240106 0.561216 Si
44 1 5.48765 -0.00746699 5.44557 0.603947 -3.52454 -0.216374 0.0684975 -0.196643 -0.654783 Si
25 1 4.18443 9.53508 6.78661 -2.92661 0.503361 -3.29624 -0.977551 -0.247784 0.35341 Si
53 1 6.84003 9.48637 4.11078 0.753882 1.33235 0.591739 0.0952537 0.300655 0.138856 Si
12 1 0.0422759 0.0291996 5.44395 -0.822203 0.0971941 -3.80508 -0.818218 -0.564188 0.398199 Si
57 1 9.6222 9.45631 6.79785 2.26556 -0.875026 4.32179 -0.48945 -0.117344 0.139973 Si
62 1 8.15704 8.05953 5.46604 3.62526 -0.87558 -4.00387 0.0919616 0.875485 0.805967 Si
6 1 2.69181 2.72021 0.0276506 -0.231258 -0.266486 1.68973 -0.201573 0.760361 -0.162818 Si
11 1 4.08413 1.45117 9.59799 2.45233 -0.0540232 -0.548916 0.031046 -1.1265 -0.48705 Si
42 1 5.35229 2.74474 8.14701 -2.29489 -0.970941 0.77114 0.848744 -0.0153979 0.0379076 Si
10 1 0.0103676 2.75339 8.09848 0.820051 1.95326 3.66844 -0.0258516 0.457047 0.874941 Si
43 1 9.50427 1.42938 9.41202 -0.967815 1.81669 5.89705 -0.146271 -0.539227 1.22036 Si
13 1 1.36575 4.11318 9.5251 -3.58927 -0.302082 0.10087 0.2271 -0.223243 -0.617069 Si
32 1 2.65656 5.55172 8.11712 4.00894 -0.448748 0.0170455 0.994588 -0.907685 0.584889 Si
52 1 5.33375 5.46002 0.0420203 -0.972007 -0.219518 0.0695808 0.511759 0.889241 -0.083278 Si
27 1 4.09971 6.89951 9.46863 6.04604 0.68937 -1.76442 -0.221767 -0.84851 0.355855 Si
45 1 6.65937 4.09462 9.58336 2.20976 -1.82744 -0.4543 0.288901 0.0440574 -0.48847 Si
20 1 0.0787384 5.47583 -0.00830386 1.77476 -1.58301 -3.79042 -0.555503 -0.607536 0.843222 Si
59 1 9.56844 6.77046 9.55629 -4.2744 3.60214 4.15577 -0.208411 -0.308233 -0.224531 Si
64 1 8.14642 5.36898 8.27443 -2.99144 -0.128398 4.24085 0.13624 0.0793319 -0.290868 Si
22 1 2.79515 8.1548 0.0682678 -3.06203 -2.28447 1.93228 -0.738826 0.896975 -1.08941 Si
16 1 2.7908 -0.0123097 8.24817 -3.55223 4.639 4.6422 -0.257501 0.56842 -0.930427 Si
26 1 0.084361 8.0856 8.26387 -4.02959 2.00848 -4.50895 -0.603443 1.35347 -0.642202 Si
29 1 1.36086 9.58556 9.58035 2.95033 -0.00841461 5.26954 0.757799 -1.17114 0.387121 Si
58 1 5.53828 8.15044 8.11989 2.63751 -1.30917 1.51848 -0.924015 0.552945 0.433314 Si
61 1 6.76913 9.57044 9.48322 0.690401 -0.416625 0.30951 1.38457 -0.46057 -0.0757832 Si
48 1 8.16594 -0.000808913 8.05042 1.89833 -0.980828 3.17624 0.0317595 -0.0352231 0.507081 Si
ITEM: TIMESTEP
18600
ITEM: NUMBER OF ATOMS
64
ITEM: BOX BOUNDS pp pp pp
0.0000000000000000e+00 1.0887404739999999e+01
0.0000000000000000e+00 1.0887404739999999e+01
0.0000000000000000e+00 1.0887404739999999e+01
ITEM: ATOMS id type xu yu zu vx vy vz fx fy fz element
2 1 0.0412149 2.67965 2.62583 -2.08124 1.33044 -1.18031 0.981477 1.96597 0.278678 Si
7 1 1.44819 1.38603 1.27341 3.8277 -8.40363 -2.2266 0.297997 -0.330139 0.863023 Si
34 1 5.44354 2.68451 2.69863 1.82926 1.10346 3.51597 0.0810988 0.983668 0.934268 Si
36 1 5.36888 -0.0480919 0.00846235 2.36134 -2.68364 2.06356 0.521739 0.107384 0.992351 Si
39 1 6.7779 1.3436 1.37019 5.82299 2.5654 -2.80513 0.447876 -0.583296 0.0216639 Si
38 1 8.20385 2.69266 0.0371238 -2.574 2.45432 -0.0846371 -0.172871 0.445906 -0.00806158 Si
40 1 8.14808 0.0826833 2.91491 -3.75941 2.47513 -2.23314 0.178172 -0.650666 -2.80285 Si
23 1 1.3157 6.82212 1.29183 -0.653248 2.98961 -2.36389 0.406043 0.105611 -0.196505 Si
24 1 2.77304 5.50698 2.60124 -2.58217 -3.85454 -0.937231 -0.502936 -0.0678906 1.20771 Si
1 1 4.0899 4.06044 1.31896 1.27971 -0.363431 -1.75225 0.667872 0.119465 -0.327999 Si
55 1 6.78533 6.81056 1.32193 1.04534 -1.64362 0.910875 0.395314 -0.0645577 1.03163 Si
33 1 9.5579 4.14182 1.34473 1.77634 0.855781 0.0268682 -0.842541 -0.971433 0.917893 Si
56 1 8.20052 5.45784 2.82022 0.238114 -0.511919 2.36813 -0.721802 -0.118733 -0.796301 Si
4 1 0.0252265 0.0567594 0.0459097 2.15969 -0.611622 0.503091 0.11713 -1.35901 -1.24693 Si
8 1 2.74562 -0.0478525 2.71756 2.36514 -2.72074 6.56233 -0.289689 0.455257 0.262351 Si
18 1 -0.0190258 8.14127 2.72912 2.46681 -4.298 0.62477 0.215801 0.505042 -0.729503 Si
17 1 4.05199 9.43405 1.33866 -7.35524 3.66093 1.47643 -0.239997 0.472253 -0.0100146 Si
50 1 5.38583 8.16522 2.75938 5.00994 0.98705 -5.56563 0.397269 -0.556868 -0.385843 Si
49 1 9.51966 9.55432 1.35707 -0.191682 -1.70885 -1.92337 -0.408138 0.76038 1.29908 Si
54 1 8.12932 8.25557 -0.00802692 -0.018917 4.74319 0.337136 0.476194 -1.4868 0.197878 Si
14 1 2.7435 2.71767 5.43346 1.33129 8.12917 0.56605 -0.564144 0.499173 0.477106 Si
15 1 1.3526 1.36754 6.83248 3.1033 4.20297 2.35318 -0.187415 0.161664 -0.802969 Si
3 1 4.1056 1.38377 4.13715 1.03976 0.440393 -0.234646 -0.39939 -0.679445 -1.19133 Si
47 1 6.80695 1.35636 6.8421 3.09075 -0.30424 1.90829 0.73883 -0.462021 -0.431245 Si
35 1 9.59529 1.47975 4.02055 -1.73302 -2.16832 0.747228 -0.623476 -0.573158 1.19483 Si
46 1 8.20019 2.72376 5.44894 3.20792 -2.14817 -1.50542 0.182462 -0.204824 0.783457 Si
5 1 1.39852 4.1838 4.08289 -2.76055 0.837969 1.22127 0.356057 -1.39712 -1.33469 Si
28 1 0.0534376 5.47209 5.42204 1.00662 -1.23361 -1.55076 -0.195142 0.306567 1.014 Si
31 1 1.36921 6.8376 6.8665 2.54061 -2.61605 -0.228084 -0.0800553 -1.45361 0.0170354 Si
9 1 4.13067 4.00268 6.85154 -6.14963 -1.63829 4.09057 0.163816 0.097614 -0.183465 Si
19 1 4.02477 6.84245 4.17146 1.65505 0.64171 -2.14407 0.431399 -0.730685 -0.699809 Si
37 1 6.80726 4.05669 4.22191 0.0642338 0.243043 2.28498 -0.477551 0.49731 -1.69332 Si
60 1 5.44819 5.47453 5.54074 0.919047 2.12482 -2.05809 -0.408702 -0.135651 -0.422631 Si
63 1 6.79457 6.90851 6.80281 2.18008 -2.27901 -0.247483 0.645867 -0.12198 0.0926958 Si
41 1 9.53113 4.13903 6.79145 -4.10976 4.54798 3.72853 0.801506 -0.66628 -0.438796 Si
51 1 9.59378 6.82338 4.1111 -6.80841 2.92532 2.22821 -0.902823 0.215885 0.187969 Si
21 1 1.29957 9.49979 4.1068 -1.73244 -2.00406 0.574012 0.384176 0.659975 -0.322652 Si
30 1 2.64542 8.16661 5.4908 3.20526 -0.888016 -3.21799 0.503529 0.496461 0.104035 Si
44 1 5.43494 0.0180789 5.45207 -1.76621 4.18324 0.173295 -0.367625 -0.343624 1.06316 Si
25 1 4.08203 9.46712 6.86102 -1.83603 1.49178 0.0140652 -0.0383602 0.647776 -1.32138 Si
53 1 6.71763 9.5739 4.07283 -1.0381 -4.51755 -1.46241 0.601676 -0.432224 0.534816 Si
12 1 -0.0544325 0.0645136 5.4052 -1.45203 -0.957288 1.92136 1.22075 0.28068 -0.0806057 Si
57 1 9.57006 9.57289 6.72113 -3.9957 0.780051 -3.36243 -0.95774 -0.12284 1.41009 Si
62 1 8.19416 8.27104 5.40086 -1.40049 1.79512 1.7405 -0.604891 -0.806973 -0.140723 Si
6 1 2.76588 2.74433 -0.101559 1.05022 -1.25463 -1.24246 0.158777 -0.591358 0.988135 Si
11 1 4.06681 1.26414 9.54591 0.42059 2.05239 0.87635 0.185987 0.823512 -1.12953 Si
42 1 5.52984 2.68077 8.22662 -3.96286 1.96789 -3.03437 -0.938591 -0.222147 0.108757 Si
10 1 -0.0309099 2.72111 8.18673 -3.74569 -0.90747 -1.17315 0.152115 0.255035 -0.175152 Si
43 1 9.53409 1.35535 9.55766 -1.53624 -5.43968 -5.58119 -0.213443 -0.318603 -0.193477 Si
13 1 1.35245 4.04669 9.5683 3.16315 1.94788 3.7489 -0.751169 0.493534 -0.664528 Si
32 1 2.74558 5.31388 8.18215 -3.75158 -1.70152 0.134608 -0.563534 1.15692 -0.208868 Si
52 1 5.5129 5.3885 -0.0722553 -0.872517 0.596638 0.365701 -0.284027 0.043895 0.299439 Si
27 1 4.07174 6.73979 9.50712 -6.19553 -1.86047 0.228525 0.514301 -0.689873 -0.282974 Si
45 1 6.94446 4.06508 9.46372 -1.51774 -0.927859 0.615903 -0.249954 0.224269 0.412821 Si
20 1 -0.0788053 5.44357 -0.0207799 4.17335 3.68917 1.55396 1.19051 0.342366 -0.473564 Si
59 1 9.49109 6.79429 9.49688 2.41308 -1.30595 -0.767386 -0.466356 0.687361 0.851303 Si
64 1 8.23432 5.50694 8.08394 2.16204 -4.33148 -3.05549 -1.24854 -0.0998561 0.264682 Si
22 1 2.75201 8.12413 -0.127615 4.4022 -4.13351 2.39829 -1.26488 0.177871 0.839386 Si
16 1 2.71524 -0.0380479 8.0966 4.95676 -5.46356 2.79448 -0.48941 -0.17901 1.05398 Si
26 1 -0.0949756 8.11282 8.1443 1.92831 0.687377 0.768809 0.17944 0.432103 -0.799839 Si
29 1 1.27515 9.42934 9.40941 -3.75652 5.29729 -2.87155 0.731497 1.53644 1.30098 Si
58 1 5.39383 8.15793 8.22016 -0.480709 0.440403 2.05833 0.272486 -0.554864 -0.242825 Si
61 1 6.6868 9.47202 9.60138 -1.05796 5.95547 1.82707 0.805698 0.970145 -0.989319 Si
48 1 8.14209 -0.0590098 8.22368 2.67964 -3.26267 -4.50251 0.0503381 0.0480581 -0.27749 Si
ITEM: TIMESTEP
18700
ITEM: NUMBER OF ATOMS
64
ITEM: BOX BOUNDS pp pp pp
0.0000000000000000e+00 1.0887404739999999e+01
0.0000000000000000e+00 1.0887404739999999e+01
0.0000000000000000e+00 1.0887404739999999e+01
ITEM: ATOMS id type xu yu zu vx vy vz fx fy fz element
2 1 -0.0924764 2.7172 2.82551 1.67722 -3.70312 0.037724 -0.390491 -0.871046 -0.85924 Si
7 1 1.29923 1.38098 1.45665 -0.910863 2.35303 3.00823 -0.740762 -0.417623 -0.914139 Si
34 1 5.46878 2.70384 2.70044 0.786915 -6.17856 -7.85256 -0.523297 -0.160875 0.152315 Si
36 1 5.53487 0.0862472 -0.0636197 -3.95048 5.89232 -2.75849 -0.497007 -0.699976 -0.342118 Si
39 1 6.82559 1.31538 1.38188 -4.5823 -2.10462 1.64952 0.385079 0.665279 -0.140841 Si
38 1 8.1411 2.70022 0.0043039 -1.50418 -5.0278 -0.212736 -0.61158 0.348108 -0.323009 Si
40 1 8.23583 -0.0304378 2.67524 -0.583989 -3.83918 4.02949 -0.769584 0.242386 1.11379 Si
23 1 1.32793 6.77994 1.41084 3.02211 -0.583924 -1.05083 -0.0562593 0.589162 0.010404 Si
24 1 2.61747 5.44504 2.78109 -2.42475 2.05519 -0.221308 1.1384 -0.564943 -0.0436656 Si
1 1 4.01397 4.03557 1.38769 -1.99831 3.61901 3.84219 0.207234 0.834934 0.338105 Si
55 1 6.77881 6.8025 1.31349 -2.16183 -3.13583 -3.62738 -0.420195 0.0899431 -0.572606 Si
33 1 9.49921 4.02391 1.32532 0.317242 5.27617 -0.325937 0.8511 0.0899497 0.0492989 Si
56 1 8.15729 5.42385 2.55545 -1.76996 2.89275 -0.335084 0.410916 0.675891 1.09367 Si
4 1 0.0138197 -0.0398731 -0.0576824 -1.68054 1.37693 3.17376 -0.0164197 0.805024 1.38677 Si
8 1 2.73612 0.0532386 2.67992 -0.306611 -0.0997452 -3.76775 0.318382 -0.276487 0.175551 Si
18 1 0.0245572 8.1815 2.76289 -0.0612259 1.01458 -2.8595 -0.123079 -0.12863 0.359867 Si
17 1 4.2304 9.64332 1.40051 -0.280714 -0.748194 1.51519 -1.08811 -0.173393 -0.686169 Si
50 1 5.46474 8.19366 2.70795 0.491966 1.03789 1.1033 0.869981 -0.108185 0.282102 Si
49 1 9.55275 9.52209 1.3909 2.60498 0.462442 -1.61238 0.0986178 -1.18452 -1.67042 Si
54 1 8.18741 8.05829 -0.112389 0.481353 1.49305 3.86324 0.359865 1.30607 1.0057 Si
14 1 2.68133 2.68455 5.43474 0.0539731 -5.73247 -3.86679 0.171043 0.383387 0.455059 Si
15 1 1.35219 1.26035 6.74865 -1.19732 -1.51875 2.88372 -0.27565 1.07546 1.07535 Si
3 1 4.01621 1.36692 4.063 -2.95861 -0.646036 -0.341259 1.37955 0.0165721 0.20177 Si
47 1 6.77613 1.37946 6.77002 -1.46998 -2.16411 6.41245 -0.599055 0.194809 0.467211 Si
35 1 9.49155 1.2767 4.18108 -0.0380682 2.29008 -3.01427 0.326584 0.281997 -0.802346 Si
46 1 8.18711 2.72852 5.44653 -5.62378 2.96666 3.393 -0.888182 -0.37163 -0.563301 Si
5 1 1.29666 3.98181 4.09136 -2.39036 2.24356 5.56019 -0.070739 1.50056 0.879023 Si
28 1 -0.0946816 5.3943 5.48861 2.50199 -2.95857 1.5709 0.822063 0.00309954 -1.02377 Si
31 1 1.37213 6.74432 6.76554 2.11372 -0.11596 5.45593 -0.600789 1.13806 0.0262985 Si
9 1 4.00633 4.19432 6.78057 -1.33948 2.92918 2.47783 0.04205 -1.28065 0.00477623 Si
19 1 4.12006 6.82855 4.05037 -3.43517 2.70582 2.95203 -0.52826 -0.491413 0.58956 Si
37 1 6.89135 4.09068 3.94674 2.5761 -2.1282 -0.899672 -0.702083 -0.439532 1.28469 Si
60 1 5.45954 5.36765 5.41521 3.37736 -1.43234 4.32439 0.675608 1.27434 -0.518159 Si
63 1 6.82207 6.81988 6.82069 1.63834 6.03515 -3.02211 -1.21556 -0.58004 -0.00954272 Si
41 1 9.50209 4.00941 6.8041 1.20368 -1.10249 -2.23702 -0.191891 0.974391 1.04433 Si
51 1 9.4657 6.77788 4.06648 2.73224 -3.92839 0.782534 0.467143 -0.295211 -0.342366 Si
21 1 1.48318 9.57128 4.06483 1.18123 2.67997 -5.55204 -0.904736 -0.93343 0.228049 Si
30 1 2.76873 8.18329 5.49403 -5.7446 1.98057 2.60529 -0.270391 -0.666323 -1.14149 Si
44 1 5.43644 -0.0611275 5.39571 3.96123 0.605101 -1.7602 0.537044 1.26201 -0.498622 Si
25 1 4.1201 9.54561 6.73476 2.89959 -0.867951 4.13171 -0.182378 -0.0779123 1.42825 Si
53 1 6.89861 9.49738 4.09621 2.88928 0.401582 2.68702 -0.691875 0.123286 -0.610102 Si
12 1 -0.00549268 -0.113293 5.43721 -0.237762 -5.76691 1.09081 -0.26235 0.000486705 0.419149 Si
57 1 9.43525 9.48551 6.8634 -2.77225 -0.42512 -0.845509 0.880375 0.257287 -0.710397 Si
62 1 8.15341 8.11011 5.46746 4.63882 0.424947 3.99407 0.299643 0.308549 -0.130958 Si
6 1 2.65092 2.69029 0.0835903 -1.0868 2.45623 -6.11219 0.161439 0.431722 -0.794551 Si
11 1 4.05656 1.44638 9.53051 -0.361033 -4.04531 0.866216 0.206771 -0.357872 0.242983 Si
42 1 5.36522 2.82659 8.16335 5.16012 -0.0886948 1.785 0.657762 -0.269897 -0.539136 Si
10 1 0.0606296 2.80193 8.19501 0.714846 3.76065 0.885658 -0.136168 -1.52441 -0.238092 Si
43 1 9.51185 1.37369 9.56285 -3.51062 0.0949749 -1.2369 0.570323 0.141466 -0.935059 Si
13 1 1.43864 4.16756 9.54076 1.78895 5.63354 -6.92146 0.0281112 -0.870297 0.0378974 Si
32 1 2.73752 5.55791 8.17626 2.95056 -2.28907 -1.27296 -0.146766 -0.65203 0.125382 Si
52 1 5.33884 5.45283 -0.0200276 3.76947 0.0240281 -0.187832 0.373752 -0.127201 0.76706 Si
27 1 4.03418 6.86008 9.57509 -4.47605 -0.999868 0.537558 -0.160606 1.26568 0.284484 Si
45 1 6.76997 4.16918 9.53179 -2.11251 2.00661 -0.489886 -0.142102 -1.0855 0.318456 Si
20 1 0.0662134 5.38854 0.0328076 -0.00952274 -3.50155 1.66445 -0.807338 0.219136 0.0268623 Si
59 1 9.59824 6.69358 9.50035 0.516888 -5.09102 -0.729116 0.318224 0.788226 -0.226333 Si
64 1 8.13614 5.44971 8.17959 0.572895 0.610102 -3.41473 0.694219 -0.462166 -0.625889 Si
22 1 2.67606 8.27147 0.174879 -2.82679 4.96871 -3.94826 1.64438 -0.981069 -0.443498 Si
16 1 2.78707 0.022611 8.14936 -0.806088 0.814946 -1.39846 -0.0425183 -0.177746 -0.0354587 Si
26 1 0.0296591 8.19001 8.12459 1.06912 0.858891 2.34523 0.617309 -0.471575 1.1431 Si
29 1 1.49459 9.56274 9.60135 2.95179 -8.25526 2.84058 -1.32543 -0.332006 -1.62898 Si
58 1 5.42445 8.221 8.17917 1.75074 -0.903 -4.36044 0.198929 -0.5189 -0.317944 Si
61 1 6.88428 9.55755 9.43532 2.73087 2.12182 -5.06855 -1.10311 -0.746734 1.49196 Si
48 1 8.1329 0.0231778 8.17706 -0.513047 3.29553 -2.16559 0.77286 1.01194 -0.821085 Si
ITEM: TIMESTEP
18800
ITEM: NUMBER OF ATOMS
64
ITEM: BOX BOUNDS pp pp pp
0.0000000000000000e+00 1.0887404739999999e+01
0.0000000000000000e+00 1.0887404739999999e+01
0.0000000000000000e+00 1.0887404739999999e+01
ITEM: ATOMS id type xu yu zu vx vy vz fx fy fz element
2 1 0.0892792 2.80486 2.66937 2.97872 6.23376 1.20499 -0.0979465 -0.800157 0.653337 Si
7 1 1.37089 1.34523 1.41075 1.48136 0.500571 1.15275 0.439668 0.969714 -0.806104 Si
34 1 5.38763 2.7024 2.79008 -1.16094 1.99005 5.3214 0.778797 0.420941 -1.22554 Si
36 1 5.39497 -0.0752572 0.119278 -0.304987 -1.9083 4.4369 -0.113765 0.754898 -1.09947 Si
39 1 6.74749 1.42536 1.34728 -1.73702 -0.974159 2.29761 -0.520166 -0.143829 0.265766 Si
38 1 8.13748 2.78953 0.0639726 3.49774 -0.421194 2.32431 1.37732 -1.33165 -0.0200721 Si
40 1 8.04791 0.0893238 2.6867 2.58909 2.02334 -2.54455 1.05096 -0.590918 0.520627 Si
23 1 1.34584 6.7698 1.25364 -4.43475 1.87239 1.48159 0.458758 -0.173927 1.24067 Si
24 1 2.7657 5.41012 2.66265 -1.95752 -0.954942 -3.77599 0.0870401 0.517072 -0.580062 Si
1 1 4.24535 4.12223 1.2932 2.0645 -6.58869 -1.72732 -1.90804 -0.782486 0.506635 Si
55 1 6.83419 6.78868 1.56465 0.562915 2.08694 0.510685 -0.0556615 -0.0141133 -1.2461 Si
33 1 9.56279 4.09028 1.44401 -1.97523 -5.67009 0.160432 -0.626084 0.745327 -1.08561 Si
56 1 8.19501 5.43157 2.80938 2.98986 -0.271109 -1.94342 0.0393428 -0.550064 0.232246 Si
4 1 0.00546505 0.0644688 0.0633101 0.884275 -3.39377 -5.99427 -0.581818 -0.629608 -0.783888 Si
8 1 2.66942 -0.0241688 2.73358 1.71681 0.271771 -0.666249 0.299946 -0.396563 -0.438961 Si
18 1 0.047153 8.17984 2.69987 -2.41785 0.447461 3.08785 -0.686702 -0.281846 -0.180678 Si
17 1 3.92553 9.4621 1.30394 3.42882 1.27889 -2.34266 1.18621 -0.52291 1.11223 Si
50 1 5.4597 8.1757 2.73407 -2.81129 1.63502 -0.978758 -1.62669 0.344656 0.289012 Si
49 1 9.4861 9.58665 1.40271 -1.80394 2.93776 8.71226 0.228815 0.0115394 0.267121 Si
54 1 8.06904 8.17977 0.180811 -0.801435 -5.32025 -2.01038 0.543544 0.208278 -1.35152 Si
14 1 2.78925 2.79677 5.41508 -0.95689 1.5564 -2.73413 0.0716294 -1.62663 -0.642034 Si
15 1 1.39803 1.46396 6.77034 -2.70428 -0.758754 -0.989781 -0.215855 -1.05579 0.090325 Si
3 1 4.10077 1.26893 4.00949 3.06052 -0.0899014 -1.36529 -0.854831 0.801238 1.50408 Si
47 1 6.92893 1.26849 6.76324 -2.86775 2.21544 -6.67485 -0.965973 0.549012 0.037133 Si
35 1 9.5504 1.44106 3.93641 0.176151 0.979835 2.18834 -0.264144 -0.226022 0.647872 Si
46 1 8.19772 2.71719 5.39357 4.24908 -5.29176 4.42768 0.0518765 0.39492 0.114775 Si
5 1 1.44814 4.08624 4.04144 0.491817 -0.584181 -7.26149 -0.374091 0.483943 0.238814 Si
28 1 0.0753326 5.44609 5.41916 -2.2334 4.71757 -0.413465 -0.32314 -0.0130139 -0.12636 Si
31 1 1.3971 6.77149 6.80962 -6.43797 -3.77937 -4.66366 -0.408301 0.757615 -0.0873567 Si
9 1 4.08 4.00014 6.86003 6.12301 -2.26147 1.38491 0.885438 1.28947 -0.0729262 Si
19 1 4.03939 6.79955 4.08345 3.26383 -3.0449 -0.732176 0.365286 0.557413 -0.0301504 Si
37 1 6.74553 4.07399 4.0951 -1.62788 0.977069 -1.19765 0.363855 0.345122 0.691509 Si
60 1 5.44444 5.52805 5.49529 -0.97335 -1.18184 0.125807 -0.611702 -1.59028 -0.197467 Si
63 1 6.87435 6.77128 6.80547 1.39035 1.19168 0.281458 -0.0940827 0.389873 -0.328916 Si
41 1 9.52204 4.16227 6.77643 5.28924 -2.38382 -0.800215 0.174466 -1.02664 -0.18233 Si
51 1 9.54326 6.80665 4.10547 2.71439 6.18834 2.36967 0.455851 0.563262 0.00269436 Si
21 1 1.34214 9.54594 4.08605 1.02182 -1.32792 0.558016 -0.421264 0.194916 0.0845839 Si
30 1 2.6831 8.21861 5.42686 -0.868813 -2.66059 2.61471 0.285999 -0.763551 0.415572 Si
44 1 5.40558 -0.0159162 5.46913 0.597449 1.44089 0.717107 0.3049 -0.389802 0.0763632 Si
25 1 4.01361 9.52189 6.86439 0.699547 0.943471 -6.87347 0.501514 0.0381313 -0.697557 Si
53 1 6.7865 9.53015 4.09137 -0.440558 3.10213 1.57299 -0.351747 0.628228 -0.164639 Si
12 1 -0.0307071 0.0874608 5.3807 -1.02042 2.73757 -3.00654 0.465718 0.139053 0.238234 Si
57 1 9.5315 9.59627 6.77627 -0.315392 -3.38304 2.14515 0.469347 -1.13628 -0.787408 Si
62 1 8.12705 8.19463 5.42416 -4.50703 -0.433617 -4.0557 1.06405 -0.169035 0.379463 Si
6 1 2.69803 2.7517 -0.0351352 -0.676649 -2.89833 5.63875 0.777992 -0.241985 0.269256 Si
11 1 4.11791 1.28811 9.5248 3.2926 4.28339 -3.83149 -0.498623 0.304138 0.850289 Si
42 1 5.48647 2.59331 8.15308 0.288958 -4.55478 0.202748 0.543504 0.411631 0.112159 Si
10 1 -0.0404343 2.72109 8.1327 1.37239 3.692 3.26184 -0.0419847 0.534626 -0.0683626 Si
43 1 9.4998 1.35942 9.49764 5.68075 3.27991 3.63581 0.00903226 0.435112 0.983591 Si
13 1 1.27596 4.1125 9.50705 -3.96783 -4.3969 3.88329 0.114547 -0.823278 0.329395 Si
32 1 2.65876 5.37824 8.1826 -1.75135 5.67869 5.15792 1.15304 0.233026 -0.433004 Si
52 1 5.57285 5.51341 0.0504522 -6.00224 1.23384 -6.46296 -0.0440539 -0.161492 -1.07506 Si
27 1 4.18481 6.74568 9.38763 4.35972 -0.439691 2.35512 -0.0764871 -0.795297 0.808687 Si
45 1 6.82995 3.99605 9.58795 1.78273 -1.02504 -2.43381 -0.9616 1.02413 -1.01426 Si
20 1 -0.0471009 5.45265 -0.0180376 2.91706 -1.12205 -3.86789 -0.441873 -0.135899 0.144482 Si
59 1 9.48189 6.88679 9.59932 1.17452 4.18488 -0.881533 -0.656634 -0.492856 -0.609975 Si
64 1 8.12569 5.38848 8.18447 -1.86534 3.54735 -0.165414 0.809524 0.738833 0.854749 Si
22 1 2.79241 7.9714 -0.101639 0.822652 -1.51597 0.922544 -1.16331 1.79651 -0.512331 Si
16 1 2.67998 -0.00924258 8.22713 -0.262794 2.13528 0.863925 -0.0112033 0.740661 -0.979122 Si
26 1 -0.0158948 8.18371 8.13513 -3.02039 -0.561228 -9.15762 -0.0136332 -0.0386975 0.215166 Si
29 1 1.33007 9.55507 9.53299 1.22518 1.65013 2.08086 0.152707 -1.14686 0.8059 Si
58 1 5.4875 8.1152 8.04953 -5.64882 -4.7271 8.48983 -0.215231 0.876349 0.9827 Si
61 1 6.71904 9.51065 9.56853 -2.5198 -2.91896 3.8632 0.938742 -0.376967 -0.341418 Si
48 1 8.22928 -0.0665514 8.14938 -4.11394 -0.170108 0.120286 -1.22278 0.228794 1.20324 Si
ITEM: TIMESTEP
18900
ITEM: NUMBER OF ATOMS
64
ITEM: BOX BOUNDS pp pp pp
0.0000000000000000e+00 1.0887404739999999e+01
0.0000000000000000e+00 1.0887404739999999e+01
0.0000000000000000e+00 1.0887404739999999e+01
ITEM: ATOMS id type xu yu zu vx vy vz fx fy fz element
2 1 -0.0885474 2.63238 2.71888 -6.08664 -3.38022 0.211432 0.908337 0.789991 -0.284068 Si
7 1 1.33965 1.34285 1.35064 1.00707 4.01007 -0.694829 0.521116 -0.298932 0.584931 Si
34 1 5.5173 2.6671 2.70989 -3.91313 -1.22386 -0.544902 -0.573917 0.850371 0.359133 Si
36 1 5.50285 0.0363658 -0.0136662 0.673204 -1.45034 0.338754 0.0289759 -0.494857 0.790798 Si
39 1 6.92863 1.39441 1.34816 4.87474 -0.661683 -2.18042 -0.278541 -0.831135 0.0143576 Si
38 1 8.2746 2.71017 -0.0314272 -6.06056 6.40172 -0.752979 -1.44073 1.45497 -0.277194 Si
40 1 8.21412 -0.0392299 2.75617 -4.13814 -0.550249 -0.432712 0.100159 -0.46858 -1.01767 Si
23 1 1.39043 6.8531 1.4256 4.31492 -1.42341 -1.08406 -0.251595 -0.209941 -0.398304 Si
24 1 2.66169 5.40023 2.83812 4.08081 -3.08579 3.36014 0.343613 0.476658 -0.608055 Si
1 1 4.04246 4.05855 1.42627 -0.260789 4.89979 -5.66499 0.451132 0.127443 -0.472499 Si
55 1 6.77943 6.77737 1.14179 -0.424356 1.69274 1.8118 0.840108 0.683836 1.83346 Si
33 1 9.61268 4.08366 1.30449 7.1488 -2.41808 1.18728 -1.39513 -0.778318 1.17981 Si
56 1 8.16498 5.43599 2.62059 4.37387 -2.07853 5.34821 -0.375459 0.181011 0.111749 Si
4 1 -0.0235425 0.0112775 -0.0155961 -0.92413 3.28326 7.68223 0.746372 -0.662519 -0.575598 Si
8 1 2.78316 0.0419423 2.80752 0.0145525 0.559317 1.77292 -0.897779 -0.0426325 -0.222929 Si
18 1 -0.0711308 8.16773 2.79086 0.0419958 -1.61188 0.994486 0.573555 -0.173779 -0.661176 Si
17 1 4.11867 9.56809 1.44698 -2.46062 1.69784 -3.81818 -0.0123339 0.864361 -1.39142 Si
50 1 5.46852 8.15699 2.60556 1.11802 5.23049 2.42671 0.634366 -0.523275 0.807573 Si
49 1 9.55966 9.43451 1.24848 -1.16651 -4.05455 -3.97344 -0.623436 1.05061 1.37996 Si
54 1 8.17199 8.18689 -0.124023 4.40305 4.31995 -1.7388 0.161702 -0.919837 -0.0633494 Si
14 1 2.65084 2.69804 5.39342 -0.159642 1.53224 3.18369 -0.140899 1.35532 1.4345 Si
15 1 1.36452 1.34876 6.87176 -0.814038 3.67835 -0.401487 0.369316 -0.378683 -0.798812 Si
3 1 4.10501 1.43684 4.17204 5.95569 -7.79544 -0.271113 0.164219 -0.492476 -1.30823 Si
47 1 6.67089 1.45233 6.86593 2.04498 -0.719367 -4.96863 1.75947 -0.343482 -0.709063 Si
35 1 9.5633 1.29623 4.11487 -2.69968 -4.04766 -2.88082 -0.705794 -0.0526614 1.00156 Si
46 1 8.15017 2.73536 5.47393 -2.897 2.24124 -7.5587 0.484655 -0.298619 0.266621 Si
5 1 1.18402 4.06965 4.10887 -3.69887 0.635513 3.75981 1.39944 -1.05327 -0.822043 Si
28 1 -0.014392 5.45247 5.40078 -3.88922 -0.231345 0.648855 -0.856451 0.824601 1.49483 Si
31 1 1.3755 6.87281 6.7706 1.39469 1.77724 -0.111768 0.0447886 -1.64756 0.0445417 Si
9 1 4.07068 4.1787 6.76889 -4.90154 0.343087 1.28517 -0.801413 -0.817643 -0.125521 Si
19 1 4.13574 6.84606 4.06006 -3.9254 0.100264 -3.57895 -0.131247 -0.918918 -0.279338 Si
37 1 6.81432 4.09598 4.08997 1.62094 -4.30693 2.42165 0.447235 -0.117013 -0.676836 Si
60 1 5.47778 5.45344 5.42942 0.595895 4.97198 -3.55217 -0.484873 0.472893 -0.243979 Si
63 1 6.69386 6.84234 6.84521 1.58761 -3.97704 2.64458 1.31041 -0.523883 0.201232 Si
41 1 9.60254 4.0587 6.88527 -5.04042 3.35054 -0.866621 -0.834866 0.316054 -0.966562 Si
51 1 9.42516 6.8193 4.10688 -0.137585 -5.41934 1.44558 0.370956 -0.649186 -0.348953 Si
21 1 1.35747 9.49813 4.1096 -2.43573 -0.383286 1.21743 0.558352 0.20171 0.0115737 Si
30 1 2.76036 8.10983 5.43259 1.32648 3.44114 -3.68104 0.185597 1.17745 -0.209374 Si
44 1 5.43702 0.0820236 5.46348 0.488011 0.381454 -0.946351 0.149381 -1.1654 0.0600442 Si
25 1 4.15635 9.46668 6.78875 4.13277 1.19185 2.61945 -0.552121 0.442159 -0.429173 Si
53 1 6.76695 9.52158 4.06975 1.49224 0.136327 1.17466 0.412609 -0.0509105 0.461972 Si
12 1 0.0441847 -0.0677491 5.52655 -0.940741 0.887607 -1.19336 -0.155889 0.586944 -0.750974 Si
57 1 9.53681 9.43282 6.73759 4.88131 0.349521 -1.52664 0.0254303 1.31238 2.30032 Si
62 1 8.15125 8.1478 5.52219 0.143922 -3.28201 -5.2385 -1.54813 -0.103864 -1.23896 Si
6 1 2.74011 2.66779 -0.0118015 0.956983 2.85614 -1.15286 -0.196731 0.300691 0.633845 Si
11 1 4.09596 1.32913 9.54736 -1.78918 4.02006 7.80333 0.19037 0.357809 -1.05913 Si
42 1 5.40989 2.82547 8.154 -2.89588 -0.93901 -1.0332 -1.22874 -0.320824 0.698883 Si
10 1 0.00528263 2.64919 8.21233 -0.10073 -2.07763 -5.56284 0.607605 0.848145 -0.386617 Si
43 1 9.5638 1.39528 9.52597 -1.38123 2.62916 -4.45616 -0.610471 -1.26581 -0.155874 Si
13 1 1.37452 4.00252 9.52355 4.56692 -0.990046 0.304465 0.150431 1.16183 0.168934 Si
32 1 2.73825 5.52441 8.19921 -3.4905 1.07514 -0.893987 -0.930638 -0.784554 -0.400669 Si
52 1 5.36723 5.48525 -0.0465916 -4.37277 -2.09047 5.04483 -0.67885 -1.33154 0.647864 Si
27 1 4.01119 6.8397 9.60728 -0.899359 6.76451 -3.31592 0.307516 0.313022 -0.686721 Si
45 1 6.7206 4.15209 9.51327 -3.77749 -1.52986 4.28154 1.70083 -0.624233 0.402364 Si
20 1 0.00107694 5.40464 0.046903 -4.41854 2.02303 0.493345 1.5204 1.11916 -1.18355 Si
59 1 9.55701 6.75598 9.47275 1.70188 0.874632 1.90314 0.323887 0.424996 0.859428 Si
64 1 8.18241 5.47273 8.16404 0.925687 -6.15067 3.64819 -0.887688 -0.447149 -0.469208 Si
22 1 2.76685 8.28561 -0.00296736 8.08892 -5.85239 1.99767 -1.01949 -0.568111 1.02553 Si
16 1 2.78198 -0.0569987 8.09698 2.00217 -0.933317 5.0415 -0.215609 0.240257 0.854567 Si
26 1 0.0600135 8.11997 8.1652 3.99705 -4.27451 7.51398 -1.26592 0.18636 -0.645781 Si
29 1 1.3442 9.49208 9.44557 -0.415255 -2.34453 -1.44481 0.573283 1.25719 0.954049 Si
58 1 5.38223 8.14888 8.24525 2.88381 2.12041 -7.2012 0.0395991 -0.096309 -0.335834 Si
61 1 6.78313 9.50496 9.47673 -3.57484 -0.636331 0.167421 0.262667 1.08332 0.0655003 Si
48 1 8.13364 0.0801582 8.14859 1.25152 0.443195 -1.01181 0.42686 -1.00562 -0.446472 Si
ITEM: TIMESTEP
19000
ITEM: NUMBER OF ATOMS
64
ITEM: BOX BOUNDS pp pp pp
0.0000000000000000e+00 1.0887404739999999e+01
0.0000000000000000e+00 1.0887404739999999e+01
0.0000000000000000e+00 1.0887404739999999e+01
ITEM: ATOMS id type xu yu zu vx vy vz fx fy fz element
2 1 0.0560835 2.80858 2.71332 0.662433 -4.5391 0.183474 -1.27377 -0.241797 0.330277 Si
7 1 1.33583 1.44574 1.37173 4.57249 -0.298131 -2.23708 0.15624 -0.732155 -1.05059 Si
34 1 5.35632 2.78601 2.65555 2.26385 2.40525 -6.38184 0.291263 -1.04965 0.596631 Si
36 1 5.37999 -0.0458261 -0.0908645 -0.245005 0.889911 -2.532 0.336041 0.178286 0.00608172 Si
39 1 6.69984 1.28171 1.33152 0.109651 -0.498852 -0.347111 0.687872 0.48102 0.365224 Si
38 1 8.14412 2.67472 0.0184411 1.09649 -3.8889 4.55253 -0.818608 -0.614653 0.446657 Si
40 1 8.22807 -0.0308125 2.71803 0.235228 1.97598 7.48843 -1.6615 1.65473 0.996561 Si
23 1 1.37605 6.77442 1.30293 -0.856399 0.433141 -0.2059 -0.332801 0.256446 0.00940747 Si
24 1 2.78621 5.50647 2.7396 -1.57741 0.857066 -6.76008 -0.92301 -0.0272564 0.323503 Si
1 1 4.00661 4.15261 1.33934 -4.92954 -3.70042 3.57023 1.0882 0.100522 -0.357161 Si
55 1 6.81048 6.82718 1.39082 2.36476 -5.66521 -2.20018 -0.663032 -0.304 0.0871827 Si
33 1 9.32746 4.02117 1.42519 -3.40284 5.95829 -1.81449 2.59313 0.750638 -0.721651 Si
56 1 8.14594 5.45474 2.75136 -1.78187 -1.03538 -0.988593 -0.205349 0.325938 0.0815944 Si
4 1 0.00331601 -0.0175685 -0.0173206 4.10804 -2.14269 2.28917 -0.0713273 0.938004 1.26534 Si
8 1 2.68616 -0.0197912 2.61696 -2.03237 -1.1319 -4.23912 0.617568 0.231603 0.337672 Si
18 1 0.0187228 8.19117 2.67318 0.522831 1.45202 -0.348958 0.523956 -0.119417 0.280482 Si
17 1 4.11907 9.4769 1.3211 -2.6205 -2.00759 5.02514 -0.445358 -0.121022 0.62152 Si
50 1 5.39596 8.119 2.87389 -0.4327 2.06787 1.98889 0.652783 0.626862 -1.24112 Si
49 1 9.50109 9.598 1.40299 -1.22075 1.1209 1.22011 1.20346 -1.3982 -1.15626 Si
54 1 8.21542 8.15223 0.0424273 -3.39198 2.41281 -0.540279 -0.752661 0.705371 0.780884 Si
14 1 2.71288 2.6047 5.49839 -2.4649 -3.85489 -2.24327 0.171569 0.663907 -0.625095 Si
15 1 1.27431 1.32408 6.78213 2.66665 -3.04542 -1.2347 0.438374 0.953708 0.648439 Si
3 1 4.02391 1.3074 4.0564 -4.65592 2.50829 3.41643 0.732478 -0.0214404 -0.302051 Si
47 1 6.78872 1.27788 6.77774 -0.766966 -2.4607 2.64651 -0.0379972 0.173306 0.937825 Si
35 1 9.54416 1.4464 4.09986 0.150312 3.93767 0.281428 0.353405 -0.782263 -0.872241 Si
46 1 8.14617 2.67054 5.4719 6.78341 0.836143 4.01705 -0.769007 0.536559 -0.885035 Si
5 1 1.47266 4.03855 4.08265 0.407643 4.41722 -1.17764 -0.364758 0.964258 0.646584 Si
28 1 0.0602883 5.428 5.50639 3.53279 -1.56072 1.06077 0.10443 -0.979133 -1.25586 Si
31 1 1.29588 6.78778 6.87414 2.21837 -2.18809 2.62962 1.02279 0.735248 0.306144 Si
9 1 4.11853 4.01469 6.75914 -0.0776193 3.97726 2.46177 0.137884 -0.0333521 0.813405 Si
19 1 4.03587 6.81947 4.23911 0.117284 2.96621 2.76997 -0.0531078 -0.0653717 -0.685576 Si
37 1 6.7835 4.09495 4.04478 4.04743 0.903043 0.774921 -0.107067 -0.626951 0.631215 Si
60 1 5.43408 5.42906 5.44422 1.65243 -1.39408 4.43517 0.403248 -0.0125041 0.237545 Si
63 1 6.79226 6.86242 6.76003 -2.42173 3.3764 2.957 0.0665226 -0.655742 0.0465923 Si
41 1 9.52022 4.0261 6.72638 1.75798 1.64509 -0.365043 -0.0456741 0.907979 1.42269 Si
51 1 9.65742 6.72302 4.03724 -0.618604 0.643688 -1.03523 -0.757728 0.680328 0.374443 Si
21 1 1.41512 9.56275 4.06839 2.36557 1.3348 -0.86376 -0.565142 -0.576119 -0.283739 Si
30 1 2.68661 8.2163 5.53186 0.431895 -3.10128 5.3847 -0.645019 -0.64123 -0.228675 Si
44 1 5.42263 -0.104523 5.42035 1.3235 -5.68475 2.38877 -0.16153 1.60468 -0.0794494 Si
25 1 4.06775 9.54916 6.78527 -2.1102 -2.46207 0.663486 0.0213022 -0.223133 1.16751 Si
53 1 6.83556 9.53613 4.13793 -2.22085 4.03014 -3.50578 0.468379 -0.888652 -0.915017 Si
12 1 0.0519364 0.0460285 5.3838 0.186519 3.66074 -0.900178 -1.27917 -0.893526 0.303832 Si
57 1 9.58553 9.56973 6.89862 -2.33677 0.412269 -3.59566 -0.373279 -0.41807 -2.03181 Si
62 1 8.22896 8.10515 5.39834 -2.22956 6.04544 3.24188 0.798692 0.889356 0.607642 Si
6 1 2.69946 2.81756 -0.00546869 2.23786 0.382988 -0.802628 -0.389786 -0.796982 -0.660155 Si
11 1 4.02742 1.39743 9.45105 -0.821026 -7.95227 1.53622 -0.00308788 0.0191277 0.948955 Si
42 1 5.50533 2.73014 8.24038 4.0508 2.09324 3.23018 0.0948054 -0.151188 -1.26272 Si
10 1 -0.00854376 2.73682 8.1845 -0.858822 4.31232 -0.33267 -0.540158 -0.470872 -0.33701 Si
43 1 9.51919 1.36421 9.60227 -4.68019 -0.992613 2.99233 0.450478 0.0843542 -0.93541 Si
13 1 1.3388 4.13881 9.46332 1.0296 2.48737 1.03805 0.549047 -0.0605973 0.238099 Si
32 1 2.82437 5.44847 8.13108 1.51329 -2.76287 2.70062 -0.599068 0.0756134 0.0965838 Si
52 1 5.47349 5.4058 -0.0522858 4.08144 -4.47599 -4.88857 0.348777 0.562213 1.0488 Si
27 1 4.20419 6.82229 9.49813 -2.79385 -6.0627 -1.07834 -1.2492 -0.00958293 0.0906706 Si
45 1 6.9245 4.09122 9.55868 4.31593 4.82228 -5.51368 -0.783569 0.0978122 -0.688601 Si
20 1 -0.0787888 5.40257 -0.0526797 1.1677 -0.525318 -1.10054 -0.47698 0.109317 1.05192 Si
59 1 9.45204 6.86162 9.54277 -3.89108 -3.7167 -5.26088 0.643061 -1.2033 -0.200888 Si
64 1 8.15998 5.50823 8.11707 5.77553 3.24535 -1.50294 0.360647 -0.717848 -0.200665 Si
22 1 2.71685 8.1922 -0.0625994 -5.47097 3.45111 -2.98497 0.873257 -1.13163 0.515729 Si
16 1 2.6631 0.0530951 8.09687 0.452441 -0.830218 -8.51225 0.223933 -0.907712 0.708258 Si
26 1 -0.0693451 8.16622 8.24014 -1.07793 -2.80296 -0.632789 1.28791 0.299682 0.139753 Si
29 1 1.36939 9.55335 9.586 0.728677 -1.62307 -3.49636 -0.270752 -0.010886 -1.70836 Si
58 1 5.48447 8.19814 8.16289 0.575723 2.72454 2.89847 0.0768988 0.438547 -0.427214 Si
61 1 6.88211 9.48215 9.55866 -1.06105 1.48183 -1.06572 -0.59733 0.368022 -0.21256 Si
48 1 8.21159 -0.0154127 8.2213 -6.45714 -2.86376 0.845922 -0.561573 0.47281 -0.18675 Si
ITEM: TIMESTEP
19100
ITEM: NUMBER OF ATOMS
64
ITEM: BOX BOUNDS pp pp pp
0.0000000000000000e+00 1.0887404739999999e+01
0.0000000000000000e+00 1.0887404739999999e+01
0.0000000000000000e+00 1.0887404739999999e+01
ITEM: ATOMS id type xu yu zu vx vy vz fx fy fz element
2 1 0.00284217 2.69969 2.70483 2.08827 2.31051 -1.52526 0.613899 -0.429435 -0.0893112 Si
7 1 1.35862 1.20176 1.36442 -3.89462 3.4362 5.11124 -0.401593 1.35838 0.971765 Si
34 1 5.53255 2.77523 2.81528 3.06731 -3.90304 1.87993 -0.121091 -0.489866 -0.682195 Si
36 1 5.5556 -0.00729181 0.0668534 2.62263 -0.273898 0.231277 -1.21938 1.05665 -0.129573 Si
39 1 6.9364 1.45917 1.38378 -3.57419 -4.30501 3.19306 -1.37995 0.0700421 -0.330389 Si
38 1 8.19266 2.80286 -0.0559453 0.773286 1.68616 -0.43713 1.20668 -0.952675 0.419412 Si
40 1 8.13255 0.0485854 2.7043 2.49075 0.901294 -3.79061 0.787492 -1.20217 0.123115 Si
23 1 1.34554 6.81645 1.46709 -3.52538 -3.11444 -1.2913 0.194351 -0.134799 -0.627789 Si
24 1 2.7707 5.36457 2.6641 -3.66441 1.76568 5.54611 -0.490903 0.0477573 -0.481198 Si
1 1 4.16574 4.01321 1.34022 -0.785391 -0.962224 -0.284076 -0.836707 -0.661779 1.33915 Si
55 1 6.86118 6.80506 1.39353 -5.23934 5.99526 -1.01797 -0.271958 -0.123502 -0.880325 Si
33 1 9.5892 4.10958 1.34874 0.106404 -4.09569 0.406256 -0.543607 -0.147872 -0.0639739 Si
56 1 8.18312 5.42911 2.70074 0.209366 1.31474 -5.4411 0.229645 0.21846 -0.0578314 Si
4 1 -0.0334384 -0.0168082 0.00685426 1.89831 0.971096 -4.95874 -0.136929 -0.190629 -0.837889 Si
8 1 2.69056 0.00124743 2.82923 0.218425 2.23859 2.07254 0.181311 -0.425913 -0.331027 Si
18 1 -0.0419891 8.22086 2.71808 3.74958 -4.13248 -1.12988 -0.319786 -0.493413 0.643342 Si
17 1 4.04783 9.59654 1.40218 8.20609 3.24098 -2.16739 0.369349 -0.710863 -0.319202 Si
50 1 5.4578 8.14473 2.64432 2.75204 -4.16063 -3.53329 -0.61448 0.306131 0.482482 Si
49 1 9.50021 9.51997 1.32622 -1.40031 4.19863 4.76537 -0.47574 0.430359 0.315111 Si
54 1 8.1578 8.16967 -0.0414404 -0.858836 -6.1647 -5.2933 0.0256911 -0.251758 0.445159 Si
14 1 2.66792 2.86446 5.46098 1.42442 1.18215 2.21215 1.12184 -1.58402 -0.848288 Si
15 1 1.48067 1.38125 6.79809 -3.71145 -4.55723 2.45678 -0.559389 -0.596837 -0.362392 Si
3 1 4.08968 1.38092 4.09835 1.47498 1.55265 -4.86136 -0.297918 0.97254 0.751631 Si
47 1 6.88271 1.37899 6.78088 -0.993497 2.70114 -1.93612 -0.572277 0.172422 -0.21168 Si
35 1 9.55043 1.28888 4.06132 -0.627305 -2.42391 1.95032 -0.109659 1.28302 -0.0914644 Si
46 1 8.2337 2.76309 5.36998 -0.0648673 -2.39146 0.6981 0.103289 -0.143951 1.14086 Si
5 1 1.38096 4.1293 4.03661 -1.48941 -7.61635 -1.11045 -1.00272 -0.404194 -0.0451858 Si
28 1 -0.0551269 5.42929 5.39847 -0.315832 1.86057 4.46023 0.0856172 1.1033 0.142391 Si
31 1 1.42724 6.83538 6.70229 -2.69815 -1.16733 -1.34809 -1.19621 -0.204602 -0.294398 Si
9 1 4.04595 4.12308 6.78467 -2.20554 -1.04306 -2.28052 0.42181 0.416282 0.208848 Si
19 1 4.09662 6.69551 3.93663 0.0541939 2.77644 -0.159061 0.478671 1.41029 0.760106 Si
37 1 6.8659 4.18052 4.12514 -1.80972 -2.19826 -2.89714 -0.227111 -0.724449 -0.307158 Si
60 1 5.42484 5.46761 5.39634 0.0545006 -2.02586 -1.06182 0.0222949 -0.340504 0.764251 Si
63 1 6.79947 6.67454 6.8886 1.13172 2.12718 1.82736 -0.648574 1.63197 -0.672691 Si
41 1 9.50088 4.1493 6.89502 -2.77244 -1.67634 -0.916811 0.773875 -1.28586 -1.45236 Si
51 1 9.39395 6.85952 4.06227 1.58091 2.37574 1.17901 1.12054 -0.00471519 0.351222 Si
21 1 1.31211 9.51025 4.13903 -1.47137 0.692115 1.7361 0.241058 0.236544 -0.129146 Si
30 1 2.8134 8.14035 5.33232 -1.58908 4.01081 2.26258 -0.22806 -0.0308627 0.247625 Si
44 1 5.43201 0.0283081 5.48414 -2.0133 -0.144388 -1.34017 0.170934 -0.0931538 -0.342703 Si
25 1 4.07296 9.5149 6.80607 0.48996 -0.741834 -0.869019 0.0208025 -0.0601069 -0.632011 Si
53 1 6.72872 9.55692 4.02325 3.70484 -1.29318 2.45891 -0.10146 0.273055 0.277895 Si
12 1 0.00718323 0.0669666 5.47855 0.133413 -2.74063 -1.25894 0.372745 -0.658113 0.223025 Si
57 1 9.4832 9.59287 6.79476 0.428368 1.93291 4.0069 -0.175161 -0.834587 0.00432289 Si
62 1 8.00741 8.20471 5.43488 -0.972077 -5.44889 0.0714433 0.872394 -0.340573 0.770803 Si
6 1 2.74806 2.58558 0.131319 -3.67918 -1.92395 0.941704 -0.0627697 0.73692 -0.964146 Si
11 1 4.04894 1.34855 9.54491 -2.13718 3.90846 -3.82827 1.28721 -0.733496 -0.0348127 Si
42 1 5.42907 2.70877 8.09104 -2.43339 2.04297 1.95901 -0.0852364 0.0988723 0.86683 Si
10 1 0.0711873 2.67443 8.05726 2.02916 2.58885 2.19111 -0.512789 0.698062 1.61109 Si
43 1 9.55029 1.34535 9.46448 2.80062 -0.42678 -0.930692 -0.234012 0.430889 0.358827 Si
13 1 1.41765 3.97951 9.60022 -0.419326 1.65123 -0.163715 -0.965694 0.58403 -0.21354 Si
32 1 2.59651 5.43802 8.11212 0.310469 4.23875 -4.29709 1.23909 -0.393059 0.92457 Si
52 1 5.42967 5.40655 0.124678 -2.65934 4.56469 0.452148 0.608467 0.971716 -2.06915 Si
27 1 4.00056 6.76249 9.53331 3.44985 3.61152 -1.18736 0.602983 -0.180745 0.213067 Si
45 1 6.78301 4.04765 9.56351 1.81825 1.01623 1.49449 -1.17756 0.328984 -0.260989 Si
20 1 0.00864227 5.51977 0.0345972 2.87488 -1.58274 1.53743 0.821294 -0.931542 -0.415238 Si
59 1 9.54487 6.82562 9.53481 0.964585 -5.09639 1.84591 0.0903118 0.0237238 -0.733319 Si
64 1 8.14436 5.36781 8.25892 -2.98373 0.344932 -2.14381 0.266213 1.05863 0.335133 Si
22 1 2.69552 8.13119 0.0611925 0.693931 1.28774 1.86859 -0.409252 1.12313 -0.635257 Si
16 1 2.72674 -0.0723406 8.18401 2.83671 -1.15909 2.01661 0.389713 1.18693 -0.360308 Si
26 1 0.056749 8.17968 8.09339 -0.871097 0.551997 -3.02264 -0.99504 -0.0881982 -0.0769489 Si
29 1 1.31523 9.57546 9.46558 2.34942 4.05012 3.55125 0.40706 -1.3484 1.46829 Si
58 1 5.38334 8.1775 8.1546 -1.37799 0.650842 2.30873 0.447722 -1.15251 0.57433 Si
61 1 6.76592 9.50113 9.54426 -0.361743 -1.29533 -1.91278 -0.149417 -0.285517 -0.172124 Si
48 1 8.08274 -0.0265018 8.22111 3.81184 -1.71405 -0.296767 0.948083 0.405588 -0.578646 Si
ITEM: TIMESTEP
19200
ITEM: NUMBER OF ATOMS
64
ITEM: BOX BOUNDS pp pp pp
0.0000000000000000e+00 1.0887404739999999e+01
0.0000000000000000e+00 1.0887404739999999e+01
0.0000000000000000e+00 1.0887404739999999e+01
ITEM: ATOMS id type xu yu zu vx vy vz fx fy fz element
2 1 -0.0229472 2.65369 2.76581 -3.74524 1.68281 0.33758 0.177608 1.39822 0.124858 Si
7 1 1.33203 1.4952 1.30767 -2.45054 -3.43367 -0.232865 0.797486 -0.821085 0.410512 Si
34 1 5.33806 2.69721 2.66393 -3.74641 -2.28095 4.92357 0.326432 -0.0332516 0.328202 Si
36 1 5.42923 0.0172911 -0.0805673 -0.521345 1.0393 1.47069 0.540695 -1.31333 1.2438 Si
39 1 6.74941 1.345 1.37165 0.940941 5.38674 -2.25632 0.182555 -0.403547 -0.279058 Si
38 1 8.12616 2.67779 0.017755 0.0808156 -1.41014 0.464412 -0.27101 1.25921 -0.214896 Si
40 1 8.17296 -0.0614808 2.67597 -5.41103 4.87267 0.784948 0.303471 0.295098 -0.285736 Si
23 1 1.39405 6.73994 1.36753 -0.200913 2.76884 -4.11004 -0.500002 0.745762 -0.34318 Si
24 1 2.70023 5.49559 2.78439 2.75732 -1.29066 -1.64227 0.42631 -0.188024 0.651285 Si
1 1 4.06102 4.18789 1.43156 10.1244 0.45166 -3.2635 0.316145 0.0928073 -1.76922 Si
55 1 6.79578 6.82059 1.37259 2.04931 -0.492431 3.58731 0.0970331 0.316211 0.944198 Si
33 1 9.56325 4.06732 1.36558 5.66059 -1.67302 1.8406 -1.20624 -0.456724 0.427004 Si
56 1 8.0692 5.40941 2.71161 1.42454 -1.00225 2.53716 1.05364 -0.419314 0.234528 Si
4 1 0.0277436 0.08009 0.0354961 -2.81701 5.15702 3.50369 0.010205 -0.936155 -0.472303 Si
8 1 2.68774 0.0304093 2.63925 1.57909 -0.822841 3.11283 0.582895 -0.0147952 0.534144 Si
18 1 0.0562641 8.12387 2.73874 -1.26376 3.28348 2.11598 0.013358 -0.127762 -0.783605 Si
17 1 4.1192 9.43247 1.36805 -5.07987 -1.62172 -1.28843 -0.359207 1.36348 -0.45202 Si
50 1 5.4429 8.13218 2.78534 0.0693038 0.0288402 -0.375394 0.141483 -0.047711 -0.761993 Si
49 1 9.60923 9.46193 1.30602 0.945574 -2.97542 -4.17444 -0.372683 0.670653 0.906813 Si
54 1 8.09635 8.1837 0.0766071 -0.176014 1.67997 7.22485 1.10253 -0.236802 -1.26422 Si
14 1 2.78837 2.62592 5.45514 1.1719 2.21198 -3.11971 -1.18564 1.68761 0.578572 Si
15 1 1.33014 1.33968 6.78684 3.42858 7.10188 -3.09978 -0.357551 0.4572 0.344931 Si
3 1 4.08897 1.38643 4.11604 -0.218606 0.32755 0.185351 -0.0123227 -1.63575 -1.23423 Si
47 1 6.81895 1.3705 6.83352 3.30492 -1.8619 1.0548 -0.427709 -0.100825 -0.236487 Si
35 1 9.47936 1.33599 4.09209 5.58647 4.02481 -4.65078 -0.181179 -0.478333 0.355198 Si
46 1 8.04482 2.75653 5.39744 1.53966 -0.782324 -7.46124 0.850782 -0.853598 0.134332 Si
5 1 1.37813 4.0721 4.13358 -2.6738 1.37778 0.531332 0.0635183 -0.721294 -0.129233 Si
28 1 0.0116409 5.42038 5.4855 -0.561012 -4.28849 -5.54576 0.256895 -0.325815 0.384917 Si
31 1 1.36824 6.8455 6.83928 4.50061 3.15226 -1.42882 0.0220284 -0.83862 0.509796 Si
9 1 4.11643 4.09233 6.78011 1.15443 -3.67354 0.72813 -0.761599 -0.658201 -0.103468 Si
19 1 4.07152 6.88954 4.15556 -1.29302 -1.0012 0.655257 -0.382337 -0.983998 -0.18438 Si
37 1 6.6566 4.00731 4.03896 -2.10208 -1.01554 1.7366 0.407341 1.13776 -0.0305448 Si
60 1 5.39577 5.4413 5.44656 0.21896 4.70748 2.27192 0.501497 0.249247 -0.567689 Si
63 1 6.81004 6.793 6.7468 -0.246889 -1.51602 -0.153259 1.12073 -0.0477184 -0.38881 Si
41 1 9.46719 4.02166 6.78434 1.94009 2.15149 0.708906 -0.0445599 0.624438 0.094076 Si
51 1 9.63789 6.69885 4.02581 -0.802763 -2.66466 3.55412 -1.38224 0.462059 0.387134 Si
21 1 1.37495 9.50522 4.06006 0.401734 -2.12307 2.98592 0.16814 0.529736 -0.112329 Si
30 1 2.68672 8.19926 5.47873 1.97522 0.224432 -4.34515 0.32415 0.408585 0.30171 Si
44 1 5.44715 -0.0191151 5.45038 -2.93972 2.89465 -3.49948 0.306043 -0.195547 -0.0294118 Si
25 1 4.02198 9.57568 6.88114 0.327063 -2.53354 3.23943 0.60578 -0.171068 -0.901111 Si
53 1 6.84694 9.46761 4.02341 -3.4732 -3.63192 -1.66796 0.231955 0.334324 1.54912 Si
12 1 0.0206807 -0.0609031 5.44482 -3.2377 0.837011 -1.83858 -0.171031 0.673568 -0.605267 Si
57 1 9.6113 9.48762 6.79782 0.965525 -0.521316 -3.62944 -0.122742 0.404568 1.11373 Si
62 1 8.32893 8.14802 5.44731 2.0075 3.11167 -0.0964738 -1.29017 -0.772247 -1.05435 Si
6 1 2.70101 2.83898 -0.0529375 -1.00227 -1.00318 -2.20033 0.568232 -0.187176 0.405376 Si
11 1 4.09956 1.34516 9.54389 2.59308 -1.29397 2.54835 -0.998998 1.4926 -0.613392 Si
42 1 5.40198 2.75665 8.14358 -0.961739 -3.35003 -2.9663 0.465693 -0.659818 0.341907 Si
10 1 -0.11934 2.66307 8.19566 -1.45727 -2.29757 -0.739187 1.39495 0.758825 -0.732837 Si
43 1 9.51988 1.36543 9.58444 -0.507308 1.59398 0.430974 -0.326326 -0.289952 0.153256 Si
13 1 1.27972 4.13633 9.48697 -4.05279 1.47494 1.148 0.398316 -0.491154 -0.426689 Si
32 1 2.81543 5.41127 8.16862 -2.03752 -2.63212 4.86408 -0.882807 1.01014 0.0134993 Si
52 1 5.56394 5.54627 -0.0191087 3.26072 2.95102 1.69784 -2.10596 -0.979919 0.447324 Si
27 1 4.22593 6.8591 9.46136 0.209691 0.821504 -1.75526 -0.904259 0.0998866 0.261236 Si
45 1 6.73133 4.14082 9.48561 -3.23127 -3.25262 2.41687 1.36051 -1.03861 0.474189 Si
20 1 -0.0291343 5.43334 0.0153444 -4.58495 -0.759855 0.0739668 0.053152 0.473038 -0.188517 Si
59 1 9.47693 6.79764 9.53752 3.06582 5.52112 5.3129 -0.139882 0.224506 0.927697 Si
64 1 8.15787 5.45219 8.16307 -1.93961 -0.572689 0.266314 -0.24333 -0.246131 -0.534158 Si
22 1 2.70937 8.14428 -0.0118069 6.03364 -7.48904 -0.981349 0.974895 -0.58025 -0.0910356 Si
16 1 2.6703 0.0755228 8.18726 -0.242472 -0.526835 2.63128 0.31912 -0.605689 0.390258 Si
26 1 0.00600099 8.15659 8.2815 -0.32435 2.43039 -1.09948 0.234261 0.189409 -0.835381 Si
29 1 1.3946 9.54874 9.57202 -3.10762 -0.632399 -2.99911 -0.551715 0.489451 0.028244 Si
58 1 5.56697 8.20906 8.05123 -0.454542 -4.35508 -4.82683 -1.00435 0.271742 0.822086 Si
61 1 6.86312 9.53058 9.48758 -4.12393 -0.0844631 3.00576 -0.0557364 0.581831 0.0188931 Si
48 1 8.26128 0.0458119 8.15929 1.67109 -2.40081 1.49584 -0.458257 -0.841745 -0.217265 Si
ITEM: TIMESTEP
19300
ITEM: NUMBER OF ATOMS
64
ITEM: BOX BOUNDS pp pp pp
0.0000000000000000e+00 1.0887404739999999e+01
0.0000000000000000e+00 1.0887404739999999e+01
0.0000000000000000e+00 1.0887404739999999e+01
ITEM: ATOMS id type xu yu zu vx vy vz fx fy fz element
2 1 0.039291 2.78347 2.69288 -1.29541 -1.1729 3.56437 -0.929695 -0.66387 -0.539825 Si
7 1 1.30603 1.26332 1.35206 0.750093 1.30712 3.07001 0.330749 0.216467 -0.68575 Si
34 1 5.54757 2.7419 2.76524 2.15877 0.852113 -3.162 -0.77264 0.364941 0.0730239 Si
36 1 5.40761 -0.0155146 0.0371953 0.399022 -0.164875 -1.47853 0.379009 0.348379 -0.913661 Si
39 1 6.75729 1.38755 1.35777 4.65297 1.3588 -1.06282 1.5435 -0.426251 -0.0316634 Si
38 1 8.24326 2.6865 -0.0324722 2.11706 1.97469 3.41472 -0.748187 -0.376153 0.447815 Si
40 1 8.24866 0.0768123 2.76952 5.27874 -3.3996 -2.43896 -1.38424 -0.166757 0.20332 Si
23 1 1.25568 6.89986 1.33971 2.32887 -1.4896 2.82931 1.44218 -0.591985 0.318918 Si
24 1 2.72003 5.51523 2.70501 -3.66188 -3.56121 3.81742 0.0752937 -0.784044 -0.508943 Si
1 1 4.09065 3.97211 1.36128 -4.57835 -0.740485 4.42916 -0.391168 0.744518 0.384404 Si
55 1 6.75615 6.77567 1.27947 1.39204 -5.53439 -4.33964 0.33504 -0.352198 0.0141784 Si
33 1 9.48315 4.14718 1.29733 -2.00886 2.19277 -2.0341 1.07089 0.0614789 0.643563 Si
56 1 8.16036 5.54299 2.70657 -0.652434 -3.04595 -5.58716 0.0209537 -0.32326 0.0799438 Si
4 1 -0.0703104 -0.122789 -0.130291 -1.096 -5.76948 -1.45013 0.750061 1.32242 1.91914 Si
8 1 2.73761 0.0183399 2.80224 -0.273239 0.0457928 -2.72159 -0.255991 -0.426471 -1.16571 Si
18 1 -0.017291 8.23732 2.70289 -2.72218 2.98467 1.71676 -0.392124 0.484221 0.684696 Si
17 1 4.09729 9.51937 1.39132 -2.09112 0.522617 3.75671 -1.00676 -0.202714 0.00893572 Si
50 1 5.43859 8.07023 2.66483 -3.17487 1.72164 1.17524 0.519182 1.32249 0.793577 Si
49 1 9.50957 9.58001 1.35544 -0.45359 0.207303 -3.85839 -0.454753 -0.949382 -0.274498 Si
54 1 8.18678 8.10174 -0.0376187 -3.71439 1.64379 -2.74478 -0.287327 1.06638 0.982334 Si
14 1 2.71626 2.7686 5.42206 -2.4934 -3.61042 -3.9383 0.0301685 -0.924729 0.400696 Si
15 1 1.34441 1.37081 6.80619 -0.386066 -2.31098 -2.75268 0.473597 0.115999 -0.239842 Si
3 1 4.06483 1.43185 4.04259 -4.31698 -0.649258 4.28464 0.621915 -0.206718 0.877549 Si
47 1 6.73601 1.40812 6.86654 -1.06856 -0.542676 1.32104 0.859437 -0.931515 -0.368181 Si
35 1 9.59497 1.44583 4.16843 0.663012 -2.91509 0.736254 -0.094319 -0.111633 -0.735183 Si
46 1 8.27263 2.73564 5.60653 -2.72154 5.07672 2.70983 -1.17475 0.228936 -1.1713 Si
5 1 1.39612 4.04048 4.04162 2.47942 -1.68342 1.76767 -0.082979 1.76561 0.0530813 Si
28 1 0.0224223 5.48798 5.379 1.44895 1.30387 -1.17205 -0.292748 -0.0501419 -0.596985 Si
31 1 1.33875 6.77316 6.79526 0.647929 -2.36705 -0.0169411 0.488968 0.413277 0.262279 Si
9 1 4.128 4.03172 6.77941 -1.40859 7.00871 -0.458804 -0.392427 0.642567 0.656035 Si
19 1 4.17989 6.7601 4.10238 4.14083 1.57361 2.50043 -0.867905 -0.274297 -0.49131 Si
37 1 6.89166 4.13217 4.13442 3.58594 5.73988 -3.73213 0.640902 -0.726909 0.0530154 Si
60 1 5.47674 5.39402 5.45678 -1.02403 -0.449035 -1.13868 0.103256 0.383429 0.229769 Si
63 1 6.73586 6.84491 6.81252 -2.82085 2.32066 -3.15609 -0.732047 -0.644639 1.43627 Si
41 1 9.68433 4.09635 6.80408 3.4974 -2.44387 2.31977 -0.560601 0.600023 0.821495 Si
51 1 9.43806 6.98045 4.10722 -4.76802 -0.315772 -3.95707 0.768286 -1.27801 -0.072885 Si
21 1 1.38854 9.52615 4.11886 5.26465 5.56512 -3.50877 -0.224234 -0.250372 -0.0100235 Si
30 1 2.7585 8.07376 5.40583 -0.0445562 -2.29733 1.15126 -0.823504 -0.097083 -0.144359 Si
44 1 5.36506 0.0081148 5.46239 -1.34467 -1.52843 5.32207 0.357648 0.346911 -0.149359 Si
25 1 4.05277 9.4003 6.72605 -0.329729 1.28971 -2.81744 0.498571 0.774539 1.40184 Si
53 1 6.76616 9.52654 4.135 3.23397 0.35399 1.16492 -0.0280022 0.343965 -1.22121 Si
12 1 -0.0149026 -0.00653791 5.46222 2.13874 -1.10589 3.62819 0.201278 -0.0192869 0.234985 Si
57 1 9.44497 9.57904 6.83243 -5.14657 -1.15957 -1.94392 0.00971629 -0.240273 -1.06487 Si
62 1 8.0349 8.18097 5.53966 -1.32727 0.176405 5.54639 0.967458 1.01738 -0.569222 Si
6 1 2.77504 2.60402 -0.066474 1.6719 2.83841 0.897233 -0.747727 0.0085941 0.790081 Si
11 1 4.1112 1.33187 9.38524 3.30666 -3.10999 1.42986 -0.145392 -0.930503 1.58822 Si
42 1 5.44556 2.7379 8.22147 -0.329025 3.60534 1.32718 0.279004 0.358625 -0.855531 Si
10 1 0.0646254 2.72467 8.24559 -1.08338 -3.65401 -0.295796 -0.712641 -0.750986 -0.766135 Si
43 1 9.54706 1.27665 9.51902 -1.16173 2.18203 0.24182 -0.109499 1.08584 -0.551106 Si
13 1 1.38843 4.02861 9.54904 5.42738 -1.18497 -2.56242 0.794821 0.752501 0.317031 Si
32 1 2.75899 5.41773 8.18647 3.70097 2.16029 -0.170487 -0.51486 -0.337095 -0.414687 Si
52 1 5.38233 5.35807 -0.0167439 0.230734 1.46376 -4.34917 1.26204 -0.625778 0.173025 Si
27 1 3.99747 6.73066 9.67462 -0.466641 -4.13303 1.3492 -0.171395 0.472222 -0.951952 Si
45 1 6.90437 4.0186 9.49643 -2.0914 1.5566 1.45906 -0.514087 1.31904 0.118455 Si
20 1 0.0589458 5.49111 -0.0383942 -0.944764 -3.45792 1.07466 -0.891318 -0.583441 -0.00917759 Si
59 1 9.54731 6.84117 9.51856 -1.59882 -1.27222 -5.35485 0.404964 -0.377812 -0.885251 Si
64 1 8.21784 5.50118 8.09536 1.19663 1.3175 3.22842 -0.0887306 -0.69531 0.398695 Si
22 1 2.64127 8.21914 -0.0302121 -3.4412 7.99433 -1.29787 0.221286 0.113206 0.792216 Si
16 1 2.7458 -0.0323344 8.07714 -2.22367 -0.240453 -4.48807 -0.448224 -0.266755 -0.117354 Si
26 1 -0.0751525 8.23257 8.07017 1.07021 -2.35588 2.95436 0.854399 -0.901108 0.803753 Si
29 1 1.30658 9.55618 9.45806 2.64724 -3.91092 4.12871 0.820667 -0.774734 -0.965656 Si
58 1 5.32484 8.13495 8.35259 0.155205 0.678979 1.87095 0.817879 -0.00415319 -1.52829 Si
61 1 6.83745 9.51872 9.56401 4.68586 -1.84125 -3.58052 -0.834835 -0.152079 0.267621 Si
48 1 8.15244 -0.0159804 8.19755 -2.00739 4.40072 1.38254 -0.868008 0.744495 -0.230042 Si
ITEM: TIMESTEP
19400
ITEM: NUMBER OF ATOMS
64
ITEM: BOX BOUNDS pp pp pp
0.0000000000000000e+00 1.0887404739999999e+01
0.0000000000000000e+00 1.0887404739999999e+01
0.0000000000000000e+00 1.0887404739999999e+01
ITEM: ATOMS id type xu yu zu vx vy vz fx fy fz element
2 1 0.00360249 2.75531 2.72225 4.91071 3.29919 -6.47284 0.440897 -1.44115 0.572079 Si
7 1 1.44733 1.30879 1.40203 -0.393677 -0.218662 -0.0720321 -0.549234 1.26384 0.52383 Si
34 1 5.39396 2.72625 2.73008 -2.44053 3.33886 -0.562601 0.224626 -0.344634 -1.19351 Si
36 1 5.46895 0.0311119 -0.028947 -0.782581 -6.42287 2.84716 -0.631556 0.0896329 -0.00939139 Si
39 1 6.85464 1.33744 1.31282 -3.82436 -4.26963 -1.3682 -1.10006 0.690938 0.513661 Si
38 1 8.14523 2.72408 -0.0535314 0.723856 2.94523 -4.40986 0.388313 -0.0132959 0.504933 Si
40 1 8.11105 -0.100181 2.62228 0.498189 -3.6303 0.327552 0.846314 0.357912 1.0032 Si
23 1 1.51328 6.73386 1.31585 1.87401 0.132715 -0.532125 -1.50166 -0.315114 0.82419 Si
24 1 2.75235 5.37921 2.82608 4.42019 3.98616 2.05312 -0.941072 0.323833 -0.791588 Si
1 1 4.09365 4.20644 1.3598 -1.93566 6.80805 -1.50459 -0.112912 -1.53938 0.544859 Si
55 1 6.89377 6.86337 1.42051 2.198 1.56219 0.671281 -0.534987 -0.0565076 -0.414117 Si
33 1 9.47041 4.03386 1.44489 -9.00905 -3.72723 2.96357 0.185064 0.217862 -1.40743 Si
56 1 8.14856 5.40605 2.74915 -0.702242 1.06043 2.43236 -0.114127 0.255413 0.0170652 Si
4 1 0.0207092 0.0767628 0.0780827 1.66315 1.50622 -0.177047 -0.627065 -0.802568 -0.907476 Si
8 1 2.7495 -0.0817141 2.76412 -2.88276 0.428474 0.411012 -0.767361 0.6937 -0.103399 Si
18 1 0.0136017 8.09458 2.65107 1.46036 -0.112367 -1.54986 0.19528 -0.702669 0.267253 Si
17 1 4.01618 9.57909 1.32469 3.62936 0.128083 -3.72774 2.17501 -0.509436 0.446135 Si
50 1 5.44128 8.18888 2.7291 1.83583 -3.39012 -1.65476 -0.660361 -0.0559003 -0.0704703 Si
49 1 9.54156 9.47573 1.34785 -1.27493 2.86723 4.16196 1.05767 1.10782 0.393655 Si
54 1 8.25869 8.22028 0.042443 3.39607 -2.81616 0.16568 -1.49568 -0.747741 -1.35732 Si
14 1 2.73044 2.69817 5.53231 -0.244933 1.47077 8.37405 -0.0768919 -0.370217 -1.16629 Si
15 1 1.3639 1.39008 6.86575 -2.0659 -0.421396 3.39436 0.255386 -1.25197 0.111813 Si
3 1 4.06151 1.31627 4.07123 -1.00962 -1.28946 -2.81729 -0.0165955 0.889316 0.461301 Si
47 1 6.86576 1.31544 6.8286 -1.97321 -1.83466 -1.68634 -0.717924 0.992319 -0.752444 Si
35 1 9.4982 1.27685 4.03155 -0.758263 0.810833 0.398056 0.0972761 0.260495 -0.228429 Si
46 1 8.04019 2.665 5.29913 -2.14253 -5.69906 4.6544 0.993243 0.112806 1.03376 Si
5 1 1.35064 4.0517 4.17172 2.88114 -2.66096 -2.29035 0.21953 -0.381791 -0.337549 Si
28 1 -0.0240161 5.36921 5.48844 3.43672 2.25485 2.94454 -0.054521 0.687346 0.847328 Si
31 1 1.36241 6.87176 6.84554 -1.2932 -0.518382 4.16515 -0.60556 0.0279206 -1.24225 Si
9 1 4.045 4.09011 6.79377 -1.22288 -3.75088 -4.21934 0.944701 0.306462 -0.166079 Si
19 1 3.97275 6.81842 4.07975 -4.10767 -5.03602 -0.284708 1.2181 1.12551 0.379543 Si
37 1 6.71867 4.10659 4.03574 -2.61222 1.39709 0.747114 -0.00882683 -0.144793 0.15918 Si
60 1 5.40223 5.4841 5.3875 0.183271 -2.5303 1.78478 -0.439921 -0.435591 0.351226 Si
63 1 6.85561 6.74996 6.70286 0.746536 -2.21061 3.03881 0.118198 0.516134 0.0583172 Si
41 1 9.36784 4.02464 6.79891 -0.614693 -0.0639474 -3.12442 0.52562 -0.240019 -0.677221 Si
51 1 9.55158 6.69551 4.08059 2.94184 -2.54571 -2.75381 0.723352 0.429225 -0.624343 Si
21 1 1.26305 9.52695 4.02712 -1.44505 0.0508648 2.20826 0.411438 -0.0478842 0.0715751 Si
30 1 2.67106 8.31048 5.40214 -2.08279 0.0407536 4.21928 0.378686 -0.841519 1.03825 Si
44 1 5.52047 0.0829643 5.38975 2.64105 -2.1633 -2.65976 -0.321669 -1.28332 0.615438 Si
25 1 4.10533 9.65505 6.84081 -0.529654 -1.5487 1.78621 -0.142073 -0.310994 -0.877206 Si
53 1 6.86262 9.46476 4.10831 -0.21628 6.29442 0.518181 -0.52182 0.511731 -0.350557 Si
12 1 0.0265941 -0.0181232 5.47274 4.89285 0.505131 0.400134 -0.41176 0.601082 -0.183971 Si
57 1 9.56042 9.5077 6.80908 8.39368 3.33581 7.22808 0.695141 -0.621003 -0.0850149 Si
62 1 8.29722 8.12264 5.37614 -2.2997 -4.60333 -3.36562 -0.776165 -0.0726078 0.86749 Si
6 1 2.69171 2.79493 0.0487178 -2.74563 -0.11416 2.47824 -0.0404504 0.554406 -0.375566 Si
11 1 4.05217 1.46411 9.58678 -4.96555 0.955994 -6.64296 0.582159 -0.513544 -0.233188 Si
42 1 5.44442 2.71833 8.11901 4.27595 3.60872 -0.702727 -0.177955 0.177933 0.695873 Si
10 1 -0.0271602 2.73481 8.10841 4.64658 -0.826188 3.21479 -0.250232 0.626519 0.481217 Si
43 1 9.52419 1.37872 9.45412 -1.37144 -4.48 2.69584 0.47578 -0.115178 0.886002 Si
13 1 1.33012 4.16377 9.45378 -4.23542 -0.906845 -4.17306 -0.0850679 -1.24239 0.614168 Si
32 1 2.67675 5.45482 8.07778 -0.0408539 1.23943 -2.44577 0.646721 0.400847 0.781889 Si
52 1 5.46662 5.51928 0.070704 -1.76488 -2.35988 1.07902 -0.454426 1.15093 -0.833945 Si
27 1 4.06409 6.8513 9.41245 4.08561 4.45837 -1.25612 1.18125 -0.363248 0.42502 Si
45 1 6.69433 4.09387 9.62459 9.55623 -1.26364 -1.45473 0.332484 -0.456418 -1.03102 Si
20 1 -0.0304687 5.38049 0.0298507 -3.26976 0.363297 -0.0417408 0.520402 0.284186 0.604432 Si
59 1 9.54243 6.75917 9.60123 -5.65996 3.35418 1.70238 -0.721553 0.021753 -1.03053 Si
64 1 8.04322 5.36582 8.19172 -5.34875 2.6001 -2.677 0.930854 0.926432 0.498223 Si
22 1 2.81108 8.14626 0.0372781 2.49738 -1.16408 -3.19914 -0.708214 0.000407476 -1.09149 Si
16 1 2.71153 -0.00582227 8.33911 -4.32496 2.91362 -2.25313 0.000499386 0.77188 -1.2249 Si
26 1 0.0358115 8.18922 8.27536 -0.336152 3.32872 -2.51123 -0.641662 -0.345438 -0.463787 Si
29 1 1.36728 9.51248 9.64387 -0.48567 5.55842 -3.51336 0.0131562 0.185536 0.454833 Si
58 1 5.53412 8.18326 8.00714 0.836541 2.88999 2.73344 -0.370931 0.309199 1.32045 Si
61 1 6.85967 9.6081 9.48365 2.05821 0.729502 0.0877029 0.129333 -1.20609 -0.0678387 Si
48 1 8.24766 -0.00098398 8.08169 1.73006 -3.64485 0.217769 -0.326178 -0.0989177 0.930139 Si
ITEM: TIMESTEP
19500
ITEM: NUMBER OF ATOMS
64
ITEM: BOX BOUNDS pp pp pp
0.0000000000000000e+00 1.0887404739999999e+01
0.0000000000000000e+00 1.0887404739999999e+01
0.0000000000000000e+00 1.0887404739999999e+01
ITEM: ATOMS id type xu yu zu vx vy vz fx fy fz element
2 1 0.0117149 2.70653 2.6725 -3.17981 -1.7132 1.45261 -0.246609 1.06186 0.5962 Si
7 1 1.33948 1.36295 1.33549 -3.24148 -4.77583 -6.68909 -0.142899 -0.282952 -0.670595 Si
34 1 5.43819 2.74872 2.74699 3.5388 0.747089 4.85695 0.250125 -0.280741 1.1304 Si
36 1 5.41368 -0.0254786 0.0622516 6.28102 1.84315 -2.99811 0.530589 0.143658 0.335904 Si
39 1 6.80839 1.41844 1.42574 6.01391 5.20858 -0.571356 -0.275659 -0.778874 -0.566431 Si
38 1 8.16617 2.7406 0.0393003 0.986137 -4.3295 -1.53692 -0.206657 0.317043 -0.536095 Si
40 1 8.14354 0.0243649 2.77384 -0.341906 4.32023 -0.28358 0.199874 0.0303774 -0.939005 Si
23 1 1.29504 6.89398 1.48614 -0.38607 1.6472 3.7584 -0.00209488 0.156162 -1.89488 Si
24 1 2.72028 5.44442 2.51555 1.9735 -3.33908 -1.40057 0.96291 0.677648 1.87497 Si
1 1 4.07874 3.99847 1.38036 1.75952 -4.42695 -1.29648 0.702069 0.810754 -1.53516 Si
55 1 6.81022 6.69296 1.39922 -2.32787 3.78521 -0.383412 -0.512763 1.24606 -0.0976824 Si
33 1 9.53421 4.1496 1.32026 5.10559 1.52726 1.05496 0.115558 -0.843564 0.68742 Si
56 1 8.20487 5.42219 2.76081 0.905471 1.39618 0.314548 -0.242399 -0.102883 -0.305787 Si
4 1 -0.0293074 -0.0500226 -0.0162011 -1.78203 3.48916 1.699 0.4723 0.43101 -0.349862 Si
8 1 2.7088 0.0329582 2.636 2.23637 -0.326704 3.88968 0.373953 -0.0564264 1.35776 Si
18 1 -0.0552846 8.2256 2.83545 -2.38256 0.182294 -1.83699 0.369087 0.154515 -0.661623 Si
17 1 4.04584 9.49251 1.3929 -3.18292 -0.833651 4.49458 -0.0868364 0.617319 -0.715304 Si
50 1 5.41191 8.21241 2.71195 1.53835 -1.98463 1.10826 0.494759 -1.72173 0.106378 Si
49 1 9.53377 9.54938 1.40047 -0.0161851 -3.23573 -4.70015 -0.891152 -0.174288 0.093015 Si
54 1 8.074 8.19669 0.0585808 0.367556 4.16612 -0.557105 1.51542 -0.863289 0.162031 Si
14 1 2.71138 2.78122 5.33796 -0.708943 -0.479716 -0.355919 0.196076 0.840174 1.10681 Si
15 1 1.38295 1.39297 6.72001 1.63791 1.89749 -1.57448 -0.483266 0.35468 -0.108014 Si
3 1 4.06234 1.36239 4.13533 2.49815 3.31604 3.51881 0.476017 -0.289608 -1.2123 Si
47 1 6.79666 1.35782 6.77381 -1.2406 1.63402 2.38155 0.433011 0.0679474 0.121652 Si
35 1 9.50152 1.35997 4.07593 3.59938 -0.692668 -1.04883 0.40107 0.686145 0.796507 Si
46 1 8.14168 2.7698 5.51071 3.02156 1.25432 -8.05911 1.26695 -0.394871 -0.285133 Si
5 1 1.42798 4.24145 3.95704 -2.30912 2.333 0.473043 -1.19681 -1.60436 0.46807 Si
28 1 0.0183098 5.52458 5.3894 -1.90512 -1.14032 -4.05887 -0.22678 -1.025 0.154926 Si
31 1 1.37582 6.75976 6.78173 -0.150887 6.42555 -3.12686 0.694458 -0.37949 0.471632 Si
9 1 4.1292 4.10392 6.84576 3.1377 -1.97445 -1.35809 -1.07027 -0.993897 -0.53192 Si
19 1 4.14578 6.67427 4.04451 2.4537 1.01276 -2.79373 -0.442252 0.465153 -0.444416 Si
37 1 6.85715 4.10101 4.13674 -0.134501 -0.227431 1.85717 -0.655121 -0.337242 -0.504912 Si
60 1 5.47686 5.38133 5.50615 -0.822687 2.02233 -3.29552 0.143093 0.622506 -0.632804 Si
63 1 6.79951 6.7803 6.81731 -5.23198 -4.80076 3.83368 0.860206 0.337137 0.210187 Si
41 1 9.59437 4.12329 6.86548 -2.22266 2.69293 5.90347 -0.00469809 -0.107701 -0.728969 Si
51 1 9.49187 6.81926 4.06111 0.975109 3.77677 1.46892 -0.303605 0.686784 1.08524 Si
21 1 1.43563 9.53281 4.07109 -7.59625 -5.51195 1.61751 -0.384996 0.0203743 0.641088 Si
30 1 2.75742 8.02562 5.40616 3.77411 1.90224 -6.8051 0.472337 1.25933 -0.0145588 Si
44 1 5.48731 0.0110281 5.46878 -2.45892 5.28607 1.32064 -0.932548 -0.114624 -0.58102 Si
25 1 4.09431 9.54029 6.78501 1.39011 0.405715 -0.32219 0.0250941 -1.26298 0.362909 Si
53 1 6.75025 9.57542 4.0261 -6.97014 -7.0281 -3.26048 0.300845 -0.257978 0.817351 Si
12 1 0.000508842 -0.00795663 5.46189 0.175391 7.29113 1.23731 0.078369 0.0119331 -0.814522 Si
57 1 9.48506 9.53592 6.78407 -0.924734 0.0225885 -3.38235 0.185841 0.626231 0.68188 Si
62 1 8.12573 8.26226 5.43166 1.10445 3.23481 -0.479368 -0.425795 -1.35714 -0.383726 Si
6 1 2.72069 2.71511 0.00551467 2.4732 -4.85546 5.30136 0.763088 -1.33221 0.0178473 Si
11 1 4.1188 1.27947 9.5245 -1.50156 2.3564 1.44885 -0.757784 0.966171 -0.583124 Si
42 1 5.48168 2.67505 8.08648 -2.59337 -2.34535 -1.46144 -0.697733 -0.028877 1.1236 Si
10 1 0.0220628 2.6471 8.16741 -2.47913 -6.22651 -6.96635 0.188635 0.835332 0.20547 Si
43 1 9.50164 1.38971 9.55541 4.5491 3.49507 -2.81147 -0.10439 -0.769871 -0.170953 Si
13 1 1.37663 4.00594 9.60466 2.26024 -2.26593 4.26014 -0.799663 0.821594 -0.844372 Si
32 1 2.7353 5.37909 8.24504 0.290535 0.552467 -5.33354 -0.526318 0.28913 -0.51563 Si
52 1 5.49252 5.38403 -0.0542706 1.70144 -1.45519 3.45725 -0.390477 -0.828638 0.990619 Si
27 1 4.04141 6.72752 9.63253 -1.22021 -3.71882 -1.22935 0.129306 0.754207 -0.551931 Si
45 1 6.83929 4.04657 9.42241 -6.55061 2.28208 3.64793 0.189052 -0.0286272 0.943738 Si
20 1 0.0225182 5.48579 0.0330953 1.13116 4.03396 0.641422 -0.156482 0.846292 -0.883664 Si
59 1 9.53209 6.92536 9.44581 4.72976 0.564192 0.0945248 0.355348 -0.401277 2.0961 Si
64 1 8.25369 5.48525 8.22929 1.97489 -4.70482 3.15261 -0.885516 -0.26778 -1.24012 Si
22 1 2.67367 8.20517 0.0129302 -0.972659 0.0694408 2.84406 -0.0972112 -0.793463 0.270031 Si
16 1 2.65242 0.0364817 8.0641 2.43757 -6.66077 1.00209 1.13463 -0.625388 0.943728 Si
26 1 0.0362373 8.14589 8.05141 2.36749 -4.08828 3.37546 -0.43287 0.638219 0.243227 Si
29 1 1.35669 9.48734 9.44225 -7.48784 1.45075 -1.18024 -0.271024 0.691376 0.233005 Si
58 1 5.45705 8.06924 8.25258 -1.07416 -3.10053 -0.272592 -1.06836 0.675118 -0.61815 Si
61 1 6.75039 9.47332 9.60743 -3.57429 -2.42175 2.56004 -0.0558956 1.03972 -0.799564 Si
48 1 8.0787 0.0378737 8.1874 -1.41794 1.03948 3.40285 0.696861 -0.876184 0.392526 Si
ITEM: TIMESTEP
19600
ITEM: NUMBER OF ATOMS
64
ITEM: BOX BOUNDS pp pp pp
0.0000000000000000e+00 1.0887404739999999e+01
0.0000000000000000e+00 1.0887404739999999e+01
0.0000000000000000e+00 1.0887404739999999e+01
ITEM: ATOMS id type xu yu zu vx vy vz fx fy fz element
2 1 -0.017505 2.70599 2.81349 2.21771 -5.43684 3.32686 0.0423429 -0.111805 -0.754984 Si
7 1 1.38171 1.45941 1.32276 -2.10999 4.39412 4.12196 -0.554629 -1.18882 0.440668 Si
34 1 5.42855 2.71902 2.67718 -5.96816 0.399646 -5.48014 0.388534 0.0404586 -0.0784588 Si
36 1 5.45611 -0.0112591 -0.0332851 -4.27866 5.24686 -4.17848 0.0724187 -0.0779664 -0.632646 Si
39 1 6.78029 1.28298 1.34796 -5.89252 2.11041 4.67738 0.725997 0.839229 0.140958 Si
38 1 8.14575 2.72934 -0.0100942 -2.47257 -1.3383 -1.34581 0.0980304 -0.786853 0.37916 Si
40 1 8.21896 -0.0474086 2.707 4.6452 -2.82783 -0.342708 -0.268068 0.692576 0.49591 Si
23 1 1.35057 6.74914 1.32654 -3.06689 -1.29833 1.17754 0.39549 -0.179131 0.634015 Si
24 1 2.71274 5.50234 2.83261 0.135687 3.33994 -1.97819 -0.628599 -1.1841 -0.617434 Si
1 1 4.0186 4.10916 1.37012 2.72022 1.11265 4.44271 0.0138142 -0.0202408 0.972116 Si
55 1 6.71233 6.87564 1.33599 -0.343261 -2.77561 0.0565564 0.851281 -0.923861 -0.271664 Si
33 1 9.55773 4.03353 1.33416 0.339857 -0.631035 -2.56757 0.00245971 1.02086 0.263389 Si
56 1 8.17094 5.4875 2.68982 -4.8541 0.741488 -0.433907 -0.0721038 -0.144354 -0.493171 Si
4 1 0.0375619 -0.0220358 -0.0544769 -2.02818 -4.57997 -0.50393 0.0866653 0.325924 1.52437 Si
8 1 2.72957 0.0400734 2.68315 -3.42935 3.35584 -2.5132 0.439252 -0.444468 -0.166519 Si
18 1 0.0264575 8.10146 2.65223 2.02425 1.82979 -0.110707 0.252668 1.0215 0.373189 Si
17 1 4.17571 9.49163 1.33807 5.68693 -4.68822 -0.680505 -1.68449 0.428629 0.13261 Si
50 1 5.44295 8.2069 2.7771 -2.51322 -2.44141 4.04627 0.837806 0.55232 -0.0641051 Si
49 1 9.57046 9.48838 1.34966 5.85126 -0.15039 -2.24087 -0.241825 -0.216352 -0.988507 Si
54 1 8.21182 8.09643 -0.113769 0.34627 -2.54313 2.75634 -0.837671 1.07524 1.10534 Si
14 1 2.7787 2.62953 5.54046 2.03612 -1.88278 -3.31139 -0.355716 -0.342648 -0.919803 Si
15 1 1.28767 1.29898 6.83104 0.339207 -1.08334 -2.92464 0.641922 0.398976 0.135995 Si
3 1 4.19657 1.3075 4.06571 -3.47282 4.01766 0.420662 -1.42913 0.45017 0.284191 Si
47 1 6.74737 1.41717 6.78062 3.56632 0.452961 -0.791483 0.289817 -0.369478 0.914903 Si
35 1 9.49425 1.37443 4.18215 -2.53336 -0.407686 1.09622 -0.12741 -0.520847 -1.04955 Si
46 1 8.15444 2.75041 5.49086 -0.941141 4.18413 1.03223 -0.647282 0.00877544 -0.908233 Si
5 1 1.33986 3.98728 4.2028 4.20053 0.254991 2.70251 0.629501 1.2934 -0.126682 Si
28 1 -0.0636059 5.48161 5.46995 -1.80386 -3.34871 3.38591 0.663741 -0.537736 -0.812643 Si
31 1 1.2665 6.77201 6.85752 0.736136 -3.68712 -2.26213 0.377998 0.848831 -0.318385 Si
9 1 4.08935 4.06363 6.81008 -0.379219 2.00746 0.642346 0.16776 0.833334 0.0625862 Si
19 1 4.09827 6.88864 4.08203 -0.739904 2.36739 4.59976 -0.757734 -0.270233 1.04874 Si
37 1 6.79866 4.08966 4.03332 -2.896 -2.4288 -0.688704 0.322054 -0.0811722 0.170254 Si
60 1 5.42911 5.44236 5.38393 -3.55264 -0.416484 -0.448619 0.190923 0.254005 0.683791 Si
63 1 6.81916 6.83862 6.78564 0.674335 4.32068 -6.05521 -1.3584 -0.584994 0.227004 Si
41 1 9.55483 4.05528 6.74741 -1.87747 -4.17526 -4.82107 -0.669627 0.644844 1.35537 Si
51 1 9.56413 6.8619 4.03486 1.65467 -6.02698 -3.53161 -0.439305 -1.21804 0.0432405 Si
21 1 1.31775 9.55977 4.03852 4.45298 1.25835 -0.369941 0.537553 -0.656348 -0.0380303 Si
30 1 2.63606 8.17285 5.51431 3.30606 -0.940275 1.22456 0.149947 -0.0281945 -0.918434 Si
44 1 5.45416 -0.0453254 5.46098 -1.39271 -5.88544 0.139682 0.111712 0.567643 0.305388 Si
25 1 4.07463 9.51397 6.79076 -3.56911 1.36272 0.168338 -1.03589 0.975242 0.317968 Si
53 1 6.84959 9.57835 4.15606 2.33647 0.711705 -2.93388 0.0992322 -1.09962 -0.926743 Si
12 1 -0.0335113 -0.0390028 5.43174 0.279276 -4.81182 -3.28928 -0.132967 -0.055619 0.610049 Si
57 1 9.55292 9.4898 6.88224 -2.13558 1.14572 0.251587 -1.11107 0.0837519 -1.18763 Si
62 1 8.15813 8.06645 5.40742 2.24486 -0.7603 0.500702 0.838254 1.98672 0.685767 Si
6 1 2.79019 2.72044 -0.00150097 2.36754 4.7772 -3.81998 -0.952817 0.875194 -0.18993 Si
11 1 4.10015 1.44423 9.53642 2.74464 -1.62445 1.5566 0.190255 -1.39376 0.0564824 Si
42 1 5.43381 2.77963 8.22951 -1.8228 2.61244 2.06609 0.22023 -0.341765 -1.02889 Si
10 1 0.0149549 2.76231 8.18143 -3.51903 1.32762 2.53179 -0.373927 -0.856563 -0.299089 Si
43 1 9.56933 1.34802 9.57173 -2.14162 -3.22661 4.40315 -0.483069 0.7719 -0.710275 Si
13 1 1.43033 4.05713 9.46526 -1.9101 1.59026 0.421899 0.236359 0.852757 0.566667 Si
32 1 2.74439 5.52694 8.11921 3.52721 -4.01285 2.82271 0.281635 -0.890107 0.569045 Si
52 1 5.31913 5.42125 0.00713415 5.5275 2.05686 -1.43768 1.54917 0.591062 -0.198095 Si
27 1 4.12274 6.87369 9.52088 2.40338 1.72001 3.32501 -0.852605 -0.394649 -0.266644 Si
45 1 6.79423 4.08505 9.54298 -0.561553 -0.90455 -2.49767 -0.195289 0.752839 0.286565 Si
20 1 0.0371942 5.46648 -0.0801519 -1.59067 0.361266 0.553335 -0.0570934 -1.64328 0.551873 Si
59 1 9.53437 6.72803 9.49127 -5.14077 1.66075 0.959306 -0.330714 0.0840191 -0.435983 Si
64 1 8.12427 5.43226 8.12377 3.44492 2.50517 1.34709 0.589113 -0.474763 -0.0370932 Si
22 1 2.6949 8.09908 0.0338909 -4.32776 -1.13082 -1.79408 0.949988 0.80006 -0.0403704 Si
16 1 2.71071 0.0352839 8.22367 -1.0484 5.38345 1.00829 0.176517 -0.714335 -0.30594 Si
26 1 -0.0380453 8.15026 8.23264 -1.75124 2.50857 3.95717 0.586134 -0.197419 -0.0895172 Si
29 1 1.36414 9.47107 9.57773 3.39967 -0.258689 3.85376 0.421349 0.23177 -0.686936 Si
58 1 5.4047 8.26519 8.14467 3.92404 3.65808 -6.50781 1.10846 -1.18823 -0.160551 Si
61 1 6.84502 9.56044 9.42913 4.77658 -1.70918 -1.1733 -0.175026 -0.253361 1.13253 Si
48 1 8.17452 0.0664575 8.17106 4.15481 2.65707 1.45816 0.236087 0.0890955 -0.747188 Si
ITEM: TIMESTEP
19700
ITEM: NUMBER OF ATOMS
64
ITEM: BOX BOUNDS pp pp pp
0.0000000000000000e+00 1.0887404739999999e+01
0.0000000000000000e+00 1.0887404739999999e+01
0.0000000000000000e+00 1.0887404739999999e+01
ITEM: ATOMS id type xu yu zu vx vy vz fx fy fz element
2 1 -0.0139465 2.68771 2.65418 -0.881917 6.86904 0.889341 0.41881 0.267947 -0.0988457 Si
7 1 1.40872 1.2649 1.31167 2.22139 -4.98662 -5.09874 0.302136 1.25969 1.51653 Si
34 1 5.41734 2.73232 2.71131 3.70388 0.740943 5.51688 0.202697 -0.0504079 -0.451091 Si
36 1 5.39078 0.0557367 -0.00862638 2.44418 -3.57868 4.30544 -0.190233 -0.174231 0.399285 Si
39 1 6.78386 1.40202 1.32406 1.58256 -3.52238 0.0440927 -0.290611 -0.396307 0.516058 Si
38 1 8.13103 2.68592 -0.0662208 0.875192 2.75371 1.00691 0.786129 0.617951 0.433438 Si
40 1 8.07981 0.0479929 2.78557 -1.26481 -0.572843 -3.73659 0.299146 -0.70468 -0.950078 Si
23 1 1.40017 6.86923 1.2879 -0.408302 0.436754 -0.276769 -0.17472 -0.418144 0.75709 Si
24 1 2.73082 5.42595 2.62697 -0.92186 0.501305 2.9188 0.0139576 0.395437 0.16394 Si
1 1 4.10739 4.0554 1.26619 -1.47315 0.317136 -0.642372 -0.383113 0.0125319 0.891982 Si
55 1 6.88731 6.80533 1.37482 1.09067 1.31309 -1.34754 -0.216823 -0.552877 0.0268481 Si
33 1 9.48101 4.13138 1.37671 -1.13642 2.55253 -1.83154 -0.0373226 -0.631735 -0.402378 Si
56 1 8.15315 5.42245 2.85556 -1.93716 -0.417904 -2.65146 0.0537231 0.00126818 -0.298135 Si
4 1 0.00618361 0.0334301 0.0650455 0.0470224 -1.27903 -4.94951 -0.835117 -0.912726 -1.49163 Si
8 1 2.71959 -0.0678835 2.82822 -0.224406 -1.5728 0.880328 -0.549778 0.273833 -0.713201 Si
18 1 0.010969 8.12115 2.72537 0.319169 1.96386 -1.1218 -0.210523 -0.0791219 0.287409 Si
17 1 3.99849 9.54444 1.32468 -3.3446 4.55561 1.44075 1.53777 -0.299754 0.820159 Si
50 1 5.50657 8.13088 2.69204 1.22651 -3.11771 -5.76298 -1.64207 0.144774 -0.685734 Si
49 1 9.52328 9.55195 1.44021 -4.6435 0.718296 2.09566 0.143294 0.585359 0.335491 Si
54 1 8.22222 8.23437 0.0638896 -2.35468 -1.54436 0.658524 -0.367539 -0.612947 -0.665813 Si
14 1 2.68903 2.80865 5.42359 1.13645 6.12094 0.899097 -0.0108359 -0.413393 -0.239241 Si
15 1 1.4041 1.43164 6.85705 1.54717 -2.31568 2.86973 -0.363916 -0.455756 -0.187342 Si
3 1 4.06619 1.41907 4.06382 3.72261 -1.3605 -4.65359 -0.335597 -0.370001 0.458236 Si
47 1 6.84804 1.29222 6.80333 0.0924396 1.80961 2.16922 -0.381312 0.231806 -0.478903 Si
35 1 9.52674 1.35505 4.03391 -1.44799 0.0857544 3.63013 0.412656 -0.0352515 -0.213562 Si
46 1 8.2603 2.62501 5.42554 1.74084 -0.0709673 5.50509 -1.02439 0.705334 0.914513 Si
5 1 1.30945 4.14593 4.02078 2.01723 -1.31883 -1.96524 0.344935 -0.855728 -0.189393 Si
28 1 0.0100662 5.3924 5.48801 2.06578 0.983384 -1.6538 0.5089 1.05125 0.124446 Si
31 1 1.40897 6.83942 6.7994 3.11806 -0.438859 0.0696594 -0.193055 -0.542718 0.0379602 Si
9 1 4.0459 4.07484 6.8358 0.376135 -2.12824 -1.65182 0.274663 0.246394 0.252898 Si
19 1 4.07303 6.79421 4.04625 1.75682 -5.1623 -3.39635 0.564525 -0.217835 -0.118474 Si
37 1 6.79563 3.94471 4.16059 0.0661475 2.81361 -0.215427 -0.15106 1.41097 0.0380211 Si
60 1 5.43677 5.47734 5.50492 2.07677 -2.93936 -0.0342277 0.0528952 -0.880763 -0.546536 Si
63 1 6.83302 6.78478 6.86789 5.78629 -5.99686 2.2612 0.512351 0.596083 -0.805069 Si
41 1 9.49091 4.1213 6.79111 2.15684 2.38525 2.93192 0.395988 -1.20273 -0.522175 Si
51 1 9.5713 6.78847 4.20023 -3.61427 10.3416 0.246083 -0.552877 0.268158 -0.949207 Si
21 1 1.3293 9.41193 4.16161 2.78539 -0.130383 1.93931 -0.142024 1.60479 -0.469747 Si
30 1 2.80264 8.19791 5.42418 -3.0003 0.261798 -0.455284 -0.28478 -0.805805 0.701848 Si
44 1 5.42911 0.00801503 5.38265 -0.387766 3.90745 2.17898 0.27133 -0.0615381 0.39684 Si
25 1 4.13515 9.53425 6.81239 -5.86495 -4.03244 0.335174 0.371774 -0.204926 -0.490208 Si
53 1 6.76267 9.45052 4.05859 5.60029 1.83619 3.69286 0.070346 1.49755 0.153309 Si
12 1 -0.0178488 0.0883671 5.42799 -2.26857 -2.76224 2.52658 1.11888 -0.722556 0.255097 Si
57 1 9.56578 9.52453 6.71675 -1.68815 1.95202 3.40766 0.274782 -0.0897813 0.691219 Si
62 1 8.15313 8.24867 5.41548 -4.48753 -0.505645 3.89047 0.0521859 -1.7723 0.775249 Si
6 1 2.68939 2.72691 -0.0324339 -1.31046 -4.28114 -0.0768247 -0.13752 -0.162116 -0.0246339 Si
11 1 4.03606 1.36922 9.49901 -2.64432 -0.523056 -7.49452 0.556217 0.215776 0.566556 Si
42 1 5.42937 2.64995 8.16544 0.29857 -0.612323 -2.01221 0.528002 0.824677 -0.321179 Si
10 1 -0.0885401 2.78872 8.16512 3.71246 2.59548 1.9255 1.03985 -0.305482 0.428927 Si
43 1 9.49199 1.30434 9.44764 2.05172 -3.74964 -1.28243 0.26213 0.124437 0.69606 Si
13 1 1.27889 4.15855 9.61543 -0.220951 -1.72593 -1.4177 -0.134741 -1.29114 -0.715821 Si
32 1 2.63999 5.39722 8.23178 -1.72969 1.592 -0.343611 0.577181 0.549564 -0.915347 Si
52 1 5.47448 5.42188 0.0113687 -5.88344 -1.04521 2.55182 0.0863085 0.989685 -0.687182 Si
27 1 4.04972 6.78571 9.47067 -0.802189 -2.58224 1.09214 0.545213 -0.108356 0.92435 Si
45 1 6.81929 4.09665 9.50464 2.47537 -0.741867 -2.4449 -0.394918 -0.607756 -0.337456 Si
20 1 -0.0113612 5.51882 0.0352936 4.96755 2.93134 -3.43989 -0.282893 -0.353711 0.637965 Si
59 1 9.57161 6.81454 9.56422 0.641305 -2.92661 1.51974 -0.860415 0.446744 -0.526676 Si
64 1 8.23011 5.3983 8.15595 -3.04424 -1.24006 -2.90739 -0.645654 1.19657 0.938821 Si
22 1 2.72278 8.20553 -0.0585571 -2.78148 -0.0728208 1.02312 -0.0693293 -0.120615 -0.475799 Si
16 1 2.83522 -0.0351385 8.17735 -0.1213 -2.01922 -0.109734 -1.59091 0.716171 -0.691554 Si
26 1 0.0158901 8.16423 8.16917 -0.853195 3.97778 -6.20826 0.0985337 0.476437 -0.340918 Si
29 1 1.37497 9.59677 9.49567 1.78292 5.23005 -1.84597 -0.386177 -0.427427 0.369983 Si
58 1 5.46021 8.14644 8.1694 -5.95518 0.0656626 5.83438 0.0684681 0.335369 0.484286 Si
61 1 6.7675 9.55685 9.60809 3.50159 2.42631 0.613763 0.537533 -0.528243 -0.910716 Si
48 1 8.18565 -0.112078 8.09064 -2.29053 -2.76372 -1.84188 -0.443061 0.322312 0.91923 Si
ITEM: TIMESTEP
19800
ITEM: NUMBER OF ATOMS
64
ITEM: BOX BOUNDS pp pp pp
0.0000000000000000e+00 1.0887404739999999e+01
0.0000000000000000e+00 1.0887404739999999e+01
0.0000000000000000e+00 1.0887404739999999e+01
ITEM: ATOMS id type xu yu zu vx vy vz fx fy fz element
2 1 0.0280426 2.73583 2.76207 1.63271 -2.12838 -6.45676 -0.59369 0.2542 0.133263 Si
7 1 1.36874 1.43158 1.42066 1.2377 -0.870025 3.24753 -0.240031 -0.881 -1.42891 Si
34 1 5.54546 2.66267 2.72715 0.0498151 -0.490459 -0.86507 -0.985543 0.674648 1.08985 Si
36 1 5.47805 0.0167833 0.0334325 -1.68223 0.383085 -0.0609214 0.198436 -0.720628 0.306628 Si
39 1 6.84405 1.3159 1.47364 0.675197 0.82476 -2.36781 0.158506 0.253626 -1.84125 Si
38 1 8.19679 2.72375 0.101639 -0.777557 -3.75212 -2.33201 -0.382476 0.533299 -0.842051 Si
40 1 8.18586 0.0110398 2.73676 -2.05823 1.28179 -0.710635 0.0240562 -0.444085 0.00354298 Si
23 1 1.33442 6.71444 1.41741 6.23921 -1.22139 -2.19835 0.0430157 1.26489 -0.836759 Si
24 1 2.66721 5.41897 2.71757 -0.829978 -0.321854 1.23287 1.22311 0.247715 0.822088 Si
1 1 4.06979 3.99649 1.48262 0.711594 3.32142 -2.08215 0.691545 0.839337 -1.50256 Si
55 1 6.72608 6.80778 1.32767 2.09222 1.55322 0.0122204 0.549285 1.01207 0.794106 Si
33 1 9.65254 4.12611 1.33324 1.57347 1.26156 4.37399 -1.30662 -0.981865 1.05759 Si
56 1 8.19359 5.51266 2.61626 0.968923 -0.687427 5.80188 0.0891485 -0.463965 0.355735 Si
4 1 -0.0041143 -0.020935 -0.018946 0.266257 2.46125 7.04632 0.238472 1.07515 0.269036 Si
8 1 2.7432 0.0543627 2.682 1.81412 -3.36952 4.47946 0.1301 -0.263712 0.160606 Si
18 1 -0.0103943 8.19979 2.68132 0.0616047 -2.18309 -2.19919 -0.602829 -0.360827 0.0531344 Si
17 1 4.12328 9.52924 1.40996 -3.43644 -1.73675 -3.43113 -0.859146 0.613273 -1.14061 Si
50 1 5.40789 8.23527 2.72957 0.515138 2.25691 1.2889 0.807052 -1.09233 0.868299 Si
49 1 9.46117 9.56916 1.33156 2.34418 -1.69301 -0.921998 0.327514 -0.923008 -0.335625 Si
54 1 8.0882 8.13493 -0.0385232 3.486 4.5413 1.21568 0.597706 0.18178 0.0408234 Si
14 1 2.73305 2.66734 5.36781 -0.0686919 -5.38108 4.99973 0.00288882 0.666239 1.41687 Si
15 1 1.38343 1.24979 6.80731 -2.1515 3.87144 2.27407 -0.514357 0.93534 -0.591039 Si
3 1 4.10094 1.33785 4.06795 -1.61057 -0.37683 1.04954 0.895774 -0.186319 0.0970587 Si
47 1 6.81957 1.44965 6.79868 0.483541 -1.59762 1.97865 -0.385216 -0.363697 0.256752 Si
35 1 9.4669 1.35427 4.05756 0.0047161 -2.33874 -3.50729 0.87244 0.793853 1.03734 Si
46 1 8.13091 2.82521 5.44465 -8.94718 -2.44111 -4.45172 0.692058 -1.11597 -0.417326 Si
5 1 1.37096 4.12362 4.08248 -0.623815 1.75038 -0.397228 -0.299986 -0.863906 0.452787 Si
28 1 -0.0163553 5.42781 5.43954 -0.770542 1.80471 -0.130004 -0.583664 0.200614 -0.311268 Si
31 1 1.36998 6.78982 6.70929 -2.85955 3.82336 4.67904 -0.515449 0.15672 1.22758 Si
9 1 4.14283 4.09453 6.81156 2.09124 0.784126 1.35349 -0.352527 -0.878517 -1.02514 Si
19 1 4.00689 6.8525 4.11166 -3.1727 1.60298 0.847067 0.715066 -0.546029 -0.49519 Si
37 1 6.87803 4.12673 4.01852 0.335564 -3.20072 1.47985 -0.344027 0.0599669 -0.426562 Si
60 1 5.50243 5.41983 5.38679 -1.36566 3.44083 1.46413 -0.614452 0.912687 0.235518 Si
63 1 6.83499 6.83651 6.7717 -5.00372 1.2375 -2.20395 -0.577274 -0.820611 0.657498 Si
41 1 9.47975 4.09402 6.82816 -1.93161 -2.22333 0.258805 0.916184 0.216357 -0.442405 Si
51 1 9.47976 6.825 4.07867 2.36548 -6.16947 2.07523 0.83236 0.214422 -0.0435908 Si
21 1 1.33675 9.61045 3.97327 -5.69276 -2.57623 -2.83415 0.40752 -1.04712 0.598658 Si
30 1 2.64977 8.21951 5.4389 -3.79784 2.4309 -3.60427 0.20615 0.534572 -0.737608 Si
44 1 5.48755 -0.00341041 5.49712 1.75738 5.01918 -0.509977 -0.364968 0.433225 -0.546797 Si
25 1 4.04196 9.54774 6.79806 5.8517 5.00164 0.132451 0.602971 -0.73192 0.0835102 Si
53 1 6.85403 9.58101 4.07471 -2.62019 -4.49184 -0.752744 -0.399339 -0.933469 0.711966 Si
12 1 -0.0336079 -0.0865658 5.39298 3.72767 1.80917 2.95109 -0.466289 1.20163 0.45448 Si
57 1 9.4092 9.53614 6.78125 2.89441 -3.04744 -2.8888 1.83935 0.518021 1.39915 Si
62 1 8.19606 8.18042 5.51268 6.51907 2.12499 -2.16206 -1.1073 -0.170141 -1.93848 Si
6 1 2.7473 2.70983 -0.0143162 -0.431229 5.24796 -0.987447 0.162904 -0.231515 0.993238 Si
11 1 4.06181 1.28251 9.60095 2.49475 1.28624 2.81683 0.269119 0.532276 -1.0891 Si
42 1 5.43742 2.71857 8.2154 1.04579 -2.05975 -1.36984 -0.291562 -0.200491 0.17488 Si
10 1 0.0525211 2.79416 8.12204 -2.44884 -3.49199 -1.02951 0.0724629 -1.03036 0.0440579 Si
43 1 9.55374 1.45815 9.51058 -0.963932 1.70864 -5.50422 -0.015264 -0.686749 0.232521 Si
13 1 1.46563 4.04856 9.51227 0.29726 3.8652 -1.49379 -0.35315 0.235847 -0.60602 Si
32 1 2.7387 5.42231 8.0858 -2.07552 -2.37583 0.217637 -0.199976 0.387905 0.561252 Si
52 1 5.4525 5.47217 0.0314421 3.44444 0.0644126 0.525261 -1.47794 -1.44849 0.193515 Si
27 1 3.99626 6.74259 9.59688 -2.64841 0.244356 -4.16902 0.881129 0.49648 -1.02504 Si
45 1 6.78032 4.13259 9.53488 -4.48438 0.865672 2.20942 0.597298 -0.925392 0.728169 Si
20 1 0.113617 5.32469 0.0132484 -2.75871 -4.41081 1.8703 -0.487186 1.52496 -1.22338 Si
59 1 9.47793 6.68709 9.5373 2.92945 2.61926 0.660551 1.4575 0.978137 0.484716 Si
64 1 8.16445 5.42234 8.1637 -2.58885 -1.09846 -0.92181 -0.863044 0.268072 -0.322897 Si
22 1 2.72212 8.13449 0.0655885 3.88365 1.5837 -0.0660088 -0.44102 0.107289 0.302528 Si
16 1 2.70629 -0.0841519 8.19327 -1.50951 1.03808 4.61319 0.319179 0.757866 0.282693 Si
26 1 -0.00802509 8.15046 8.14907 0.253303 -1.49005 4.52168 -0.670547 -0.454427 -0.145457 Si
29 1 1.36946 9.4861 9.53497 -2.72055 -5.03059 -0.315529 -0.32457 -0.451122 0.370295 Si
58 1 5.40591 8.13 8.16232 6.21723 -3.27194 -4.00585 -0.646 -0.240407 -0.0575624 Si
61 1 6.75939 9.50795 9.47158 -1.83079 2.34407 1.07076 0.125955 0.492994 0.512739 Si
48 1 8.12438 0.0712965 8.182 3.59675 2.07372 -5.8164 0.31919 -0.117393 -0.0918227 Si
ITEM: TIMESTEP
19900
ITEM: NUMBER OF ATOMS
64
ITEM: BOX BOUNDS pp pp pp
0.0000000000000000e+00 1.0887404739999999e+01
0.0000000000000000e+00 1.0887404739999999e+01
0.0000000000000000e+00 1.0887404739999999e+01
ITEM: ATOMS id type xu yu zu vx vy vz fx fy fz element
2 1 -0.0424759 2.74423 2.77098 -2.58126 -1.84916 3.58044 0.262134 -0.615222 -0.549345 Si
7 1 1.35126 1.41691 1.40008 0.282641 1.11219 1.10046 -0.0869518 -0.39289 -0.317798 Si
34 1 5.33138 2.72265 2.69113 -1.47951 1.03609 -2.60645 0.427571 0.246184 -0.335118 Si
36 1 5.43072 0.0198993 -0.0154237 -2.554 2.05675 -0.637358 -0.0836479 0.0683255 -1.06404 Si
39 1 6.69135 1.32734 1.34174 -3.22665 1.77318 0.220614 0.95976 0.67043 0.645824 Si
38 1 8.07109 2.73283 0.0273731 2.75262 1.45177 2.45569 0.426009 -1.2539 -0.262883 Si
40 1 8.16876 -0.0168225 2.66057 2.24578 -1.32012 5.20117 0.0392892 1.06151 0.94818 Si
23 1 1.29219 6.83772 1.30036 -6.04102 7.52115 4.26649 0.731907 -0.385705 0.800659 Si
24 1 2.74334 5.49901 2.70042 3.2276 0.789161 -8.14769 -1.09144 -0.487451 -0.103506 Si
1 1 4.07985 4.19556 1.27634 -1.89258 -6.78525 4.03149 -0.560889 -1.02851 0.449371 Si
55 1 6.82447 6.75996 1.41248 -2.3068 -6.72532 0.817352 -0.218592 -0.32422 -0.819551 Si
33 1 9.44807 3.97385 1.39758 -5.89672 0.0628961 -4.60883 0.806796 1.24326 -0.86488 Si
56 1 8.14671 5.31584 2.7271 3.94624 1.84499 0.60094 -0.218592 0.851409 0.447238 Si
4 1 0.0691554 -0.0170335 0.003242 -1.71304 -3.62953 -5.31825 -0.460242 -0.345164 0.659125 Si
8 1 2.73417 -0.0406961 2.63372 1.79282 2.3565 -6.01988 0.0553307 0.649103 0.704023 Si
18 1 0.0699689 8.14037 2.84315 -3.22017 -1.59301 3.96733 -0.0520616 0.532706 -0.704104 Si
17 1 4.12128 9.57765 1.29506 3.00521 0.219696 4.49105 -0.177057 -1.41723 0.669975 Si
50 1 5.45154 8.13789 2.72721 -5.65188 3.46916 1.74132 0.129026 0.855842 -0.126426 Si
49 1 9.55898 9.48906 1.43586 2.96485 -0.540041 1.7721 0.862537 0.00253694 -0.589951 Si
54 1 8.20178 8.1374 0.0586334 2.11785 -2.35259 -3.66117 -0.224196 0.309261 -0.162545 Si
14 1 2.71578 2.7451 5.45249 -2.56428 0.170518 -5.632 -0.165442 -0.622587 -0.242108 Si
15 1 1.25891 1.41327 6.79236 -2.05934 0.149544 -5.65136 0.98044 0.0989201 -0.129475 Si
3 1 4.07254 1.30233 4.04095 -1.55156 0.613765 1.88979 -0.848103 0.661356 0.204495 Si
47 1 6.76431 1.30684 6.74875 -4.81002 1.16555 -2.3306 0.54876 -0.179999 0.352494 Si
35 1 9.545 1.4073 4.12488 2.01185 2.0019 3.11032 -0.330099 -1.71184 -0.693333 Si
46 1 8.18039 2.6645 5.47154 3.0358 -1.50451 2.94911 -0.876547 0.800109 -0.390497 Si
5 1 1.32197 4.04332 4.06993 -0.499 0.178533 1.03851 0.994441 1.26862 0.112923 Si
28 1 -0.00278161 5.41247 5.47122 0.203113 2.10188 -0.760937 0.246736 -0.0981237 -0.474024 Si
31 1 1.32306 6.71134 6.90712 -1.47765 -2.55856 -1.50853 0.802684 0.552619 -0.891491 Si
9 1 4.00665 4.11274 6.88066 1.0338 0.534852 0.98385 0.565155 0.429046 -0.0143036 Si
19 1 4.12517 6.76653 4.08987 6.34089 -1.72754 0.75051 -0.313987 0.484563 0.318218 Si
37 1 6.71706 4.03931 4.08485 2.13871 4.29457 0.217003 0.614096 -0.407966 0.540955 Si
60 1 5.45633 5.46532 5.49523 1.46143 -4.41956 -3.30191 -0.507198 -0.746207 -0.0448903 Si
63 1 6.82356 6.86086 6.75706 -0.473515 3.37827 -5.7458 -0.522969 -0.303163 0.206787 Si
41 1 9.57875 4.02463 6.77209 2.08249 -2.93953 -1.26146 -0.902085 0.545733 1.10263 Si
51 1 9.53946 6.73541 4.05254 -2.17679 2.24594 -4.261 -0.203528 -0.420589 0.246847 Si
21 1 1.53429 9.52046 4.15191 -0.582354 5.15259 -3.7301 -1.24976 -0.323963 -0.297816 Si
30 1 2.76103 8.08114 5.52737 4.28939 -7.41458 2.3322 -0.113835 -0.329106 0.00465347 Si
44 1 5.41858 -0.031268 5.3752 5.97202 -2.00351 -2.30268 0.0346067 -0.262364 0.579274 Si
25 1 4.0684 9.52587 6.81848 3.74354 -0.483812 -5.2349 -0.00385942 0.815314 -0.227335 Si
53 1 6.8538 9.54693 4.08127 -3.94419 3.34322 1.71689 -0.624445 -0.57834 -0.719186 Si
12 1 0.0245037 -0.0466669 5.44192 -1.02839 0.34478 -2.6656 -0.0464169 0.33707 -0.17719 Si
57 1 9.56927 9.50298 6.83531 -3.39272 -1.60224 -0.194487 -1.2279 -0.262344 -1.54943 Si
62 1 8.13782 8.08382 5.35477 -0.237989 -0.828818 1.34165 1.41467 1.33094 0.782866 Si
6 1 2.66264 2.77309 -0.014413 1.60684 -1.39544 0.00881289 0.559419 0.14836 -0.0550988 Si
11 1 4.14153 1.4552 9.4907 3.61282 1.94006 4.42952 -0.791501 -0.262121 0.620643 Si
42 1 5.49047 2.71426 8.10688 1.54537 0.63927 0.0898463 -0.341224 0.453917 -0.158543 Si
10 1 0.0249854 2.73773 8.25434 3.49132 1.36169 1.35696 -1.55955 -0.686774 -0.699827 Si
43 1 9.50711 1.31506 9.59924 -0.308561 3.75842 4.35554 -0.075756 0.584902 -0.452133 Si
13 1 1.23455 4.121 9.56322 0.960774 -3.44895 1.59105 1.33613 0.247728 0.669597 Si
32 1 2.70156 5.50453 8.36914 3.46053 1.15094 0.267537 0.263936 -0.513611 -1.26736 Si
52 1 5.43222 5.46709 -0.0976745 -3.31258 -1.35615 -3.87392 1.39762 0.19637 0.377298 Si
27 1 4.19768 6.93677 9.49449 -4.38167 -0.657647 8.0254 -1.00339 -0.721374 0.413759 Si
45 1 6.84512 4.0458 9.45987 -0.0605752 -5.11582 -0.657549 -0.344952 1.26533 -0.150989 Si
20 1 -0.0975797 5.47972 -0.0250994 2.11094 1.20979 1.81599 -0.355152 -0.704852 1.09908 Si
59 1 9.56777 6.88278 9.4961 1.77503 3.51018 -2.85495 -1.04182 -0.414951 -0.241596 Si
64 1 8.16189 5.53704 8.08892 6.42193 3.66589 4.97837 0.929747 -1.20876 0.553875 Si
22 1 2.75163 8.15067 0.000461875 1.30076 0.0477989 1.37154 0.366565 0.383571 0.0105347 Si
16 1 2.73164 0.170233 8.11385 -1.71312 0.980929 -5.25148 -0.038807 -1.61768 0.547007 Si
26 1 0.0133479 8.17146 8.10341 1.20402 -1.53074 -0.451521 0.803508 0.260373 1.40941 Si
29 1 1.44839 9.50149 9.52622 -3.77891 -3.41237 0.289192 -0.426928 0.86091 -1.0176 Si
58 1 5.49461 8.22882 8.10712 -1.47512 -2.04972 7.46378 0.467267 0.33694 0.347218 Si
61 1 6.83199 9.53721 9.57229 -0.979948 -0.0400244 -0.565549 0.0678641 -0.277478 -0.238363 Si
48 1 8.16835 -0.0307713 8.15289 -4.76705 1.65012 2.61618 -0.00506776 0.351216 0.207769 Si
ITEM: TIMESTEP
20000
ITEM: NUMBER OF ATOMS
64
ITEM: BOX BOUNDS pp pp pp
0.0000000000000000e+00 1.0887404739999999e+01
0.0000000000000000e+00 1.0887404739999999e+01
0.0000000000000000e+00 1.0887404739999999e+01
ITEM: ATOMS id type xu yu zu vx vy vz fx fy fz element
2 1 -0.0354027 2.73514 2.64428 1.6522 2.89694 -0.0862539 0.90478 -0.341831 0.597711 Si
7 1 1.37108 1.31122 1.34736 2.15746 3.95722 -4.57245 -0.0484771 0.594707 0.372924 Si
34 1 5.56097 2.70164 2.76482 -0.414289 0.650065 3.37826 -0.41644 -0.055406 -0.541551 Si
36 1 5.44506 -0.0917325 0.0535977 1.23033 -5.32999 2.81165 -0.131253 1.31116 0.0746384 Si
39 1 6.91953 1.42025 1.23127 0.335346 -3.7803 1.64096 -1.07306 -0.895492 1.51741 Si
38 1 8.27181 2.78142 -0.0224566 -1.99024 4.28315 -1.36467 -0.040911 0.61109 0.129867 Si
40 1 8.11642 0.0726422 2.79371 -1.76619 -2.54527 -2.12677 0.00105947 -1.72831 -0.951584 Si
23 1 1.43815 6.81032 1.34505 0.189546 -5.0906 -3.24295 -0.75135 -0.281784 0.279764 Si
24 1 2.70856 5.35997 2.80648 0.366899 0.291396 3.12256 0.869987 0.470051 -1.46752 Si
1 1 4.0893 3.95661 1.31545 -1.44185 5.29101 -5.02017 -0.0954911 0.746996 2.0403 Si
55 1 6.83658 6.84424 1.36436 -2.02231 6.23277 4.4409 -0.435107 -0.123706 -0.15216 Si
33 1 9.62087 4.18923 1.33864 0.836291 -2.59678 1.47177 -0.855279 -0.745075 -0.0469635 Si
56 1 8.28489 5.49965 2.74624 1.28634 -2.97037 -0.953101 -0.894609 0.420523 -0.385433 Si
4 1 -0.0545562 0.0598396 -0.0136604 5.33444 3.2647 -1.03151 0.142292 -0.464523 -0.835972 Si
8 1 2.71682 0.0112099 2.80467 1.01936 -2.50331 -3.09219 -0.847577 -0.39655 -0.651679 Si
18 1 -0.0892413 8.19345 2.65232 2.21098 -3.18606 -0.0217375 0.733667 -0.64987 0.245468 Si
17 1 3.97433 9.54185 1.36497 -0.912851 0.625375 -5.26749 0.875062 0.182972 0.395054 Si
50 1 5.41094 8.26483 2.69804 4.45425 0.786577 0.634603 0.232788 -1.11059 -0.0300142 Si
49 1 9.49663 9.52062 1.29101 -3.54209 1.46801 2.47327 -1.23336 1.00983 0.349351 Si
54 1 8.13507 8.18777 -0.139792 -2.10872 -1.35254 0.620784 0.0899566 -0.306024 1.25232 Si
14 1 2.72455 2.68838 5.4509 9.46159 2.5088 3.18115 0.538739 0.687829 -0.695184 Si
15 1 1.41953 1.39659 6.80296 -1.6144 -3.6047 1.68166 0.172133 -1.39615 0.430727 Si
3 1 4.11863 1.29647 4.12427 5.10094 -4.54528 0.37294 0.270478 1.07718 -0.0473803 Si
47 1 6.83954 1.36415 6.83024 2.87591 -0.687936 -2.27491 -0.114011 0.595636 -0.295882 Si
35 1 9.56727 1.33881 4.05254 -5.46946 1.00533 3.30434 -0.659625 1.46521 -0.0862248 Si
46 1 8.21964 2.73613 5.41269 0.18539 1.64387 -1.34491 0.46141 0.259053 1.00732 Si
5 1 1.31074 4.06203 4.0985 1.68732 -0.483765 2.13825 -0.150575 -0.374161 0.168416 Si
28 1 -0.0004758 5.56394 5.38161 -2.74954 2.64521 0.873087 0.271119 -0.542414 1.12775 Si
31 1 1.39025 6.90998 6.77699 -2.96047 -3.8523 4.63108 -0.420378 -0.754888 -0.715003 Si
9 1 4.12872 4.08654 6.7485 -5.01334 -1.07122 1.18926 -0.461394 -0.24059 0.397273 Si
19 1 4.12176 6.82665 4.06114 -4.0546 0.338509 -3.60577 -0.509712 -0.116382 -0.298218 Si
37 1 6.91423 4.16026 4.09799 -1.04401 -0.990863 -2.25405 -0.665349 -0.254671 -0.152411 Si
60 1 5.46167 5.49911 5.44068 -1.30348 -1.6686 1.72415 0.398219 -0.592319 -0.191303 Si
63 1 6.76292 6.7295 6.92668 6.10659 -1.39526 3.74802 0.843898 0.567928 -0.286269 Si
41 1 9.60477 4.16619 6.86362 -1.74975 3.4674 -1.65315 -0.717414 -0.460383 -1.52017 Si
51 1 9.47081 6.92111 4.159 1.06613 3.37821 0.851776 0.407272 -0.0683167 -0.930986 Si
21 1 1.19707 9.56357 4.05674 1.69961 -0.414406 1.07903 1.09495 0.191712 0.426308 Si
30 1 2.71533 8.19771 5.35264 -6.40931 3.68603 0.774957 0.0102267 0.566413 0.252099 Si
44 1 5.43596 0.0205586 5.55427 -2.09177 0.412383 -0.683322 0.398614 -0.351031 -0.578041 Si
25 1 4.1698 9.44285 6.79612 -3.11483 0.647981 4.09492 -1.66547 0.253442 0.303144 Si
53 1 6.71823 9.48092 4.1997 5.10026 2.03882 3.28602 0.670392 1.52758 -0.879922 Si
12 1 -0.0345589 0.13867 5.4787 -3.70491 -3.23267 1.49554 0.505914 -1.73885 0.214004 Si
57 1 9.56912 9.49836 6.81012 1.91372 3.73343 3.07939 -0.496994 0.956575 0.538678 Si
62 1 8.11238 8.20366 5.53386 -1.27249 -2.01645 -9.52984 -0.353849 -0.845302 0.573737 Si
6 1 2.76063 2.64633 -0.00589401 0.796778 -0.54587 2.62105 -0.783614 0.00032607 -0.40183 Si
11 1 4.08946 1.2828 9.58003 -5.01726 1.52639 -1.23282 0.0167523 -0.623973 -0.566388 Si
42 1 5.40545 2.65827 8.19034 2.13194 0.245534 -1.6718 0.385736 0.618609 0.144044 Si
10 1 0.0221466 2.69172 8.05947 -0.116398 0.771498 -0.52802 0.675635 1.05786 1.02703 Si
43 1 9.5182 1.46941 9.42648 -1.9462 -3.65263 0.501644 0.04074 -1.43488 0.505104 Si
13 1 1.45696 4.03828 9.44189 2.14546 0.402603 -0.690114 -0.971521 -0.0473259 0.314824 Si
32 1 2.68403 5.47107 8.04107 -0.3319 2.07121 -0.511351 0.549347 -0.787549 0.193468 Si
52 1 5.338 5.43123 0.0573727 -2.73544 -2.60216 1.0921 0.904657 0.476812 -0.184981 Si
27 1 3.9983 6.72268 9.47452 2.8143 1.21058 -4.46929 0.379502 0.0746736 0.730012 Si
45 1 6.72878 4.03674 9.65839 2.87914 1.16102 0.572531 0.0437133 0.00512662 -0.970304 Si
20 1 0.0344895 5.43477 -0.0627202 -0.368453 2.20784 -4.48358 1.6126 0.239237 0.0984808 Si
59 1 9.57311 6.78939 9.53901 0.248326 -5.90129 -1.35315 -1.0043 -0.454042 -0.390066 Si
64 1 8.15554 5.33551 8.28322 -3.44333 -3.04432 -1.55078 -0.145737 0.891045 -0.130094 Si
22 1 2.78277 8.17038 -0.0515104 -2.19754 -0.558848 0.537633 -1.34915 -0.298603 0.00852617 Si
16 1 2.72269 -0.123233 8.20199 0.854635 2.32777 5.27506 0.165064 0.7949 -0.710311 Si
26 1 -0.00300359 8.09942 8.18501 -0.500819 -1.01967 -5.06303 -0.162559 0.645405 -0.62102 Si
29 1 1.27888 9.46434 9.51565 5.55653 -2.42844 5.60047 0.52586 0.582407 0.797785 Si
58 1 5.36693 8.08345 8.23222 -2.808 4.01802 -4.3815 0.452325 -0.143103 -0.612272 Si
61 1 6.66729 9.49619 9.50713 -0.519393 1.03296 -0.92567 1.11446 0.142926 -0.328822 Si
48 1 8.11097 -0.0137351 8.17688 3.03762 0.843298 0.685527 0.695223 -0.401129 0.142422 Si
