(written by ASE)

64 atoms
1 atom types

0.0      10.887404441833496  xlo xhi
0.0      10.887404441833496  ylo yhi
0.0      10.887404441833496  zlo zhi

Atoms # atomic

     1   1      8.3500787356871911     0.57262766808913668      1.6190506376178604
     2   1      1.6429262712374566      1.8939008473863908      5.6560703905348646
     3   1      1.4751835877190871      10.002236825576176      8.4188760964591438
     4   1      4.1102923652969707      7.2526896102233422      2.9093327603677324
     5   1      4.1551775895813989      4.5972594427173021     0.21831172880917649
     6   1      1.3793452268557616      7.3207757328930825     0.13742569298602625
     7   1      4.1547924437660129      10.027019190435112     0.26470577886005131
     8   1     0.11271072661684567      8.6433333669952503      1.5661962694422868
     9   1      8.2800801872079433     0.44851175220399497      6.9483212346283381
    10   1      5.5345486117971632      3.2349821457299868      1.5286143767379912
    11   1      9.5473293247649735      4.5145870984933367      5.6564960950923933
    12   1      6.8438263403120345      4.6420739325554337      8.5295943241698069
    13   1      9.6285616714079083      1.8282568476985404      8.3931086408710485
    14   1      0.1909778134820499     0.52595420886364153      4.4327025672767491
    15   1      6.8886239577134347      1.8225894935414715     0.32447766358112595
    16   1      10.875443831010614      5.9224816239432698      9.6962934729062908
    17   1      8.2264401150795834      5.9479460246100757      7.0217948561343633
    18   1      6.8812104685896429      7.2903385059696575      5.5851081663423088
    19   1       1.483548260463607      7.2923703367160329      5.6868723216676358
    20   1      6.9804560882628834      10.047573712013104      2.9653803994296766
    21   1       4.232106491448036      7.3404626218591602        8.43484326206584
    22   1      9.6381666304871487      10.094386287724149     0.16863722685569549
    23   1      8.3288635933171804      8.6357050787730714      4.2622562380071543
    24   1      2.8467428339632193      8.6815961598626359       4.348544150740679
    25   1      2.8396087134553056      8.6371093846610165      9.6839155937442456
    26   1      4.2520448446153978      9.9859166366778709      5.7233771364155928
    27   1      8.2194925647855257      8.6456403482483211      9.7874124185339042
    28   1      9.7233549146037035      7.2900899619978077      2.9634021062229294
    29   1       5.489499854664416      5.9715609466351793      9.7633594620936606
    30   1      5.4585973378511312      0.4834963847377054      4.2385147727065657
    31   1      9.6462095912889936      1.8239522672774626      3.0016058455617554
    32   1      9.6004346704369254      4.5238189171448653     0.15760214624913615
    33   1      2.8441788725199331      5.9119636064609153      7.0404908139124132
    34   1       6.952152575646096      10.103982161645149      8.4001444469880084
    35   1      1.4072981497054684      4.5226946288126726      8.3362459333270067
    36   1      9.5583801218841131      7.2747587574679073      8.4011159099798078
    37   1      8.1534460601406522      3.2242327811824509      4.2503738244391229
    38   1      5.5466682128892444      0.4981506233025037      9.8025937179528455
    39   1      5.4163257189103717      5.9341599459208396      4.3295480582707739
    40   1    0.081913545926747933       8.641972540078882      7.0618565103332571
    41   1       8.235153430771561      3.1782972477114981      9.7845986152390196
    42   1      6.8833565127538918      1.8090034505684827      5.6294041532208894
    43   1      1.4351727130653558      1.7886866032194462      0.2257004162621481
    44   1     0.05414088133665107     0.54622254795707548       9.729665854881091
    45   1      4.1615686739332602       1.853236490279258      8.4566372588037098
    46   1      4.1987827799638069      4.5568233502109479      5.7774390194622356
    47   1      6.8020073569335864      4.6250600269315214      2.9509625777728274
    48   1      1.4656884617135688      9.9910906342955172      2.9381359566877165
    49   1     0.11856954845588419      3.1326725564403262      6.9366351253722769
    50   1      6.8082475627646772      7.3586530554751448     0.27615429500464117
    51   1      1.5160207250677473       4.617080337767419      3.0063294789066504
    52   1      9.5965020947987796      9.9536980697995432      5.7124100525402355
    53   1       4.146638838715603      1.9343935598967761      2.8173857674605358
    54   1      8.2603660427671457      5.9517721741088394      1.5769777565135996
    55   1     0.16996866896338148       3.195238796539428       1.596063240451187
    56   1      2.8870611438823914     0.46183440670550979       7.103545705736849
    57   1    0.071937469287060019      5.9479460246100757        4.38751558595078
    58   1       2.719319920478739       5.967521295917777      1.5130782694427864
    59   1      2.9069131880464738      3.3237636099304382      4.2840346601880412
    60   1      5.5586067597564011       8.775647015842253      1.6717867365013461
    61   1       2.730212376268554     0.47187646734882094      1.5957183289080064
    62   1      5.6425672496308152      3.1649550438962706       7.147310210858393
    63   1      5.6477405983085873      8.6839628435841405       7.046719338825767
    64   1      2.7796119507884214      3.2302481293471033      9.7788243482376629

Velocities

     1                       0                       0                       0
     2                       0                       0                       0
     3                       0                       0                       0
     4                       0                       0                       0
     5                       0                       0                       0
     6                       0                       0                       0
     7                       0                       0                       0
     8                       0                       0                       0
     9                       0                       0                       0
    10                       0                       0                       0
    11                       0                       0                       0
    12                       0                       0                       0
    13                       0                       0                       0
    14                       0                       0                       0
    15                       0                       0                       0
    16                       0                       0                       0
    17                       0                       0                       0
    18                       0                       0                       0
    19                       0                       0                       0
    20                       0                       0                       0
    21                       0                       0                       0
    22                       0                       0                       0
    23                       0                       0                       0
    24                       0                       0                       0
    25                       0                       0                       0
    26                       0                       0                       0
    27                       0                       0                       0
    28                       0                       0                       0
    29                       0                       0                       0
    30                       0                       0                       0
    31                       0                       0                       0
    32                       0                       0                       0
    33                       0                       0                       0
    34                       0                       0                       0
    35                       0                       0                       0
    36                       0                       0                       0
    37                       0                       0                       0
    38                       0                       0                       0
    39                       0                       0                       0
    40                       0                       0                       0
    41                       0                       0                       0
    42                       0                       0                       0
    43                       0                       0                       0
    44                       0                       0                       0
    45                       0                       0                       0
    46                       0                       0                       0
    47                       0                       0                       0
    48                       0                       0                       0
    49                       0                       0                       0
    50                       0                       0                       0
    51                       0                       0                       0
    52                       0                       0                       0
    53                       0                       0                       0
    54                       0                       0                       0
    55                       0                       0                       0
    56                       0                       0                       0
    57                       0                       0                       0
    58                       0                       0                       0
    59                       0                       0                       0
    60                       0                       0                       0
    61                       0                       0                       0
    62                       0                       0                       0
    63                       0                       0                       0
    64                       0                       0                       0
