(written by ASE)

64 atoms
1 atom types

0.0      10.887404441833496  xlo xhi
0.0      10.887404441833496  ylo yhi
0.0      10.887404441833496  zlo zhi

Atoms # atomic

     1   1       6.198750254042011      2.6410303539307023      5.8715430885115438
     2   1      8.8903477875613817      5.5156715997941888      5.9296381328768462
     3   1      3.4742748307320426       5.444700290443393      5.9031652796454068
     4   1       3.504604658106274      8.1228933219196051      3.2889294908888189
     5   1        10.3373630043925      4.0373706671540219      10.010105870491714
     6   1      6.1885936960696313      10.772882777519669      3.1776700473230051
     7   1       4.854188042212769      4.1070570755537403      4.5284572148962923
     8   1      3.5248996037345535      5.3809915916956186     0.53965892671613958
     9   1      8.9748741530061693      8.1129476694063669      3.2220818699691449
    10   1      2.0565021425157965       6.761172166404549      4.6177704853237174
    11   1     0.85162926790967219      5.3925741950417319      8.6046026884785078
    12   1      2.1993357556647766      1.3319721293283067      9.9902054803069973
    13   1      3.5870706394502179      2.7298885552712875      3.1989137430474841
    14   1      9.0281365421276973      5.3782413845084136      0.5280024253418425
    15   1      7.5620171843376056      1.3391657900696856      9.9991835634676818
    16   1      2.1530686139180659      1.2941995294184565      4.5263582188729288
    17   1      7.5218945297905293      1.3691576820043849      4.5274185866275047
    18   1      4.8919079968753181      1.3041426672896819      7.3170281051191068
    19   1      6.1996561741065079      5.4856204920959613      8.6709639289624079
    20   1      4.9058235390694733      4.0461809993572047      10.074936261812184
    21   1      7.6063358841117861      6.7745234553780165      10.072043287852637
    22   1     0.72982771496867116      2.7028486908246947      5.9799543349691362
    23   1      3.4852889627482853      10.861285909773414      5.9611052273807559
    24   1      7.6047044492678424      4.0842276952464545      7.2785284491976086
    25   1      3.5943371436924849      2.7478635408490106      8.6483055443119952
    26   1      10.376503812909789      9.5791591766586066      10.109776545782609
    27   1      7.5877781505269581      9.4933680273988443      1.8306730130854589
    28   1      4.8691717394399916      6.8595482066462523      1.8502229757380633
    29   1       10.41965701666976      6.8260960050669155      1.8844603945652807
    30   1       7.555756861370412      9.5711603437682129      7.3647842394073564
    31   1      3.5022548468215007   0.0037965270412016472     0.49789473819832608
    32   1      2.1984744502166365      9.5631641066373163      1.9512024005204154
    33   1      6.2906699914744877      5.4924830312664881      3.2482023488488494
    34   1      4.8278417322568146      9.5285496537431413      4.6585858831865892
    35   1      7.5303670887891485      4.0356240454823933      1.8491178311321619
    36   1      8.8645861724321549      10.843837214433734      5.9175074998069022
    37   1     0.76939479586587822      5.3581255462854358      3.2694590233708141
    38   1      8.9791188687238446      8.2473710217846588      8.7873130079622115
    39   1      8.9375062482254179      10.868514451033036     0.52303426334056979
    40   1       2.105123800361369       9.517220461417935      7.2706989896144023
    41   1      2.2182384007927851      6.7446404231072279       9.945755694678212
    42   1      10.303420204268207       1.387972882484334      1.8500789110859728
    43   1      10.246529592309571      1.3243387307046177      7.2784109910803636
    44   1      2.1959596459688271      4.0268166335086448      1.8747676663680437
    45   1      4.8878693195677272      6.7609145372744592      7.3394671480920124
    46   1      6.1749211818583944      10.852996351819343      8.6784539929913649
    47   1      2.1429891175557572      4.0372178418136286      7.2251206975442415
    48   1      4.8741374273579936      9.4262897083538633      10.075227635815736
    49   1      8.8890641844900529      2.7120144798440151      8.7066757391839928
    50   1      6.2650602282758427      8.1578452235484065      5.9890797274812826
    51   1      6.2383595971485306      2.6983938808227208     0.45853921170013479
    52   1      10.257821795061943      6.7615362216740209       7.366579207099619
    53   1      6.2500041742526378       8.069047535851098     0.49096539877949041
    54   1      4.9446778406322665      1.3068250602600244      1.7880676768143502
    55   1      3.4503250557318097      8.1608037404352558      8.6500518415136867
    56   1     0.80468244276213596      10.878813775777758      8.6117416760354786
    57   1     0.71973272516686393      8.0766453238991858      6.0503117471988617
    58   1      10.279227725754993      9.4677673493584393      4.6725909790833953
    59   1     0.89356976527957954      2.6545852477897256     0.47928869915160632
    60   1      10.189665586885781      4.1174874861530668      4.5434607047896804
    61   1      8.8238340462070255        2.68071935440679      3.2479440707788854
    62   1     0.94437940502877638      8.1587887821256118     0.52351058520829241
    63   1     0.69037006155776481      10.806415447643417      3.2760460875647084
    64   1      7.5254221669471235      6.8297294194230176      4.6199960246225658

Velocities

     1                       0                       0                       0
     2                       0                       0                       0
     3                       0                       0                       0
     4                       0                       0                       0
     5                       0                       0                       0
     6                       0                       0                       0
     7                       0                       0                       0
     8                       0                       0                       0
     9                       0                       0                       0
    10                       0                       0                       0
    11                       0                       0                       0
    12                       0                       0                       0
    13                       0                       0                       0
    14                       0                       0                       0
    15                       0                       0                       0
    16                       0                       0                       0
    17                       0                       0                       0
    18                       0                       0                       0
    19                       0                       0                       0
    20                       0                       0                       0
    21                       0                       0                       0
    22                       0                       0                       0
    23                       0                       0                       0
    24                       0                       0                       0
    25                       0                       0                       0
    26                       0                       0                       0
    27                       0                       0                       0
    28                       0                       0                       0
    29                       0                       0                       0
    30                       0                       0                       0
    31                       0                       0                       0
    32                       0                       0                       0
    33                       0                       0                       0
    34                       0                       0                       0
    35                       0                       0                       0
    36                       0                       0                       0
    37                       0                       0                       0
    38                       0                       0                       0
    39                       0                       0                       0
    40                       0                       0                       0
    41                       0                       0                       0
    42                       0                       0                       0
    43                       0                       0                       0
    44                       0                       0                       0
    45                       0                       0                       0
    46                       0                       0                       0
    47                       0                       0                       0
    48                       0                       0                       0
    49                       0                       0                       0
    50                       0                       0                       0
    51                       0                       0                       0
    52                       0                       0                       0
    53                       0                       0                       0
    54                       0                       0                       0
    55                       0                       0                       0
    56                       0                       0                       0
    57                       0                       0                       0
    58                       0                       0                       0
    59                       0                       0                       0
    60                       0                       0                       0
    61                       0                       0                       0
    62                       0                       0                       0
    63                       0                       0                       0
    64                       0                       0                       0
