(written by ASE)

64 atoms
1 atom types

0.0      10.887404441833496  xlo xhi
0.0      10.887404441833496  ylo yhi
0.0      10.887404441833496  zlo zhi

Atoms # atomic

     1   1      6.8255444061737762      3.3206996403140181        5.44295983370057
     2   1       9.501521307979317      3.2309694260173671       8.160538972966549
     3   1    0.063400695659943551      1.9980097847124654      1.4080697392159891
     4   1      1.4032083683827778      8.7519269655575158      5.3725170858773765
     5   1      8.1176732495708848      7.3811524498563585      4.1345831582011385
     6   1      4.1579582969426951      8.6894970028320131       8.257487345484833
     7   1       8.126553991750427       10.14806594518484      1.3960299577284445
     8   1      5.6098094137169596      7.3623760235338978        1.43650563556713
     9   1      8.1797644656820125       4.682000607260477       6.822959678654513
    10   1      1.4045541074470691      3.2456984143439342      5.4349687880886677
    11   1      4.1310402709574987      6.0285164525812434     0.11272003484816739
    12   1      2.7262434599974483      4.7004058399748487      1.4211204067926957
    13   1      1.3030834351798859      6.0643872530720273      8.1956505138044236
    14   1      2.6883054615371407       1.906959951181463      9.4717576806453962
    15   1      9.5756730716539664     0.60838023984657497     0.12003156943389826
    16   1       6.759085824708734     0.58972005487909485      2.7359979997177106
    17   1       1.354113308898917     0.54009363531442389      8.1750551090143517
    18   1      2.7189665727171928      7.3476509288465763      4.1297307102911986
    19   1     0.07529055682700081      10.089316769426262      4.0328628063173255
    20   1      4.1292329734076247      3.2786308150839716      8.1850565703567781
    21   1      1.3305205319470232       6.032201782127288      2.7501663039928985
    22   1      5.4558529711227948      1.8834654075030386      1.3348807589623206
    23   1      9.5482313511902248     0.58789519539387314      5.4498321069692111
    24   1    0.011288920029180138      7.3763756034417725       1.376706637326933
    25   1      2.7960531669732802       7.368958220678735      9.5541769383183919
    26   1      5.4361050818085346      7.3260340926943854      6.8251758083251843
    27   1    0.050864186187535854      7.4859796013882942      6.7981838031943198
    28   1      9.4933939849938156      8.7562605860379676      2.7108175102459029
    29   1      1.4750980898906505      3.2793699576007782      10.876683306170492
    30   1      6.8230323599204326      5.9989481561494813      8.2256198550784916
    31   1      5.5233024837758649      10.072597482505273      9.5552600189685677
    32   1      2.6168803809792536      4.6324657287768218      6.8853020344969877
    33   1      4.1582191707721563     0.52650637557917079      10.811523902333761
    34   1    0.091854691349765538      4.5954693420740966      9.5144455945155073
    35   1       6.887840687285177      3.3793965764127165    0.059527021455074269
    36   1      1.3925631586850642      8.7138608014720376    0.012412911775570912
    37   1      2.7336374809250117      1.8853734529683948      4.0634285233358582
    38   1      5.3419007515486499      4.5644568299521211      4.0880918077278636
    39   1      8.2290293851779666       1.945355127783202      9.5956325153672424
    40   1      4.0691255664921755     0.57949272190167633      5.5673505756224699
    41   1    0.052571607834883682       1.894503063589724      6.8234658517564526
    42   1      4.0720328171289566      8.7281134679308821      2.8231921569856695
    43   1      9.6258841454866229      3.2904408718560205      2.7449072952517213
    44   1      1.3777473746503119     0.56888815206358956      2.7020897556417225
    45   1      9.5697897827537304      6.0929263308631789      5.4966336507023925
    46   1      8.1845646739320728      1.9626711149185923      4.1226627816504617
    47   1      6.7766682016625168      8.7864414817110514      5.4438235726732387
    48   1       6.858387902151037      0.6325517494901014      8.2282616893066916
    49   1      5.4024825335121989      4.6591910196193567      9.5581938761401943
    50   1    0.023556603623745342      10.128510142073367      9.5260603203853975
    51   1      8.2037194322012397      4.7031943346146363       1.421647832675518
    52   1      9.6400550455213079      6.0014193191907452      10.875083020440513
    53   1      2.7971956256219528      10.161421776737427      1.3120024648120108
    54   1      5.4021444358376982      10.090895640140388      4.0943375295478859
    55   1      6.8322888382871838      5.9930142499390513      2.8295761029989137
    56   1      9.5544404079073502      8.7959257379736755      8.2318392948336054
    57   1      3.9549608191092034      5.9676887224053417      5.4620042721911091
    58   1      6.8428146430480297      8.7565045874306975    0.043254585405799073
    59   1      8.2041626581353739      7.3629633141201225      9.5600128546078054
    60   1      10.837269942906005      4.6422815933152037      4.1378982675489056
    61   1      8.1609452093278492      10.056458996771767      6.8702433847142856
    62   1      4.0742482978597536      3.2307468396404886      2.6815329627741704
    63   1      5.4910586082424402      1.9549393207864654       6.793799565403674
    64   1      2.7619993981304845      10.041983094996169      6.8473364560920231

Velocities

     1                       0                       0                       0
     2                       0                       0                       0
     3                       0                       0                       0
     4                       0                       0                       0
     5                       0                       0                       0
     6                       0                       0                       0
     7                       0                       0                       0
     8                       0                       0                       0
     9                       0                       0                       0
    10                       0                       0                       0
    11                       0                       0                       0
    12                       0                       0                       0
    13                       0                       0                       0
    14                       0                       0                       0
    15                       0                       0                       0
    16                       0                       0                       0
    17                       0                       0                       0
    18                       0                       0                       0
    19                       0                       0                       0
    20                       0                       0                       0
    21                       0                       0                       0
    22                       0                       0                       0
    23                       0                       0                       0
    24                       0                       0                       0
    25                       0                       0                       0
    26                       0                       0                       0
    27                       0                       0                       0
    28                       0                       0                       0
    29                       0                       0                       0
    30                       0                       0                       0
    31                       0                       0                       0
    32                       0                       0                       0
    33                       0                       0                       0
    34                       0                       0                       0
    35                       0                       0                       0
    36                       0                       0                       0
    37                       0                       0                       0
    38                       0                       0                       0
    39                       0                       0                       0
    40                       0                       0                       0
    41                       0                       0                       0
    42                       0                       0                       0
    43                       0                       0                       0
    44                       0                       0                       0
    45                       0                       0                       0
    46                       0                       0                       0
    47                       0                       0                       0
    48                       0                       0                       0
    49                       0                       0                       0
    50                       0                       0                       0
    51                       0                       0                       0
    52                       0                       0                       0
    53                       0                       0                       0
    54                       0                       0                       0
    55                       0                       0                       0
    56                       0                       0                       0
    57                       0                       0                       0
    58                       0                       0                       0
    59                       0                       0                       0
    60                       0                       0                       0
    61                       0                       0                       0
    62                       0                       0                       0
    63                       0                       0                       0
    64                       0                       0                       0
