(written by ASE)

8 atoms
1 atom types

0.0       5.443702220916748  xlo xhi
0.0       5.443702220916748  ylo yhi
0.0       5.443702220916748  zlo zhi

Atoms # atomic

     1   1       2.721851110458374       2.721851110458374       2.721851110458374
     2   1       4.082776665687561       4.082776665687561       4.082776665687561
     3   1       1.360925555229187       1.360925555229187       4.082776665687561
     4   1       1.360925555229187       4.082776665687561       1.360925555229187
     5   1       4.082776665687561       1.360925555229187       1.360925555229187
     6   1      5.3427096551019417      5.3281656146395449      2.7184148115890849
     7   1      2.6914156681196033      5.3618507856337487     0.06199749499772178
     8   1      5.3945862331219416       2.670740768194932   0.0093791280029904556

Velocities

     1                       0                       0                       0
     2                       0                       0                       0
     3                       0                       0                       0
     4                       0                       0                       0
     5                       0                       0                       0
     6                       0                       0                       0
     7                       0                       0                       0
     8                       0                       0                       0
