(written by ASE)

216 atoms
1 atom types

0.0      16.331106185913086  xlo xhi
0.0      16.331106185913086  ylo yhi
0.0      16.331106185913086  zlo zhi

Atoms # atomic

     1   1       8.165553092956543       8.165553092956543       8.165553092956543
     2   1      9.5264782839793725      6.8046288753434965       6.804627415228822
     3   1      9.5264782839793725      9.5264782839793725      9.5264782839793725
     4   1       6.804627415228822      6.8046288753434965      9.5264782839793725
     5   1       6.804627415228822      9.5264782839793725       6.804627415228822
     6   1      2.8539508502868784      2.7275119766960358      2.9162802255119686
     7   1      11.064967047158461      2.7688217844194583     0.16647693664230268
     8   1      5.6444830798014891      8.1848363407577835      11.049900610537179
     9   1      2.9107232724132643       13.62534432076086      8.3494350680142588
    10   1      15.147448650472484      9.4840872613394822      15.162418719525249
    11   1      13.762643770653085      13.608531586988875       13.77018477624199
    12   1      1.5076624571423594      12.231873173643407      9.6666989366303824
    13   1      5.6322400182557999      5.4058614055967382      13.790410284713175
    14   1       11.05648962135831       8.142763136412043      11.010509636848496
    15   1      1.4825359520899895      4.0755560360604193      6.9737812135648483
    16   1      6.9265289824686533      1.3560715264923431      4.2393568106472799
    17   1      2.8827297105212892      8.2041040140024961       8.327881828599061
    18   1      13.767644176708359      5.3704677391819473     0.15925812969157072
    19   1      4.2450926277936105      9.5521967438560296      9.7072434009119206
    20   1      9.6858605082087479      1.3588166637566275      6.9266141558246659
    21   1      4.2262031242495937      9.5205103085997962      4.1990547254017088
    22   1      1.5322849792795807      1.3712199728878431      4.2636263500619407
    23   1      4.2567647845015699       12.25142313572519      1.5207410693105317
    24   1      9.6695266920499989      4.0721581058604102      4.2135823797081002
    25   1      9.7191306811819231      15.008599532205722      15.149875361061504
    26   1       13.75326010034496      16.314352830137864     0.19709913081515928
    27   1     0.15435696580557945      13.543566218071419     0.19202999290348899
    28   1     0.16246375062132579      10.891823728826807      13.801711572293812
    29   1      12.410889073195904      6.7879967090862579      15.152571706160415
    30   1       13.74339459219425      2.7237032675676005      8.3313646888026369
    31   1      4.1809926201732424       1.371039892077988      1.5461347753483352
    32   1      11.008444061288969      2.7357241483303198      5.5662219066580292
    33   1      11.012482738478639      8.1331828373277517      5.5839856617880059
    34   1     0.19238373610244253      10.838451670424888       2.900507093388228
    35   1      9.6545196334254797      12.229222578804297       6.957760348651334
    36   1      13.796525244969985      8.1516571815993188      8.3067296340144594
    37   1      4.2370254942169936      1.3792846729400026      6.9695361735011829
    38   1     0.17476071473374866      5.3670715124490584      13.745680158364735
    39   1      12.411607449615758      12.161338927357406       4.215054175299997
    40   1      8.3118624238002212      16.315888870775439      5.5712300999915669
    41   1      5.5691528435146438      8.1381058573052769      5.5388248016105877
    42   1      6.9381894582592167       6.808327345814007        4.19133412570784
    43   1      2.8839895461329377      13.555714372163266        2.90184918212654
    44   1     0.12347117530539187      5.4096153604248798      8.3412243564946493
    45   1      15.087486607839651      4.0840692346700962       9.698876943827031
    46   1      2.8806777626987241      2.6931180021283865      8.3472585237394696
    47   1      9.7447235711965732       12.22537274311253      1.4993722910492124
    48   1      6.9416893531339952      4.0359808445703038      6.9220079807315074
    49   1      11.032628427347618      8.1707559682466808     0.20911658943411027
    50   1      6.9150627019297985      1.3480767902683368       15.10696745782684
    51   1      6.9700228783926832        9.53287163943412      1.5273714500474398
    52   1      5.6088202655816985      13.651592315559469      5.5786031923929045
    53   1      5.6021835576812009      10.909709160179659      2.8919982751225746
    54   1      13.759796547037809        2.70270389831893      2.8882786329892838
    55   1      8.3106476083910366      2.7186736592188367      8.3320811184029253
    56   1      15.108924011490672      14.882419342264711      9.6801047361618657
    57   1      9.6770764583269511      9.5267858814708006      4.2429423655829623
    58   1      9.7355355562548311      1.3030397964858054      12.417124736265805
    59   1      2.8710127769633118      5.4090566232094375        5.61870232169872
    60   1      2.9092322519781533      10.925833693235063     0.19312792309107429
    61   1      13.730200022585677       10.84834346063974       11.01427381247936
    62   1      11.058940667191905      13.564567534139655      5.5758109664303674
    63   1       12.42603143578026      14.958301501898518      12.412193442305124
    64   1      5.6238993565301598      10.945954073449684      13.751041699449502
    65   1     0.13344456463720888       5.385426614022208      2.8909562399498725
    66   1      6.9618652177062472      1.3019117362235306      9.6742195006138445
    67   1     0.13769190133958098      2.7266300674326374      11.013563223337769
    68   1      8.2916846124084032      2.7156901582339401      2.8655938047013478
    69   1      12.347704070771556      9.4697878716272044      6.9768859040677285
    70   1      1.5160778280688447      12.189026595225073      4.2717329067347691
    71   1      6.9768693561014175      4.0636916309203173      12.393039658005023
    72   1      12.395587071407135      9.4594911429426247      1.5180435074493914
    73   1      11.090191014865354      16.325971449307758      13.791369093349431
    74   1      2.8395869721764768    0.026587231910367048     0.15004101892303368
    75   1      6.9403134384057239      6.7873922216110145      15.084212057329637
    76   1       11.07252849435281      13.601284551154436     0.14121444320134202
    77   1      2.8978477378610705       8.147374665259008      13.790514439559956
    78   1     0.18186891799788718      8.1350308558007782     0.11547052257504831
    79   1       15.13133385151491      4.0724182496249171      15.119453385113388
    80   1      9.7355725458265852      14.943766547018754       4.267853868749512
    81   1      12.431649957047739      14.913617125809878      1.5305406289484438
    82   1      13.745343358579817      16.311609761369368      5.5954899053083977
    83   1      5.5678109981287776       16.33074407747381      2.9083880623438461
    84   1      6.9807240588420996      12.257461196609142        15.1498870419789
    85   1      8.2834262038094266       5.421942135211907      5.6211436334344853
    86   1      11.057210918007513      10.817522386680594      8.3097501245711101
    87   1      11.040759319265021      5.4327854334896415       13.77869724479433
    88   1      15.072236196769381      12.198701315058315      12.352933228125835
    89   1      5.5874850699578928    0.032285394068099826      8.3294684865453519
    90   1      4.2075949361328639      12.264393821083672      6.9229745766460269
    91   1      15.121788595182807      14.992653133140607      15.180362555465081
    92   1       5.615105572550533      13.606111690268335     0.17529549694281243
    93   1     0.14077181552157825      2.6729095283284039      0.1949145711191882
    94   1      12.395863519785507      6.7684997978376487      4.2079093474927731
    95   1      12.405804953899292      14.927185484775123      6.9434074214009911
    96   1      15.073048993938187      1.3537568797045907      6.9163656109243448
    97   1      8.3166710681282439      2.6506011662740434      13.720469818394804
    98   1     0.12726142767176984      16.283121950660075      13.758493151338371
    99   1      1.4954812071178907      6.7756772348726031      4.2339792083010934
   100   1      9.7294439578328138      4.0794832578299349      9.6421252066585339
   101   1      9.6320027183251113      6.7867643723009792      12.418323977118462
   102   1      2.9180705694553524      5.4157590362702877     0.15159935672845037
   103   1      9.7222475393070908      1.3338343450283645      1.5155541336055904
   104   1      15.098051024214556      14.947701069361642       4.283266352548651
   105   1      4.2739829434481749      4.0472006090816137      15.089929866394982
   106   1      4.2508644611019122      6.7916513761165334      1.5012295569151775
   107   1       6.931448595511938       12.26949935539551      4.2699574072905762
   108   1       15.14612383975782       4.033110502472681      4.2417479917792207
   109   1      1.4862453734205587      14.919044858759889      12.390207035536491
   110   1      1.5093806470855782      1.3403926934413306      9.7217063234677425
   111   1      13.780162226517746       10.82391866236469      5.5974498659064693
   112   1      8.3157696906691854      13.580310490560123      8.3159195957757674
   113   1       12.42877937159767      4.0709909875305925      1.5567053972106066
   114   1      13.757851674291373      16.285675204520885      11.039935814588603
   115   1      12.418401849901102      12.222391188947199      15.171277721960337
   116   1      6.9759042203015724      14.942346342145356      6.9490935946483887
   117   1      4.2771333842108561      14.969793577796622      9.6932321404954109
   118   1      5.5959196657275925      2.6887481222600513     0.18056354505982775
   119   1      11.070873697721709      13.612159485250118      11.005750636419407
   120   1      4.2446064096070018      6.7906127478780718      12.406759868896415
   121   1      15.105851930215522      12.206953883198594       1.528445486066758
   122   1       9.682469148524774      9.5319761024337595      15.130898737341909
   123   1      1.4747827431683902      14.925345740285252      6.9447599742944703
   124   1      4.2139279401810654      14.970713450041558      4.2365611777505023
   125   1      6.9538019777687623      12.243325339740409      9.7007955345093251
   126   1      2.8498652060751795      16.289446194020229       5.614230963860507
   127   1      2.8998697533328084      13.533465144753222      13.748823298554044
   128   1      1.4777689210301901      4.0736615372702545      12.358712362007509
   129   1       4.245115502923511      1.3590208364586118      12.342717292453244
   130   1       4.243189124962953      9.5647138202556334      15.145853231838146
   131   1      12.387223534551595      12.206813712189842      9.6855217616042637
   132   1      8.3291569954147917      13.562468862647506      2.9089969301631129
   133   1      12.398072186583136      4.0649346752132089      6.9345104559843662
   134   1      5.5718866648902008      8.1639927170743931     0.17449498907251737
   135   1      1.4952926089724343      9.5266262422663885      12.385156012172502
   136   1       4.234960405362358      12.238445636498227      12.375537750106673
   137   1      11.040602600289958      5.4086813737380908      2.8815518846838586
   138   1      12.390131109573417      1.3475971425977633      15.155273891718025
   139   1      15.104822062665107      1.3040853602689708      12.331129822396406
   140   1     0.15188132616543548       10.85030293453292       8.326044030928756
   141   1        12.4056842510862      1.3528003829165698      9.7074575510641807
   142   1      13.748725957575743      13.566742131594879      2.9099630393727409
   143   1      11.024279491638822       5.475618384171014      8.3062000990925071
   144   1      9.6730261002198858      6.7431945504138753      1.5191516128111147
   145   1       13.78486768940877      2.7141801563080605      13.755603097692642
   146   1      1.5353065649222373      12.266599567651951      15.156830373961043
   147   1      8.3179598626809366      10.904836270805959     0.15780601522872395
   148   1      5.5985507923710429      5.4099837960277455      2.8721049427398384
   149   1      9.6782026934458827      4.0471375807981644       15.08869655619992
   150   1      8.3063344296425612      5.4290494867424854      11.025205204342456
   151   1      8.3161288788791126      16.306323172837892      11.062003014369225
   152   1      15.174130786034311      6.7812796948786627      1.4713911401319706
   153   1     0.20894178633042237      8.1439506963473036      11.071527829095885
   154   1     0.11587155219611667      8.1459641944834402      5.6042408592575725
   155   1     0.12792905750192141      2.7034643747118992       5.624244917003125
   156   1      8.3226526712447821      13.554247443620284       13.77870697889216
   157   1      15.120873589986786      1.3581371020518702       1.545490256395766
   158   1      15.183591355715294      6.8008851413180764      12.412309278069301
   159   1      13.778851043540044      8.1267140426148217      2.8605413212226836
   160   1     0.16011371126224461    0.028291271289103692      8.3336852977253102
   161   1      11.059845938290096      16.306467237485776      2.9396627452618702
   162   1      8.3348952460855799      10.884099722198698      5.5599127511495112
   163   1      12.375569872629512      1.3755824305065829      4.2380198323103286
   164   1      8.2927320013349117      8.1375943304643101      13.806159081592341
   165   1      2.8763804018592225      16.275716249031007      11.073662516750005
   166   1     0.14754098320020326      13.545367999579753      11.047009583481668
   167   1      9.6650529006873285      12.232154489070695      12.453483538480441
   168   1      8.3319302398865602      5.4338659183487721     0.17862550139140154
   169   1      13.730958308806635      10.845385268309201     0.15489986990252014
   170   1      8.2984147676480688       8.163708481417757      2.8598745355213282
   171   1     0.13460062564027275        13.5364554596066      5.5909255868359082
   172   1      8.3347132184561588      10.877103826088273      11.051326655869275
   173   1      2.8902901843058544      2.6494401317553695      13.764313168430931
   174   1      5.5779962713932036       16.31848787489605       13.75015881677632
   175   1      15.150106059180075      9.4932655421833942      4.1838768333602729
   176   1      13.833573221310985       8.127322423729197      13.784525049165154
   177   1      4.2557096082967973      4.0626004385535737      9.6865467621057633
   178   1      11.021249266984341      2.7197037701216971      11.033053807422789
   179   1      5.6422778199381014       13.63079444213588      11.043652293140099
   180   1      5.6244094232564521      10.848117629570083      8.3081420516095932
   181   1      11.065960898546905      10.880195375559083      13.765212599070423
   182   1      13.785543235798173      5.4085825726451162      5.5781301152383662
   183   1      13.772321410715676      13.574199423942446      8.3117845510175812
   184   1      7.0080695731710421      14.929799090042479       1.550315083661431
   185   1       1.506847591477765      9.4803201654792701      6.8753164336703207
   186   1      12.397390799735035      4.0670126617474693      12.397540704841617
   187   1      5.5665071157244483      2.6855297861650058      5.5942590286377936
   188   1      5.6063439110937452      5.3766693329094437      8.3031796085358565
   189   1      15.125130310967847      6.7783984019209811      6.9811163429846488
   190   1      4.2078918261166791      4.0560615583362676      4.2593005169862863
   191   1      15.122768818834288      12.192084075353478      6.9598108363592246
   192   1      6.9462468577380037       4.084632352229562      1.4788778781254734
   193   1      2.8830127294156966      10.828828541310145      5.5789424257022802
   194   1      2.8927631318595672        10.8890183618322      11.046263951587889
   195   1      5.6067323015971624      2.6983727114894691      11.054992517112055
   196   1      1.4946403027416011      1.3361375542511666      15.084567351900432
   197   1      1.5377122255247002      4.0509000529619072      1.5362230302329323
   198   1      11.023833669958208      16.302451922130899      8.3400747595409257
   199   1     0.17496248433033124      16.317055989105256      2.9596925983666722
   200   1        4.25140227000702      6.7730368608362141      6.9246152588352743
   201   1      1.5438012687460372      9.5424227362249212      1.4761788561496587
   202   1      11.075029184085338      10.841077930019424       2.843964639323076
   203   1      2.8604125877788817      8.1323306170627347      2.8933396338035493
   204   1      9.6513239291078889      14.975785888420774       9.711677282473488
   205   1      1.5009885163176619      6.7512057129279697      15.107731584506496
   206   1      1.5436944370223529      6.7766628122778911      9.7037780620844387
   207   1       4.253206971744703      14.979662006176682      15.178778817748139
   208   1      15.145033620800859      9.4758200920524587      9.6695520007043569
   209   1      12.417409945332224      6.7670601247685909      9.6868426786797954
   210   1      13.791694212216953      5.4767869626155061       11.07264530352677
   211   1      7.0125258431576185      14.912931845322646      12.461476206208658
   212   1        2.87782810555899      5.4248764790027622      11.091171238516836
   213   1      6.9253613774339442      9.5415943644995878      12.427551901861307
   214   1      1.4831728054405175      14.969338022018178      1.5492259597904763
   215   1      12.397062760638164      9.4905896386899258      12.456321027997888
   216   1      8.3426747370713201   0.0060261261575601521     0.14040972229182991

Velocities

     1                       0                       0                       0
     2                       0                       0                       0
     3                       0                       0                       0
     4                       0                       0                       0
     5                       0                       0                       0
     6                       0                       0                       0
     7                       0                       0                       0
     8                       0                       0                       0
     9                       0                       0                       0
    10                       0                       0                       0
    11                       0                       0                       0
    12                       0                       0                       0
    13                       0                       0                       0
    14                       0                       0                       0
    15                       0                       0                       0
    16                       0                       0                       0
    17                       0                       0                       0
    18                       0                       0                       0
    19                       0                       0                       0
    20                       0                       0                       0
    21                       0                       0                       0
    22                       0                       0                       0
    23                       0                       0                       0
    24                       0                       0                       0
    25                       0                       0                       0
    26                       0                       0                       0
    27                       0                       0                       0
    28                       0                       0                       0
    29                       0                       0                       0
    30                       0                       0                       0
    31                       0                       0                       0
    32                       0                       0                       0
    33                       0                       0                       0
    34                       0                       0                       0
    35                       0                       0                       0
    36                       0                       0                       0
    37                       0                       0                       0
    38                       0                       0                       0
    39                       0                       0                       0
    40                       0                       0                       0
    41                       0                       0                       0
    42                       0                       0                       0
    43                       0                       0                       0
    44                       0                       0                       0
    45                       0                       0                       0
    46                       0                       0                       0
    47                       0                       0                       0
    48                       0                       0                       0
    49                       0                       0                       0
    50                       0                       0                       0
    51                       0                       0                       0
    52                       0                       0                       0
    53                       0                       0                       0
    54                       0                       0                       0
    55                       0                       0                       0
    56                       0                       0                       0
    57                       0                       0                       0
    58                       0                       0                       0
    59                       0                       0                       0
    60                       0                       0                       0
    61                       0                       0                       0
    62                       0                       0                       0
    63                       0                       0                       0
    64                       0                       0                       0
    65                       0                       0                       0
    66                       0                       0                       0
    67                       0                       0                       0
    68                       0                       0                       0
    69                       0                       0                       0
    70                       0                       0                       0
    71                       0                       0                       0
    72                       0                       0                       0
    73                       0                       0                       0
    74                       0                       0                       0
    75                       0                       0                       0
    76                       0                       0                       0
    77                       0                       0                       0
    78                       0                       0                       0
    79                       0                       0                       0
    80                       0                       0                       0
    81                       0                       0                       0
    82                       0                       0                       0
    83                       0                       0                       0
    84                       0                       0                       0
    85                       0                       0                       0
    86                       0                       0                       0
    87                       0                       0                       0
    88                       0                       0                       0
    89                       0                       0                       0
    90                       0                       0                       0
    91                       0                       0                       0
    92                       0                       0                       0
    93                       0                       0                       0
    94                       0                       0                       0
    95                       0                       0                       0
    96                       0                       0                       0
    97                       0                       0                       0
    98                       0                       0                       0
    99                       0                       0                       0
   100                       0                       0                       0
   101                       0                       0                       0
   102                       0                       0                       0
   103                       0                       0                       0
   104                       0                       0                       0
   105                       0                       0                       0
   106                       0                       0                       0
   107                       0                       0                       0
   108                       0                       0                       0
   109                       0                       0                       0
   110                       0                       0                       0
   111                       0                       0                       0
   112                       0                       0                       0
   113                       0                       0                       0
   114                       0                       0                       0
   115                       0                       0                       0
   116                       0                       0                       0
   117                       0                       0                       0
   118                       0                       0                       0
   119                       0                       0                       0
   120                       0                       0                       0
   121                       0                       0                       0
   122                       0                       0                       0
   123                       0                       0                       0
   124                       0                       0                       0
   125                       0                       0                       0
   126                       0                       0                       0
   127                       0                       0                       0
   128                       0                       0                       0
   129                       0                       0                       0
   130                       0                       0                       0
   131                       0                       0                       0
   132                       0                       0                       0
   133                       0                       0                       0
   134                       0                       0                       0
   135                       0                       0                       0
   136                       0                       0                       0
   137                       0                       0                       0
   138                       0                       0                       0
   139                       0                       0                       0
   140                       0                       0                       0
   141                       0                       0                       0
   142                       0                       0                       0
   143                       0                       0                       0
   144                       0                       0                       0
   145                       0                       0                       0
   146                       0                       0                       0
   147                       0                       0                       0
   148                       0                       0                       0
   149                       0                       0                       0
   150                       0                       0                       0
   151                       0                       0                       0
   152                       0                       0                       0
   153                       0                       0                       0
   154                       0                       0                       0
   155                       0                       0                       0
   156                       0                       0                       0
   157                       0                       0                       0
   158                       0                       0                       0
   159                       0                       0                       0
   160                       0                       0                       0
   161                       0                       0                       0
   162                       0                       0                       0
   163                       0                       0                       0
   164                       0                       0                       0
   165                       0                       0                       0
   166                       0                       0                       0
   167                       0                       0                       0
   168                       0                       0                       0
   169                       0                       0                       0
   170                       0                       0                       0
   171                       0                       0                       0
   172                       0                       0                       0
   173                       0                       0                       0
   174                       0                       0                       0
   175                       0                       0                       0
   176                       0                       0                       0
   177                       0                       0                       0
   178                       0                       0                       0
   179                       0                       0                       0
   180                       0                       0                       0
   181                       0                       0                       0
   182                       0                       0                       0
   183                       0                       0                       0
   184                       0                       0                       0
   185                       0                       0                       0
   186                       0                       0                       0
   187                       0                       0                       0
   188                       0                       0                       0
   189                       0                       0                       0
   190                       0                       0                       0
   191                       0                       0                       0
   192                       0                       0                       0
   193                       0                       0                       0
   194                       0                       0                       0
   195                       0                       0                       0
   196                       0                       0                       0
   197                       0                       0                       0
   198                       0                       0                       0
   199                       0                       0                       0
   200                       0                       0                       0
   201                       0                       0                       0
   202                       0                       0                       0
   203                       0                       0                       0
   204                       0                       0                       0
   205                       0                       0                       0
   206                       0                       0                       0
   207                       0                       0                       0
   208                       0                       0                       0
   209                       0                       0                       0
   210                       0                       0                       0
   211                       0                       0                       0
   212                       0                       0                       0
   213                       0                       0                       0
   214                       0                       0                       0
   215                       0                       0                       0
   216                       0                       0                       0
