(written by ASE)

216 atoms
1 atom types

0.0      16.331106185913086  xlo xhi
0.0      16.331106185913086  ylo yhi
0.0      16.331106185913086  zlo zhi

Atoms # atomic

     1   1       8.165553092956543       8.165553092956543       8.165553092956543
     2   1      9.5264782839793725      6.8046288753434965       6.804627415228822
     3   1      9.5264782839793725      9.5264782839793725      9.5264782839793725
     4   1       6.804627415228822      6.8046288753434965      9.5264782839793725
     5   1       6.804627415228822      9.5264782839793725       6.804627415228822
     6   1      6.9127912502011668      3.9913840753621344      11.865711456030795
     7   1      1.4568125034881945      6.7972197667801879      3.6047437627347563
     8   1      4.1680764457626083      14.980530287703118      9.1330834808677537
     9   1      2.7925403738969408      5.4386984112164782      15.869403324689188
    10   1      9.5705455182655896      6.7583018702460436     0.86333179852802999
    11   1    0.091871327891261956       8.167510620030157      10.482566239891412
    12   1       6.887687011897583      4.0527288465917195       0.833943462093238
    13   1      4.1692547583049304      1.4204768197559048      11.861048823170222
    14   1      6.8740154714953405      6.7351794942606489      3.6258818428775044
    15   1      9.5671969886120678      1.3629704466531365      6.3642743507754744
    16   1      5.3990319625592065      8.1745785484645239      10.465649351272646
    17   1      5.5691085533695173      2.6873298642062196      10.479572031398902
    18   1      12.256505308202236      6.7356447841369231      3.6251491086633507
    19   1      12.375805437796998      12.213854385150285      9.1017620742801455
    20   1      8.2608615916296912    0.017944303632813519      5.0494036101108577
    21   1    0.079970655631979248      2.7155689687159565      15.879361306769283
    22   1      4.1163066198635079      4.0488614895238584      14.540917988094634
    23   1      15.095524052417886      6.7419359315644556      6.4020932676646112
    24   1      1.4185226996165312      15.006114417029721      6.3184043615711403
    25   1      2.7641922474915077      13.558199487339266      13.162756630044214
    26   1      1.4482991832022947      4.0902868896590121     0.91055500984506921
    27   1      8.2815358420108396      13.623188218091514      13.142678106450262
    28   1      15.094775500294759       4.059606230061064      3.6292369430470615
    29   1      10.958603533579776      13.629450163225556      15.873923839721442
    30   1      10.966798670542858      8.1539179258203376      15.915774619931767
    31   1      10.950258491510112      5.3112187192151623      7.8432147704795057
    32   1      2.7840877700462556      8.1165331496944191      13.228970883713259
    33   1      15.056332627734719      1.4094199797070246      11.833456549461289
    34   1     0.11118211254269195      13.617043082131431      10.417588216646777
    35   1      15.064283438842267      12.286956486443842     0.91334273378735986
    36   1      11.004339192234056      16.317031653860681      13.173317152779987
    37   1      10.945630901401728      10.898963689585116      2.2192589561819318
    38   1      2.8268747271153813      5.4158782789687052      4.9678479315568325
    39   1     0.05327169452995717   0.0020088423570695235      7.6988079690567019
    40   1      6.9032693557038556      14.941949190953892     0.89902089481196157
    41   1      1.4090298857364871      12.274572767184509      14.554894205758956
    42   1       1.424256448267073      6.7915593888920398      9.1371017164519799
    43   1      5.5195177052696636      13.629512461451668      10.504356991293662
    44   1      9.6007864399940672      14.981244770483841      9.1504257495616912
    45   1    0.066194070625575918      5.4243352631634139      2.2703342542008613
    46   1      6.9607740253395036      9.4645830495175005     0.87025712242918729
    47   1      1.4376298819232716       9.522008386255834      6.3750864999401529
    48   1      15.037974119227329      15.017752504395276      9.0815151507937344
    49   1      4.1988829185750092      9.5127473655803669      3.6151643578142227
    50   1      2.8165612071120449      2.7213427488438242      2.2959780048766731
    51   1      8.2109266431715469      2.6938619305550446      2.2563400284555541
    52   1      2.7931966954431289      10.900651582148839      15.912722006852277
    53   1      4.0911736659713256      12.258257445811637      11.807301028592065
    54   1      13.697272489856118      10.876691100340281      10.451859054876877
    55   1       10.97060470279439      10.903820030992506      13.186833921026732
    56   1      2.7956195123930172    0.012209553054624012      4.9758206443844983
    57   1      13.625456262885905      2.7484395569732101      2.2355200099594015
    58   1      2.7795232082213204      2.7144013636812474      13.182048638533502
    59   1       1.451770970869589      1.3607677419904292      14.582614969559245
    60   1      1.4195887050051397      9.5280454737300033      11.782987199032277
    61   1      2.7896661381601859       5.429073335282169      10.448775292684331
    62   1      10.887887259664353      2.7910551939205277      15.822363296925687
    63   1      1.3726725436365257      6.7776921931234142       14.56888113093089
    64   1      4.1598793619799608      14.981420957654564      3.6586548468040121
    65   1      15.080633802967327      1.3712635329756324     0.94849554211896958
    66   1    0.078145329774518935   0.0065141390684563261      13.231537765311032
    67   1      15.020394338546339      4.0384910250482164       9.088152832104015
    68   1      10.926157838692802    0.058816689137382028      2.2519640647760752
    69   1      4.1493397675545225      12.314434871208164     0.90105264438152943
    70   1      15.076512385946103       1.381958629613905      6.3628015817737946
    71   1      8.2753809719529272      5.4119267219546145      5.0026337035621395
    72   1      12.320445676618192      6.7521693886131402      14.513051212826895
    73   1      12.303120929300349        12.2653370551634      3.7184871825832602
    74   1      1.3977700897478513      12.257494292541764      3.6645203708039276
    75   1      12.324583641605727       9.501926942432533      6.3880829806578845
    76   1      6.8727398179747183      4.0098625566252792      6.4320903502424471
    77   1       12.34242721633791      12.268601871575584      14.527654306391469
    78   1      13.681910136660804      8.1305998944685598      13.205553564563616
    79   1       2.792988142397121      13.688206151137251       7.726179278744894
    80   1      5.4708447825951794      10.959615879754097      7.7941344758108357
    81   1      8.2299451235118113      13.580795248632057      2.3142907631242622
    82   1      4.1847616628530204      1.3141802280998007      6.3732710906948569
    83   1      9.6256025490018828      4.1022505825969802       3.617501514703207
    84   1     0.03157786014041819      10.897788783977035      13.173012475517908
    85   1      4.1781166809693673      1.3450105494518851      0.9303864698684734
    86   1      15.049388322342793       12.25016451687577      6.3733090536763939
    87   1      13.676976895880557      2.7201211195661585      7.7047248404226707
    88   1      8.3418132694133647      2.7695635226741047      13.249356031388857
    89   1      6.8607367019405388      14.957351453950309      11.851575599162061
    90   1      4.1759099609913051       6.718166724778257       6.426296615214028
    91   1      13.724084088919085       5.392639580514242      5.0234169758389839
    92   1      12.313227843077243      1.3799899083277865      9.1090976904048375
    93   1      4.1254352568084869      9.5398032904988668       14.54938373297739
    94   1      15.039373882495283      6.7689480530427204     0.88335161334444479
    95   1    0.071668915088131335      16.294461201222248      2.3008328861693883
    96   1     0.10633774863849155      13.605436143878933      15.933595806238941
    97   1      5.5158557376660156       13.63516115842242       15.87163924696074
    98   1      8.1995854457898076      10.940363781065912      10.561541895815594
    99   1    0.075696071060447068      13.632875592251935      5.0151162239144469
   100   1    0.084941897417582624      8.1828651859472075      15.921668616167835
   101   1    0.031739731343043642      5.3769199859285663      13.197533641361474
   102   1      4.1365462427765465      14.942683141930274      14.510481410999773
   103   1      8.1572951710624579      8.0203042920714438      2.2198206136267231
   104   1      8.2279155641142552      10.881034454792029      15.881769522572426
   105   1      12.273056194742594      4.0575827544746517     0.89620086583249758
   106   1       5.471135345415405      5.3813884235374303      13.148126281005716
   107   1      5.5338813400276194      16.320683887366499       2.287977306517746
   108   1      9.5814876176362986      12.225015501722169     0.87522078226515276
   109   1       8.247593042877611      16.316033908833106      15.865960374286715
   110   1      4.1218312070869274      4.0302856672824134      9.1566127421424426
   111   1      1.4744539740141818      4.1082643082363575      6.3837298921083061
   112   1      15.017038021614553      14.974031803991807      3.6396188450876537
   113   1      13.699494784390708    0.024357212836815245       5.004317215781839
   114   1      9.6141133933331275      14.950849076599866      14.526471613505123
   115   1      6.8340438588710981      12.266123570268064      3.6254494055814064
   116   1      13.709456660109936      10.868224382047742      15.867347483227491
   117   1      2.7825137664271438      10.905785345344384       5.020863235273282
   118   1    0.095590566972064472      10.872041121806888      7.7057989981182118
   119   1      9.6161585272872117      14.914477620058051      3.6266411025082448
   120   1      6.8961109001596697      1.3508417607569498      9.1261703245888839
   121   1     0.13950461849844586      2.7346368496027083      10.473911653510754
   122   1      5.4485687864161036      2.6778245176752193      15.860455741963847
   123   1      9.6236421016989198      1.3759880990336484      11.799782411428168
   124   1      13.681036014675669       13.57454790464476      2.2786296523715919
   125   1      8.2317566391179753      5.3794630189866552      10.491578067662431
   126   1      10.951245529030075      16.325425366419495      7.7423734105997823
   127   1      6.8098828546472419      12.257075726335074       14.50920527077426
   128   1      12.316718490559083      1.4144136935700402      14.538705427657874
   129   1      9.8223257459169417      9.4376127846599047      3.5675943084238781
   130   1      9.6285023367454414       6.719918862387658      11.863686763682153
   131   1      6.9192215952276683      14.998181127298267      6.3715389079860074
   132   1     0.11153565801778331      5.3755693798546531      7.7487215024996203
   133   1      13.690615340350178    0.050295482711287143      15.875718807361295
   134   1      8.2430696076160075    0.051539355923447161      10.557226770247553
   135   1      9.3236167649727122      9.4959268445301177      3.7198577435577249
   136   1      5.5273215314999788      10.911058306138898      13.149718779410705
   137   1      10.937608057970237      5.4572983253500524       2.290267983089592
   138   1      5.4846842361849895      13.662008773647358      5.0613303134770717
   139   1      15.055905300839981       6.791984768967211      11.823383705026799
   140   1      5.5491040089190733       10.87486108994824      2.2361240107297533
   141   1      6.9105548412247231      12.295867079597429      9.1303433323286072
   142   1      10.990304569982754      8.0253319536006416      5.1215415490143528
   143   1    0.090891636573255497      2.7317110231474544      5.0118022503082216
   144   1      11.040387476727915      13.600068762335468      10.463933229825216
   145   1      9.6046245947684383      12.264396741313021      11.840329795939056
   146   1      11.002069200620099      2.6859678205673561      10.474482071643592
   147   1      12.306248494933129      4.0746965152220298      6.4241327252664178
   148   1      5.5589690303648922    0.045692475002305333      7.7615062665895493
   149   1      15.090880887752974      14.963912235887733      14.569293856678883
   150   1      2.7989305657698935      2.7133349932639703      7.6983504664586917
   151   1      13.625263527748871      8.1428171606549995      2.2777596673780351
   152   1      1.4342512982426996       1.344780824743097       3.648861127624798
   153   1       4.126577553188838      6.7347541141854776      11.853213847826851
   154   1      9.6140433078287515      9.5069546039617308      14.505284376168333
   155   1      15.085324664711607      9.5158155532163846      14.541975111118973
   156   1      13.727387841722589      2.7422053540179832      13.198202373882395
   157   1      1.4240335374267659      14.960923867853921     0.94018122329558196
   158   1      4.1317745880202779      9.5196595484494537      9.1042715247007209
   159   1      6.8282817596606264      6.6805186413060369      14.470934691745811
   160   1      12.344009980645069      9.5477365802303211      11.824119602822748
   161   1    0.091127908983787087       10.89831929230877         2.2286630680955
   162   1      1.4170776727936669      4.0793043937823086      11.813962071737137
   163   1      4.1313219524711826      12.272792400691401      6.4218072492948295
   164   1      5.5655643683496123      8.0834060679593449      15.837534861803533
   165   1      10.859541566783378      5.3026624472225876      13.291508568631912
   166   1      15.090479842922377       12.25379144172723      11.777279124064762
   167   1      8.3160325113105955      5.3372253083875876      15.785317267404253
   168   1      2.8126252246544823      13.630452775302047       2.303392710546234
   169   1       12.31836549991192       14.97798092748144       6.385285400941541
   170   1      9.5861453834479562      12.276673385496224      6.3984561220104297
   171   1      5.4932531625047432      2.6747361317862044      5.0604308828375792
   172   1      13.780560351118993      13.547069519880438      13.166689205567536
   173   1      5.5323720681590771      8.1201746756926241      5.0346262761951266
   174   1      1.4358525573357355      1.3371610946379917       9.071598051924525
   175   1      8.1800247762004119       8.178352458193217      13.167646067384226
   176   1      2.8379757356331652      8.1137774265987446      2.2244693753978879
   177   1      2.7491345715582725      10.933850696207855       10.40533590770815
   178   1      5.5222116168441175      5.3959788627748253      7.8417512488707644
   179   1      1.4200870908140359      9.4573194657167505     0.90705584502762804
   180   1      2.7814481260672039    0.034721911000207495      10.495134907009515
   181   1     0.08106843372428596       8.101734400763462      5.0516667878563339
   182   1      12.341201693421112      6.7548190100424677        9.18105311497402
   183   1      12.319172456622027      14.939400804141997      11.836190857541737
   184   1      5.5272903823869228      5.3657846647159317      2.2198013887835089
   185   1       12.29632166196609      15.035640855977476     0.91425846904071761
   186   1      15.079323593399408      9.5136682112350854      9.0714510670472919
   187   1      15.075497119542433      9.4589849698554644       3.617454791033623
   188   1      8.2630449497729614      2.7267595309337764      7.7893292384170536
   189   1      12.313588978106736      9.5200138696104659     0.86855487207116511
   190   1      9.6229947841932244      4.0630542908648977      9.1984888310071256
   191   1      6.8126901684614154      9.5286431473367657      11.773802104319884
   192   1      10.912166046471953      13.594942786418187      5.0596015377024628
   193   1      12.265359443588409      1.3537352213369189      3.6200778870463637
   194   1       5.527673905841425    0.037917276905803377      13.179659890926018
   195   1      13.693033290251151       5.381772433696824      10.499445165528641
   196   1      6.8840975633227686      1.3583828880220779      14.521481914957462
   197   1      10.900393628556344      10.860973452574171      7.8051296260147183
   198   1      6.9244828751047862      1.3594669014916718      3.6684103596492434
   199   1      13.687877138630597      10.862053937433302      5.0317970606608355
   200   1      13.680302063699287   0.0029109059084237998      10.478035990761327
   201   1      1.3837914385590722      14.953647629725992      11.831371505706102
   202   1       8.216649319285807      13.663356946196814      7.8005949965406103
   203   1      10.996342630866707      8.0963967082183785      10.570506999917029
   204   1      4.1872355838165163      4.0520995371670097      3.6566600868061983
   205   1      4.1438808854914555      6.7796896299981313     0.86252551103714836
   206   1      8.1102979733294092      10.859951372302021      5.1188072409339043
   207   1      1.4122044183912976      12.270558425239415      9.0210556957617882
   208   1      13.724895912678107      8.1153178475803429      7.8401159204353235
   209   1      13.659640467645318      13.617972688474197      7.7394195986132672
   210   1      15.017076958005873       4.056289092873044       14.59656295833986
   211   1      12.319334042646005      4.0747770648815731      11.841785043564641
   212   1      13.656259815468957      5.4683767020903815      15.903463906406159
   213   1      9.6198750058387077      1.3452080299616114     0.91128354622953367
   214   1      2.7710197437094735      8.1297131181562463      7.7281411861625315
   215   1      10.925171774582623      2.7599885773436199       5.057170446769419
   216   1       2.794343858872395      16.287119744638858      15.893027980122611

Velocities

     1                       0                       0                       0
     2                       0                       0                       0
     3                       0                       0                       0
     4                       0                       0                       0
     5                       0                       0                       0
     6                       0                       0                       0
     7                       0                       0                       0
     8                       0                       0                       0
     9                       0                       0                       0
    10                       0                       0                       0
    11                       0                       0                       0
    12                       0                       0                       0
    13                       0                       0                       0
    14                       0                       0                       0
    15                       0                       0                       0
    16                       0                       0                       0
    17                       0                       0                       0
    18                       0                       0                       0
    19                       0                       0                       0
    20                       0                       0                       0
    21                       0                       0                       0
    22                       0                       0                       0
    23                       0                       0                       0
    24                       0                       0                       0
    25                       0                       0                       0
    26                       0                       0                       0
    27                       0                       0                       0
    28                       0                       0                       0
    29                       0                       0                       0
    30                       0                       0                       0
    31                       0                       0                       0
    32                       0                       0                       0
    33                       0                       0                       0
    34                       0                       0                       0
    35                       0                       0                       0
    36                       0                       0                       0
    37                       0                       0                       0
    38                       0                       0                       0
    39                       0                       0                       0
    40                       0                       0                       0
    41                       0                       0                       0
    42                       0                       0                       0
    43                       0                       0                       0
    44                       0                       0                       0
    45                       0                       0                       0
    46                       0                       0                       0
    47                       0                       0                       0
    48                       0                       0                       0
    49                       0                       0                       0
    50                       0                       0                       0
    51                       0                       0                       0
    52                       0                       0                       0
    53                       0                       0                       0
    54                       0                       0                       0
    55                       0                       0                       0
    56                       0                       0                       0
    57                       0                       0                       0
    58                       0                       0                       0
    59                       0                       0                       0
    60                       0                       0                       0
    61                       0                       0                       0
    62                       0                       0                       0
    63                       0                       0                       0
    64                       0                       0                       0
    65                       0                       0                       0
    66                       0                       0                       0
    67                       0                       0                       0
    68                       0                       0                       0
    69                       0                       0                       0
    70                       0                       0                       0
    71                       0                       0                       0
    72                       0                       0                       0
    73                       0                       0                       0
    74                       0                       0                       0
    75                       0                       0                       0
    76                       0                       0                       0
    77                       0                       0                       0
    78                       0                       0                       0
    79                       0                       0                       0
    80                       0                       0                       0
    81                       0                       0                       0
    82                       0                       0                       0
    83                       0                       0                       0
    84                       0                       0                       0
    85                       0                       0                       0
    86                       0                       0                       0
    87                       0                       0                       0
    88                       0                       0                       0
    89                       0                       0                       0
    90                       0                       0                       0
    91                       0                       0                       0
    92                       0                       0                       0
    93                       0                       0                       0
    94                       0                       0                       0
    95                       0                       0                       0
    96                       0                       0                       0
    97                       0                       0                       0
    98                       0                       0                       0
    99                       0                       0                       0
   100                       0                       0                       0
   101                       0                       0                       0
   102                       0                       0                       0
   103                       0                       0                       0
   104                       0                       0                       0
   105                       0                       0                       0
   106                       0                       0                       0
   107                       0                       0                       0
   108                       0                       0                       0
   109                       0                       0                       0
   110                       0                       0                       0
   111                       0                       0                       0
   112                       0                       0                       0
   113                       0                       0                       0
   114                       0                       0                       0
   115                       0                       0                       0
   116                       0                       0                       0
   117                       0                       0                       0
   118                       0                       0                       0
   119                       0                       0                       0
   120                       0                       0                       0
   121                       0                       0                       0
   122                       0                       0                       0
   123                       0                       0                       0
   124                       0                       0                       0
   125                       0                       0                       0
   126                       0                       0                       0
   127                       0                       0                       0
   128                       0                       0                       0
   129                       0                       0                       0
   130                       0                       0                       0
   131                       0                       0                       0
   132                       0                       0                       0
   133                       0                       0                       0
   134                       0                       0                       0
   135                       0                       0                       0
   136                       0                       0                       0
   137                       0                       0                       0
   138                       0                       0                       0
   139                       0                       0                       0
   140                       0                       0                       0
   141                       0                       0                       0
   142                       0                       0                       0
   143                       0                       0                       0
   144                       0                       0                       0
   145                       0                       0                       0
   146                       0                       0                       0
   147                       0                       0                       0
   148                       0                       0                       0
   149                       0                       0                       0
   150                       0                       0                       0
   151                       0                       0                       0
   152                       0                       0                       0
   153                       0                       0                       0
   154                       0                       0                       0
   155                       0                       0                       0
   156                       0                       0                       0
   157                       0                       0                       0
   158                       0                       0                       0
   159                       0                       0                       0
   160                       0                       0                       0
   161                       0                       0                       0
   162                       0                       0                       0
   163                       0                       0                       0
   164                       0                       0                       0
   165                       0                       0                       0
   166                       0                       0                       0
   167                       0                       0                       0
   168                       0                       0                       0
   169                       0                       0                       0
   170                       0                       0                       0
   171                       0                       0                       0
   172                       0                       0                       0
   173                       0                       0                       0
   174                       0                       0                       0
   175                       0                       0                       0
   176                       0                       0                       0
   177                       0                       0                       0
   178                       0                       0                       0
   179                       0                       0                       0
   180                       0                       0                       0
   181                       0                       0                       0
   182                       0                       0                       0
   183                       0                       0                       0
   184                       0                       0                       0
   185                       0                       0                       0
   186                       0                       0                       0
   187                       0                       0                       0
   188                       0                       0                       0
   189                       0                       0                       0
   190                       0                       0                       0
   191                       0                       0                       0
   192                       0                       0                       0
   193                       0                       0                       0
   194                       0                       0                       0
   195                       0                       0                       0
   196                       0                       0                       0
   197                       0                       0                       0
   198                       0                       0                       0
   199                       0                       0                       0
   200                       0                       0                       0
   201                       0                       0                       0
   202                       0                       0                       0
   203                       0                       0                       0
   204                       0                       0                       0
   205                       0                       0                       0
   206                       0                       0                       0
   207                       0                       0                       0
   208                       0                       0                       0
   209                       0                       0                       0
   210                       0                       0                       0
   211                       0                       0                       0
   212                       0                       0                       0
   213                       0                       0                       0
   214                       0                       0                       0
   215                       0                       0                       0
   216                       0                       0                       0
