(written by ASE)

64 atoms
1 atom types

0.0      10.887404441833496  xlo xhi
0.0      10.887404441833496  ylo yhi
0.0      10.887404441833496  zlo zhi

Atoms # atomic

     1   1       5.443702220916748       5.443702220916748       5.443702220916748
     2   1      6.8046277761459351       4.082776665687561      6.8046277761459351
     3   1      6.8046277761459351      6.8046277761459351       4.082776665687561
     4   1       4.082776665687561       4.082776665687561       4.082776665687561
     5   1       4.082776665687561      6.8046277761459351      6.8046277761459351
     6   1      7.7756734996061709      9.7595722489873538      6.7576412845485834
     7   1      2.5194577956478383      1.1677438608165929      1.8085256685860429
     8   1      10.665647410114275      5.0041778398253882      5.5692097883622864
     9   1      4.2284283002406085      3.4194637466005418      10.359297172143215
    10   1      2.6970474928185553      5.2695582322434973       10.44229982676319
    11   1      6.0997103483089177      6.2541113147169654      1.8697653133471448
    12   1       4.410562036646013      6.9196530178022044      8.4738490910892779
    13   1      3.4989867856146191     0.94028475665702871      6.9527885367228919
    14   1      8.9318520351008033      5.9241416121416819      4.3349018122335963
    15   1       7.816233539628513     0.81504706708170716     0.24269219709222156
    16   1      10.539522051908421      9.2987139695289898      2.8741293945376469
    17   1      8.2036636233720515      8.4704200927935744      0.1319943704288562
    18   1      3.5248324384575653      10.181810169707603       1.274521238905713
    19   1      10.339285164300122      2.9001002927763295      1.1420924843485096
    20   1      10.220421443287478      4.6705597972768942     0.23839349768875451
    21   1      2.1024889422368176      8.4537014548124603      4.2293802950361794
    22   1      1.6262050374968453      2.2079327488842893      7.6487707114309273
    23   1      4.1494156524376535       2.059758198335004      5.0312447975117323
    24   1      6.3507189938012516      8.7110190937625589      4.4405063937349212
    25   1     0.86341417826159272      7.3442147922122558      2.5719429170349457
    26   1      9.5156818249760136     0.41992392280478796      6.1268237051962728
    27   1      8.2343195430331093      2.1178509714107463       6.487621945439173
    28   1      2.9249855146053392      3.1442457501582624      3.5722040758703031
    29   1     0.45507991602405085      8.2599572106463484      8.5318967628437576
    30   1     0.19491476946434716     0.93794313823816822       9.473647393559304
    31   1      7.9612138458816162      7.6936942231679382      5.2902227491301801
    32   1      9.3034155389181592      3.5030747823526553      9.9412773606057954
    33   1      1.5374459617220566     0.14171544918685086     0.33217003461589023
    34   1      10.477408122901693     0.89364780029946189      3.9107686626105078
    35   1      2.5812762947767993      8.0099420921015394      9.8765339272284791
    36   1      6.7445463268254571       7.061219900316587       9.550928994247613
    37   1      8.6086702436105043      5.8943955061843667      10.080008375869568
    38   1      6.9421043906327213      9.7787711351679718      9.1922917237860702
    39   1      9.9464189112297277      8.0250390293368241       1.288081162048762
    40   1     0.95057937658766178      9.9705744001701078      9.5214982730691986
    41   1      7.9527562125001054      1.3590683704264777      2.1518585032874995
    42   1     0.63885952618560182       2.576734040126766      2.7074952625595188
    43   1       6.453680443194628      1.9899617946265948       4.538316558406251
    44   1      4.4442293617936741      8.1180645603150765     0.95081656411171167
    45   1      2.5966545474475851      5.8053356467778485      3.4757871851090556
    46   1       1.156248134296149      5.8781791476659464      1.1360449325425961
    47   1      5.5573776676345119      2.2632561710465353      10.708226951025381
    48   1      8.9700096997085552      1.6565557931820223      8.0326102108500663
    49   1       2.938284563918927       9.931833987555251      6.1995906311792055
    50   1      9.8587763365086403      3.2462996571374561      3.5236614264544244
    51   1      5.7727387479528147      0.6813647229223605      9.3147239651673885
    52   1      7.5846768668677669      4.5905610853349685      2.6437244278187819
    53   1      7.8441230286055088       3.374766390409718      7.9382550020694111
    54   1      9.3788671291609944      7.8812326553162961      7.1928476197164741
    55   1      5.4144862988367208      3.9425206417192271      1.1875297942309828
    56   1      2.4548295490982071      3.6394215925183175       8.585793815162333
    57   1      1.2930624245237468      4.3432919558681817      6.9263572156434066
    58   1     0.43686194302215142      10.180790685165107      4.9330598700630048
    59   1      10.866459258451187      6.0752946344789507       7.098019982707342
    60   1      4.7012345361943062      10.476681959182372      7.6817608678197757
    61   1      6.0110645125421911      5.3242125973953591      8.1698863029156996
    62   1      4.8091016465673135      9.3963028457031896       2.784816448580159
    63   1      8.8970098043107555      10.051432957445456      1.3602796167018241
    64   1      6.2536661419632082      10.849425884631046      3.4819576299036612

Velocities

     1                       0                       0                       0
     2                       0                       0                       0
     3                       0                       0                       0
     4                       0                       0                       0
     5                       0                       0                       0
     6                       0                       0                       0
     7                       0                       0                       0
     8                       0                       0                       0
     9                       0                       0                       0
    10                       0                       0                       0
    11                       0                       0                       0
    12                       0                       0                       0
    13                       0                       0                       0
    14                       0                       0                       0
    15                       0                       0                       0
    16                       0                       0                       0
    17                       0                       0                       0
    18                       0                       0                       0
    19                       0                       0                       0
    20                       0                       0                       0
    21                       0                       0                       0
    22                       0                       0                       0
    23                       0                       0                       0
    24                       0                       0                       0
    25                       0                       0                       0
    26                       0                       0                       0
    27                       0                       0                       0
    28                       0                       0                       0
    29                       0                       0                       0
    30                       0                       0                       0
    31                       0                       0                       0
    32                       0                       0                       0
    33                       0                       0                       0
    34                       0                       0                       0
    35                       0                       0                       0
    36                       0                       0                       0
    37                       0                       0                       0
    38                       0                       0                       0
    39                       0                       0                       0
    40                       0                       0                       0
    41                       0                       0                       0
    42                       0                       0                       0
    43                       0                       0                       0
    44                       0                       0                       0
    45                       0                       0                       0
    46                       0                       0                       0
    47                       0                       0                       0
    48                       0                       0                       0
    49                       0                       0                       0
    50                       0                       0                       0
    51                       0                       0                       0
    52                       0                       0                       0
    53                       0                       0                       0
    54                       0                       0                       0
    55                       0                       0                       0
    56                       0                       0                       0
    57                       0                       0                       0
    58                       0                       0                       0
    59                       0                       0                       0
    60                       0                       0                       0
    61                       0                       0                       0
    62                       0                       0                       0
    63                       0                       0                       0
    64                       0                       0                       0
