(written by ASE)

64 atoms
1 atom types

0.0      10.887404441833496  xlo xhi
0.0      10.887404441833496  ylo yhi
0.0      10.887404441833496  zlo zhi

Atoms # atomic

     1   1       5.443702220916748       5.443702220916748       5.443702220916748
     2   1      6.8046277761459351       4.082776665687561      6.8046277761459351
     3   1      6.8046277761459351      6.8046277761459351       4.082776665687561
     4   1       4.082776665687561       4.082776665687561       4.082776665687561
     5   1       4.082776665687561      6.8046277761459351      6.8046277761459351
     6   1    0.069240297725049249      1.3480103538512367      5.0586433634738341
     7   1       4.651978377386655       9.637579339900924      4.7117629367146492
     8   1      2.1499501333522062      8.7361097050617786      9.4364793622598313
     9   1      1.0192762327965852      6.2910703873769194      6.4493163225400849
    10   1      8.9990744187978748      3.9436764036353225      7.0119640659788729
    11   1      8.1291581874659187      8.7890670924423944      8.3059936542677519
    12   1      0.4850921278885636       2.839667118043991     0.32990383517804389
    13   1      1.3558368932050087      10.096704949894956       8.348552429102881
    14   1      9.3927343253345157     0.20162517279309711      0.1380821565069752
    15   1      7.1185725574657113      8.9142553814697862      1.3317585469921838
    16   1      6.7303929481673777      1.7343672532776822      3.3456160112569933
    17   1      5.3780616281632376      5.5873035299370031      9.3281738930017468
    18   1      4.9461830566706624      3.4918325479706027      3.9226679486152705
    19   1      4.4991802924680826      5.8346910909308463     0.67398879119379274
    20   1      2.9396603164524038      8.4470582573194406      7.7808150502301032
    21   1      3.0090757924546097      10.151991382484368      4.1484996738051052
    22   1      9.4151344319149644      8.6656354836546825      5.9107903231682144
    23   1      7.5699777297754167      3.2682328514783592      10.476661842046269
    24   1      2.5526382536548198      7.2206280867945907      0.3787509996299292
    25   1      1.8288386222958337      1.8703474124143753      6.2015621105172727
    26   1      7.3792731199804393      7.4844409649463728      3.0495842417569463
    27   1       9.579238347323269      2.9766138731234264      4.8770855612068544
    28   1      5.5970564473075797      2.7270880552438257      1.7542012893602532
    29   1      4.0290775400306416         2.3398834781066      7.6123333864298957
    30   1      8.8887857892839861      5.8068853151976327      2.2825976617645267
    31   1      10.556151785126758     0.15440480934886569       8.928792283593566
    32   1      7.7081941357188839      4.3794914444052893      5.6874816762095861
    33   1      9.6600625107852807      9.5243996832471112      1.6823939832164143
    34   1      4.5479231398351772     0.56620381227362415       9.692381663344122
    35   1      6.1568955789704773     0.95873995774172016      7.7029455100156952
    36   1      8.2518727176925495       4.788158734474564     0.85210745547953337
    37   1      1.4540244164132332      5.8768494698635436      3.8221601408865524
    38   1      3.4245968610061084      3.3187271875661395      5.7538143633390177
    39   1      2.2537947899144797     0.50318720790177096      2.3198362652753275
    40   1      7.5117769082106065      10.164920211599679      6.5923316388538638
    41   1     0.61680072142028308     0.48427641046659176      6.9449986624720168
    42   1      6.3547047825090885     0.14803025268442749      5.3208504399067067
    43   1      9.1542158256024777      6.6689960977217311      8.9226572060221088
    44   1      3.7897958870064485      8.4133542670688826      6.1250378226622502
    45   1      10.411011190724707      5.5403326128966341      7.6550414174361094
    46   1     0.44147359367999073      8.4845825566098938     0.24735622936553803
    47   1     0.35593147509698397      7.8306438984768079      4.7486691207748493
    48   1     0.65773378019411055      9.8806423655725553       3.367449268857257
    49   1      6.7076145096402229      9.2663059122073719      10.090078624838668
    50   1        5.07092130589524      8.0447038543471763      2.7707376980076219
    51   1      8.5643710120325522    0.080598616296956749         2.1654000938791
    52   1      5.3375184605776269      10.206165532129262    0.029162828151641174
    53   1      9.7635489525369508      6.5742080460449301     0.16940459825703336
    54   1      3.1806999475960254      4.2402072078986919      8.5479210351593906
    55   1      1.0730817845928868      4.9974321098322321      8.2916034125555598
    56   1      8.9719948067839823      1.8447112049158534      9.5686203931002751
    57   1      8.9830670189189732      1.2127317798361261      3.7948449636982957
    58   1       3.253206324219434       6.478250604714674      2.2290335156014578
    59   1      3.6866365109514163      1.1643789453334747     0.91588429291410733
    60   1      1.8602591553637637      2.2979123183276329      1.0263424579701521
    61   1      6.7543498615062276      7.5467184268014194      9.1065602769947418
    62   1    0.037839684069354007      4.2228694812775132      2.6807787324052867
    63   1      1.8669880129201886      3.6281735176773964       10.15434249164889
    64   1      6.2479080984587085      4.2735734249446864     0.30202166705400479

Velocities

     1                       0                       0                       0
     2                       0                       0                       0
     3                       0                       0                       0
     4                       0                       0                       0
     5                       0                       0                       0
     6                       0                       0                       0
     7                       0                       0                       0
     8                       0                       0                       0
     9                       0                       0                       0
    10                       0                       0                       0
    11                       0                       0                       0
    12                       0                       0                       0
    13                       0                       0                       0
    14                       0                       0                       0
    15                       0                       0                       0
    16                       0                       0                       0
    17                       0                       0                       0
    18                       0                       0                       0
    19                       0                       0                       0
    20                       0                       0                       0
    21                       0                       0                       0
    22                       0                       0                       0
    23                       0                       0                       0
    24                       0                       0                       0
    25                       0                       0                       0
    26                       0                       0                       0
    27                       0                       0                       0
    28                       0                       0                       0
    29                       0                       0                       0
    30                       0                       0                       0
    31                       0                       0                       0
    32                       0                       0                       0
    33                       0                       0                       0
    34                       0                       0                       0
    35                       0                       0                       0
    36                       0                       0                       0
    37                       0                       0                       0
    38                       0                       0                       0
    39                       0                       0                       0
    40                       0                       0                       0
    41                       0                       0                       0
    42                       0                       0                       0
    43                       0                       0                       0
    44                       0                       0                       0
    45                       0                       0                       0
    46                       0                       0                       0
    47                       0                       0                       0
    48                       0                       0                       0
    49                       0                       0                       0
    50                       0                       0                       0
    51                       0                       0                       0
    52                       0                       0                       0
    53                       0                       0                       0
    54                       0                       0                       0
    55                       0                       0                       0
    56                       0                       0                       0
    57                       0                       0                       0
    58                       0                       0                       0
    59                       0                       0                       0
    60                       0                       0                       0
    61                       0                       0                       0
    62                       0                       0                       0
    63                       0                       0                       0
    64                       0                       0                       0
