(written by ASE)

64 atoms
1 atom types

0.0      10.887404441833496  xlo xhi
0.0      10.887404441833496  ylo yhi
0.0      10.887404441833496  zlo zhi

Atoms # atomic

     1   1       5.443702220916748       5.443702220916748       5.443702220916748
     2   1      6.8046277761459351       4.082776665687561      6.8046277761459351
     3   1      6.8046277761459351      6.8046277761459351       4.082776665687561
     4   1       4.082776665687561       4.082776665687561       4.082776665687561
     5   1       4.082776665687561      6.8046277761459351      6.8046277761459351
     6   1      3.5175649608054869      10.571518681349744      10.245048062576586
     7   1      1.0775475454552392     0.97247574359069944      6.9705045952907767
     8   1      7.8181044332860665      6.8831566392726131         5.4326364981805
     9   1      4.8259653226103296      1.4876440444801347      10.565697041737565
    10   1     0.45726363925975022      9.7468608147299278      7.7060338148774008
    11   1      4.7391887581514709       7.706031868057778      1.9980109203572454
    12   1       2.867826890478625      2.2727229059325538      3.0046578097905012
    13   1       2.901698956156622      1.4648944837773854      8.6113341417944298
    14   1      4.9759142370108691      5.9784007729101063       8.616844290266954
    15   1     0.24980407113006997      5.5542069474087725      3.9887138043202697
    16   1      8.0168215037087975        3.06000134908885      2.0963481864414604
    17   1      0.9781535619032411      4.0757035455278299     0.26834312741414124
    18   1      3.8572820647624155      4.6966659994793645      7.6345141513328372
    19   1      1.1884342541807627     0.52980355796291079      2.5591399822552461
    20   1      9.2871628397667791       4.735839254990367      2.9237554490736386
    21   1      8.5209536897437488      3.7723660109231218      7.6910368143827554
    22   1      2.8215483922841145      6.3088325206758782      1.1005815040578923
    23   1      10.790665676894605      7.6380787780622654      8.2647820786116313
    24   1      10.140276070933965      10.469805792274485      5.7782962690361614
    25   1      6.7900266289746014      6.0540450982956031      10.263466274088444
    26   1      10.210671770616273      4.4976543103537097      9.5876804061477969
    27   1      1.1286822229639668       2.503441959550571      1.2112822915094341
    28   1      5.9464346436428741      0.8145561440668132      6.3002743016138538
    29   1      3.4286378096032593      8.5666286738551776     0.48698926305228341
    30   1      4.2873711845516596      5.6661425863235877      2.8023618359611078
    31   1       9.208910425026545      8.6752514747117857      6.2700953527603929
    32   1      4.2122054523234453      10.348409907872394      5.8454693333027876
    33   1      6.3869668283589931      8.0533451377131087      9.1681336390861929
    34   1       4.900813398770083       3.966864647693086       9.411804721420026
    35   1      5.5129064669898753      9.4327992242327809      7.4458160636291382
    36   1      10.363874794016397      6.9212435694340684       2.629579160909131
    37   1      2.6650899620046573      4.0017127189420023      1.6705217904514029
    38   1      3.1038482695744278      8.4009335578751347      5.4555849589547165
    39   1      7.8594399564581749      7.5734858987357825     0.16259726967424815
    40   1      6.7251800141572744      9.3144423252619504      2.8694203623399233
    41   1      6.6071547234622017      3.2385078360669581     0.22989984814422115
    42   1      7.8903457179708312      5.0284514358228876      1.0454996497638476
    43   1      7.1863517315749164       1.816090847405448      7.8755966125081613
    44   1      9.1906583421225037      6.3253772427706849      7.3277635174593456
    45   1      8.8765169320208201      1.0652971829784903      9.7407692161300474
    46   1      1.6571435704731527      6.3316563849942327      5.3737208693441687
    47   1      10.499447418912041      2.7117464676759369      10.530249350044812
    48   1      9.2713806220242532      2.4097189804424346      3.7560948169853248
    49   1      8.3491040279960202      9.5260389053695462      4.5332837052112609
    50   1      7.3075555297742198      10.494630987165124      8.9516648184024916
    51   1      10.258956790902062     0.89039969399371444      0.6344002141632501
    52   1     0.59084117962940041      8.8433217106316988      3.1245926060656473
    53   1      10.590674088558785      2.1294178379649082      5.4730083456393004
    54   1      1.1328150776708128      4.0886628748172313      5.4866587958948116
    55   1     0.95135080386321391      6.3361327722470264       10.22143573631098
    56   1      4.9835980095922991      10.082266037692193      1.1824667653318386
    57   1      1.7473974792483489      8.9169647054449115      9.6497891436355303
    58   1       7.742356926460559     0.51995110943911627      3.3292987425881222
    59   1      4.3378943984638454      1.1485241274425135      4.7103537637776469
    60   1      6.4419508549669899      1.2424058534673961      1.6082266449847822
    61   1      8.7518925717441789      10.140522668086192      10.725394655399498
    62   1      9.6797545912703526      8.7315301363689741      1.5951646209602757
    63   1      2.4580288226784148      10.393865550306316      4.1476216581552023
    64   1      2.1507616326649952      3.1261211839395173      7.4510893490475496

Velocities

     1                       0                       0                       0
     2                       0                       0                       0
     3                       0                       0                       0
     4                       0                       0                       0
     5                       0                       0                       0
     6                       0                       0                       0
     7                       0                       0                       0
     8                       0                       0                       0
     9                       0                       0                       0
    10                       0                       0                       0
    11                       0                       0                       0
    12                       0                       0                       0
    13                       0                       0                       0
    14                       0                       0                       0
    15                       0                       0                       0
    16                       0                       0                       0
    17                       0                       0                       0
    18                       0                       0                       0
    19                       0                       0                       0
    20                       0                       0                       0
    21                       0                       0                       0
    22                       0                       0                       0
    23                       0                       0                       0
    24                       0                       0                       0
    25                       0                       0                       0
    26                       0                       0                       0
    27                       0                       0                       0
    28                       0                       0                       0
    29                       0                       0                       0
    30                       0                       0                       0
    31                       0                       0                       0
    32                       0                       0                       0
    33                       0                       0                       0
    34                       0                       0                       0
    35                       0                       0                       0
    36                       0                       0                       0
    37                       0                       0                       0
    38                       0                       0                       0
    39                       0                       0                       0
    40                       0                       0                       0
    41                       0                       0                       0
    42                       0                       0                       0
    43                       0                       0                       0
    44                       0                       0                       0
    45                       0                       0                       0
    46                       0                       0                       0
    47                       0                       0                       0
    48                       0                       0                       0
    49                       0                       0                       0
    50                       0                       0                       0
    51                       0                       0                       0
    52                       0                       0                       0
    53                       0                       0                       0
    54                       0                       0                       0
    55                       0                       0                       0
    56                       0                       0                       0
    57                       0                       0                       0
    58                       0                       0                       0
    59                       0                       0                       0
    60                       0                       0                       0
    61                       0                       0                       0
    62                       0                       0                       0
    63                       0                       0                       0
    64                       0                       0                       0
