(written by ASE)

64 atoms
1 atom types

0.0      10.887404441833496  xlo xhi
0.0      10.887404441833496  ylo yhi
0.0      10.887404441833496  zlo zhi

Atoms # atomic

     1   1       5.443702220916748       5.443702220916748       5.443702220916748
     2   1      6.8046277761459351       4.082776665687561      6.8046277761459351
     3   1      6.8046277761459351      6.8046277761459351       4.082776665687561
     4   1       4.082776665687561       4.082776665687561       4.082776665687561
     5   1       4.082776665687561      6.8046277761459351      6.8046277761459351
     6   1       1.408794442820593      2.2599478755674482     0.56417198152724879
     7   1      3.1923646418362353      3.0322835047086016      10.302010706861267
     8   1      4.7360787138039768      1.9742125105826887      9.2055872039303495
     9   1      0.3985431790906091      7.1066340105985546     0.91882285489982252
    10   1      2.0652586127094139     0.52408469420332082     0.69092271497819979
    11   1       7.770648109219735      6.3020296839737853      9.2893737779184562
    12   1       2.855899051119394      7.3945050367095746        8.78359328460283
    13   1      2.3095160122196603      5.6197310554548494      8.1283528530819353
    14   1      7.6851165359096854      7.6965566969533938      2.6303460456055632
    15   1      8.8767901357078927       9.429122330905102      2.5019763288445063
    16   1      7.2315270319831484     0.90285276906369205     0.11924286413419338
    17   1      6.8641732011302565      8.1536459336219309      4.4564433836374633
    18   1      5.2692876243159219      6.7196802487227387      1.8088817743420549
    19   1      3.1805964416860775      8.9210978035042103      4.1201663099541008
    20   1      9.8133090131569816      6.7030881540171094      5.9258703879667678
    21   1      9.6596478382056148      6.0363965294746436      10.865987479162584
    22   1       8.798331358087637      7.5460604017688979      7.5270529528511929
    23   1      9.8091551490217057      2.5154744404645299      8.2450328914176225
    24   1      9.3765822118636493     0.95745270438359853      9.6395618512168539
    25   1      10.311600091383525        3.96866058879516      9.6932454023167907
    26   1      3.2145583855366624       9.125565779092824      10.660144399980368
    27   1      3.7572810790755113     0.94809142222715082      7.9998731410121877
    28   1      1.5309325522038932      7.3198458020532371      3.5686021350981036
    29   1      4.5816478961617122     0.39152862575453184      3.7710551523770732
    30   1      5.1229497358458218       8.266399885718215     0.24583771005971933
    31   1      5.5609014111518604      2.0123573586279235      3.3848139264832184
    32   1       5.995542519689252      9.5224892042572264      6.8328949481297627
    33   1      6.6846887617616062      4.4149459499667216      7.8275108167637768
    34   1       5.936479905971396     0.88138875825189444      2.1684403771901088
    35   1      8.3554376811690076      1.7662363660337093      6.6046550070664694
    36   1     0.82715360825881845       1.222840316257809      1.9024332710884124
    37   1      10.748907044924465      8.6136995276361858      6.8906999163712612
    38   1       10.86731456120549      4.9223322450012574      4.4227397178568424
    39   1       1.897613107937218      5.7577897690088662      2.3500453898329425
    40   1      3.5797729860939853      2.1589249718135193      4.7696730332157813
    41   1    0.037691398773159301      9.9693777550419327      8.7516751768862946
    42   1      8.5928335149185386      3.9316612818630006      0.7078284098780756
    43   1      4.1537966455289279      10.243915662495965      1.8717421464391748
    44   1      10.535643987219714      2.7301241204456517      3.1835698841900353
    45   1      2.6691216632085997      4.1096667872581634       1.016708296596569
    46   1      10.525953368077069    0.077082376146904608      3.4929763044990239
    47   1      9.1044265626881042     0.89235000166838319      4.7515715043625733
    48   1      6.0889171803198678      6.3747823332794837      10.673564476580509
    49   1      5.4896108233829182      3.9724276847653641      9.6130649872100662
    50   1      1.0071602008738125      9.0756765794378111       5.118883478593574
    51   1      8.5381687667286883      3.9431903476694856      3.1753225073277918
    52   1      1.3410405773664849      8.3079748677039333      9.7885649357506281
    53   1      2.3036356435488585      1.1181818079757022      6.6475752414115732
    54   1      9.6712826812116077      8.4299048296225578      1.2165296193328743
    55   1      7.3123206952710689      10.824295039059621      5.4934343771221847
    56   1      7.3503894551160442      8.9279486617570001      8.7836977639225893
    57   1      7.1800018549050719      2.6551355488031163       1.631519368362305
    58   1      3.6905882303158535      5.1718856428255151      2.1945402522288049
    59   1       5.597635950615313      10.706509207178158      8.4039070003790926
    60   1      4.7644970887785121      8.0293278729659505      5.5974620347290056
    61   1      1.1367289151700888      10.287218122427021       7.021038192240951
    62   1      1.4042040043848942      3.4641818688673425      5.7821568123482621
    63   1     0.74445481973497607      4.0790893893218936      7.7337818349618033
    64   1      8.4032515711060682      10.139207266961023     0.37447120060030059

Velocities

     1                       0                       0                       0
     2                       0                       0                       0
     3                       0                       0                       0
     4                       0                       0                       0
     5                       0                       0                       0
     6                       0                       0                       0
     7                       0                       0                       0
     8                       0                       0                       0
     9                       0                       0                       0
    10                       0                       0                       0
    11                       0                       0                       0
    12                       0                       0                       0
    13                       0                       0                       0
    14                       0                       0                       0
    15                       0                       0                       0
    16                       0                       0                       0
    17                       0                       0                       0
    18                       0                       0                       0
    19                       0                       0                       0
    20                       0                       0                       0
    21                       0                       0                       0
    22                       0                       0                       0
    23                       0                       0                       0
    24                       0                       0                       0
    25                       0                       0                       0
    26                       0                       0                       0
    27                       0                       0                       0
    28                       0                       0                       0
    29                       0                       0                       0
    30                       0                       0                       0
    31                       0                       0                       0
    32                       0                       0                       0
    33                       0                       0                       0
    34                       0                       0                       0
    35                       0                       0                       0
    36                       0                       0                       0
    37                       0                       0                       0
    38                       0                       0                       0
    39                       0                       0                       0
    40                       0                       0                       0
    41                       0                       0                       0
    42                       0                       0                       0
    43                       0                       0                       0
    44                       0                       0                       0
    45                       0                       0                       0
    46                       0                       0                       0
    47                       0                       0                       0
    48                       0                       0                       0
    49                       0                       0                       0
    50                       0                       0                       0
    51                       0                       0                       0
    52                       0                       0                       0
    53                       0                       0                       0
    54                       0                       0                       0
    55                       0                       0                       0
    56                       0                       0                       0
    57                       0                       0                       0
    58                       0                       0                       0
    59                       0                       0                       0
    60                       0                       0                       0
    61                       0                       0                       0
    62                       0                       0                       0
    63                       0                       0                       0
    64                       0                       0                       0
