(written by ASE)

64 atoms
2 atom types

0.0      11.085848808288574  xlo xhi
0.0      11.085848808288574  ylo yhi
0.0      11.085848808288574  zlo zhi

Atoms # atomic

     1   1      5.5429244041442871      5.5429244041442871      5.5429244041442871
     2   2      4.1571933031082153      4.1571933031082153      4.1571933031082153
     3   2      6.9286555051803589      4.1571933031082153      6.9286555051803589
     4   2      4.1571933031082153      6.9286555051803589      6.9286555051803589
     5   2      6.9286555051803589      6.9286555051803589      4.1571933031082153
     6   1      6.4944383689237384      3.8624788454905001      6.2909482309294162
     7   1      6.3962786275300232      5.7058050574624986     0.22367422821072402
     8   2      7.8380316287140772      4.6499647331803828      2.7722600795290475
     9   1     0.64318400918610408      9.1763889622365014       8.573003303609994
    10   1      9.1575716088470926      1.3656526717655026      9.0850080405780886
    11   1      8.4009584577867713     0.51953551077872362      4.8117911310265526
    12   2      10.627094049371806      9.9156655411752581      6.9281103715141512
    13   1      4.7687569578799582      8.2474825165547827      6.2941793868418472
    14   1      5.1756724785967378      9.5835185718112825      9.8527267207632008
    15   2      6.5312339002406361    0.034656201736571468      6.7789029920805888
    16   2      10.044223918100954      5.5345025845774387      9.0456328706758882
    17   2      4.5953152483350834     0.77390115672798743      1.7358511273749144
    18   1      1.7792326993397012      9.4525312114225812      11.081031148215459
    19   2      10.287868932332174      9.2788939145259519       2.676283350680464
    20   2      5.4306001077982557      8.5907865549538087       4.029836202552417
    21   2      6.7954499463462525      9.0577136934871305      9.0545757058740151
    22   1      6.4301918884808629      9.6187203305186131      2.4169500503038677
    23   1      8.4174089399127183      7.5649388242183591      9.4430491894709689
    24   2      6.6444485815748067      2.8770509589921289       10.66188613186938
    25   1      2.5242964503173226      11.012947587530562      3.7460036040643274
    26   2       10.39821191558957      2.0051663207558335      8.0936081321704023
    27   1      8.6571276702110822      3.5146941387392872      1.8749710561033339
    28   1      4.3099747770878594      2.9066956581445424      8.9205759038074461
    29   1     0.15362198130222549     0.71986552542924187      7.2355254524023849
    30   2      3.5538400221176403      5.0037825828883342      2.8388787173800267
    31   2      10.946942803226136      4.2678709653982594      1.6487544607568339
    32   2      2.6168611379915063     0.90438468145549678      6.6208955033542338
    33   1      3.8956612969445814       6.118673437814266      1.8173788406126334
    34   1      6.5744778672527104      1.9512013916416748      2.9063140645781971
    35   1      7.4121771732811226      9.2112794991780333         7.4619389566368
    36   2      2.1378660616245071      7.6489819163455763     0.84351224802240665
    37   1     0.32006724094986616      6.5061934330714166      6.3729568181375384
    38   1      6.6533656468178037      6.5142885028225805      3.6735170152766727
    39   1      10.287848448521686      10.885232350675267     0.44373706977683725
    40   2      2.1729075840723766      4.8368415097169759      5.2543613669696754
    41   2      7.7617770099487871      4.6046912170098153      6.8652852032118972
    42   1      1.3512561872170181      4.0048324080116515      3.1490098854621351
    43   1      6.3261110043200119       10.71661623042047      10.383444409764024
    44   2      8.3803933728250968      1.4926427156527211       3.703622930549102
    45   1      10.946597882288245      3.9540890536727602      8.6610228980441661
    46   2      1.3202618692606904      1.7782787154238378      2.2741764044756962
    47   1      7.2934503646214921      4.3676254705536621      8.8220937075905681
    48   1       2.556269035416463      3.2328326114345884      6.2923530238680314
    49   1      1.6121503869911891       1.355453138274747     0.20921073764910147
    50   2      10.743734813202082      8.4873300966287957      10.437432465760992
    51   2      2.1662982513496587      8.4085916506498393      7.2780194476433735
    52   1      3.2397865347111576      8.8457551517763022      3.0849593227550542
    53   2      2.7532169086482128      4.1450265804465403      9.1578359160791933
    54   1     0.62333998739200425      9.0412784090270293       5.246220373836934
    55   1      10.936997582850267      6.4000872947445941      0.2191624418117577
    56   1      4.6593192268925065     0.51508825251259438      7.0246743579940585
    57   1      10.101441808474192      1.6218040434516467      3.7394610089177149
    58   1      4.8382842968202056      1.5967113756040874     0.54367473158448476
    59   2      5.0453891665975448      7.1173107390049495      10.082687228052407
    60   1      8.6304696427814065      5.3170603285686013      5.7335705321946762
    61   1      2.3672142020953402      6.6515432484524695      8.6128152412132408
    62   1      3.1823294462928686      4.0373904336298949      10.387549101078548
    63   1      10.444600477895563      7.4492026518899479      3.7215535331748129
    64   2      10.212735636999071     0.70898548341183698       11.00551460739581

Velocities

     1                       0                       0                       0
     2                       0                       0                       0
     3                       0                       0                       0
     4                       0                       0                       0
     5                       0                       0                       0
     6                       0                       0                       0
     7                       0                       0                       0
     8                       0                       0                       0
     9                       0                       0                       0
    10                       0                       0                       0
    11                       0                       0                       0
    12                       0                       0                       0
    13                       0                       0                       0
    14                       0                       0                       0
    15                       0                       0                       0
    16                       0                       0                       0
    17                       0                       0                       0
    18                       0                       0                       0
    19                       0                       0                       0
    20                       0                       0                       0
    21                       0                       0                       0
    22                       0                       0                       0
    23                       0                       0                       0
    24                       0                       0                       0
    25                       0                       0                       0
    26                       0                       0                       0
    27                       0                       0                       0
    28                       0                       0                       0
    29                       0                       0                       0
    30                       0                       0                       0
    31                       0                       0                       0
    32                       0                       0                       0
    33                       0                       0                       0
    34                       0                       0                       0
    35                       0                       0                       0
    36                       0                       0                       0
    37                       0                       0                       0
    38                       0                       0                       0
    39                       0                       0                       0
    40                       0                       0                       0
    41                       0                       0                       0
    42                       0                       0                       0
    43                       0                       0                       0
    44                       0                       0                       0
    45                       0                       0                       0
    46                       0                       0                       0
    47                       0                       0                       0
    48                       0                       0                       0
    49                       0                       0                       0
    50                       0                       0                       0
    51                       0                       0                       0
    52                       0                       0                       0
    53                       0                       0                       0
    54                       0                       0                       0
    55                       0                       0                       0
    56                       0                       0                       0
    57                       0                       0                       0
    58                       0                       0                       0
    59                       0                       0                       0
    60                       0                       0                       0
    61                       0                       0                       0
    62                       0                       0                       0
    63                       0                       0                       0
    64                       0                       0                       0
