(written by ASE)

64 atoms
2 atom types

0.0      11.085848808288574  xlo xhi
0.0      11.085848808288574  ylo yhi
0.0      11.085848808288574  zlo zhi

Atoms # atomic

     1   1      5.5429244041442871      5.5429244041442871      5.5429244041442871
     2   2      4.1571933031082153      4.1571933031082153      4.1571933031082153
     3   2      6.9286555051803589      4.1571933031082153      6.9286555051803589
     4   2      4.1571933031082153      6.9286555051803589      6.9286555051803589
     5   2      6.9286555051803589      6.9286555051803589      4.1571933031082153
     6   1      10.255143732389627      1.1133959497403723        8.73169600883557
     7   2     0.44496535504201518      6.7948962226950016      7.6921128920159276
     8   1      1.4193618836326038      2.2666945275030059      4.3797819513100933
     9   2      7.8678322691334301      11.043592689556476      6.4813974500918903
    10   2      9.9886301956689749        9.73476045616394      4.3453123236356817
    11   1      9.4696953230752001      3.1716448264351982      6.7417790590278059
    12   1      0.8283221810095398      4.3470947455321607      10.549189492710127
    13   1      5.5951845516113963      4.0362899243922357      10.660968325005911
    14   2      9.2877680298437326      2.7392428200950292      8.9993956242602735
    15   2    0.038755369442924348      5.7256915336057546      10.578296326645216
    16   1      8.6737202174742833      3.5167309563466631      2.5170527802375631
    17   1      8.5980939891533126      8.5284840542030338      3.0283711443622963
    18   2      8.9720596487802595      5.5391560437826115      5.2647281573807447
    19   2      4.0877723478288885      10.409657740275691      1.1276716789221908
    20   1       9.239549139955443      5.5465031240669305     0.68547564420251561
    21   2     0.37299408276094681     0.49171890911633653        1.44381624951464
    22   2      6.2900826247442865      8.8877363909870155      5.8685271264414496
    23   1     0.84979284862519933      10.250076301982176      3.5041882566473248
    24   2      8.3162063615094439       7.087600623812591      8.9031534318354488
    25   1      10.306016266888207      7.1751312498673769      8.8984335654382107
    26   1      6.4171939195742311      2.0405876196578276      2.6606421442608053
    27   2      4.5420765033411215      6.5610470952535138      1.1999795299441374
    28   2      1.8382232652802344      5.1605438630153344      3.4335858480405079
    29   1      4.4439848210596722      10.970521651401839      4.6162196377059672
    30   2      2.3163910600107585      3.3319659945945546     0.92966484224582757
    31   2     0.84160320644254938      10.516278616937029       8.088318022919907
    32   2      9.3231528213092929      8.3280235378566658      1.0504397015701983
    33   1      8.8292471828273733     0.18113656032943126      4.5285690822446156
    34   2      2.0991577719073007     0.43883235350914873      4.8450816180617551
    35   1       8.400734457407566      2.4684701375210949      10.472607793745112
    36   1      2.1986867899553175      5.9212365962031299       7.464550972858035
    37   2      6.5959825644245029      1.9769691992752314     0.13125590066631609
    38   1      6.5804928390872419      6.0776496515518375      1.8066453239170244
    39   1      7.6100620156506693      9.4652258877803774      8.4521230517768231
    40   1      2.8168176534846623     0.21274037489278363      6.9297959908868734
    41   1      9.7026273044212985       10.43459314532015     0.81048474668314441
    42   1      6.3369059724470844      1.2431423876743608      7.0086229797885835
    43   1      1.7291606853703456      9.7898044195531497      10.187444738727436
    44   1       4.443803109837603      8.4147790829533164      7.1712750073510279
    45   1      10.712909982258338      5.4744351318581153      4.5911795009207879
    46   1      4.3374994018547852      9.0557029762189245      1.4691424988785684
    47   1      5.8054720108472679      10.543056243389231       10.76879906802219
    48   2      2.2048738918747546      8.4078251596767473      2.5948830004902135
    49   1      4.3302758852014733      7.1071216952074678      10.339094316985609
    50   2      2.2269356165381993      4.3127361268952313      8.7328100638188744
    51   1      7.3674669618989697      5.2901426192833867       8.597690920624359
    52   1      3.5293813612430824      2.9528840077222185      8.1926969134849514
    53   1      10.447084305109229       9.716766419802525      6.1298463652832424
    54   2      7.6770876866390836      10.255078316349682      10.566812838178521
    55   1      1.1207665698875502       7.817309941717383      1.0047532879454835
    56   1       2.207943489991564     0.95591385423382746      1.1709080471013422
    57   1       2.468462538688172      6.7878563995679997      4.0877092444772245
    58   2      8.2464325560752627      2.0600827559055546      2.6085843570182732
    59   2      5.8351761791269041      4.9478680575533929      10.158110600572741
    60   2      4.5197352737797303      8.5118564862315793      9.3717225790481962
    61   2      10.710469765737969      2.9219944215066107      5.3758482039005173
    62   1      5.3885379244977116      3.8816662290048498      5.3168465700946399
    63   1      3.0134764406813019      4.6372855848724726      2.2038787751458955
    64   2      4.0043384838716634      1.4236691003637247      7.2471615782956178

Velocities

     1                       0                       0                       0
     2                       0                       0                       0
     3                       0                       0                       0
     4                       0                       0                       0
     5                       0                       0                       0
     6                       0                       0                       0
     7                       0                       0                       0
     8                       0                       0                       0
     9                       0                       0                       0
    10                       0                       0                       0
    11                       0                       0                       0
    12                       0                       0                       0
    13                       0                       0                       0
    14                       0                       0                       0
    15                       0                       0                       0
    16                       0                       0                       0
    17                       0                       0                       0
    18                       0                       0                       0
    19                       0                       0                       0
    20                       0                       0                       0
    21                       0                       0                       0
    22                       0                       0                       0
    23                       0                       0                       0
    24                       0                       0                       0
    25                       0                       0                       0
    26                       0                       0                       0
    27                       0                       0                       0
    28                       0                       0                       0
    29                       0                       0                       0
    30                       0                       0                       0
    31                       0                       0                       0
    32                       0                       0                       0
    33                       0                       0                       0
    34                       0                       0                       0
    35                       0                       0                       0
    36                       0                       0                       0
    37                       0                       0                       0
    38                       0                       0                       0
    39                       0                       0                       0
    40                       0                       0                       0
    41                       0                       0                       0
    42                       0                       0                       0
    43                       0                       0                       0
    44                       0                       0                       0
    45                       0                       0                       0
    46                       0                       0                       0
    47                       0                       0                       0
    48                       0                       0                       0
    49                       0                       0                       0
    50                       0                       0                       0
    51                       0                       0                       0
    52                       0                       0                       0
    53                       0                       0                       0
    54                       0                       0                       0
    55                       0                       0                       0
    56                       0                       0                       0
    57                       0                       0                       0
    58                       0                       0                       0
    59                       0                       0                       0
    60                       0                       0                       0
    61                       0                       0                       0
    62                       0                       0                       0
    63                       0                       0                       0
    64                       0                       0                       0
