(written by ASE)

64 atoms
2 atom types

0.0      11.085848808288574  xlo xhi
0.0      11.085848808288574  ylo yhi
0.0      11.085848808288574  zlo zhi

Atoms # atomic

     1   1      5.5429244041442871      5.5429244041442871      5.5429244041442871
     2   2      4.1571933031082153      4.1571933031082153      4.1571933031082153
     3   2      6.9286555051803589      4.1571933031082153      6.9286555051803589
     4   2      4.1571933031082153      6.9286555051803589      6.9286555051803589
     5   2      6.9286555051803589      6.9286555051803589      4.1571933031082153
     6   2      3.3801974390763689      4.6871068373553726       6.199568630807164
     7   2     0.69199333665210361      5.6263708226950371      9.1793181471362573
     8   1      8.1965776044202698      10.637404674496054      1.4721458549953326
     9   1      4.0730002166267809      4.4740054972497489      8.6053703672530446
    10   1      7.2703373579423669      9.8064841882029441      7.1436826538558762
    11   1       3.709521276817469      3.1171248521336281      5.4028706449264519
    12   1     0.45546033446065337      10.308699646062109      6.2040083315383754
    13   2      1.1917352092028466      10.652507850506368      4.0135842812345857
    14   1     0.95902640227585323      8.0120356518952462      8.6459950495950011
    15   1      6.2331482038774766      3.3142841711510584      9.3928830160501775
    16   2      1.7287528262728102      9.5418848966107817      7.5380548141052373
    17   2     0.86975052252910245      10.837732376458291      6.2945646146326339
    18   1      5.0698521224646242      7.0316870896297701      9.3036608237099472
    19   1      5.8733236419359969       4.099861430241134     0.12060877939719994
    20   2      2.5289456145299738      6.0877798869901767      1.6201047131412594
    21   2      3.9262340448657085      8.0103579617394871     0.13842547180057618
    22   1      7.8009830232224431      4.2808471289582428      4.2757195686554894
    23   1      10.340140973624727      7.5959486702245727      3.7673335280788933
    24   2      9.0988286657446338     0.68147205040427039      1.6387596827749462
    25   1       2.305730062611957      4.1246088467667619      2.4247494263391189
    26   2      4.6262302741217809      6.6557490372832717      7.0686775475303421
    27   1      2.3996873190152712      4.3855207220870795      8.1881574367736221
    28   1      4.3912846020511154      9.8374900696006762      3.7469323136011212
    29   1      2.6471880801867798     0.95754099563144734    0.074689259183173817
    30   2     0.78451928679758254      2.9815904162006746     0.74407127732108336
    31   2      3.9559504373548293      2.6346931209812396      5.3133474727256669
    32   1      9.6033435965230751      2.1415232477566803      8.1635702565074553
    33   1      7.9847822724252637      7.0116103122794016      3.7022085564733231
    34   2      9.7442239766093053     0.86326343190123112      7.2029284414674066
    35   1      5.3006227314202192      9.8529097535214305    0.029537861213437822
    36   2      3.0099291072424705      4.9805212337751925      7.3392257341490108
    37   1      1.2042643631565397      9.8263706643462001      2.4461578165632147
    38   2      1.0440064635408675      4.7350779392135678      8.0768067821938416
    39   1      9.4097121182861088      9.8076484615603476      9.1129287958091254
    40   1      7.6082455641980573      1.2776189534136151      10.518153215980703
    41   2      3.1221126599874083      8.1729736470575176      4.5211962320051668
    42   1      7.6592780045720588    0.088568031940781111      2.6755456031188629
    43   2      7.2163235319902697      2.8332846548126156      10.210455326354122
    44   1     0.57959177173868781      7.0720567154927494      5.2735679127583523
    45   2      7.6777550624001378      9.5661443359091436      9.6229954999978418
    46   2      6.6843001652628686     0.98935706129157808      3.0897505521049595
    47   1      2.9975145965507011      8.7110727762828333      6.9082073761688889
    48   1       5.804238356841438      7.7711698282095654      2.6436313308028048
    49   1      10.840428970993798      4.4965575118287404      10.222721824995915
    50   2      10.335154156923068      7.6280785181268129      3.9098103238470117
    51   2      8.3432654751638324      8.8770887741418392    0.051948326880237872
    52   2      9.4302943832178698        3.45913180279112      4.3163885224588228
    53   1      5.9861980277088378      2.7210249485464288      4.7381105343178831
    54   1       10.52908892770887      0.8424558450541042      8.9193567866993817
    55   1      2.9637671883880046      10.515826651570137      9.2224094767217935
    56   1      6.4449415535682419      8.7712674268576052      8.3184053976805217
    57   2      5.7819063780331703      9.7525608874778413      2.5950567824953197
    58   2      4.0374304100987501       5.078802556495674      9.3646675582553485
    59   2      1.6417982247919838      6.5845915834890434      1.2646100818336592
    60   1      1.7920653110342499      1.8265263487236183      4.5556490100935321
    61   2      3.2851955083381768      10.973275732760328      1.3521642477513041
    62   1      10.497798916036629      2.7443616252207192      2.3702783488754875
    63   2      1.5817646364367732      9.0855749795909446      10.309333983419151
    64   1      2.6907637527751405      7.6516547232301946    0.092593565304190939

Velocities

     1                       0                       0                       0
     2                       0                       0                       0
     3                       0                       0                       0
     4                       0                       0                       0
     5                       0                       0                       0
     6                       0                       0                       0
     7                       0                       0                       0
     8                       0                       0                       0
     9                       0                       0                       0
    10                       0                       0                       0
    11                       0                       0                       0
    12                       0                       0                       0
    13                       0                       0                       0
    14                       0                       0                       0
    15                       0                       0                       0
    16                       0                       0                       0
    17                       0                       0                       0
    18                       0                       0                       0
    19                       0                       0                       0
    20                       0                       0                       0
    21                       0                       0                       0
    22                       0                       0                       0
    23                       0                       0                       0
    24                       0                       0                       0
    25                       0                       0                       0
    26                       0                       0                       0
    27                       0                       0                       0
    28                       0                       0                       0
    29                       0                       0                       0
    30                       0                       0                       0
    31                       0                       0                       0
    32                       0                       0                       0
    33                       0                       0                       0
    34                       0                       0                       0
    35                       0                       0                       0
    36                       0                       0                       0
    37                       0                       0                       0
    38                       0                       0                       0
    39                       0                       0                       0
    40                       0                       0                       0
    41                       0                       0                       0
    42                       0                       0                       0
    43                       0                       0                       0
    44                       0                       0                       0
    45                       0                       0                       0
    46                       0                       0                       0
    47                       0                       0                       0
    48                       0                       0                       0
    49                       0                       0                       0
    50                       0                       0                       0
    51                       0                       0                       0
    52                       0                       0                       0
    53                       0                       0                       0
    54                       0                       0                       0
    55                       0                       0                       0
    56                       0                       0                       0
    57                       0                       0                       0
    58                       0                       0                       0
    59                       0                       0                       0
    60                       0                       0                       0
    61                       0                       0                       0
    62                       0                       0                       0
    63                       0                       0                       0
    64                       0                       0                       0
