(written by ASE)

216 atoms
1 atom types

0.0      16.331106185913086  xlo xhi
0.0      16.331106185913086  ylo yhi
0.0      16.331106185913086  zlo zhi

Atoms # atomic

     1   1      6.9957048354024778      2.0372080866022628      2.9480620549269361
     2   1      8.1690096710959779      11.841730532616793      9.7650619952025863
     3   1      12.332001997561974      13.086378031421077      8.2793242549838624
     4   1    0.051035726629821365      14.404320366655952      15.164356778403203
     5   1     0.07487198081720603      11.692224524045741      12.402615090040399
     6   1      11.066665647229797      11.671184271586185      1.5019678882355834
     7   1      11.044754193014455      3.3648809910566797      15.095119113948158
     8   1      7.0249689404137143      4.8315433064628337      11.049233824835824
     9   1      2.7974030424679199      11.772359511021477      9.7693255300521287
    10   1      1.4690644473981536      4.7719623537600455      5.6526407404879251
    11   1      2.8552759043539879      14.459943921885952      1.5367878512595183
    12   1       8.304094613731877      14.484701626306787      12.475009522421715
    13   1      15.017604546108259      10.335343850671279      13.777592424690624
    14   1     0.12361064667586241     0.75138249458581896      12.364862365016506
    15   1      13.749806442434874      3.4210688806083738      6.9244429653036832
    16   1      11.095970148747028      11.695195370703459      12.450600298703193
    17   1      5.3953466331207665      5.8812742569093075      1.7297342182165352
    18   1      8.2892978116204858      3.4071345195647211      12.388433482911864
    19   1      2.7822499723759506      8.9574190311981283      6.9026118173954387
    20   1       1.450883707852384      10.365993604508617      5.5536741678502608
    21   1      2.7642686601594733      11.688053463125584      4.1770259753075152
    22   1        10.9677467716715      6.1307100270983028      1.4685198246245648
    23   1      5.5297097924025707      8.9364517844722968       4.199468424559484
    24   1     0.10929629078817094      6.1410174632904955       12.31997454628322
    25   1      13.723936130632069      0.7543457364796069      9.6334258434278581
    26   1       9.596811034440293      2.0851364724689745      5.4899231276370983
    27   1      9.7194499595907473      10.364701889726575         2.8754712371219
    28   1      2.8338263330806797      8.9594047871554494      12.268190119237374
    29   1      9.5713787570398381      4.7994086160015286      8.2575422642696594
    30   1      6.9106954989383667      15.810629815401398      11.117294636863221
    31   1      5.5524759004073871       6.130170271373629      6.8588487736664092
    32   1      2.9129278022193148     0.75785804232911858      9.6633854497290486
    33   1      5.6047976496534488      14.418112609871287      4.2470506415721161
    34   1      15.013014918981412      10.297424672574493      8.2654190962336997
    35   1     0.11198871943365862      3.3994986065219734      15.117601959706121
    36   1      8.3575026882957673      11.674361481117899      4.2090219548747427
    37   1      1.5801723602591835      15.767206978391528    0.081218506135674495
    38   1    0.093776458141400454      14.437771593848765      9.6784353383840198
    39   1      2.8344653766032195      3.3907892658410219      6.9461300485640436
    40   1      11.108523241308603      8.9588771990530631      4.1849125413693855
    41   1      8.3389572851100411      11.720729856131129      15.119528337666679
    42   1      9.6925828761701496      2.0519621803594248      11.030890890884962
    43   1      8.3620105490008427       6.214048992374785      15.096832315166239
    44   1      1.4399382015474345      2.1393909268391837      13.697440889748577
    45   1      12.401792558773764      7.4988277430077233      13.781429606055212
    46   1      2.8021211596861235       6.159355043487551      15.136636988012697
    47   1       6.953289964222904      7.5849725619837045      2.9514750729785817
    48   1      15.040925497689386      7.4897122470948148      11.024690270567248
    49   1     0.11014816123404714      8.8785523971696421      4.2157277748698334
    50   1      15.103035855713301      4.7796887939126123      13.774095936750086
    51   1      11.053406832575547     0.74854676937360409      12.412274235317113
    52   1      12.437731821371926      2.0126381285933235      13.768573783051124
    53   1      12.317855433185628      2.0637686676174383      8.2471968650959298
    54   1      9.6482576882914373      13.085066848443375      11.107930434750756
    55   1      8.3620845281443508      14.468992739228725      1.5618440274550665
    56   1      9.6438909720048969       10.27119809279111      13.671134490362988
    57   1    0.087479858098130414     0.71947339184172421      1.5237498789497863
    58   1      12.336573129902945      4.7565226144869825      5.5127963107180449
    59   1     0.10560506005292147      6.1551017294407302      1.5037599356460873
    60   1    0.099699565413791547      0.7322270068185972      6.9585531909195879
    61   1      13.739799789865629      14.398332923080716      12.358883682129317
    62   1      8.2936499267602812      3.3401687935431994      1.5733918310632475
    63   1      4.2050567701236901      4.7839810443507531      8.3348456021866468
    64   1      12.383000882912938      15.747222875546527      5.5656982121947749
    65   1      8.3285622420373784      8.9456436930531709      1.5226630669270662
    66   1      2.8479234969105391      6.1823148600391846      9.6465493541222713
    67   1      4.2762159454903781      2.0533750846594501      11.083602977454007
    68   1      1.4866570040825451        2.03041964845184      8.3421812183113389
    69   1      5.6265528715986193     0.78391001673267624      1.5335568608372938
    70   1      11.038061027346544      14.425415130063357      15.156089609116179
    71   1      4.2294109961894719      13.063384145527039      11.021381650714829
    72   1       9.718957414240549      15.731205417567253      13.853751032702803
    73   1      15.082899900942152      7.5253760347243883     0.13771129348760169
    74   1      4.2196233608214015      10.329584184985265      2.8353292777856325
    75   1      2.8353195436878025      6.1745996140991224       4.227806816867087
    76   1      1.4242738479669441      7.5829824256823599      13.665654193284695
    77   1       4.266060847929225      15.749194030357103      8.2506125600244786
    78   1    0.062080003608689704      3.4529923411467678      4.2431253666221664
    79   1      6.9393760447846944       2.159874388902864       8.302402827529022
    80   1      4.1868540071815801      7.5177824650072012      5.5547444319066699
    81   1      6.9291698432099338      1.9881809644429893      13.683027611091688
    82   1      11.039820952234209      8.8808992881564564      9.7339946485683413
    83   1      15.088595321582488      15.717264242655119      8.2578946386111056
    84   1      5.5559728750528166      14.476739134281843      15.096334902767126
    85   1      5.8205914043321627      6.3655135014292341      1.2924860876185136
    86   1       15.10047578798401      2.1201400449132279     0.15069478526854141
    87   1      12.363118988095152      7.5604947128754816      2.8526245794575402
    88   1      15.085719869083505      2.0669512309029585      11.029325647953897
    89   1      13.774880505035185      8.8556101019941025      12.436728235885653
    90   1      13.634533309112385      11.695612963500366      9.6457326633143339
    91   1      1.5479122216120942      12.999694916835097      2.8598832962093752
    92   1      13.748584813157208       14.43578778471101      6.9111831772396499
    93   1      5.5845555932159527      3.3913883995624587      15.107532035500981
    94   1      1.5089940817255041      15.747609319230378      10.981940059717431
    95   1      13.741820588575138      3.4474801648980815       1.532448390446902
    96   1      8.2919892896704823      14.391161813209351      6.8790445931392128
    97   1      1.3886324487623796      1.9785749916756714      2.9448816818134276
    98   1      11.024690270567248     0.72509513752910948      1.5193942351995275
    99   1      4.2163527039505198      13.074951173978434       5.523948666601882
   100   1      2.8187333710428106      3.4459047011642951      12.372694420130529
   101   1      4.2422317764413719      10.289191572629875      13.605630825835533
   102   1       10.95890334379294      3.4229624059887556      9.6610891760509503
   103   1      4.2202307685259939       15.77257338652521      2.9249000124928841
   104   1      2.8510651769851734      14.416714793422898      6.9675547978878853
   105   1      5.6036183637013437      8.9062468789057903      15.058556869088875
   106   1        12.4011491349072      4.7625363401263598      11.062719443969513
   107   1      13.753019668128559      8.8726058368052918      1.4994286271404036
   108   1      9.6399214069098207      4.7247870220367076      13.724613623841037
   109   1      7.0782310035101546      4.6348001546472233    0.078836716887186853
   110   1      15.097138939247884      13.002553821367769      5.5700191782215143
   111   1      4.1744707746271388      7.7209048578357056    0.055129998446198591
   112   1      15.033065213691657      15.675267450977344      2.7986721254725069
   113   1      13.734397365569976       11.68545348559519      15.104416150785596
   114   1      9.5810972803133154      10.572793539497297      8.6010099062013978
   115   1      9.6560527538337055      15.741442768255069      8.3170672459099251
   116   1      15.078474780068632      4.7434711361165114      8.2474382707221139
   117   1      5.5895423715342645     0.77734211673621445       6.959660444547751
   118   1      12.420256195537718      13.139829909425202      2.7822876920050419
   119   1       11.04522921698856      8.9869269753600065      15.062337592686049
   120   1       7.032647683486914      15.681560545224443      0.1856984185509063
   121   1    0.097705383378036359       8.867544105933689      9.6498647878431711
   122   1      1.4442140256954872      15.717571840146547      5.5709049811240448
   123   1      9.6764310876408217      4.7809221041076739      2.7895610099036219
   124   1      2.5728269413745295      11.412235854292817      14.839876467698673
   125   1      1.4893252419739724      7.5819837072450014      8.2911803861408089
   126   1      2.8880274932652696      14.453257570086521      12.435961188976648
   127   1      9.7408747089145891      2.0150346634790708     0.12362507291303704
   128   1     0.10464209161079641       11.69755102237832      6.9902002030796098
   129   1      4.2593662221466388      4.7730253172430821      13.774381145816506
   130   1     0.13022844913323084      6.2256471699392364      6.9735427281680131
   131   1      5.5888113407872311      14.506613080522129      9.7138995770080783
   132   1      1.3556541770478816      10.347264226873904     0.16613441807490936
   133   1      8.3064804411100113      3.4099734691968422       6.934974285745966
   134   1      5.5729695832737889        3.39225984467069      4.2903591029324843
   135   1      12.399583891976135      10.297185213767875      11.066583880808025
   136   1      4.3266585271503573      13.163758268710922     0.22678228873797757
   137   1       4.244112404142129      10.332164694319999      8.2973245486911082
   138   1      4.2572617101957917      2.0587709384390678     0.21956781650268553
   139   1      13.718525919058152      6.1244193663756619      4.1901183368888724
   140   1      6.9487713960102155      7.4588658644813108      13.738651166321688
   141   1      12.361916827013147      10.380287153762197      5.5385240179876405
   142   1        9.74262684652399      10.128789214947915      7.9464317369346418
   143   1      9.6449033181792174       7.483753519108177      11.031067078055685
   144   1      2.7965152927458234      8.9898277365133481      1.4673455273975975
   145   1      13.735539175245435      8.9364965613223148      6.9421303077656944
   146   1      4.1649435263760211      4.6420238286468702       2.975208506955255
   147   1      3.0580174506048934       12.07817079549784      15.142770443055383
   148   1       12.40057482313523        15.6712044385431     0.29165562480235607
   149   1      9.6971102050708851      7.6331909022895275      5.5418097627101588
   150   1      10.974204372171926      14.432813044414161      4.1088288859104978
   151   1      9.6725384219186026      13.047671364809844     0.17358183943889571
   152   1      6.9563085079599887      13.034752270169861       13.78459513466953
   153   1      10.956211865742944        14.4122711777635      9.6140764037613735
   154   1       2.854449966153112      3.2986117397348949       1.477219674560132
   155   1      12.384512588305938      7.4941967459650982      8.2462877003586073
   156   1       13.74811173600267      6.1443460380434658      15.126092039833452
   157   1      13.744053590617341     0.67598862163440998      4.1840496135967555
   158   1      5.5919389064200118       6.120170919377756      12.419744181991859
   159   1      6.9960007519765099      7.5277861973470976      8.2838837064074369
   160   1      15.056986759108895      4.8098124197622383      2.8620659242953082
   161   1      15.096602590457451       7.552107814185149      5.5739994508242034
   162   1      13.715743913898336      6.1342493450692928      9.6823250838768899
   163   1      4.2616775836763736      15.874764865773955       13.68004995056549
   164   1      5.6069435315200735      11.677809298569287      1.5641289852444373
   165   1      1.3567038778226248      13.162934764034503      13.637553799669035
   166   1      1.3826126393118585       10.30544946282555      11.002039998326609
   167   1      13.751620878270387      11.692659638218743      4.1515484343521507
   168   1      1.5420457242023957      4.8305728169091822      11.012829272361387
   169   1      4.2116010040948026      2.0384783863690785      5.6629895465958953
   170   1      12.375982598377504      13.050858308439388      13.786506911483343
   171   1      8.3024943280486241      6.2113813628644721      9.6633192578638045
   172   1     0.10944507038969142      11.660041649800178       1.518487990691554
   173   1        6.95786937054703      10.282230719271638     0.14012611022583599
   174   1      8.2564286834779068     0.77203770263808735      9.6452060486217306
   175   1         2.8152668154531     0.77921173273880129      15.086653369065402
   176   1      9.6880789091042061      13.073491059303933      5.4952067959392252
   177   1     0.17965053231195682      3.4527660233722202      9.6689835293910846
   178   1      9.4903161105409026      15.946600560939828      3.0119299043140586
   179   1      6.9884787278783733      15.871314128093218      5.4717685484792469
   180   1      9.6689942368986976      7.5807820328678872     0.12563524016257244
   181   1      8.3118750781274002      6.1320908088754891       4.153006115502194
   182   1      5.5834780285861711      8.8844347124883143      9.5764395145016579
   183   1      15.017398183234263      13.086762528285362      11.023859952022349
   184   1      15.061275602612795      15.788461381003344      13.709334983887061
   185   1      13.722283280820534        3.44473514931002      12.387708292623529
   186   1      4.2106032590672271      7.4774750260078235      10.972576831014749
   187   1      13.704616866668857     0.76424659157306252      15.177937791695626
   188   1      1.5672016749007014       4.761943046863621     0.17701014306604002
   189   1      12.377008572288787       4.783692915054985    0.087842597732812777
   190   1      6.9229521882210179      10.280065855914245      11.022074718480326
   191   1      11.047570267516676       11.81199383715591      6.8019914215364565
   192   1      5.6075008086208413      11.694132407220422      6.9120188495383559
   193   1      12.361208184691122      10.240837441659323     0.17442724583543168
   194   1      15.049896442249519      10.285318375103316      2.8745112117234157
   195   1      6.9220123610755309      10.311250985132233      5.5326689581428923
   196   1      11.032087211508269      6.1420371100381885      12.429415981595753
   197   1      7.0205491732940004      13.040200444725315      2.8788445887248884
   198   1      12.411339761925433      2.0838888044796136      2.8187477288371099
   199   1      12.401630972749786      15.739313921059647      11.012255933999199
   200   1     0.14196766464952226      14.375844236864054      4.2040531846374165
   201   1      11.050361033364538      3.3989605542644199      4.1771048214999382
   202   1      1.4396716089431152      13.086286530901475      8.2998174511453726
   203   1      8.2087647000435027      8.8726554807042248      6.8627059099315488
   204   1      1.5545074379205914       7.488255052649663      2.8677136478562772
   205   1      6.9196601163349101      13.160624862619443      8.2832811657517595
   206   1      5.5839827415586569      11.726187764784413      12.462548903789525
   207   1      6.9579827727867496      4.8375545985777535      5.5626879424408457
   208   1      10.927788300079328       6.156510253396732      6.9057388963233279
   209   1      2.8265065348649614     0.74702825011212326      4.2820714920400178
   210   1      10.981541935116184     0.75609671816489055      6.8077194514045232
   211   1      15.058753497865041      13.092188314415807      0.1538886796523169
   212   1      15.050671276436788      1.9663960534994374      5.5391075771525493
   213   1      8.3137956156292603      8.9320850681857564      12.388877357772913
   214   1      8.3377132674073664     0.75078208326404194      15.139732431122638
   215   1      5.6362504665617621      3.4713802953000936      9.6692005997726937
   216   1    0.034349087448554361      8.9220394792251909      15.085225376913741

Velocities

     1                       0                       0                       0
     2                       0                       0                       0
     3                       0                       0                       0
     4                       0                       0                       0
     5                       0                       0                       0
     6                       0                       0                       0
     7                       0                       0                       0
     8                       0                       0                       0
     9                       0                       0                       0
    10                       0                       0                       0
    11                       0                       0                       0
    12                       0                       0                       0
    13                       0                       0                       0
    14                       0                       0                       0
    15                       0                       0                       0
    16                       0                       0                       0
    17                       0                       0                       0
    18                       0                       0                       0
    19                       0                       0                       0
    20                       0                       0                       0
    21                       0                       0                       0
    22                       0                       0                       0
    23                       0                       0                       0
    24                       0                       0                       0
    25                       0                       0                       0
    26                       0                       0                       0
    27                       0                       0                       0
    28                       0                       0                       0
    29                       0                       0                       0
    30                       0                       0                       0
    31                       0                       0                       0
    32                       0                       0                       0
    33                       0                       0                       0
    34                       0                       0                       0
    35                       0                       0                       0
    36                       0                       0                       0
    37                       0                       0                       0
    38                       0                       0                       0
    39                       0                       0                       0
    40                       0                       0                       0
    41                       0                       0                       0
    42                       0                       0                       0
    43                       0                       0                       0
    44                       0                       0                       0
    45                       0                       0                       0
    46                       0                       0                       0
    47                       0                       0                       0
    48                       0                       0                       0
    49                       0                       0                       0
    50                       0                       0                       0
    51                       0                       0                       0
    52                       0                       0                       0
    53                       0                       0                       0
    54                       0                       0                       0
    55                       0                       0                       0
    56                       0                       0                       0
    57                       0                       0                       0
    58                       0                       0                       0
    59                       0                       0                       0
    60                       0                       0                       0
    61                       0                       0                       0
    62                       0                       0                       0
    63                       0                       0                       0
    64                       0                       0                       0
    65                       0                       0                       0
    66                       0                       0                       0
    67                       0                       0                       0
    68                       0                       0                       0
    69                       0                       0                       0
    70                       0                       0                       0
    71                       0                       0                       0
    72                       0                       0                       0
    73                       0                       0                       0
    74                       0                       0                       0
    75                       0                       0                       0
    76                       0                       0                       0
    77                       0                       0                       0
    78                       0                       0                       0
    79                       0                       0                       0
    80                       0                       0                       0
    81                       0                       0                       0
    82                       0                       0                       0
    83                       0                       0                       0
    84                       0                       0                       0
    85                       0                       0                       0
    86                       0                       0                       0
    87                       0                       0                       0
    88                       0                       0                       0
    89                       0                       0                       0
    90                       0                       0                       0
    91                       0                       0                       0
    92                       0                       0                       0
    93                       0                       0                       0
    94                       0                       0                       0
    95                       0                       0                       0
    96                       0                       0                       0
    97                       0                       0                       0
    98                       0                       0                       0
    99                       0                       0                       0
   100                       0                       0                       0
   101                       0                       0                       0
   102                       0                       0                       0
   103                       0                       0                       0
   104                       0                       0                       0
   105                       0                       0                       0
   106                       0                       0                       0
   107                       0                       0                       0
   108                       0                       0                       0
   109                       0                       0                       0
   110                       0                       0                       0
   111                       0                       0                       0
   112                       0                       0                       0
   113                       0                       0                       0
   114                       0                       0                       0
   115                       0                       0                       0
   116                       0                       0                       0
   117                       0                       0                       0
   118                       0                       0                       0
   119                       0                       0                       0
   120                       0                       0                       0
   121                       0                       0                       0
   122                       0                       0                       0
   123                       0                       0                       0
   124                       0                       0                       0
   125                       0                       0                       0
   126                       0                       0                       0
   127                       0                       0                       0
   128                       0                       0                       0
   129                       0                       0                       0
   130                       0                       0                       0
   131                       0                       0                       0
   132                       0                       0                       0
   133                       0                       0                       0
   134                       0                       0                       0
   135                       0                       0                       0
   136                       0                       0                       0
   137                       0                       0                       0
   138                       0                       0                       0
   139                       0                       0                       0
   140                       0                       0                       0
   141                       0                       0                       0
   142                       0                       0                       0
   143                       0                       0                       0
   144                       0                       0                       0
   145                       0                       0                       0
   146                       0                       0                       0
   147                       0                       0                       0
   148                       0                       0                       0
   149                       0                       0                       0
   150                       0                       0                       0
   151                       0                       0                       0
   152                       0                       0                       0
   153                       0                       0                       0
   154                       0                       0                       0
   155                       0                       0                       0
   156                       0                       0                       0
   157                       0                       0                       0
   158                       0                       0                       0
   159                       0                       0                       0
   160                       0                       0                       0
   161                       0                       0                       0
   162                       0                       0                       0
   163                       0                       0                       0
   164                       0                       0                       0
   165                       0                       0                       0
   166                       0                       0                       0
   167                       0                       0                       0
   168                       0                       0                       0
   169                       0                       0                       0
   170                       0                       0                       0
   171                       0                       0                       0
   172                       0                       0                       0
   173                       0                       0                       0
   174                       0                       0                       0
   175                       0                       0                       0
   176                       0                       0                       0
   177                       0                       0                       0
   178                       0                       0                       0
   179                       0                       0                       0
   180                       0                       0                       0
   181                       0                       0                       0
   182                       0                       0                       0
   183                       0                       0                       0
   184                       0                       0                       0
   185                       0                       0                       0
   186                       0                       0                       0
   187                       0                       0                       0
   188                       0                       0                       0
   189                       0                       0                       0
   190                       0                       0                       0
   191                       0                       0                       0
   192                       0                       0                       0
   193                       0                       0                       0
   194                       0                       0                       0
   195                       0                       0                       0
   196                       0                       0                       0
   197                       0                       0                       0
   198                       0                       0                       0
   199                       0                       0                       0
   200                       0                       0                       0
   201                       0                       0                       0
   202                       0                       0                       0
   203                       0                       0                       0
   204                       0                       0                       0
   205                       0                       0                       0
   206                       0                       0                       0
   207                       0                       0                       0
   208                       0                       0                       0
   209                       0                       0                       0
   210                       0                       0                       0
   211                       0                       0                       0
   212                       0                       0                       0
   213                       0                       0                       0
   214                       0                       0                       0
   215                       0                       0                       0
   216                       0                       0                       0
