(written by ASE)

216 atoms
1 atom types

0.0      16.331106185913086  xlo xhi
0.0      16.331106185913086  ylo yhi
0.0      16.331106185913086  zlo zhi

Atoms # atomic

     1   1      4.5362794036901732      6.8078391808078322     0.71994859833016278
     2   1      4.5517527256007497      1.4151319483136717     0.71049758023267628
     3   1      5.8624684666066287    0.035472238835712488      7.4962224117235223
     4   1      8.5822055760133935      10.903880382399052      15.705308823700307
     5   1      9.8936581882250039      9.4996530571794437       14.40080635733932
     6   1      15.404146544347554      9.5432803102437447      3.4363553078406142
     7   1      14.062663266920595      10.937900080905138      4.8541273868382291
     8   1      8.5686644725220731      5.4409995519434915      15.708304979012382
     9   1      12.666774169902169      1.4122754773054567      8.9461080095196621
    10   1      5.8638818576115455      5.5058904550125476      13.006850452149934
    11   1       0.407234135025206      10.875630083676811      12.966285546262952
    12   1       7.298677656951611       9.485446141396551       11.66396449122567
    13   1      3.1190894237427926      2.7392785541529463      7.5170631151775638
    14   1     0.42329013394807546      13.668665923153299       4.791163835139514
    15   1      8.6008259317524107      8.1382328872819585      7.5164780958979804
    16   1     0.45286433081330912    0.032400271632021749      12.976508295804024
    17   1     0.43055633378761726      8.1265120600848491      10.236918493872963
    18   1      14.043286571780186     0.12006726776093402      4.8318893536406904
    19   1      1.7721184269879444      15.047485306217027     0.67949946736924716
    20   1      14.053813025173554      5.3991283301277235      10.238971415105311
    21   1      7.2576026843383374      6.8718291931227213        3.49669625023148
    22   1      15.438485521262464      1.4125094606820454     0.74046600806002516
    23   1      9.8908323796249533      12.402373684414215      11.536754433734245
    24   1      11.270206606264992      11.191693319987735      13.332555312361478
    25   1      12.694048138612061      4.1296802968721522      6.2034251980031172
    26   1      12.728661617085777       12.38607685782722      14.406472575686166
    27   1      9.9539288017590479      9.5691321272606729      3.4900237695214571
    28   1      8.5728423473107114      2.7896680849797519      7.5693809707844935
    29   1      11.265471941080477      2.7893169274005345        15.6915321550415
    30   1      5.8395617008881686       2.818945331023059      10.277830907052476
    31   1      14.077410425133053       2.788396081745816      2.0437602295278623
    32   1       9.930436530056113      6.8461306881466157     0.79008983041627801
    33   1      15.387931484182332      6.8214873593752827     0.67429744381266943
    34   1      15.421114050275037      15.033148926932995      14.364922579098788
    35   1      15.509400370773619      9.5349576565990901      8.7953852387198594
    36   1      1.8049442383951799      1.3833520657182703      14.375881226435808
    37   1      3.1944775779117265       2.753696943211196      13.032183441752522
    38   1      4.5150464160935826      15.062026101555489       3.391376475292617
    39   1      7.2004270272093436      14.976616206965673      6.1873235400776139
    40   1      9.9425058379555367      1.4728075730424592      11.597130175524853
    41   1      14.034550218977756      2.8092302146838222      13.003564220722524
    42   1      3.1101177491253225      5.5068176278308556      4.7900025572683944
    43   1      15.357839494150653      9.4777435497836677      14.273624528731602
    44   1      3.1697765746107507      13.600521397884563      12.976176363068021
    45   1      5.9332129694057585      8.1444992127600244      15.727675833694093
    46   1      4.4798041149000483      1.4227250313259674      6.1562907494906653
    47   1       12.72078575853152       15.08554952237148     0.70107308755177655
    48   1      1.7827529288672253      1.3799199444996333       3.457113758167992
    49   1      1.8298898109041346      4.0917606320704749     0.67803655414162023
    50   1      1.8539462952525412      1.3726160858691117      8.9729371299587228
    51   1      11.327126743325948      10.830409358797738      2.1015703064829268
    52   1     0.41378204970206056       8.162906878461456      15.706501250684482
    53   1      7.2190585771608653      4.1409903451408354     0.71155044458921424
    54   1      4.5478887754671291      14.933974044601769      14.370882767200101
    55   1      4.5106441703499627      4.1570082898250007      8.8829570764377195
    56   1      5.9322317723444939      2.8309864100387756      15.699271736226137
    57   1      15.424900614330909      4.1141247218349122      3.4903946386487803
    58   1      12.687482489625722      12.311616849886377      8.8797224357288087
    59   1      12.658216924499811      6.7273148299188961      14.329664703348726
    60   1      3.1171759434618593       10.90929740784145      4.7318568972906405
    61   1     0.39484125963010186    0.007420119786181012      2.1108551756980773
    62   1      15.482328871298591      6.7837555626617245      11.589677750226201
    63   1      12.750738550964229       9.563869873973772      6.2374030398885338
    64   1      12.776208791346221      9.4941172757435197      11.478877434856599
    65   1      7.2823316731705745      6.8440427241620796      8.8854694470876439
    66   1      14.064054269500502      8.1215101939149008      7.5013566616239586
    67   1     0.43485132194077281       2.746047645783932       15.66785980252871
    68   1      1.7555576846735335      6.8435453117629663      3.4161923409479868
    69   1     0.46286258772317623      2.7560647625083448      4.7459625784561013
    70   1      14.066675662046123      8.1598206827444528      2.0457408750838226
    71   1      15.456811907247015      4.1186924472416422      8.9169952697296821
    72   1      1.8250595082084402      15.050128113777873      11.672169362286581
    73   1       3.135337093135746      8.1987687549818702      12.996795129091538
    74   1       14.08713868250436       5.397318274636234      4.7918092058256434
    75   1     0.46051660930803351      13.647616910005695      15.680027424816217
    76   1      5.8350377789216736       13.68243772476319      10.216855544835539
    77   1      7.1861714409373008      1.4066893219132623      8.9141227374600476
    78   1      8.6371915478355277      2.8234558686050377      12.983575250828608
    79   1      15.476874856284439      6.7781156263790194      6.1531909260367001
    80   1      4.5687752291809716      9.4956163268093405       14.36609748470687
    81   1      3.1634194786704199    0.070977117318211214      4.7833434609428878
    82   1      9.9167971121767096      15.041091950762279      3.4938925867039927
    83   1      11.354882549878425      10.660710937688123      12.599599160777302
    84   1      7.2273710100027984      12.311346241966703      14.307802893032317
    85   1       11.33452076403762    0.084413465186400138      7.5119609877999665
    86   1      8.6356496667392548      10.990911977687347      4.8622772602464011
    87   1      5.8618951282444414      5.4671307375681408      2.1308850288028793
    88   1      1.7858106523480757      6.8223882501294497      8.8781328575531688
    89   1      3.1377990898294001      13.608706800749815        7.56128901525841
    90   1      15.420875564878202      12.308912717509202      6.1677988866501892
    91   1        9.91934063193969      4.1947128310646349      8.8753751876379283
    92   1       9.915816888525228      1.4855424498810095     0.72733367583945352
    93   1      4.5188991720146987      6.8135078326791358      11.682457330283114
    94   1      9.9272291448211263      1.4305985780319901      6.1757448307088225
    95   1      5.8580345850450612      8.1126584920531855      10.237594040262366
    96   1      4.5702207427087274        4.17486695240882      14.318785875613912
    97   1      8.6635631656765781    0.024269735237332002      4.8744020525034557
    98   1      11.306641334442702      13.634446675641698      4.8423909850845916
    99   1      5.8503821240360026      2.7809791859042434       4.815643631067303
   100   1      5.8466111345366585      10.955212173895802      7.5272527687860133
   101   1      7.1931979994558901      9.5463202689960553     0.75553798094944824
   102   1      1.8076372982360738      15.044926211897518      6.1503821521078521
   103   1       11.38663420359012      13.697264702577854      10.191124430631703
   104   1      15.421283423577279      4.0827872539858845      14.385995927490967
   105   1      8.5742518446764961      5.4984594447291215      10.279797194814137
   106   1      3.1414844192678402      10.908603366666171      10.261779379730797
   107   1      4.5197290038547067      12.278009877128284      6.1450683081024522
   108   1      9.9365154741509514      12.266609301749781     0.77169664418536854
   109   1      12.687448420283317      12.254241157046977      3.4811915358554018
   110   1      5.8095787327521862      5.4696109856952262      7.5420310761115275
   111   1      9.9706568488799121      4.1820127536258269      3.4514840426880085
   112   1      5.9182467939921253     0.06787366639185155      2.0448986322690814
   113   1      7.2182759556953329      15.078423189350133      11.603323981974086
   114   1      11.344465118380754      2.8125132825294372      4.8042746915067482
   115   1      8.6073098143169773      8.1622420395796667      2.1378984462893982
   116   1      11.326310052518011      5.4864023044519854       2.113378010503169
   117   1      4.5783603953141778      9.5050593751142287       8.876703891991724
   118   1     0.49565250464466359    0.077133112881185184       7.540235621766783
   119   1      5.9050468706297465      13.642985426258178       15.69705041510133
   120   1      1.7914647030726343      9.5372052597880383       11.57174072815485
   121   1      14.096136882538417      13.667332351750588      12.921779304164602
   122   1      7.1916454108520043      12.337680870235999      8.8626965252143464
   123   1      8.5537829837595609      5.4551427093855978       4.839331558136621
   124   1      12.688062641856391      4.1615979169518482      11.636965024074584
   125   1     0.46859755313594675       5.479224867417031      12.962091123508003
   126   1      4.5204566276674996      9.5452631459717168      3.3655988807716426
   127   1      9.9406845882515427      9.4825784761758314      8.9171724303101882
   128   1     0.52603776479252673      2.7758415290695666      10.271817181413098
   129   1      8.5549559425480766    0.010125491264579289      15.691509766616491
   130   1      14.077114508559021      10.949545955548956      15.665084611237376
   131   1      8.6296855849988106       2.838579736403517      2.1076782095188094
   132   1      1.7831022613030996      12.289196302354526      3.5051452037954789
   133   1     0.51290232982827177       13.71720500198262      10.238743637216089
   134   1     0.42455288978907291      10.903227224434659      7.4966862414851221
   135   1      12.679659195199747      9.5739359045397805     0.66882937519477537
   136   1      3.1775913517011247    0.046891263371508174      10.273216944681053
   137   1      7.1878734479428772      4.1398246869256923      11.637129530327911
   138   1      12.660048881711418      1.4125257652959107      3.4293735261720428
   139   1     0.49004688105680927      5.4460028782281142      7.5142869504764462
   140   1      14.116285491636745    0.093283471714894262      10.244956911860982
   141   1      15.407789043755542      15.039144157786495       3.480787084090565
   142   1      11.335440636282556      5.4816788334799753      7.5300873380741109
   143   1      4.5061781662655562      4.1280483753709518      3.4423464017025367
   144   1      12.773370328418991      6.7432539284106383       8.832780722353391
   145   1      7.2521788450274585      1.4171405794008933      3.5069306806899476
   146   1      11.296768039013728    0.025756160493838554      12.950235965760839
   147   1      3.1279184938270532      5.5324509143515002       15.75335535717943
   148   1      12.710048075215241      6.7564708864442196      3.4306192473418378
   149   1      12.757297386082087      4.0996890547530143     0.70811187453076485
   150   1     0.38824981528451374      10.956403627470195      2.1314162671919519
   151   1      10.048286279074205      6.8486050958150031      11.635583755592506
   152   1      15.408356541659032      1.4295160246770706      6.1693646162861455
   153   1      4.5151812333485282      12.302175748401055      11.607755916716087
   154   1      8.5822717678786375      13.682848503691616      12.921143667576303
   155   1      1.8259169605510408      4.1144293990969913      11.685767896955099
   156   1      1.7853608153521066      6.8030232359064371       14.34288263479209
   157   1      5.9528335036968087      10.935749818694489       13.00788421333948
   158   1      8.6422883214593185      8.1060660742978143      13.007719707086153
   159   1     0.40296378630718266      8.1891796952095319      4.8250053996553106
   160   1      4.4960259889337522      15.023089710235467      8.8485898706391026
   161   1        11.3820601510198      8.1841753955151262      15.679059855491914
   162   1      15.430667093885404      12.324119325139236      11.570484056124997
   163   1      10.031966090652418      4.1948252598945714      14.249142299279356
   164   1      3.1688219029660729      5.4674164333394515      10.272461578689445
   165   1      4.5179909806871592      6.8097587448999093      6.1494656867971571
   166   1      3.1588507798539069      13.629980671557291      2.0816954688860676
   167   1      7.2279248801693257      4.1969925567764221      6.1858298427655996
   168   1      7.2254207835025568       6.820173256168232      14.380323868685423
   169   1      12.660682571480152      1.4053056199067271      14.371649814109105
   170   1      11.299294037400614      2.8495855941150126      10.271347997897692
   171   1      3.2117551148550945     0.02266004626348006       15.65892876776968
   172   1      4.5044756725550883      12.317491377926785      0.7153590320414267
   173   1      14.060947145473165      13.675331833347286      2.1080159827135105
   174   1      14.090556324252475      5.4257544946270286      15.687592765649697
   175   1      3.1438855778500567      8.1742008654687197      2.0918035994251909
   176   1      5.8821274505841075      10.990758178941633      2.1044270208435876
   177   1      11.366333742565644       8.158393664002574      4.7861332533809673
   178   1      8.6533170543007145      13.684902398333747      2.1167727771213833
   179   1      14.109809396350443     0.11268783298647911      15.713830052940693
   180   1      11.270515177166203     0.06488778511584492      2.0809079803716202
   181   1      14.092712426921821      8.1234643140542744      12.960095633452852
   182   1     0.42317055664004499      5.4711251246126835      2.0503426698329577
   183   1      10.021607063741726       15.04177333761038       14.30142900577323
   184   1      12.680232533561934       15.06120259687907      6.1714696149418842
   185   1      14.013576158383444      13.691288939920014      7.5160366545613897
   186   1      7.2419098585216943      15.031371480669236     0.76711261416477328
   187   1      1.8250354163163109      4.1495101142665476      6.0965224154046496
   188   1      7.2283862764064679      12.343935028091778      3.4636117551744121
   189   1      11.344462198151405      10.923439105168882      7.5797536254321471
   190   1      14.073952873583835      10.890269193403356      10.218005141789263
   191   1      9.8937506621543889      15.077249257151834      8.8281930420461094
   192   1      15.446530753118964      15.040839837628482      8.9062381182177432
   193   1      3.1348795905377358      8.1593748610638386      7.4928982173145755
   194   1      3.1645622617556626      10.913493777415965      15.715600685335971
   195   1      7.3034016146285126      1.4784768332948772       14.34536093609961
   196   1      5.9109170183261313    0.054153740679106388       12.99944961756978
   197   1      8.6310872950863313      10.915820226797337      10.255267268282523
   198   1      9.9691928405662793       6.822967428950335      6.1401963921385345
   199   1      1.8113285898094347      12.275121770302121       14.37726054809832
   200   1       9.950346653757606      12.291834242866457       6.249585750027677
   201   1      3.1426744127275583      2.7536042259293652        2.08054781875191
   202   1      15.443361330865514      12.341333103741817     0.76380448101724596
   203   1      1.7870479778584922      12.318064716288973      8.9074607209051919
   204   1      7.2836652445732852      9.5435810938666918      6.2108503678278453
   205   1      15.405403216377408      1.4492761215957586      11.638656810277439
   206   1      11.382210056126382      8.0870398066792859      10.181431216012584
   207   1       1.843642265994589      9.5628546075701024      6.1226652819466949
   208   1      4.5638930924143324      1.3790338982446571      11.629000585230074
   209   1      8.5813927788445881      0.1166149863131194        10.2669384515807
   210   1      14.024246676424696       2.846360444151486      7.5667483840263685
   211   1      8.5232461454570512      13.666595480544856      7.4969378679140277
   212   1      11.296228769993945       13.63335743009452      15.792970215118203
   213   1      5.8021472357638686      13.700596684265065      4.8066449443283545
   214   1      5.8348693790292145      8.2156165315060434      4.8540694689561406
   215   1      12.630995519918201      15.014311500812369      11.605490792151045
   216   1      1.7566696836743887       9.514719493800726     0.72694540701225918

Velocities

     1                       0                       0                       0
     2                       0                       0                       0
     3                       0                       0                       0
     4                       0                       0                       0
     5                       0                       0                       0
     6                       0                       0                       0
     7                       0                       0                       0
     8                       0                       0                       0
     9                       0                       0                       0
    10                       0                       0                       0
    11                       0                       0                       0
    12                       0                       0                       0
    13                       0                       0                       0
    14                       0                       0                       0
    15                       0                       0                       0
    16                       0                       0                       0
    17                       0                       0                       0
    18                       0                       0                       0
    19                       0                       0                       0
    20                       0                       0                       0
    21                       0                       0                       0
    22                       0                       0                       0
    23                       0                       0                       0
    24                       0                       0                       0
    25                       0                       0                       0
    26                       0                       0                       0
    27                       0                       0                       0
    28                       0                       0                       0
    29                       0                       0                       0
    30                       0                       0                       0
    31                       0                       0                       0
    32                       0                       0                       0
    33                       0                       0                       0
    34                       0                       0                       0
    35                       0                       0                       0
    36                       0                       0                       0
    37                       0                       0                       0
    38                       0                       0                       0
    39                       0                       0                       0
    40                       0                       0                       0
    41                       0                       0                       0
    42                       0                       0                       0
    43                       0                       0                       0
    44                       0                       0                       0
    45                       0                       0                       0
    46                       0                       0                       0
    47                       0                       0                       0
    48                       0                       0                       0
    49                       0                       0                       0
    50                       0                       0                       0
    51                       0                       0                       0
    52                       0                       0                       0
    53                       0                       0                       0
    54                       0                       0                       0
    55                       0                       0                       0
    56                       0                       0                       0
    57                       0                       0                       0
    58                       0                       0                       0
    59                       0                       0                       0
    60                       0                       0                       0
    61                       0                       0                       0
    62                       0                       0                       0
    63                       0                       0                       0
    64                       0                       0                       0
    65                       0                       0                       0
    66                       0                       0                       0
    67                       0                       0                       0
    68                       0                       0                       0
    69                       0                       0                       0
    70                       0                       0                       0
    71                       0                       0                       0
    72                       0                       0                       0
    73                       0                       0                       0
    74                       0                       0                       0
    75                       0                       0                       0
    76                       0                       0                       0
    77                       0                       0                       0
    78                       0                       0                       0
    79                       0                       0                       0
    80                       0                       0                       0
    81                       0                       0                       0
    82                       0                       0                       0
    83                       0                       0                       0
    84                       0                       0                       0
    85                       0                       0                       0
    86                       0                       0                       0
    87                       0                       0                       0
    88                       0                       0                       0
    89                       0                       0                       0
    90                       0                       0                       0
    91                       0                       0                       0
    92                       0                       0                       0
    93                       0                       0                       0
    94                       0                       0                       0
    95                       0                       0                       0
    96                       0                       0                       0
    97                       0                       0                       0
    98                       0                       0                       0
    99                       0                       0                       0
   100                       0                       0                       0
   101                       0                       0                       0
   102                       0                       0                       0
   103                       0                       0                       0
   104                       0                       0                       0
   105                       0                       0                       0
   106                       0                       0                       0
   107                       0                       0                       0
   108                       0                       0                       0
   109                       0                       0                       0
   110                       0                       0                       0
   111                       0                       0                       0
   112                       0                       0                       0
   113                       0                       0                       0
   114                       0                       0                       0
   115                       0                       0                       0
   116                       0                       0                       0
   117                       0                       0                       0
   118                       0                       0                       0
   119                       0                       0                       0
   120                       0                       0                       0
   121                       0                       0                       0
   122                       0                       0                       0
   123                       0                       0                       0
   124                       0                       0                       0
   125                       0                       0                       0
   126                       0                       0                       0
   127                       0                       0                       0
   128                       0                       0                       0
   129                       0                       0                       0
   130                       0                       0                       0
   131                       0                       0                       0
   132                       0                       0                       0
   133                       0                       0                       0
   134                       0                       0                       0
   135                       0                       0                       0
   136                       0                       0                       0
   137                       0                       0                       0
   138                       0                       0                       0
   139                       0                       0                       0
   140                       0                       0                       0
   141                       0                       0                       0
   142                       0                       0                       0
   143                       0                       0                       0
   144                       0                       0                       0
   145                       0                       0                       0
   146                       0                       0                       0
   147                       0                       0                       0
   148                       0                       0                       0
   149                       0                       0                       0
   150                       0                       0                       0
   151                       0                       0                       0
   152                       0                       0                       0
   153                       0                       0                       0
   154                       0                       0                       0
   155                       0                       0                       0
   156                       0                       0                       0
   157                       0                       0                       0
   158                       0                       0                       0
   159                       0                       0                       0
   160                       0                       0                       0
   161                       0                       0                       0
   162                       0                       0                       0
   163                       0                       0                       0
   164                       0                       0                       0
   165                       0                       0                       0
   166                       0                       0                       0
   167                       0                       0                       0
   168                       0                       0                       0
   169                       0                       0                       0
   170                       0                       0                       0
   171                       0                       0                       0
   172                       0                       0                       0
   173                       0                       0                       0
   174                       0                       0                       0
   175                       0                       0                       0
   176                       0                       0                       0
   177                       0                       0                       0
   178                       0                       0                       0
   179                       0                       0                       0
   180                       0                       0                       0
   181                       0                       0                       0
   182                       0                       0                       0
   183                       0                       0                       0
   184                       0                       0                       0
   185                       0                       0                       0
   186                       0                       0                       0
   187                       0                       0                       0
   188                       0                       0                       0
   189                       0                       0                       0
   190                       0                       0                       0
   191                       0                       0                       0
   192                       0                       0                       0
   193                       0                       0                       0
   194                       0                       0                       0
   195                       0                       0                       0
   196                       0                       0                       0
   197                       0                       0                       0
   198                       0                       0                       0
   199                       0                       0                       0
   200                       0                       0                       0
   201                       0                       0                       0
   202                       0                       0                       0
   203                       0                       0                       0
   204                       0                       0                       0
   205                       0                       0                       0
   206                       0                       0                       0
   207                       0                       0                       0
   208                       0                       0                       0
   209                       0                       0                       0
   210                       0                       0                       0
   211                       0                       0                       0
   212                       0                       0                       0
   213                       0                       0                       0
   214                       0                       0                       0
   215                       0                       0                       0
   216                       0                       0                       0
