(written by ASE)

216 atoms
1 atom types

0.0      16.331106185913086  xlo xhi
0.0      16.331106185913086  ylo yhi
0.0      16.331106185913086  zlo zhi

Atoms # atomic

     1   1      6.7041252886584743      1.5867728086452644      5.2904777902638784
     2   1      6.6271636175753201       9.720734860504308      2.5617889611401949
     3   1      1.1615224403276159      15.221160106290199      7.9584533477546984
     4   1      8.0149057614149228      3.0010138436550449      14.686608230316324
     5   1      16.151683401071296      11.068372034579397        14.6273499629566
     6   1      5.3344807795044176      11.122720422993666      3.9606379539562795
     7   1      3.9791918744776069      9.7028406684634092      10.663134728047794
     8   1      13.452420993040164      5.6563985889551986      6.6891712808671286
     9   1      9.3529027717040663      12.471278442723474      2.5858628451884726
    10   1      12.157174680305729      1.5373885667718525      10.670267874937622
    11   1      13.250363510514262      8.5862111572704407      4.1848560836019715
    12   1      12.039282101257186       12.52944746453602      16.072148034521888
    13   1      10.735439606729074      8.3636244624210576      1.2260288465323868
    14   1       4.002114214752595      12.487700839172476      13.337851634990784
    15   1      1.2485063385365436      4.2893769324614368      2.5085273847486462
    16   1      12.046318880578497      1.6042093764119301      5.3451420501527309
    17   1      16.152212935993248       3.031424625390656      12.031341024247467
    18   1       10.66296146110642      2.9620840228510588      11.907839658029275
    19   1      14.831117726471234      15.203832438743007      16.111299549403952
    20   1      12.070433161132769      6.9782822604014427      16.127251788927765
    21   1       8.026141830540098      5.6116543481649046      1.2398400712384898
    22   1      6.7187322758621804      4.2389022282786186      2.5703766255982714
    23   1      5.3554397522470936      8.3892835443009517      1.1741158077189624
    24   1      4.0008332074781663      7.0015272860194955      13.333599781058638
    25   1      6.6723351852603514       15.17204768909869      8.0009134824891817
    26   1      16.162285780427737      5.7189815374287605      9.2736487205819458
    27   1       5.346164617129773      13.893424295228556      6.6386182171967789
    28   1      12.035835257215581      6.9902157776361378      10.687136093067238
    29   1       12.10898992263742      12.468316356753803      10.641123986034586
    30   1      14.828307492427712      15.204231536754037      5.3433008455481854
    31   1      1.2621085234917473      9.7103982220186253      7.9530689315400309
    32   1      3.9513156084644834      6.9610237049488433      7.9646894975294913
    33   1      6.6453508059609021      12.529625598526309      5.2981248975191306
    34   1       8.046146374990542     0.22023889129089724      11.956582179503243
    35   1      9.3285441652942609      9.6837112194078827      16.145292965845897
    36   1      13.417843530728419      5.7212899787291462      11.947344520662568
    37   1      9.4282875189387596      1.6193371378495414      2.6167885606992911
    38   1      2.5744647033344279     0.32489556123414687      1.2381346572986729
    39   1      14.824839233370881      4.2774424418169588      16.023029776871681
    40   1      2.5789842449568994      8.3462325498281871      9.3260999333291466
    41   1      6.6586485570064724      15.310578502366411      13.337836060434256
    42   1       1.177193851129033      15.191147935860727      2.5456831662231139
    43   1      16.093394649855441     0.23901030806061385      3.9036367805308885
    44   1      13.438464243571502      8.3122167449612334       14.78838795722686
    45   1      6.6252547609908561      12.472063011008572      16.092239212443019
    46   1      10.696030138254514      11.089809438230418      14.728360696138566
    47   1      13.414967104819652      2.9839110337677255      9.3838406548371722
    48   1      2.5705316411062142      2.9765209066951854      3.9708694641853981
    49   1      1.1868654073804805       15.14882310508608      13.372047520667593
    50   1      8.0428903192664052      2.9810285240478152      3.9146633232002728
    51   1      13.446110377416971      11.062158759934505      6.6723522199315539
    52   1      12.077571175071512      4.3547277716529607      8.0041690515084269
    53   1      6.7078213256045274      15.215358583983516       2.570139356963665
    54   1      5.3446524250318816      5.6021835576812009      3.9079239205676686
    55   1      13.360985691893575      8.4859587103094327       9.255734086935604
    56   1      16.217438205322765      8.3713728042937419       1.166116326122264
    57   1      9.4011838969408927      15.212701175275924      5.2998770351285316
    58   1      6.6531998957461269      7.0637403387755171       10.65671022347999
    59   1      3.9556234334591522      12.484952903355065       7.995113420297173
    60   1      6.7791080176527885      1.6826432081156497      10.587663347342414
    61   1      9.3235359719607231      1.6750289534405738      8.0971885770768495
    62   1      10.718702798920162      2.9458502245475131      6.7254054866295405
    63   1      3.6444885708795596      14.917343338459204      16.188603860730723
    64   1      13.434201682131743      11.084459578063047      12.076935538483212
    65   1      14.802556910028215      4.3012525318140433       10.67444574972626
    66   1      10.746387546558481     0.20541714555381674      9.3248744104123489
    67   1      1.2371478631311561      9.7318765088805321      13.341191403956259
    68   1      5.3887123587447263      13.744721349728479      1.2710254438089237
    69   1       8.027895914969065      0.2757104729185258       1.161478515211158
    70   1      2.6122118312520684      5.6239480270193098      6.6257735884051954
    71   1      1.2417525781096401      7.0097443247026945      16.078788636061518
    72   1      9.3777198541216649      12.471485779007253      7.9973503159785082
    73   1      10.697116463572343      11.110051494667914      3.8825510211639767
    74   1      1.2124954086431075      12.375415100474015      16.016581910469085
    75   1      9.3252121836070501      15.236851471992168       16.10295158710494
    76   1      9.3509929417098192      1.6082448900198045       13.36236598696587
    77   1      5.3401134152137502      2.9391619259285164      1.1974568358768636
    78   1      9.3571400244894676      4.2394784868701549      5.2747961586597398
    79   1      13.402586305789669      0.2287309942854332        6.67075485447765
    80   1      9.4021855356076003      9.7489014459852115      5.3111637215624228
    81   1      5.3500752909329776      0.3807248405379724      14.663326215126517
    82   1      1.1970812213768482      1.5694702063999841      16.092588666555116
    83   1      12.069967871256495      15.213026294143447      13.396796464400381
    84   1       10.75781635082069     0.23950393328729014      3.9462555810600008
    85   1      13.507776860579838      13.794086853463568      9.3361494159288441
    86   1      1.2035163117760419      4.3278193183165854      13.347581839181657
    87   1      6.7093734275035217      6.9498767028188126      5.3475565931194637
    88   1      2.6007075877316765     0.28126882529379316      6.6367278553981919
    89   1      13.414471639240105      2.9442105157680487      14.692064192150042
    90   1      3.9421894050439619        1.65170897526923      2.5886835433871624
    91   1      10.735612873670448      13.877290028075322      6.6116547662076641
    92   1       14.81174881860909      7.1167950655881782       7.993380750883432
    93   1      9.2844107391427997       4.250520847448513      10.534786754520042
    94   1      12.093967289456373      12.474461492713885       5.255956299014656
    95   1      4.0097464775086564      4.2856847891545158      16.091299872002423
    96   1      5.3005272728635759     0.23315996316950205      3.8897671512378054
    97   1       5.358937700302306       5.639757662009913      14.732912360283876
    98   1      2.6285035474377025      11.063542948645932      11.965771167854768
    99   1      10.747059199308751      13.776143017523736      11.962485909837142
   100   1      13.409883958932824      11.138425416432597       1.187571981206716
   101   1      12.083894445021883       9.753587440680576       13.43962162780349
   102   1      6.6649362974997644      4.3849025015161942      13.362776765894296
   103   1      13.465424774331268      13.868652963070758      14.730507064710082
   104   1      1.1148795637555793      1.6272185935100509      5.3254348823909936
   105   1      6.6870550879988855      9.7797118124367444      13.408647728508413
   106   1      2.5879751444175838      8.3142735598327135      3.9335630475470111
   107   1      10.667710727437679      5.6611858182679953      14.703452113201365
   108   1      16.168043499294185      11.111213745948817      3.9401676329246698
   109   1       16.10071955847252      13.803649631171766      11.988635590247668
   110   1      13.500299126626828      13.852870096849188      3.9413525159830272
   111   1      8.0421169451938113      11.058129816842666      1.1445150245990305
   112   1      10.834427594381964      11.118737230161628      9.2462121924382927
   113   1      8.0819099371228731      0.2800577514284619      6.6502421901204798
   114   1      3.9620238461348265       6.985086881489508      2.5066754726364877
   115   1      12.081504724004617      15.238481933378694      2.5555627888156778
   116   1       16.09469220509618      8.3485687333073884      11.983754913595703
   117   1      16.156392757601452      13.785498458948155      6.6390036874708471
   118   1      3.9610200172961072      15.256085075894475      10.695268931804208
   119   1      9.3429321352967918      7.0531671617125653      13.324023375613478
   120   1      10.652068032224861      5.6508740017317791      9.3640181380161494
   121   1      9.3609450833312167      7.0579621783036259      2.5770734415528693
   122   1       2.620644480202202        13.8056460946367      3.8938717769402729
   123   1      16.274778855409977      11.074354611105719      9.3558668044933029
   124   1      5.2363674005415533      13.913627415274732      12.025291282446119
   125   1      6.6827506699384571      9.7847696496692151      7.9872764981342357
   126   1      14.822060148440414      1.6556999553795322      13.313394714192896
   127   1      14.755480866102744       9.779086883356058      16.142558657765449
   128   1      1.1884834577922732      6.9471813311296842      5.2859329399870489
   129   1      5.3465637151408032      5.6703509580798368      9.3028918972828478
   130   1      14.797536062367499      1.6437377225562386       7.993242526694246
   131   1      2.5942331959124942      13.883903374141028      9.3272689984785302
   132   1       12.07282774919895      1.5862264824045553       16.10439515381313
   133   1      5.3514419582683104      11.133697565116563      9.3149096144637724
   134   1      1.2381834494640458      12.499074159077054       5.332495510251988
   135   1      14.787879837320133      9.7446602995606781      10.685356699983913
   136   1      6.6806008944327004      7.0257189526515162      16.160431434791121
   137   1      3.9814521319937342      4.2352757901320501      5.3137052945058372
   138   1      16.191780096852654      5.6728959379574917      14.713129753263956
   139   1      2.5894922035643901      0.2683460499480681      12.063027459503701
   140   1      9.4042131481855904      15.138049405607831      10.679942594770864
   141   1      7.9678633001269645      13.853008321038374      14.760327473412303
   142   1      2.5767264209652296      5.6300152901967522       1.185404075943751
   143   1      14.844005671998161      12.426687513974002      2.5341251418122113
   144   1      8.0257845891497368      8.3967612782539618      14.727193577808748
   145   1      6.7065666003942397      1.6137382064539452      16.119267881887595
   146   1      13.423067821033783      5.5664258360075678      1.1443389591045303
   147   1      9.3392896358888038      12.502638785702402      13.353530346365574
   148   1      13.641312134841201      8.1006315274793224      3.6234436947235338
   149   1      3.9824537706604417      15.212794622615093      5.2750828278408335
   150   1      6.7935855413553554      4.2290474276355212      8.0615024010222669
   151   1      2.5816698825481978      5.6948122592217487      11.968522023901528
   152   1      9.4240502661533583      9.7294858144534828      10.658805974742791
   153   1      3.9450222708649392      9.7344365766098235      5.2721465372304124
   154   1      14.750855222813925      4.3754356046716225      5.2981477726490311
   155   1      14.876815422143977      12.452808965500822      8.0502974810101477
   156   1      13.450536471700275      2.9353481063987203      3.9809011820565559
   157   1      14.858429658162663      6.9201541217997828      2.3838822620354279
   158   1      6.6901398236012142      12.479149434228816      10.663366399576148
   159   1      2.5686310585049057      2.9485188274676091      9.3072177303585022
   160   1      1.2565658065111194      9.7016823108216386        2.58650432223547
   161   1       16.14345127453646      5.6657822592633238      3.9318104232327187
   162   1      14.760791789878795      1.6364107454433707       2.510768660774005
   163   1      1.1353007275931475      7.0429706942356347      10.635928898022712
   164   1      8.0157234256326433      11.059404983658396      12.005608936633848
   165   1      12.066466516267042       9.788152248665142       2.432939924926643
   166   1      10.689453781760562       2.942936322362101      1.1571107038386117
   167   1      5.3625680320880065      8.3912245234082548      12.018295386335694
   168   1       2.534580210885764      13.770327867480091      14.636676202087529
   169   1      13.457098227047481     0.30195311396332869      1.1732696712650892
   170   1       5.255998155635325       11.11086429183672      14.787259775288362
   171   1      12.047416886813721      4.3078108802270094      13.305455584002743
   172   1      5.3307701414116195      2.9314938903629297      6.6485625715399124
   173   1      16.208873172642143      13.813424612212657      1.1344410850785351
   174   1      3.9689679081743066       12.45381741803601      2.5687610087109363
   175   1      2.5575263997004356      2.9738637413400397      14.765480704803508
   176   1      8.0339149943622488      13.763574350405634      9.3022990907250005
   177   1      14.750564173288808      7.0302399543886622      13.417469741371747
   178   1      10.715278343303567      13.878071676131071      1.1513652742706739
   179   1       14.74665885323941      12.430508147372279      13.362076884260318
   180   1      14.798843351706068      15.159356372347929      10.590268191921723
   181   1       11.97687290642989       6.952313147505663      5.3839027410069207
   182   1      16.200577774471412     0.22957448428145888      9.3219901972253183
   183   1      10.721103227445042      8.3703896604129113      12.074995532785692
   184   1       13.47431103224028      0.2359940457527081      12.088076213449654
   185   1      1.1908433681349351      4.3200811972466227      8.0135390940795901
   186   1      8.0885315571717342      8.4158517909181683      3.9573760577734447
   187   1      9.3932798095029284      7.0664673462825931      7.9825583809160321
   188   1      12.093563324396428      15.187552160122323      8.0248316209721793
   189   1      3.9211973363686639       1.593548835820954      7.9443939035539302
   190   1      2.6293326492203732      11.089927220814161      6.6494824437848479
   191   1       10.64462242079469     0.31649622115002529       14.72379443084651
   192   1      1.2204117853795822       12.43700955131294      10.682042239672796
   193   1      10.789020948234338      8.5061978465175798      6.7215327758078729
   194   1      4.2874885174824158      15.517016328915815       16.04184870820643
   195   1      12.104002170909325      4.2910896469746262      2.5655032495196792
   196   1      8.0022426735478689       11.14589438969756      6.5915027501750956
   197   1      2.6138525134413158      11.104302536489513      1.1772447117901947
   198   1      16.112762584307802      2.9122361945684929      1.1073900272089503
   199   1      5.3062392414702231      8.3930477199318148       6.628783371454233
   200   1      4.0277394706425298      1.6593310172225699      13.286458518677705
   201   1      16.148824496538623     0.22477397705084101       14.71069136175754
   202   1      16.119092668126655      2.9852560427353865      6.6807683209153765
   203   1      2.6061876414575238      8.3425978376984631      14.721064016405194
   204   1      8.0765050793027626      5.6477289147229044      6.6713028841854793
   205   1      8.0549163104304853      5.6700647756036346      11.968529811179792
   206   1      3.8830988075193602      4.3352921852206805       10.65451713123889
   207   1      14.901329774119063      9.8558441383847821      5.2745518328042067
   208   1      16.196178935662033      8.4073383489560456      6.5967392081027469
   209   1      8.0965991774532426      13.866847287923292      3.9313465934711189
   210   1      5.3850134015693243      3.0216640021440639      11.919604288666619
   211   1      9.3345384227379782      4.2736193748942242      16.085892580657855
   212   1      10.703901129759856      5.6974691812244487      3.9488516649512633
   213   1      1.1685051954059702      1.6220552629923475      10.629571558729936
   214   1      3.9662350602085326      9.7217997708069106       16.09879902097066
   215   1      5.3426345465517215     0.29243173658996469      9.3538382185055298
   216   1      8.0045389472259671      8.4148482054318947      9.3120322151452228

Velocities

     1                       0                       0                       0
     2                       0                       0                       0
     3                       0                       0                       0
     4                       0                       0                       0
     5                       0                       0                       0
     6                       0                       0                       0
     7                       0                       0                       0
     8                       0                       0                       0
     9                       0                       0                       0
    10                       0                       0                       0
    11                       0                       0                       0
    12                       0                       0                       0
    13                       0                       0                       0
    14                       0                       0                       0
    15                       0                       0                       0
    16                       0                       0                       0
    17                       0                       0                       0
    18                       0                       0                       0
    19                       0                       0                       0
    20                       0                       0                       0
    21                       0                       0                       0
    22                       0                       0                       0
    23                       0                       0                       0
    24                       0                       0                       0
    25                       0                       0                       0
    26                       0                       0                       0
    27                       0                       0                       0
    28                       0                       0                       0
    29                       0                       0                       0
    30                       0                       0                       0
    31                       0                       0                       0
    32                       0                       0                       0
    33                       0                       0                       0
    34                       0                       0                       0
    35                       0                       0                       0
    36                       0                       0                       0
    37                       0                       0                       0
    38                       0                       0                       0
    39                       0                       0                       0
    40                       0                       0                       0
    41                       0                       0                       0
    42                       0                       0                       0
    43                       0                       0                       0
    44                       0                       0                       0
    45                       0                       0                       0
    46                       0                       0                       0
    47                       0                       0                       0
    48                       0                       0                       0
    49                       0                       0                       0
    50                       0                       0                       0
    51                       0                       0                       0
    52                       0                       0                       0
    53                       0                       0                       0
    54                       0                       0                       0
    55                       0                       0                       0
    56                       0                       0                       0
    57                       0                       0                       0
    58                       0                       0                       0
    59                       0                       0                       0
    60                       0                       0                       0
    61                       0                       0                       0
    62                       0                       0                       0
    63                       0                       0                       0
    64                       0                       0                       0
    65                       0                       0                       0
    66                       0                       0                       0
    67                       0                       0                       0
    68                       0                       0                       0
    69                       0                       0                       0
    70                       0                       0                       0
    71                       0                       0                       0
    72                       0                       0                       0
    73                       0                       0                       0
    74                       0                       0                       0
    75                       0                       0                       0
    76                       0                       0                       0
    77                       0                       0                       0
    78                       0                       0                       0
    79                       0                       0                       0
    80                       0                       0                       0
    81                       0                       0                       0
    82                       0                       0                       0
    83                       0                       0                       0
    84                       0                       0                       0
    85                       0                       0                       0
    86                       0                       0                       0
    87                       0                       0                       0
    88                       0                       0                       0
    89                       0                       0                       0
    90                       0                       0                       0
    91                       0                       0                       0
    92                       0                       0                       0
    93                       0                       0                       0
    94                       0                       0                       0
    95                       0                       0                       0
    96                       0                       0                       0
    97                       0                       0                       0
    98                       0                       0                       0
    99                       0                       0                       0
   100                       0                       0                       0
   101                       0                       0                       0
   102                       0                       0                       0
   103                       0                       0                       0
   104                       0                       0                       0
   105                       0                       0                       0
   106                       0                       0                       0
   107                       0                       0                       0
   108                       0                       0                       0
   109                       0                       0                       0
   110                       0                       0                       0
   111                       0                       0                       0
   112                       0                       0                       0
   113                       0                       0                       0
   114                       0                       0                       0
   115                       0                       0                       0
   116                       0                       0                       0
   117                       0                       0                       0
   118                       0                       0                       0
   119                       0                       0                       0
   120                       0                       0                       0
   121                       0                       0                       0
   122                       0                       0                       0
   123                       0                       0                       0
   124                       0                       0                       0
   125                       0                       0                       0
   126                       0                       0                       0
   127                       0                       0                       0
   128                       0                       0                       0
   129                       0                       0                       0
   130                       0                       0                       0
   131                       0                       0                       0
   132                       0                       0                       0
   133                       0                       0                       0
   134                       0                       0                       0
   135                       0                       0                       0
   136                       0                       0                       0
   137                       0                       0                       0
   138                       0                       0                       0
   139                       0                       0                       0
   140                       0                       0                       0
   141                       0                       0                       0
   142                       0                       0                       0
   143                       0                       0                       0
   144                       0                       0                       0
   145                       0                       0                       0
   146                       0                       0                       0
   147                       0                       0                       0
   148                       0                       0                       0
   149                       0                       0                       0
   150                       0                       0                       0
   151                       0                       0                       0
   152                       0                       0                       0
   153                       0                       0                       0
   154                       0                       0                       0
   155                       0                       0                       0
   156                       0                       0                       0
   157                       0                       0                       0
   158                       0                       0                       0
   159                       0                       0                       0
   160                       0                       0                       0
   161                       0                       0                       0
   162                       0                       0                       0
   163                       0                       0                       0
   164                       0                       0                       0
   165                       0                       0                       0
   166                       0                       0                       0
   167                       0                       0                       0
   168                       0                       0                       0
   169                       0                       0                       0
   170                       0                       0                       0
   171                       0                       0                       0
   172                       0                       0                       0
   173                       0                       0                       0
   174                       0                       0                       0
   175                       0                       0                       0
   176                       0                       0                       0
   177                       0                       0                       0
   178                       0                       0                       0
   179                       0                       0                       0
   180                       0                       0                       0
   181                       0                       0                       0
   182                       0                       0                       0
   183                       0                       0                       0
   184                       0                       0                       0
   185                       0                       0                       0
   186                       0                       0                       0
   187                       0                       0                       0
   188                       0                       0                       0
   189                       0                       0                       0
   190                       0                       0                       0
   191                       0                       0                       0
   192                       0                       0                       0
   193                       0                       0                       0
   194                       0                       0                       0
   195                       0                       0                       0
   196                       0                       0                       0
   197                       0                       0                       0
   198                       0                       0                       0
   199                       0                       0                       0
   200                       0                       0                       0
   201                       0                       0                       0
   202                       0                       0                       0
   203                       0                       0                       0
   204                       0                       0                       0
   205                       0                       0                       0
   206                       0                       0                       0
   207                       0                       0                       0
   208                       0                       0                       0
   209                       0                       0                       0
   210                       0                       0                       0
   211                       0                       0                       0
   212                       0                       0                       0
   213                       0                       0                       0
   214                       0                       0                       0
   215                       0                       0                       0
   216                       0                       0                       0
