(written by ASE)

216 atoms
1 atom types

0.0      16.331106185913086  xlo xhi
0.0      16.331106185913086  ylo yhi
0.0      16.331106185913086  zlo zhi

Atoms # atomic

     1   1      9.3036599176016352      6.7463070281950195      16.243953887811699
     2   1      3.6460956704312935      1.2581252089834862      5.2993869233027908
     3   1      10.669678962018907      13.545009784779609      14.894617140255491
     4   1      3.6590459141843326      1.2053673721546403      10.762998784505385
     5   1       3.404103808205349      1.1118302359341072    0.078180509412457688
     6   1     0.85356399638428826      4.0789843853161472      5.2747883713814758
     7   1      2.2736153752269104      2.7252585330483896      6.6018515562830657
     8   1        6.50663796506376      1.1789206800840759       13.49644247706658
     9   1      11.956720403692429      3.9821792691016356      5.2716301433405306
    10   1      9.3073725025139993      4.1127127909446699      13.498399030730411
    11   1      7.9173214306691193       13.49633540199045      12.138976784412534
    12   1      13.284168085458305      5.4117052712289819      9.3073559545476883
    13   1      13.199404534964401      8.1842299064629742      12.079588080141889
    14   1      14.535811480373013      6.7483949921795556      16.232440396898369
    15   1      9.2676252608447385      9.4510361055674821      2.6067222867808368
    16   1      14.599863790914014      12.210061007225931      16.256313271826457
    17   1     0.91774789976032878      1.2544546023680141      13.486653868288727
    18   1     0.89351096957339848      9.3804161992205763      10.773246842700814
    19   1      7.8278431698912527      10.826783407356061      3.9463689832997204
    20   1      7.8752384922255487      2.6149128000474491      1.2481307240365282
    21   1      12.014381305598249        9.41450014277234      5.3951470841152513
    22   1      14.510604060632431      12.057433273480797      10.613176417754858
    23   1      15.940610197135243      10.831729302463486      1.2925502109879687
    24   1     0.94584415638441044      1.3009187365686472      7.9590953115065872
    25   1      2.3082514854780811      10.822661990334836      14.834854646628173
    26   1      2.2698779683650798      16.135413829958225       14.83782841351524
    27   1      7.8476749341052141       13.51408066233455       6.683374138904469
    28   1      3.7431986500394032      6.7336458871475315      5.2458347840910164
    29   1      5.1871211395048817      8.0579552957730129      3.8871756910430122
    30   1      15.871156435708372      16.213010164219895      12.015739212245535
    31   1      3.7479119002086918      4.0406291196365771      7.9581992878013352
    32   1      9.1784823397371156      12.208877340929803      10.754232255999682
    33   1      6.5617407460598542      12.219386272947077      2.5910547696185517
    34   1       10.66725030461032      5.4867921550700771       12.02877900969861
    35   1     0.91841590222391289      6.7834401778920324      2.6689674620596975
    36   1      5.0721171539873922      13.526696053122237      9.3387659414255495
    37   1      13.318455471654715       8.124550639372103      1.3158783414662452
    38   1      11.968675822647242      6.8468218090925461      13.473538144872578
    39   1       3.703519060350061      14.895861157958166      13.471066657433539
    40   1      11.926387008034567      12.226332525158568      2.6563591284929373
    41   1      6.4734369041851778      12.127895487442856      8.0308891500517916
    42   1      11.993322558352816      6.8444827053839958       7.921383956398472
    43   1     0.89707139836905725      14.927156282481633      5.2495201135294565
    44   1      5.1072465396460984      5.4111679490287656      1.2074173731576394
    45   1        7.87935893583699      8.1056163589780681      1.2237536228408459
    46   1      11.896735972634588       12.19978958719571       13.49164454024617
    47   1      11.885081337302722      14.878207398133668        10.8091676105131
    48   1      11.979955695212652      12.091025645092145      8.0875323520294842
    49   1      7.8894979721367235      8.1439818454603596      6.6526577064969956
    50   1      6.4944606086784233      14.919756421311263      10.718249189961284
    51   1      14.523017955595037       1.269297398091652      5.2722837880098155
    52   1      4.0726550315546319      1.4287264676668343      16.055196103150934
    53   1      14.609634878315774      9.4985063804550691      2.6234554443030618
    54   1      2.1374820702547197      11.115559047220131      9.0512586545087288
    55   1       15.85483138023767      16.102651776891776      1.3760698654554204
    56   1      13.246875783261771      16.213026712186206      9.4249642979395958
    57   1      14.596445175756116       4.066436403155933      2.6016238096899258
    58   1     0.96076020119421912      4.0144351490809242      10.715553818272156
    59   1      10.665915759797826      8.1738407038490095       14.87824049406629
    60   1      6.1406933178327563      3.8409657384719651      10.457084318592024
    61   1      15.930120733313629      2.6775281143962957      9.3787614025894754
    62   1      4.9472812429567057      2.5986626971300382      9.3063679436179427
    63   1      6.4971929699393058      9.4330066095667462      5.2832034989555154
    64   1       15.86650061671628      13.617820836548049      3.8677520288805738
    65   1      0.9246996882399614      6.6992266039255242      13.539398077380611
    66   1      13.265517554016014      2.6456163347752977      12.122051135105721
    67   1      6.5599302038634733      4.0477362278147098      16.190294673523795
    68   1      7.9279116424032736      13.530146790802974      1.2575398246752343
    69   1       10.65757947841621      8.1689911763101009       9.279508647475609
    70   1      13.188396243728448      13.530384302790026      6.6737354352331977
    71   1      14.578278428975977       6.714376267083253      10.834691388433157
    72   1      15.917777897265182      8.0867093340579572      14.922204546915509
    73   1      15.878661425135306      10.807065045381819      12.069228079821414
    74   1      5.1555018695236754      13.524466944719165      3.9643427515903795
    75   1      14.583890136374976      4.0332263382368581       13.43032069732692
    76   1      3.7607467949024453      14.862293121591392       2.655833487210117
    77   1      9.3249435225069419      6.8370570488543763      10.689132556532172
    78   1      6.5225337468201587      12.192379018517727      13.510893718705006
    79   1      3.6842708553010084      14.863047514173218      7.9524318348370571
    80   1      11.956434221216227      1.2422496254800848      7.9912630979005144
    81   1      15.928829018531587      13.515579713400371      14.777187904263656
    82   1      14.512424336926642      14.814163848280714      13.440915289405098
    83   1      14.478943907440339      6.8619330225638464       5.429185277407214
    84   1      7.9359928904217441      10.810042705908018      14.886902867725212
    85   1      5.2346673403555428      16.230328097669258      1.3627502126897326
    86   1       14.63685822971695      1.2325615212623262      16.224610288603913
    87   1      7.9442347510544096      5.4865570766074825      14.867203000536847
    88   1      15.923404205810925      8.0774142440400851      3.9972566565829766
    89   1      7.8757578063447795      10.792814326158691      9.3276106653123634
    90   1      10.630751331386932       16.20159888133378      6.6462808990085591
    91   1      14.548421030702002      9.4608110866083734      13.543637276985578
    92   1      15.880525504869752      5.4343570035842959      1.2519450302712158
    93   1      9.2869318704807711      9.4787549225482053      13.430156191073593
    94   1      7.8622283837708551      16.275469002946124      9.3963655185150401
    95   1      2.2661683036820648      8.1388719308044983      12.118921622653374
    96   1      3.7163653926087648      4.0387399746002188      13.513645548161549
    97   1      9.2578405457060171      6.7841716953439573      5.2798286872378526
    98   1      3.7161690071850444      9.4795122353593797      13.503583411234672
    99   1      3.6781902077390498      6.7871615234924434      16.246328034272437
   100   1      10.675659591725662      10.890765632392686      1.2830588572225992
   101   1      2.2837553849364269      5.4253948197122099      3.9814195227660036
   102   1      2.2950381777311861      10.832132294113649      3.9522997257550969
   103   1      6.7891803753823865       4.354464464306659      10.902464071164786
   104   1      9.2919011274229888      12.097965083435156      5.3414031831762259
   105   1      2.2677320864984551      16.158956718969876      9.3315004108052335
   106   1     0.83767052647612417      12.242903853304369      7.7969344890516368
   107   1      7.8875696473565995      16.205799144547427      3.9536542254681422
   108   1      10.577127159851216      16.227122659253837       1.240580106026016
   109   1      3.7689119995146996      9.4019665184064252      7.9315458678281061
   110   1      5.1396494045026202      16.235627340527913      6.6283175948730673
   111   1     0.90541911731562408      14.902735377845715      16.221807841838654
   112   1      11.957473822864472      3.9854586866605644      16.251460824058199
   113   1       10.56840832842488      2.5878904577664628      3.9884940217164058
   114   1      6.5920463995389014      6.7300111750178075      2.5890157194756114
   115   1      9.1882349323529979      9.4918044540991104      7.9682750524651738
   116   1      2.2932806863679787      2.6398097020672537      12.147908792581347
   117   1      15.904550231723988      2.6474838214439842      14.907396063886722
   118   1      11.938764886835202      14.885412577347438      16.222466840261745
   119   1      14.565133503266338      1.2814861920419389      10.707832731873395
   120   1      14.580915396078126      3.9671690468953216      8.0401857001843382
   121   1      13.287540950356401      16.252448834987945      14.802466382918396
   122   1     0.93505853263631877      1.2759515056920208      2.6401929821693102
   123   1      13.200589174670313      10.798449395392481      3.9648404073419385
   124   1      15.877905085733914      8.1153139539412109      9.3212523526098039
   125   1      13.392937868020567      13.704949772814643      1.3776830488182981
   126   1      13.286131452990617      10.902804764588836      14.869848728327042
   127   1      9.2654234079155913      1.2762162731529969      10.737344569674406
   128   1      7.9700495784995837      5.4480100492006613      4.0255785009242686
   129   1      6.5295092013251406      9.5118479349408744       16.21944148265618
   130   1      2.2609418232046892      5.3504938571396679      14.907991790673918
   131   1      10.531928823397152      16.152683092918437      12.133414720912469
   132   1      7.8809859902892754      2.6868451061342853       6.647920121083132
   133   1      2.4916414018904902      10.511848352983634      9.5597844731145187
   134   1      11.910945808646829      1.2321911388398945      13.506663279788086
   135   1      5.1073409603950495      8.1125567707308619      14.942395986044289
   136   1      3.6589327552970587      6.7495621105093733      10.685955347000458
   137   1      11.942274029102919      14.864588421859708      5.3218113644737741
   138   1      13.232704883640849      5.3812633403803147      14.844563435803821
   139   1      15.924912017564793      16.273583508196452      6.6985067673909953
   140   1       5.091862771435558      10.776585638256506      6.5960763160405236
   141   1      3.8132586024086379      9.4293582697000602      2.5925484669305661
   142   1      2.3580793588600955      13.557965868991346      1.2506289802445991
   143   1      15.866574595859788      13.414524203368387      9.3017822101302272
   144   1      5.1374344105414025      16.243801062475768      12.078565026459955
   145   1      10.602968269360531      10.830723770157647      6.6438639225173688
   146   1      14.509080674322036      9.4433948387709279      7.9718182640752957
   147   1      5.2615938017729036      2.7500040698469377      14.742873262593321
   148   1     0.89902022559273576      12.138603968465645      13.428675634793649
   149   1      3.7812567823827123      12.165866256258141      5.3154374772146866
   150   1      3.7573216092285122      12.202726364511022      10.799638902147308
   151   1      5.0816750646466744      10.876469162909757      12.151111310767419
   152   1      12.013476034500059       9.501884112402081      16.229075319278536
   153   1      14.549219226724063      14.946590408799239      7.9772576779427027
   154   1      10.629740932032178      2.6628517717455509      9.3446823260866267
   155   1      5.1090191188609424      13.583023383625346      14.856777781760911
   156   1      2.3676163412090432      16.238745172062863      3.9591758924622127
   157   1      13.252664651241275      2.5963965991552129      6.6083407926014388
   158   1     0.96361721974543713      12.188347155196539      2.6172197812331603
   159   1      5.0924765063037398      2.6645345539079131      3.9149030253593367
   160   1      2.3128012028038256      8.1709409161054509      1.2282831419135931
   161   1      15.869625262119712      2.6942819568764094      3.9614101112666447
   162   1      10.637851382344138      8.0968522639968228       3.977112427828672
   163   1      5.0191928640856531      5.5213662104475816      12.125190381655898
   164   1      13.298620300506514      2.6557356595269255       1.248514734195922
   165   1       9.233958910089882      14.838350161158928      13.508798940851989
   166   1      6.5216172815094637       6.740913851292305      7.9309666890072208
   167   1      10.615589500606916      5.3813611680635063      1.2746814492776508
   168   1      9.2445340339723998      14.857804729081977      8.0122838821644109
   169   1       6.478426116027947      3.9909484744842416       5.290651543910144
   170   1      13.318543078535185      16.137116323668693       3.831154497916657
   171   1     0.90509412012432477      14.716299175517406      10.673117045372464
   172   1      6.5368876474802846      14.886506689943531      5.3528908787303067
   173   1     0.98070123065632231      9.4794411764452207      5.3410902319309912
   174   1      9.2032449112068662      4.0285890140306435      2.5952779079620996
   175   1      9.2173671403386379      1.2740605355123193       16.24519985233394
   176   1      6.6110867815992833      6.7786631693819572      13.477871765226496
   177   1      6.4999730282795554      9.4207134174172324      10.715078794298051
   178   1      11.915396238174708      6.7504975573108368      2.6026327489300058
   179   1      2.3239808141615867      8.1155577930918525      6.6228105290257417
   180   1        15.8879896110858      10.809409989549067      6.5984806382045349
   181   1      14.611360733861034      12.233370277889662      5.2117975642088368
   182   1      5.1330725613037771      10.793314658787153      1.2526703422357741
   183   1      6.5422895850710461      1.3235461336793861      2.6377180877960313
   184   1      2.2603546137530941      2.7325810081410111      1.3272197822004301
   185   1      9.3111697740774844      4.0563869205562355      7.9822429961463399
   186   1      10.577338389774127      10.812562863836206      12.143977190467808
   187   1      3.7356873334488796      12.200964492803791      16.240418463479841
   188   1      7.9707669815096551      5.5038054112573604      9.2494117903950155
   189   1      7.9269518603572351      8.1447498657791471      12.116616588287229
   190   1      13.295525830806355      5.4280775370741594      3.9505930950530512
   191   1      11.955204804660298      4.0247126529222896      10.709277271991368
   192   1      6.4911179194835995      14.861512446945426      16.256509900602623
   193   1      5.1220287406107445      5.3796547807139063      6.6188760066828536
   194   1      9.2935812327084477      12.204779285743371       16.27304423917667
   195   1      7.9759683966851185      2.6592185197305014      12.061111789050756
   196   1      9.2750757393238246      1.2264751549178925      5.3032343254701004
   197   1      6.4809443271365694      1.3557347267074249      7.9859424400266334
   198   1      13.298271819804199      13.508925484123779      12.099716247634774
   199   1     0.90620386811505682      3.9769795573932925      16.201515168092442
   200   1      9.2443977566027797      14.886305194118449      2.6621969103140373
   201   1      7.8625277072791278      16.186423422816802      14.896927041670551
   202   1      2.2454972168827112      13.539805936079688      6.6293119329664023
   203   1      15.804897405189308      5.4151613626635253      6.7305407099397598
   204   1      15.919074479096139      5.4590597103523919      12.083624810511992
   205   1      10.606134771384632      2.6751310928056569      14.911382176948109
   206   1      10.597473371135493      13.524151559949473      9.3266031861869578
   207   1      11.920138690637486      9.5447316642301985      10.664849876085441
   208   1      3.7216634187051909      4.0423958583927231      2.5835266617092714
   209   1      10.535686185159534      13.525843346152328      4.0480752177716397
   210   1     0.95309660681076736      6.7448347458982312       8.037979953616059
   211   1      2.3915975079754901      5.3953364123180449      9.3594090426936418
   212   1      5.1612615352096896      8.1001224341628131       9.370628563852506
   213   1      2.3263396294182428      13.451899245396476      12.056704189553329
   214   1      11.906446708629801      1.2962306733774938      2.5639951944133657
   215   1      10.655667701602397      5.3830456536929887      6.6495924390903269
   216   1     0.95175324047211518      9.5124835715291738      16.214259048971485

Velocities

     1                       0                       0                       0
     2                       0                       0                       0
     3                       0                       0                       0
     4                       0                       0                       0
     5                       0                       0                       0
     6                       0                       0                       0
     7                       0                       0                       0
     8                       0                       0                       0
     9                       0                       0                       0
    10                       0                       0                       0
    11                       0                       0                       0
    12                       0                       0                       0
    13                       0                       0                       0
    14                       0                       0                       0
    15                       0                       0                       0
    16                       0                       0                       0
    17                       0                       0                       0
    18                       0                       0                       0
    19                       0                       0                       0
    20                       0                       0                       0
    21                       0                       0                       0
    22                       0                       0                       0
    23                       0                       0                       0
    24                       0                       0                       0
    25                       0                       0                       0
    26                       0                       0                       0
    27                       0                       0                       0
    28                       0                       0                       0
    29                       0                       0                       0
    30                       0                       0                       0
    31                       0                       0                       0
    32                       0                       0                       0
    33                       0                       0                       0
    34                       0                       0                       0
    35                       0                       0                       0
    36                       0                       0                       0
    37                       0                       0                       0
    38                       0                       0                       0
    39                       0                       0                       0
    40                       0                       0                       0
    41                       0                       0                       0
    42                       0                       0                       0
    43                       0                       0                       0
    44                       0                       0                       0
    45                       0                       0                       0
    46                       0                       0                       0
    47                       0                       0                       0
    48                       0                       0                       0
    49                       0                       0                       0
    50                       0                       0                       0
    51                       0                       0                       0
    52                       0                       0                       0
    53                       0                       0                       0
    54                       0                       0                       0
    55                       0                       0                       0
    56                       0                       0                       0
    57                       0                       0                       0
    58                       0                       0                       0
    59                       0                       0                       0
    60                       0                       0                       0
    61                       0                       0                       0
    62                       0                       0                       0
    63                       0                       0                       0
    64                       0                       0                       0
    65                       0                       0                       0
    66                       0                       0                       0
    67                       0                       0                       0
    68                       0                       0                       0
    69                       0                       0                       0
    70                       0                       0                       0
    71                       0                       0                       0
    72                       0                       0                       0
    73                       0                       0                       0
    74                       0                       0                       0
    75                       0                       0                       0
    76                       0                       0                       0
    77                       0                       0                       0
    78                       0                       0                       0
    79                       0                       0                       0
    80                       0                       0                       0
    81                       0                       0                       0
    82                       0                       0                       0
    83                       0                       0                       0
    84                       0                       0                       0
    85                       0                       0                       0
    86                       0                       0                       0
    87                       0                       0                       0
    88                       0                       0                       0
    89                       0                       0                       0
    90                       0                       0                       0
    91                       0                       0                       0
    92                       0                       0                       0
    93                       0                       0                       0
    94                       0                       0                       0
    95                       0                       0                       0
    96                       0                       0                       0
    97                       0                       0                       0
    98                       0                       0                       0
    99                       0                       0                       0
   100                       0                       0                       0
   101                       0                       0                       0
   102                       0                       0                       0
   103                       0                       0                       0
   104                       0                       0                       0
   105                       0                       0                       0
   106                       0                       0                       0
   107                       0                       0                       0
   108                       0                       0                       0
   109                       0                       0                       0
   110                       0                       0                       0
   111                       0                       0                       0
   112                       0                       0                       0
   113                       0                       0                       0
   114                       0                       0                       0
   115                       0                       0                       0
   116                       0                       0                       0
   117                       0                       0                       0
   118                       0                       0                       0
   119                       0                       0                       0
   120                       0                       0                       0
   121                       0                       0                       0
   122                       0                       0                       0
   123                       0                       0                       0
   124                       0                       0                       0
   125                       0                       0                       0
   126                       0                       0                       0
   127                       0                       0                       0
   128                       0                       0                       0
   129                       0                       0                       0
   130                       0                       0                       0
   131                       0                       0                       0
   132                       0                       0                       0
   133                       0                       0                       0
   134                       0                       0                       0
   135                       0                       0                       0
   136                       0                       0                       0
   137                       0                       0                       0
   138                       0                       0                       0
   139                       0                       0                       0
   140                       0                       0                       0
   141                       0                       0                       0
   142                       0                       0                       0
   143                       0                       0                       0
   144                       0                       0                       0
   145                       0                       0                       0
   146                       0                       0                       0
   147                       0                       0                       0
   148                       0                       0                       0
   149                       0                       0                       0
   150                       0                       0                       0
   151                       0                       0                       0
   152                       0                       0                       0
   153                       0                       0                       0
   154                       0                       0                       0
   155                       0                       0                       0
   156                       0                       0                       0
   157                       0                       0                       0
   158                       0                       0                       0
   159                       0                       0                       0
   160                       0                       0                       0
   161                       0                       0                       0
   162                       0                       0                       0
   163                       0                       0                       0
   164                       0                       0                       0
   165                       0                       0                       0
   166                       0                       0                       0
   167                       0                       0                       0
   168                       0                       0                       0
   169                       0                       0                       0
   170                       0                       0                       0
   171                       0                       0                       0
   172                       0                       0                       0
   173                       0                       0                       0
   174                       0                       0                       0
   175                       0                       0                       0
   176                       0                       0                       0
   177                       0                       0                       0
   178                       0                       0                       0
   179                       0                       0                       0
   180                       0                       0                       0
   181                       0                       0                       0
   182                       0                       0                       0
   183                       0                       0                       0
   184                       0                       0                       0
   185                       0                       0                       0
   186                       0                       0                       0
   187                       0                       0                       0
   188                       0                       0                       0
   189                       0                       0                       0
   190                       0                       0                       0
   191                       0                       0                       0
   192                       0                       0                       0
   193                       0                       0                       0
   194                       0                       0                       0
   195                       0                       0                       0
   196                       0                       0                       0
   197                       0                       0                       0
   198                       0                       0                       0
   199                       0                       0                       0
   200                       0                       0                       0
   201                       0                       0                       0
   202                       0                       0                       0
   203                       0                       0                       0
   204                       0                       0                       0
   205                       0                       0                       0
   206                       0                       0                       0
   207                       0                       0                       0
   208                       0                       0                       0
   209                       0                       0                       0
   210                       0                       0                       0
   211                       0                       0                       0
   212                       0                       0                       0
   213                       0                       0                       0
   214                       0                       0                       0
   215                       0                       0                       0
   216                       0                       0                       0
