(written by ASE)

8 atoms
1 atom types

0.0       5.443702220916748  xlo xhi
0.0       5.443702220916748  ylo yhi
0.0       5.443702220916748  zlo zhi

Atoms # atomic

     1   1       2.721851110458374       2.721851110458374       2.721851110458374
     2   1       4.082776665687561       4.082776665687561       4.082776665687561
     3   1       1.360925555229187       1.360925555229187       4.082776665687561
     4   1       4.082776665687561       1.360925555229187       1.360925555229187
     5   1       1.360925555229187       4.082776665687561       1.360925555229187
     6   1    0.024215396737446104      2.6891171230848983    0.016266530949911373
     7   1    0.041977456523684786      5.3937831700275183      2.7338902430060443
     8   1      2.8034676295068834    0.019876327443479558      5.4331572724296109

Velocities

     1                       0                       0                       0
     2                       0                       0                       0
     3                       0                       0                       0
     4                       0                       0                       0
     5                       0                       0                       0
     6                       0                       0                       0
     7                       0                       0                       0
     8                       0                       0                       0
