(written by ASE)

8 atoms
1 atom types

0.0       5.443702220916748  xlo xhi
0.0       5.443702220916748  ylo yhi
0.0       5.443702220916748  zlo zhi

Atoms # atomic

     1   1       2.721851110458374       2.721851110458374       2.721851110458374
     2   1       4.082776665687561       4.082776665687561       4.082776665687561
     3   1       1.360925555229187       1.360925555229187       4.082776665687561
     4   1       1.360925555229187       4.082776665687561       1.360925555229187
     5   1       4.082776665687561       1.360925555229187       1.360925555229187
     6   1      2.6401130774184054       5.378553524587943      5.4133568189855339
     7   1      5.4315725612566155    0.049547198201580933      2.6749431405858104
     8   1      5.4385463936155816      2.6882459213036753      5.4116942350276247

Velocities

     1                       0                       0                       0
     2                       0                       0                       0
     3                       0                       0                       0
     4                       0                       0                       0
     5                       0                       0                       0
     6                       0                       0                       0
     7                       0                       0                       0
     8                       0                       0                       0
