(written by ASE)

8 atoms
1 atom types

0.0       5.443702220916748  xlo xhi
0.0       5.443702220916748  ylo yhi
0.0       5.443702220916748  zlo zhi

Atoms # atomic

     1   1       2.721851110458374       2.721851110458374       2.721851110458374
     2   1       4.082776665687561       4.082776665687561       4.082776665687561
     3   1       1.360925555229187       1.360925555229187       4.082776665687561
     4   1       4.082776665687561       1.360925555229187       1.360925555229187
     5   1       1.360925555229187       4.082776665687561       1.360925555229187
     6   1      5.4401525198044283      2.7114661256502472      5.4243715999416509
     7   1      2.7178635371658828     0.02223026431280517    0.018530466702961879
     8   1      5.4288784873685358      5.4237453729629692      2.7331326057028207

Velocities

     1                       0                       0                       0
     2                       0                       0                       0
     3                       0                       0                       0
     4                       0                       0                       0
     5                       0                       0                       0
     6                       0                       0                       0
     7                       0                       0                       0
     8                       0                       0                       0
