(written by ASE)

216 atoms
2 atom types

0.0      16.628772735595703  xlo xhi
0.0      16.628772735595703  ylo yhi
0.0      16.628772735595703  zlo zhi

Atoms # atomic

     1   2      8.3143863677978516      8.3143863677978516      8.3143863677978516
     2   1      6.9286556368822403      9.7001180898655548      6.9286556368822403
     3   1      9.7001180898655548      6.9286556368822403      6.9286556368822403
     4   1      6.9286556368822403      6.9286556368822403      9.7001180898655548
     5   1      9.7001180898655548      9.7001180898655548      9.7001180898655548
     6   2      10.974943857451763      5.1024519605409751      10.710719559321888
     7   1      12.731669754451104      1.1658618517348884      9.0602887772722625
     8   1       11.89504124708742       15.14325082975779     0.77935112885667479
     9   1      14.787435157962364      3.6390037551549881      4.1540993026438855
    10   2      16.431423451414275      10.756822998879215      4.8076050273780311
    11   1      0.9389451378162903      9.1050006392924843     0.74074129469057937
    12   1      3.4737489668631838      11.867841060227875        6.72965558889166
    13   1      3.4891232225375575     0.93692455038282674      11.753470038032901
    14   2      2.3104240928016679      2.3615050981647983      4.8711269737993916
    15   2       16.08058435427256      13.030331632015987      2.1088894211239335
    16   2      8.0344770878127747      4.9263311718650584      7.5383514479998439
    17   2      8.3697432032856796      7.5242681679252428       16.24395198898128
    18   2      11.103812461295774      5.0247961852883236      16.327550712177299
    19   2      16.581350072603982      2.1164529027376489      7.4901576686805811
    20   1      12.116840271073215      9.9629062086141857     0.85121436349591306
    21   1      1.3901901719653438      9.0075138929839795      6.3418831913473923
    22   2      8.3084186410521852      10.811966736667273      13.328894394371673
    23   1       7.150470519301507      14.635813666695412      12.491027938045136
    24   2      13.407432294986165       16.17453665222115      13.493722987263936
    25   1      9.9243999498416997      8.6935179014044479      3.1345108093817657
    26   2      16.028808551292968      2.4599621823713278      13.456769863819545
    27   1      6.6312436021053145        11.9355565711503      4.4214541546562032
    28   1      9.8991077307591695      1.1706310278133572      1.2505789661726681
    29   2      5.4492248562254417      5.3147909333850976      4.9287917069333389
    30   2      13.720524355857833      8.2763112601853663      4.9366951537145951
    31   2      10.830766909547492      5.1728673697618888      5.2953341222439576
    32   1       4.164399355183491      1.1724269954039812      1.1662998170655214
    33   1       11.92621198922734      3.5231090844066557       12.08167915061108
    34   1      9.5711751496146462      11.864893373906398      6.5494646341501266
    35   2      16.397840245082534      10.613400317716923      10.189793807440083
    36   1      9.2347850676694634        6.42968737286958      5.9753120326261069
    37   1      14.812390385333629      1.1860247348475355      1.0273471079439389
    38   2      13.665988194302145       13.30985931844566      5.4489800416587286
    39   1      6.9723852671793338      6.1313634781680548      15.173574136859088
    40   2      13.560852727300016      5.5716316440059472      2.2196932869399575
    41   2      13.932563505194139      7.7985888368398264      16.323925077824924
    42   1      6.5570132484824626      12.694727533679725      9.4715465236354248
    43   1       11.84637766167657      12.249371181897004      9.2430492938121915
    44   2      2.9110991809423581      4.8224772645178291      7.8684710062352679
    45   2      7.9628524730396748      10.397852489975094      2.1601324798540986
    46   1      12.477560163419639      6.1847999564777183      14.714415992195882
    47   2      10.886734294723965      16.350129156832054      4.9537092705251098
    48   1      15.206238545201586      9.8488345143509832      9.3764028608723038
    49   2      8.0829791154326358      4.8331217424093893      2.6137790755219612
    50   2      10.902565967088776      13.387045287606725      8.1016142614895443
    51   2      7.9220155201229545      2.1777673056622007      5.0993337960596818
    52   1      6.5212351358430851      6.0972980763435771      3.9256347808396868
    53   1      3.5548611372485084      6.7978121624950063      11.692838291111684
    54   2      5.1505337396738469      16.509558944279433      10.354872170659519
    55   1      3.5841447258053449      12.354216241336189     0.85917919975986479
    56   1      3.9817644671712173      15.356273201969316      9.1590897912547007
    57   2      2.3226799362067254      2.2697918127919365      10.861608589192883
    58   1      1.1350543668366697      12.425605953063496      9.2443110304252514
    59   1      11.948801336555107      6.8015874608132663      8.9096653761619109
    60   2      11.278413813814723      10.489127686123311      16.496074320068374
    61   1      9.0873640789682213      3.5367483283440606      3.3696197670224137
    62   1      3.6171956834637058      4.0813509691865306      3.5921341550305783
    63   1      9.5600236974280506      15.077581056753161      8.9473232087436827
    64   1      9.3077289058769566     0.69034573294604229      6.0182408120329001
    65   2      13.574489988933237      7.8343699229354797      11.007755947455962
    66   1      12.622540935670486      14.835967911297075      6.3055926530764737
    67   1      1.1517671734112298      3.3947276318158401      11.943547239315649
    68   2      10.764691755337253      10.523075636424892      10.123057554784509
    69   1      15.124524002132375      9.0293301416800205      4.2157534229479552
    70   2      2.3736709945175107      5.5111991186552132      13.704913710409528
    71   2      16.579225042518829      7.6212860992942524      7.9246148164841088
    72   1     0.95317609955259286      6.6048378236474719      9.3503454723747836
    73   1      1.6592671507374348       1.021576806305589      3.7822304359910959
    74   1      1.2653089729872704     0.88330718681638132       9.077126469010409
    75   1      9.8218761686018752      14.554829602717973      14.544097407866275
    76   1      4.2226979300802441      0.6507768971839738      6.1724611040849595
    77   2       16.23551431122246      16.032926788235045      5.2203272009570583
    78   1      14.753195808945748      12.092166530896066      6.6255494333370279
    79   2      5.6339696592534665      16.030321049385293      16.254819971669576
    80   1      15.117241016560683      3.6509699343611715      14.583143844528877
    81   1      6.7798485219803979      9.5216036688875647      1.4841508947067155
    82   2      8.2919724543903612      2.2910165914771028      15.805078763032043
    83   1      6.2767243572461666      8.9677914905946636      11.837993506130715
    84   1      9.4098621731925505      6.8167605126129729      0.8198124351305438
    85   2      7.8646431768561342      16.171187549302431      2.6220393370563215
    86   2       2.351085859586135      13.752090567682444      5.2073138695657235
    87   1     0.72746425489577859      3.7461086413638327     0.89362353141849837
    88   1      6.6079039526439374      3.6824439690412305      6.6361230438540133
    89   1      12.018017451744754      3.8640312092923068      6.6659185624663451
    90   1     0.97504196780023733      8.9534296967822229      12.275300711774662
    91   2      13.724739725704922      16.033923887239553      7.8922353643680481
    92   1      9.3579376973991657      9.2491884898697663      14.309807885217651
    93   2      11.031651633240926      15.990193265790367      16.367663628490845
    94   1      6.2336379846567525      3.9197522931739286      1.0467283437380672
    95   1      14.550526020334701      6.8331239380751185       1.327820192062859
    96   1      15.332241728347753      6.2321795043534394      6.7146966259438159
    97   2      5.1242919968872229      10.812444471975596      4.5950529568341381
    98   2      13.467549633971657      2.2524342617815591      16.433674357815107
    99   1      1.3501119459750157      11.782164882247116      14.562509049126447
   100   2      5.0256971425399115      8.0631045336847365      7.7560173677621833
   101   1      12.412656550982092      11.878270953691526      3.4653482095197887
   102   1     0.64229418395197513      11.984008050013472      3.5356503796141965
   103   1        1.18891171310338     0.87123204282708855      15.441360635607452
   104   2      16.105438484130445      16.103387790452189      10.794160689335285
   105   1     0.88571797843904676      3.3806329534921815       6.271683853282525
   106   1      3.8449032128576732      7.0482247562234761     0.78754139027454073
   107   1      4.0803506489377241      8.9723577282823044      14.729220830993427
   108   2      2.7020414170986555      2.3104174025250472      15.800791039082242
   109   2      10.655641237571899      13.653535359418811      13.469300008566051
   110   2      2.7178953903855358      11.116536871852304      7.9991836485463637
   111   1       6.145491360086794      12.280937393721615      15.275447722326589
   112   2      11.183959992907603      2.3031520099029876      7.7422477873246862
   113   2      13.744841281281879      5.0445176340380158      7.5732905503933807
   114   1      15.188768498428772      9.2730435384189605      15.401297276898504
   115   1      9.1012431817118795       12.27287238914937     0.78460962433354098
   116   1      3.7513902430738426      3.3650032283661062      14.592325877508756
   117   2      2.2619252864261057      16.234307087974457      2.4387237753448971
   118   2      16.580678071485636       13.41418996994912      7.8437085579458881
   119   1      9.2288817658097742      6.2387662055805322      12.423258904909744
   120   2      8.3951692279006238      15.993193483172718      7.7223489223505339
   121   2      2.2391213546704307      12.792912051060966      10.706417959242799
   122   1      3.9783226915319005      6.1167870999277056       6.332813158553904
   123   2      13.902110357168795      13.631081799927642      16.155959488561621
   124   2      8.0683338521218957      13.161835709272509      10.676800352430973
   125   1       9.394866042041258      3.4777155575351912      9.3684121927069555
   126   1      14.600750670290381      6.8560081531502419      12.147532286752721
   127   1       15.13636430502288      15.009052801115331      3.5068950751223724
   128   2      8.0055404024881227       13.38997711549473      4.7150314219893517
   129   1      9.3579634673535566     0.50231327842899987      11.645396796230216
   130   1      3.5692459753470871      9.4272311224519854      9.0002675800396901
   131   1      7.0042854972589339      1.0329110641061447      3.2977919660704629
   132   1      12.346025360448266      6.2889749971027413      3.4310677276913566
   133   1      14.967548307264678      4.0536975780329385      9.4674510831914631
   134   2     0.17055150507121652      4.9839002588221319      16.219928444576453
   135   1      9.3147036431480501      3.4516725407430044      14.874819090997562
   136   1      15.298738805335461      12.495841963755765      12.249903430570384
   137   1      3.9689565520509404      9.7480601165534608      3.8413301095661723
   138   2      8.2979718980029702      13.399938194018887      16.201124307087866
   139   1       14.77313283327544      14.590039289632614      15.075527389618628
   140   1      1.3380922445558667      14.970891463270846     0.64751501564934699
   141   2      2.5844930090848948      15.929345447713104      13.572719791297004
   142   2      8.0177499095328812      7.7714610040829939      5.4277921833889877
   143   1      6.4882649570802187      1.0104674161358957      9.6162388706275124
   144   1      9.1808287300875691       11.77236635266604      12.478465085279595
   145   1     0.89892006235689337      14.034831569194239      6.3961185382431722
   146   2      5.3093747827786046      7.8485007783104948      2.0815051277633074
   147   1      3.9017299268978718      11.766916007312375      11.525391074392473
   148   2      5.3261589523037856      10.752522389952219      10.803646014855303
   149   2      10.587111990781978      7.9717346825117374      13.561618887867098
   150   2      8.1225865441792848      10.602836618720858      7.9323368824325371
   151   1      12.207778475510167      11.649053156297441      14.621573784590282
   152   2      10.677031290868399      16.352628842407967      10.791706596755603
   153   2      5.4139120894932375      2.4409893012390853      7.6649750923555757
   154   2      2.2301692689758852      13.233151084592919      16.485828780893826
   155   2      4.9951146491665668      8.2483786119298657      13.347489398768857
   156   2      5.2444206215843678      16.380038162358915      5.2425200874480424
   157   2      10.871303047804304      13.662612330276943      2.3040440467857479
   158   2      13.359122550872144      10.694078115697948      2.2222479814569738
   159   2      13.387906598774634      2.4049138429721211      10.354810719229818
   160   1      6.3879122944978235      14.964563948315799      6.3028184183710891
   161   1      3.6344479245643129      14.534399975798578      3.4209002417440502
   162   2      2.4705632973588649      7.5280072891921463      10.931316315820141
   163   1      9.4626985089105347      3.8248484892170609      9.1783389560325759
   164   2      8.2846389200619797       10.76623597029652      13.303442599802338
   165   2      13.405201211627173      10.983082207278812      13.464505805897261
   166   2      4.9687291893266092      13.778485939043321      2.3513643733239746
   167   2      16.428271587761856      4.8308272253165114      10.284795735454054
   168   2      8.2121440737521425      5.3242455331902647      13.254984182874523
   169   2      7.6882136443035733       16.28485188005584       13.44470159594789
   170   1      15.137740024126515      12.361492288843237      1.4639131796111258
   171   2      16.371766998151543      2.0809290206098581      1.7618585781075353
   172   2        5.24149523618496      4.9025360880174276      10.867740847185814
   173   2      5.2602319753312941      13.751149964347178       13.83462875814007
   174   1      6.9354440375600461     0.87102464425184678      14.830329247045938
   175   2      13.875705074286998      15.928484136545194       2.410149108321832
   176   1      15.329298006634644     0.91364907801940376      11.973187642625589
   177   1       1.215038234459314      6.4634385794809077      3.2728587918332437
   178   2      5.3682115532612897      10.736862186899316       15.93055960902575
   179   1      6.6462734324277335      8.9263732269760112      6.4304178519613515
   180   2      11.201084127600325      2.4266416313439549      13.560511770980384
   181   2      13.611598723256066      13.667900126687528      10.666128617856884
   182   2      16.532533849770971      10.431056085055616      16.146290799904591
   183   2      5.7718582427103229      5.0291651837096651      16.375678084306401
   184   2      8.2122194013111312      2.0921610039039251      10.535159762730018
   185   2      2.3379412005426161      10.883179032170119      13.479520768938301
   186   2       10.58112840560284      7.9833222416187937      2.4938853538706098
   187   1      15.463836991596736      0.7607602129618698      6.7500188086208937
   188   1      12.605354358395971      9.2180454999884205      11.575988397534729
   189   2      13.766271971814149      5.5257522048214014      13.627909122081292
   190   1      12.452915166653156       3.965685997935509     0.54728067184792906
   191   2       13.59967714589402      2.4662334494451557      4.5712306163039784
   192   2      2.5284208095746976      10.608422751911121      2.4212135869123586
   193   1      1.3264751986740748      6.0097079836732519      14.726604189470663
   194   1     0.77503949336265521      14.586949868561987      12.145653062386373
   195   1      11.949120487528717     0.69175304502260815      4.0154207709697403
   196   1      3.7883659152283258      14.752317648192275      14.399904601528533
   197   2      16.504728068983241      8.0226625548766606      12.898174385530865
   198   1      3.6835897408595315       4.086307225222356      9.0762671401466832
   199   2      7.6955085237003686      7.6808860568877435      10.667553894565117
   200   2      2.3646081475766891      8.1377779322926926      5.2321412383171264
   201   1      6.5305004255986887      15.211381633406745      1.3161053938059979
   202   2      16.376531466257575       13.29597922454991      13.081352177101508
   203   2      10.454367982258418      2.3462324355798501      2.4512648227644149
   204   2       5.277845739157442      2.2112667596421716      2.2992540565133481
   205   2      5.4649792187270805      13.245327388042597      7.8769488256538125
   206   2      13.967273651454434       10.52108837648052      7.7658743753166846
   207   2       10.77276270682205       11.03996442583616      5.0077726525329354
   208   2      15.900626815848682       5.017261447085275      5.2911296550698808
   209   2    0.029877288659918122      16.030014783388879      16.289294223731986
   210   2      2.5958176650995597      16.143651361883713      8.2269137266504231
   211   1      12.292135430056533      1.3214968895042034      14.723770485639761
   212   1      6.4114486876494539      3.8356666665127364      12.158653013224466
   213   2       2.167829767000228      5.0480129318902982      2.5521031498718685
   214   2      2.5345961826836287      7.7494544541852974      16.506081982740852
   215   2      5.2499591794742173      2.5866921277889219      13.363915762388842
   216   1      12.348645966579397      14.771630246704035       11.61456800156202

Velocities

     1                       0                       0                       0
     2                       0                       0                       0
     3                       0                       0                       0
     4                       0                       0                       0
     5                       0                       0                       0
     6                       0                       0                       0
     7                       0                       0                       0
     8                       0                       0                       0
     9                       0                       0                       0
    10                       0                       0                       0
    11                       0                       0                       0
    12                       0                       0                       0
    13                       0                       0                       0
    14                       0                       0                       0
    15                       0                       0                       0
    16                       0                       0                       0
    17                       0                       0                       0
    18                       0                       0                       0
    19                       0                       0                       0
    20                       0                       0                       0
    21                       0                       0                       0
    22                       0                       0                       0
    23                       0                       0                       0
    24                       0                       0                       0
    25                       0                       0                       0
    26                       0                       0                       0
    27                       0                       0                       0
    28                       0                       0                       0
    29                       0                       0                       0
    30                       0                       0                       0
    31                       0                       0                       0
    32                       0                       0                       0
    33                       0                       0                       0
    34                       0                       0                       0
    35                       0                       0                       0
    36                       0                       0                       0
    37                       0                       0                       0
    38                       0                       0                       0
    39                       0                       0                       0
    40                       0                       0                       0
    41                       0                       0                       0
    42                       0                       0                       0
    43                       0                       0                       0
    44                       0                       0                       0
    45                       0                       0                       0
    46                       0                       0                       0
    47                       0                       0                       0
    48                       0                       0                       0
    49                       0                       0                       0
    50                       0                       0                       0
    51                       0                       0                       0
    52                       0                       0                       0
    53                       0                       0                       0
    54                       0                       0                       0
    55                       0                       0                       0
    56                       0                       0                       0
    57                       0                       0                       0
    58                       0                       0                       0
    59                       0                       0                       0
    60                       0                       0                       0
    61                       0                       0                       0
    62                       0                       0                       0
    63                       0                       0                       0
    64                       0                       0                       0
    65                       0                       0                       0
    66                       0                       0                       0
    67                       0                       0                       0
    68                       0                       0                       0
    69                       0                       0                       0
    70                       0                       0                       0
    71                       0                       0                       0
    72                       0                       0                       0
    73                       0                       0                       0
    74                       0                       0                       0
    75                       0                       0                       0
    76                       0                       0                       0
    77                       0                       0                       0
    78                       0                       0                       0
    79                       0                       0                       0
    80                       0                       0                       0
    81                       0                       0                       0
    82                       0                       0                       0
    83                       0                       0                       0
    84                       0                       0                       0
    85                       0                       0                       0
    86                       0                       0                       0
    87                       0                       0                       0
    88                       0                       0                       0
    89                       0                       0                       0
    90                       0                       0                       0
    91                       0                       0                       0
    92                       0                       0                       0
    93                       0                       0                       0
    94                       0                       0                       0
    95                       0                       0                       0
    96                       0                       0                       0
    97                       0                       0                       0
    98                       0                       0                       0
    99                       0                       0                       0
   100                       0                       0                       0
   101                       0                       0                       0
   102                       0                       0                       0
   103                       0                       0                       0
   104                       0                       0                       0
   105                       0                       0                       0
   106                       0                       0                       0
   107                       0                       0                       0
   108                       0                       0                       0
   109                       0                       0                       0
   110                       0                       0                       0
   111                       0                       0                       0
   112                       0                       0                       0
   113                       0                       0                       0
   114                       0                       0                       0
   115                       0                       0                       0
   116                       0                       0                       0
   117                       0                       0                       0
   118                       0                       0                       0
   119                       0                       0                       0
   120                       0                       0                       0
   121                       0                       0                       0
   122                       0                       0                       0
   123                       0                       0                       0
   124                       0                       0                       0
   125                       0                       0                       0
   126                       0                       0                       0
   127                       0                       0                       0
   128                       0                       0                       0
   129                       0                       0                       0
   130                       0                       0                       0
   131                       0                       0                       0
   132                       0                       0                       0
   133                       0                       0                       0
   134                       0                       0                       0
   135                       0                       0                       0
   136                       0                       0                       0
   137                       0                       0                       0
   138                       0                       0                       0
   139                       0                       0                       0
   140                       0                       0                       0
   141                       0                       0                       0
   142                       0                       0                       0
   143                       0                       0                       0
   144                       0                       0                       0
   145                       0                       0                       0
   146                       0                       0                       0
   147                       0                       0                       0
   148                       0                       0                       0
   149                       0                       0                       0
   150                       0                       0                       0
   151                       0                       0                       0
   152                       0                       0                       0
   153                       0                       0                       0
   154                       0                       0                       0
   155                       0                       0                       0
   156                       0                       0                       0
   157                       0                       0                       0
   158                       0                       0                       0
   159                       0                       0                       0
   160                       0                       0                       0
   161                       0                       0                       0
   162                       0                       0                       0
   163                       0                       0                       0
   164                       0                       0                       0
   165                       0                       0                       0
   166                       0                       0                       0
   167                       0                       0                       0
   168                       0                       0                       0
   169                       0                       0                       0
   170                       0                       0                       0
   171                       0                       0                       0
   172                       0                       0                       0
   173                       0                       0                       0
   174                       0                       0                       0
   175                       0                       0                       0
   176                       0                       0                       0
   177                       0                       0                       0
   178                       0                       0                       0
   179                       0                       0                       0
   180                       0                       0                       0
   181                       0                       0                       0
   182                       0                       0                       0
   183                       0                       0                       0
   184                       0                       0                       0
   185                       0                       0                       0
   186                       0                       0                       0
   187                       0                       0                       0
   188                       0                       0                       0
   189                       0                       0                       0
   190                       0                       0                       0
   191                       0                       0                       0
   192                       0                       0                       0
   193                       0                       0                       0
   194                       0                       0                       0
   195                       0                       0                       0
   196                       0                       0                       0
   197                       0                       0                       0
   198                       0                       0                       0
   199                       0                       0                       0
   200                       0                       0                       0
   201                       0                       0                       0
   202                       0                       0                       0
   203                       0                       0                       0
   204                       0                       0                       0
   205                       0                       0                       0
   206                       0                       0                       0
   207                       0                       0                       0
   208                       0                       0                       0
   209                       0                       0                       0
   210                       0                       0                       0
   211                       0                       0                       0
   212                       0                       0                       0
   213                       0                       0                       0
   214                       0                       0                       0
   215                       0                       0                       0
   216                       0                       0                       0
