(written by ASE)

216 atoms
1 atom types

0.0      16.331106185913086  xlo xhi
0.0      16.331106185913086  ylo yhi
0.0      16.331106185913086  zlo zhi

Atoms # atomic

     1   1      7.6491820782046602      9.8455250212751935     0.44993205551824289
     2   1      7.6755488289967957      12.631172680498707      8.6087689555816951
     3   1      9.0249775637774974     0.35278077044965173      4.5369311015398921
     4   1      2.2026102419583822      15.299533221558704       5.900370610032212
     5   1      2.2456410381781495      9.9001459644287024      5.8641763140709031
     6   1     0.82086411986772845      3.0875699282643438      15.459365161107826
     7   1      7.7285680263523773      12.584059647001482      14.113313671569244
     8   1      10.425101966761758      4.4442834185085758      3.1946260229036341
     9   1      15.810387436365431      7.1829840106028655      5.8800136912403218
    10   1      11.757247324140394      11.240298590682301      12.732583485101486
    11   1       7.657882414845119      15.312420193675848      5.9046959564029748
    12   1      4.9359750883271545      7.1834342126275033     0.44355223654329023
    13   1     0.84053411554337742      13.935302330912805      4.4987189270984231
    14   1       11.74698174456887       5.835646160036049      12.736278548637756
    15   1      3.5796032649167557     0.37959422507501728      4.5337942885141729
    16   1       15.81747872663459      9.8905218619041761       3.156602933312513
    17   1      9.0232312666267944      8.5230417294026211      1.8135990681282834
    18   1      3.5051598049422239      5.8889135768862957      15.331073645347487
    19   1      14.463465718480847      5.8173450827058559      10.022634011062792
    20   1      11.744268851503648      13.989644878868376      9.9804785535903875
    21   1      3.5998784172868739      13.950377528222134       7.245939288318425
    22   1     0.86172007527982686      11.231322779073253      1.7451160396075096
    23   1      3.6324616063056965      13.887493309420734      12.780899653090501
    24   1      7.7080772637153245      12.612276849791101      3.1557821055129978
    25   1      13.117341223208541      15.322027748234063      5.9108425524777317
    26   1     0.86801037097379918       5.828322224828753      7.2616301673155021
    27   1      6.3301977077970832      8.5352064314607787      15.439646799133584
    28   1      7.6904760680191089      1.7448689151988503      8.6128280743768073
    29   1      13.133875561782588       15.32778157346138      11.350669632337599
    30   1     0.92717160154577982      8.4213418220942913      15.343144900066477
    31   1      10.393144923585851      15.329537604709913      3.1510328391817382
    32   1      4.9264254516510277      7.1605220931552367      11.362152947547656
    33   1      11.738463435557833       13.98258376430249      15.417587386631226
    34   1      6.2964739258650297      8.5165432456913095      4.5256638833016609
    35   1      7.6763830411808271      1.7200800616649587      3.1790629039405758
    36   1      4.9247886631009123      1.7674110172773538     0.44969615574114385
    37   1      6.3610937343095202      3.1414525400974469      9.9537282793437498
    38   1      10.403060075635494      15.304633888821627      8.6078198810432696
    39   1      6.3275174239595913      11.237441632969194      1.8312585467352562
    40   1      10.388673079042746      7.1781466506862444      11.322536142789318
    41   1     0.84015929193881078      11.231622589286417      7.2040262098819881
    42   1      15.817226613500793      9.9062687119637758       8.610365347625816
    43   1      9.0272670235871146      13.962128531122517       7.242215995898448
    44   1     0.88825857206055048     0.38908141142975339      1.8041694042079115
    45   1      6.2780492254923956      13.974537559036207      9.9983172612736553
    46   1      2.2167176265909632      15.334200237570485     0.44581830409905976
    47   1     0.86783077686883558      8.5824547689178416      9.9664595058956138
    48   1      15.805758872847264      1.7625725622747268      0.4819847057862745
    49   1      13.077594954949063      1.7496915522925036      14.053460650832108
    50   1      3.5707420723096561      11.254246579462915      4.5283947844478689
    51   1      7.6708618608916481      4.4473613402424235      11.354211870537938
    52   1      6.3537965678712567      5.8038253942297615      12.686052550654495
    53   1      2.2172868279615727      1.7916900474373989      14.096250771483028
    54   1      13.119029115772264       4.447380321733192     0.45010982447986336
    55   1      7.6540423132511819       15.34747365337148     0.48950958927564869
    56   1      3.5278190812233561       8.437249284768086      12.784853643629049
    57   1      13.136337315123797      7.1695397613849536      3.1814891278247046
    58   1      11.718807371809703     0.34617636758632742      7.2653607603088517
    59   1      10.378851374332271      1.7129119936991657      5.9246167876120808
    60   1      4.9565008937163952      12.614442686558277      5.8575668616443295
    61   1      15.798440778098666      12.578215294664346     0.44049834586346037
    62   1      10.393729942865434      12.599396691542438      11.341449494873018
    63   1      15.797237643606877       4.452011318775817      3.1706453428420787
    64   1      2.2409265712466322      12.582515819085643       14.10661953249155
    65   1      3.6176650475467511      13.946497516827094      1.8039422346998037
    66   1      14.419286542069585      13.923804414556002      7.2315284431859936
    67   1       4.925954808020947      4.4687641878461477      3.1698651549010037
    68   1      9.0277800105427559      3.1095356500750881      1.7866266130986759
    69   1      6.3066621193588048      8.5141379501175152      10.015900935593777
    70   1      6.3422378134030168      5.8549800251460056      7.2530023497038769
    71   1      6.2942224290369495      11.177501005351587      12.746723235609352
    72   1      2.2044071564178012      9.8555005247313829     0.43593390571474799
    73   1      14.461039007891827      3.1513645285652956      12.754794749529992
    74   1      10.387286943511754      12.620731887166244       5.883155371314956
    75   1      15.851025347986138      7.2009370939356359      0.4448544154804992
    76   1      8.9920110946566183     0.32483980310501437      15.448777382898129
    77   1      3.5407883064671637      5.8203899085070816       4.538568376794899
    78   1      7.6468502750694824      9.8910815725294015      11.345201989586485
    79   1      9.0312015459300028      13.965709705714175       1.825538912526568
    80   1      13.139843537162164      7.1694954712398271      8.6249295047990699
    81   1      11.742978110131389      3.0672276106191987      4.5443509176108137
    82   1      3.5458792396322565     0.39335796563514336      15.367379883433841
    83   1      8.9935704971289852      3.0579468783956258      12.718974242925356
    84   1     0.75733848485744204      13.894928213343292      9.8695692163250897
    85   1      14.434588543858354      8.5440956095991396      12.703166068049427
    86   1      9.0211403824129093      5.8183009711127625      10.003048032819038
    87   1      3.5961814069310378      5.8141630061252272      9.9145456153486293
    88   1      14.456435753028018     0.36727998293894615      4.5151247755811141
    89   1      10.373693275892151      7.1762178392012288      5.9071990796599607
    90   1      11.728696241795205        11.2137809613738       7.200226018089154
    91   1       13.05866116125992      12.576014415144982      8.6018606663517403
    92   1      4.9412057057961078      1.7314464460248331      5.8807408283482232
    93   1      6.3482062754874846     0.37846978468037307      7.2330810317898795
    94   1      15.841636810629097       9.877549229726128      14.097884153098903
    95   1     0.75471788320727029     0.46596378003464878      12.789856969913671
    96   1       13.10687220099237      1.7389459600217378      8.6093442407634484
    97   1      15.815544561395768      1.7355689581320632      5.8362861769683718
    98   1      13.105459783397237      12.572977376622021      14.128537800575373
    99   1      14.471927569724471       5.772786763184115      4.5263408898057378
   100   1      10.400174889038681      15.337568235419667       14.07932998922513
   101   1       3.563246816980552      3.0561129743644528      12.659396697156808
   102   1      14.465870040644859      11.264679585517115      4.4668650653595137
   103   1      4.9573818295700107      12.595613047715915     0.47206015424841397
   104   1      13.141702749847695      12.597194838613291      3.1827416628629805
   105   1      7.6514559634577495      15.375431929158822      11.360776546114494
   106   1      7.6593216012092853       7.129200199862737      3.1544168982923395
   107   1      4.9567578738991074      15.350961380623971      8.6149832036363705
   108   1      15.802935011066779      4.5170511535416722      14.099561338155013
   109   1      11.753148295544179      3.0912146178443436      9.9879961973445006
   110   1       10.40541378049079      9.8754992287231289      14.071859069140601
   111   1      10.372843489151592      4.4784812510049505       8.657767483828593
   112   1      7.6676447415588314      7.1888278762351092      14.049744172280612
   113   1        14.4437648778827      13.954086219495366      1.7689962151089702
   114   1     0.89364870705769306      13.955412003619813      15.374350470889908
   115   1      14.468996632867857      3.0866449456180476      1.8382007836313932
   116   1      3.5931037285496359       3.136141616321396      7.2687715881884856
   117   1     0.86788157669188593     0.32885919461335789       7.278653644305507
   118   1      9.0143041255068965      8.5471910527090813      12.745613548456731
   119   1      9.0524364803461594     0.35137461917999602      9.9569307975298216
   120   1      11.733488338156917      5.8212713310655886      1.8085998788352384
   121   1       14.51372773262608      8.4870469824468273        1.77395074922822
   122   1      15.807383493775092      4.5065753174570204      8.6238412326616753
   123   1      6.3618977707902786      3.1095237258052464       4.492996250984163
   124   1      13.119840939531286       7.172873203186839       14.08291797768527
   125   1      13.091759040701504      4.4483196621737875      5.9182433870578848
   126   1      11.774993557894277      8.5240034582682256      4.5310001157320698
   127   1      3.6326285460834811      11.226321399608196      15.446900648836504
   128   1       2.195492912977528      1.7662905009408973      8.6167187932794604
   129   1      15.832323225825348      1.7900343990727379      11.337702840618249
   130   1      13.122878951464031      15.345337018897794     0.47040125104479102
   131   1      7.6798780690066906       4.422846014857555      5.8961026948386461
   132   1      9.0418107391549256      3.0828644653733193      7.2634499569048216
   133   1      13.117263350425901      9.8663589108607539      11.393089857270979
   134   1      4.9778453367331394      15.337118520099921      3.1865408812460316
   135   1      6.3040786897947214      3.1170557273536588      15.416683088942818
   136   1      10.390314247936885       1.706805185749289      11.359292096195418
   137   1      7.6895819911334229      7.1697475843736242      8.6079581052324556
   138   1      2.2227564175322527      4.4922214167968946     0.39939164617507217
   139   1      9.0226345664298151      13.937530465906093      12.715827209096915
   140   1      3.5981131386454024       8.521181543307307      1.8448322594543072
   141   1      11.753845256948807     0.37019619697259287      1.7836717060261549
   142   1      7.6564602631521552       4.467516276504341      0.4335156820422732
   143   1      4.9498067546387006      1.7729003183961396      11.344209111607825
   144   1      7.6777214796324529       1.731327690031307      14.092747469674009
   145   1      2.1701604100798306      4.4676501203495036      5.8637665085522599
   146   1      3.5653077688436099      8.4860141946670637      7.2248532855990675
   147   1      6.2786021222491399     0.39252028567875996      1.7848610911047587
   148   1      6.3076136274216879      13.950927504749529      15.444755253674771
   149   1      11.746571939050227      8.5547826756067025       9.948597436377554
   150   1     0.87909294554381745      8.5285229998906971      4.5069218513397686
   151   1      11.762925223404636       13.95426922053457      4.5072031667670558
   152   1      14.507791879769343     0.31688433788194104      9.9889949157818592
   153   1      14.438843318019849      5.8055162070228334      15.462877223604892
   154   1      8.9861394868455591      5.8490504994528578      15.396334930838975
   155   1     0.84643608157204397      5.7516428425826689      1.8234419445015391
   156   1      9.0195186817144304      5.8203246900516206      4.5277075571410705
   157   1      4.9673777746316432      9.8324180585470913      8.5712644500524675
   158   1      4.9330022948498709      9.8874176581061874      3.1704165915430735
   159   1     0.90206207032650099      5.8529139628815869      12.743195598555758
   160   1      2.2469677957123793      15.647679070907543      11.526846095553083
   161   1       2.191862094486936      7.1478580318783997      3.1591559438208776
   162   1      14.418946822055318      11.201629887052604      9.9675945017025924
   163   1      14.502879080594539      3.0851412708557575      7.2579487315161941
   164   1      11.776136340979519      11.218244045228857      1.8050810024696915
   165   1       14.42008279127208     0.37936437869000628      15.466983066069588
   166   1      10.385020845536928      12.589325793927514     0.46707048611980895
   167   1      15.783035594872899      12.559789620881929      11.370336403593342
   168   1     0.86381984185798188      3.0776287375030051      4.5183574694704589
   169   1      11.776365092278525      8.5288870551495393      15.402604663251282
   170   1     0.85600348297671047      11.256067829166909      12.694606875827503
   171   1      10.367105238480804       1.705183606727033     0.47278650046086668
   172   1      10.378226445251585      4.4518653073083669      14.056567774859445
   173   1      10.360074299618191      9.9122911982912001      8.6093296396167034
   174   1      14.457852064262283      8.5313205796070406      7.2416903546156277
   175   1      6.3398914091210941      13.942898820859341      4.5260128507088666
   176   1      11.760393384559052      3.1090097654398221      15.464043368524926
   177   1      3.5351763557157199      3.1545122924510736      1.7571296197968564
   178   1      7.6775813086237008      9.8788526254255657      5.8551669198243417
   179   1      6.3019167466666772      0.3711234002099566      12.718047556811939
   180   1      9.0158995441412344      11.230212118510849      9.9812222386645999
   181   1      2.2224909200139393      1.7628951259415686      3.1636920334096601
   182   1      6.3058162262573774      11.229740988175877      7.2552080962721561
   183   1      15.805970102770175      15.333568494621318      8.5807668763541187
   184   1      15.799127031995681      12.590651578051961      5.8702382234945389
   185   1       2.209158126216181      7.2089876795459418      8.6081099571586037
   186   1      2.2209925990054558      12.587079164148349      3.1328833704252474
   187   1      14.472903899736821      11.195862434088326      15.413967275648247
   188   1      6.2537100872782503      5.8149646090815281      1.7227940498161871
   189   1      14.458278417747238      13.963133090018573      12.700880501878942
   190   1      4.9276694693537024      7.1670463722257978      5.8940638880481515
   191   1      2.2021043122236676      4.4642699548780342      11.352630079640562
   192   1       13.13040827613554      9.8897762300103977      5.8755564478439624
   193   1      8.9995044031661564      8.5348268016454085      7.2493067994627154
   194   1      10.380976327888561      7.1667329342756716     0.44513947245163976
   195   1      15.791409839236053      15.335498766221008      14.083312208647385
   196   1      4.9476238832003219      4.4798566790283303      14.034896752860504
   197   1     0.86178450283983921      3.1410987056413262      9.9999409087917002
   198   1      13.133682826645554      9.8634250537747903     0.43712742778492952
   199   1      4.9829372433080152      4.5121179127614255      8.6025410797900577
   200   1      10.417888026859941      9.8880805501684108      3.1664806090855109
   201   1      9.0460577260381569      11.255024333879533      4.5168043941616816
   202   1      4.9302957289482379      9.8238374513099416      14.040930920105325
   203   1      11.739832049712732      5.8133706505618647      7.2712635172329669
   204   1      13.103005817334292      4.4717462287163698      11.335646025746769
   205   1      2.2477876501021115      9.8769243006454417      11.390340948043786
   206   1       11.73244484286954     0.36452775803467929      12.671232386708311
   207   1      2.2267186820539564      12.562069346593717      8.6265852748399539
   208   1      15.861014479179289       7.203886038873236      11.377987404487726
   209   1      9.0517249177947861      11.193496074905852      15.433236895712525
   210   1      4.9530778982144739      15.340961541923207      14.080892311926846
   211   1      15.832301810810122      15.315566254094506      3.1559157060057146
   212   1      13.088548735237168      1.7361823279715765      3.1664124704007008
   213   1      2.1752829790628709      14.992842948048292      11.241261292957688
   214   1      4.9433953911029676      12.561403534302144      11.354550617142422
   215   1      3.5797687445798658      11.194715757363952      10.008097109363462
   216   1      3.6159216706253972     0.41506442583399661      9.9214743461840271

Velocities

     1                       0                       0                       0
     2                       0                       0                       0
     3                       0                       0                       0
     4                       0                       0                       0
     5                       0                       0                       0
     6                       0                       0                       0
     7                       0                       0                       0
     8                       0                       0                       0
     9                       0                       0                       0
    10                       0                       0                       0
    11                       0                       0                       0
    12                       0                       0                       0
    13                       0                       0                       0
    14                       0                       0                       0
    15                       0                       0                       0
    16                       0                       0                       0
    17                       0                       0                       0
    18                       0                       0                       0
    19                       0                       0                       0
    20                       0                       0                       0
    21                       0                       0                       0
    22                       0                       0                       0
    23                       0                       0                       0
    24                       0                       0                       0
    25                       0                       0                       0
    26                       0                       0                       0
    27                       0                       0                       0
    28                       0                       0                       0
    29                       0                       0                       0
    30                       0                       0                       0
    31                       0                       0                       0
    32                       0                       0                       0
    33                       0                       0                       0
    34                       0                       0                       0
    35                       0                       0                       0
    36                       0                       0                       0
    37                       0                       0                       0
    38                       0                       0                       0
    39                       0                       0                       0
    40                       0                       0                       0
    41                       0                       0                       0
    42                       0                       0                       0
    43                       0                       0                       0
    44                       0                       0                       0
    45                       0                       0                       0
    46                       0                       0                       0
    47                       0                       0                       0
    48                       0                       0                       0
    49                       0                       0                       0
    50                       0                       0                       0
    51                       0                       0                       0
    52                       0                       0                       0
    53                       0                       0                       0
    54                       0                       0                       0
    55                       0                       0                       0
    56                       0                       0                       0
    57                       0                       0                       0
    58                       0                       0                       0
    59                       0                       0                       0
    60                       0                       0                       0
    61                       0                       0                       0
    62                       0                       0                       0
    63                       0                       0                       0
    64                       0                       0                       0
    65                       0                       0                       0
    66                       0                       0                       0
    67                       0                       0                       0
    68                       0                       0                       0
    69                       0                       0                       0
    70                       0                       0                       0
    71                       0                       0                       0
    72                       0                       0                       0
    73                       0                       0                       0
    74                       0                       0                       0
    75                       0                       0                       0
    76                       0                       0                       0
    77                       0                       0                       0
    78                       0                       0                       0
    79                       0                       0                       0
    80                       0                       0                       0
    81                       0                       0                       0
    82                       0                       0                       0
    83                       0                       0                       0
    84                       0                       0                       0
    85                       0                       0                       0
    86                       0                       0                       0
    87                       0                       0                       0
    88                       0                       0                       0
    89                       0                       0                       0
    90                       0                       0                       0
    91                       0                       0                       0
    92                       0                       0                       0
    93                       0                       0                       0
    94                       0                       0                       0
    95                       0                       0                       0
    96                       0                       0                       0
    97                       0                       0                       0
    98                       0                       0                       0
    99                       0                       0                       0
   100                       0                       0                       0
   101                       0                       0                       0
   102                       0                       0                       0
   103                       0                       0                       0
   104                       0                       0                       0
   105                       0                       0                       0
   106                       0                       0                       0
   107                       0                       0                       0
   108                       0                       0                       0
   109                       0                       0                       0
   110                       0                       0                       0
   111                       0                       0                       0
   112                       0                       0                       0
   113                       0                       0                       0
   114                       0                       0                       0
   115                       0                       0                       0
   116                       0                       0                       0
   117                       0                       0                       0
   118                       0                       0                       0
   119                       0                       0                       0
   120                       0                       0                       0
   121                       0                       0                       0
   122                       0                       0                       0
   123                       0                       0                       0
   124                       0                       0                       0
   125                       0                       0                       0
   126                       0                       0                       0
   127                       0                       0                       0
   128                       0                       0                       0
   129                       0                       0                       0
   130                       0                       0                       0
   131                       0                       0                       0
   132                       0                       0                       0
   133                       0                       0                       0
   134                       0                       0                       0
   135                       0                       0                       0
   136                       0                       0                       0
   137                       0                       0                       0
   138                       0                       0                       0
   139                       0                       0                       0
   140                       0                       0                       0
   141                       0                       0                       0
   142                       0                       0                       0
   143                       0                       0                       0
   144                       0                       0                       0
   145                       0                       0                       0
   146                       0                       0                       0
   147                       0                       0                       0
   148                       0                       0                       0
   149                       0                       0                       0
   150                       0                       0                       0
   151                       0                       0                       0
   152                       0                       0                       0
   153                       0                       0                       0
   154                       0                       0                       0
   155                       0                       0                       0
   156                       0                       0                       0
   157                       0                       0                       0
   158                       0                       0                       0
   159                       0                       0                       0
   160                       0                       0                       0
   161                       0                       0                       0
   162                       0                       0                       0
   163                       0                       0                       0
   164                       0                       0                       0
   165                       0                       0                       0
   166                       0                       0                       0
   167                       0                       0                       0
   168                       0                       0                       0
   169                       0                       0                       0
   170                       0                       0                       0
   171                       0                       0                       0
   172                       0                       0                       0
   173                       0                       0                       0
   174                       0                       0                       0
   175                       0                       0                       0
   176                       0                       0                       0
   177                       0                       0                       0
   178                       0                       0                       0
   179                       0                       0                       0
   180                       0                       0                       0
   181                       0                       0                       0
   182                       0                       0                       0
   183                       0                       0                       0
   184                       0                       0                       0
   185                       0                       0                       0
   186                       0                       0                       0
   187                       0                       0                       0
   188                       0                       0                       0
   189                       0                       0                       0
   190                       0                       0                       0
   191                       0                       0                       0
   192                       0                       0                       0
   193                       0                       0                       0
   194                       0                       0                       0
   195                       0                       0                       0
   196                       0                       0                       0
   197                       0                       0                       0
   198                       0                       0                       0
   199                       0                       0                       0
   200                       0                       0                       0
   201                       0                       0                       0
   202                       0                       0                       0
   203                       0                       0                       0
   204                       0                       0                       0
   205                       0                       0                       0
   206                       0                       0                       0
   207                       0                       0                       0
   208                       0                       0                       0
   209                       0                       0                       0
   210                       0                       0                       0
   211                       0                       0                       0
   212                       0                       0                       0
   213                       0                       0                       0
   214                       0                       0                       0
   215                       0                       0                       0
   216                       0                       0                       0
