(written by ASE)

64 atoms
1 atom types

0.0      10.887404441833496  xlo xhi
0.0      10.887404441833496  ylo yhi
0.0      10.887404441833496  zlo zhi

Atoms # atomic

     1   1       5.443702220916748       5.443702220916748       5.443702220916748
     2   1      6.8046277761459351      6.8046277761459351       4.082776665687561
     3   1      6.8046277761459351       4.082776665687561      6.8046277761459351
     4   1       4.082776665687561      6.8046277761459351      6.8046277761459351
     5   1       4.082776665687561       4.082776665687561       4.082776665687561
     6   1      8.1688772014111919    0.022310380503143712      2.7212521389544122
     7   1      4.0767558015339773      9.5812461672942959      9.5876797572079226
     8   1    0.020385831432117585      10.884001401132764      5.4116867722190705
     9   1      1.4359082864128538      6.8103053511060239      4.1565176504217902
    10   1      6.7833088033960394      6.7870810908852377      9.5059003542509686
    11   1      9.5006815797819968      9.5824045249698884      9.5181594774160203
    12   1   0.0094942463877980554      5.5250448873383107      5.4652009500118197
    13   1      4.1430190520968608      1.4004485893324272      6.7773190883564212
    14   1      9.5230382073908686      4.1428087955775936      4.0674535729060892
    15   1      1.3605299452583282      9.5683627639701854      6.7873140603001048
    16   1      6.7667692728202269       9.528449717002502      6.8005154441626132
    17   1    0.018184731310331492      8.1925544216642265       8.159303391445917
    18   1      6.8602516574699735      1.3849051814636368       9.578466108872874
    19   1      9.5740799242626053       4.092627248509217      9.5173424621142999
    20   1        9.57358348525878      1.3783792798528935      1.4023000147937523
    21   1      8.1041707576067097      5.4564370170096481      2.7533977000968832
    22   1      4.0981938547508037      1.4102798661928233      1.3381935970205276
    23   1      1.3349231022891175      9.4838286112469063      1.3337629600288707
    24   1    0.016637206166577378      2.7148904191318621      8.1419267284322814
    25   1       4.069880608035902      9.5363791133263476      4.0726613153971982
    26   1      10.885127960754517      5.4968912798324823    0.014552813825306599
    27   1      1.3966388255654891      6.8331259707250069      9.4999210222493389
    28   1      2.7311679402334335    0.011216096807663112      2.6544783349454377
    29   1      5.4662353601714244      10.864868057879448       5.403612337833323
    30   1      2.7072854927451573      8.2083846609574493    0.021339201422539311
    31   1      5.4620380170645717      2.7109348061281793        8.16565456599551
    32   1      6.8030125647988484      1.3600910996683453      4.0802188691730805
    33   1      9.5008840490227726      6.7580974892802033      1.3601795988437004
    34   1      2.7609630411512569      8.1591249329804896      5.4593202568710808
    35   1      2.7459494926898174      2.7553068812070194       5.401940993187111
    36   1      1.3296672571298274      4.0738900830491502      6.8371175998917124
    37   1      8.1728285963056919      8.1893434671662817      10.878899435841163
    38   1       6.824541145128137      9.4719575541266749      1.3790606667208891
    39   1    0.036437104462871295      2.6932096624020545         2.7517003978557
    40   1      6.7636309995882016      4.0874749903773591      1.3739226852662654
    41   1      9.4524796238001159       9.517905092985302      4.0610728715922164
    42   1      8.2291740987699313      2.7481763298684143    0.018736207259783644
    43   1      8.1511462172261986      8.1552884004437374      5.4336404081660135
    44   1   0.0033135814239028671      8.1370843390903929      2.8006914647247072
    45   1      9.5189258754075468      6.8031001716818764       6.862380829197491
    46   1        4.08843607033117      4.0315350753345456      9.5190939508349857
    47   1      5.5125060710874436  0.00091630310248547175      10.875846173732668
    48   1      5.4591119471714364      5.4294862195608005      10.850473273588136
    49   1      2.7413248226757503       2.769605946866875    0.026190670852825004
    50   1      1.3627990446462377      4.1091998750186178      1.3810402578073848
    51   1      8.1936478853523909      2.7649433138701625      5.4135573414066869
    52   1      8.1395840554861252      5.4466802059998258      8.1651393077353305
    53   1       5.412262057417621      8.1428092866613042      2.7332448723010714
    54   1      2.7475325815131271    0.020686185394672485      8.1842064591214694
    55   1      5.4024046607272851      2.7267220531547309      2.7282428437501096
    56   1      2.7458742156644007      5.4169263127640193      2.7267207552749824
    57   1      8.1775665063278211    0.017593799309538749       8.127038100896641
    58   1      5.3968776398180296       8.213709212625929      8.2009160119443436
    59   1      1.4124768521372033      1.3687749697135274      4.0912852408492029
    60   1      4.0635566889610288      6.8036718877111184      1.2951679099458531
    61   1      10.845278509894513   0.0027131298427180151    0.024292027410881767
    62   1      2.7096870569849045      5.4287340982465082      8.1684729118695145
    63   1      1.3615386411754145      1.3497005988712871      9.5684873604260474
    64   1      9.5400904004673635      1.3762845019387129      6.7629599957581945

Velocities

     1                       0                       0                       0
     2                       0                       0                       0
     3                       0                       0                       0
     4                       0                       0                       0
     5                       0                       0                       0
     6                       0                       0                       0
     7                       0                       0                       0
     8                       0                       0                       0
     9                       0                       0                       0
    10                       0                       0                       0
    11                       0                       0                       0
    12                       0                       0                       0
    13                       0                       0                       0
    14                       0                       0                       0
    15                       0                       0                       0
    16                       0                       0                       0
    17                       0                       0                       0
    18                       0                       0                       0
    19                       0                       0                       0
    20                       0                       0                       0
    21                       0                       0                       0
    22                       0                       0                       0
    23                       0                       0                       0
    24                       0                       0                       0
    25                       0                       0                       0
    26                       0                       0                       0
    27                       0                       0                       0
    28                       0                       0                       0
    29                       0                       0                       0
    30                       0                       0                       0
    31                       0                       0                       0
    32                       0                       0                       0
    33                       0                       0                       0
    34                       0                       0                       0
    35                       0                       0                       0
    36                       0                       0                       0
    37                       0                       0                       0
    38                       0                       0                       0
    39                       0                       0                       0
    40                       0                       0                       0
    41                       0                       0                       0
    42                       0                       0                       0
    43                       0                       0                       0
    44                       0                       0                       0
    45                       0                       0                       0
    46                       0                       0                       0
    47                       0                       0                       0
    48                       0                       0                       0
    49                       0                       0                       0
    50                       0                       0                       0
    51                       0                       0                       0
    52                       0                       0                       0
    53                       0                       0                       0
    54                       0                       0                       0
    55                       0                       0                       0
    56                       0                       0                       0
    57                       0                       0                       0
    58                       0                       0                       0
    59                       0                       0                       0
    60                       0                       0                       0
    61                       0                       0                       0
    62                       0                       0                       0
    63                       0                       0                       0
    64                       0                       0                       0
