(written by ASE)

8 atoms
1 atom types

0.0       5.443702220916748  xlo xhi
0.0       5.443702220916748  ylo yhi
0.0       5.443702220916748  zlo zhi

Atoms # atomic

     1   1      4.2994262161262498      1.1300557853253679      4.8569080736958199
     2   1      1.5509171423372976      1.1480820371531593      2.1956278754581007
     3   1      2.7708567784745526      5.2325949414743604     0.73122326016831352
     4   1      0.1296544554771657      5.2074829151592894      3.4530136136309579
     5   1      1.4639739625657171      3.8167940570661187       4.839793582391394
     6   1      2.9171920711851556      2.5153689877349592      3.5007003113526594
     7   1     0.14987005806612874      2.4258547081814754     0.76259228363372245
     8   1      4.2277547006511043      3.8687004863203356      2.0918875359806179

Velocities

     1                       0                       0                       0
     2                       0                       0                       0
     3                       0                       0                       0
     4                       0                       0                       0
     5                       0                       0                       0
     6                       0                       0                       0
     7                       0                       0                       0
     8                       0                       0                       0
