(written by ASE)

8 atoms
1 atom types

0.0       5.443702220916748  xlo xhi
0.0       5.443702220916748  ylo yhi
0.0       5.443702220916748  zlo zhi

Atoms # atomic

     1   1      3.2024413802040783      3.6214508250497772      5.1819529715651811
     2   1     0.43094170510782348     0.84343932222630258      5.1024529699166408
     3   1     0.42068740056688014      3.5296556840731625      2.3749202286239637
     4   1      1.8061451948922098      4.9269848194299186      3.7613304638910279
     5   1      4.5760666887729542      4.9571228850712998      1.0669861301187922
     6   1      3.2052435025812258      0.8582980174102417      2.3638533702429356
     7   1      1.7597591349135371      2.2430840372894636      1.0100182943151168
     8   1      4.4845064640308294       2.233026767117849      3.7835884526390089

Velocities

     1                       0                       0                       0
     2                       0                       0                       0
     3                       0                       0                       0
     4                       0                       0                       0
     5                       0                       0                       0
     6                       0                       0                       0
     7                       0                       0                       0
     8                       0                       0                       0
