(written by ASE)

8 atoms
1 atom types

0.0       5.443702220916748  xlo xhi
0.0       5.443702220916748  ylo yhi
0.0       5.443702220916748  zlo zhi

Atoms # atomic

     1   1      2.8139626096237009      5.0021456846090757      4.5797302788332104
     2   1      2.7949181711331619      2.1996678506454401      1.8604836885602651
     3   1      1.4013679748993155     0.78732484235730738      3.1812181260856391
     4   1      0.1863602209684867      2.2848558102920578      4.5096155701164662
     5   1      4.1171549044674975       3.569783205669296      3.2224128293050285
     6   1      1.4812222977192135      3.6082140739641204     0.49573701311634011
     7   1      5.4382498280930349      4.8850493513440369      1.8419564551495284
     8   1      4.2472073223225664     0.92809320435638654     0.41460460321404469

Velocities

     1                       0                       0                       0
     2                       0                       0                       0
     3                       0                       0                       0
     4                       0                       0                       0
     5                       0                       0                       0
     6                       0                       0                       0
     7                       0                       0                       0
     8                       0                       0                       0
