(written by ASE)

8 atoms
1 atom types

0.0       5.443702220916748  xlo xhi
0.0       5.443702220916748  ylo yhi
0.0       5.443702220916748  zlo zhi

Atoms # atomic

     1   1       2.721851110458374       2.721851110458374       2.721851110458374
     2   1       1.360925555229187       4.082776665687561       4.082776665687561
     3   1       4.082776665687561       4.082776665687561       1.360925555229187
     4   1       1.360925555229187       1.360925555229187       1.360925555229187
     5   1       4.082776665687561       1.360925555229187       4.082776665687561
     6   1      5.4195678225222821      5.4429072695707532      2.7100136359766367
     7   1    0.025036526216572597      2.7308817577488753      5.3979837578337424
     8   1      2.7056813133759334     0.02019010888460504    0.015909151395903987

Velocities

     1                       0                       0                       0
     2                       0                       0                       0
     3                       0                       0                       0
     4                       0                       0                       0
     5                       0                       0                       0
     6                       0                       0                       0
     7                       0                       0                       0
     8                       0                       0                       0
