(written by ASE)

8 atoms
1 atom types

0.0       5.443702220916748  xlo xhi
0.0       5.443702220916748  ylo yhi
0.0       5.443702220916748  zlo zhi

Atoms # atomic

     1   1       2.721851110458374       2.721851110458374       2.721851110458374
     2   1       1.360925555229187       1.360925555229187       1.360925555229187
     3   1       4.082776665687561       1.360925555229187       4.082776665687561
     4   1       1.360925555229187       4.082776665687561       4.082776665687561
     5   1       4.082776665687561       4.082776665687561       1.360925555229187
     6   1      5.4265656656565966      5.4286007411023434      2.7693544826655909
     7   1    0.022165960962059472      2.7097337806558528      5.4351573051221465
     8   1      2.6645336582974295      5.4403355208489756    0.032657090533294797

Velocities

     1                       0                       0                       0
     2                       0                       0                       0
     3                       0                       0                       0
     4                       0                       0                       0
     5                       0                       0                       0
     6                       0                       0                       0
     7                       0                       0                       0
     8                       0                       0                       0
