(written by ASE)

8 atoms
1 atom types

0.0       5.443702220916748  xlo xhi
0.0       5.443702220916748  ylo yhi
0.0       5.443702220916748  zlo zhi

Atoms # atomic

     1   1       2.721851110458374       2.721851110458374       2.721851110458374
     2   1       1.360925555229187       1.360925555229187       1.360925555229187
     3   1       4.082776665687561       1.360925555229187       4.082776665687561
     4   1       1.360925555229187       4.082776665687561       4.082776665687561
     5   1       4.082776665687561       4.082776665687561       1.360925555229187
     6   1       5.432747142429065    0.030675025363528396      2.6843660720303149
     7   1      5.4271935149849639       2.727144188542951      5.4250812156941777
     8   1      2.7079115574888704    0.048299494686891098      5.4299881745535572

Velocities

     1                       0                       0                       0
     2                       0                       0                       0
     3                       0                       0                       0
     4                       0                       0                       0
     5                       0                       0                       0
     6                       0                       0                       0
     7                       0                       0                       0
     8                       0                       0                       0
