(written by ASE)

64 atoms
1 atom types

0.0      10.887404441833496  xlo xhi
0.0      10.887404441833496  ylo yhi
0.0      10.887404441833496  zlo zhi

Atoms # atomic

     1   1      8.5021850506997794      4.1571811914432431      1.6864156258523053
     2   1      1.6555726492724858      5.5521751166623972      5.6831571408873742
     3   1      8.4862730449823971      6.9789946756660015        4.34663075152136
     4   1      5.8485628296834875      1.3864180225455556      1.6790027856683878
     5   1      1.7469633384724546    0.081802065154126247     0.25010903231224013
     6   1      9.8042199612777949      5.5897805334371355      3.0233891347916995
     7   1      1.7435583509520995     0.13008711585897181      5.7893691301110266
     8   1      9.8637335882082766      5.5121348774793546       8.455420496539432
     9   1      4.4365163869179014      5.4704067456833059      2.9985879506764093
    10   1     0.27594923000436822       9.620911968169878      9.8134212797552323
    11   1      4.3846011969753818      8.1755755587935255     0.31681232494799971
    12   1      5.7711105578082424      4.2079338056009874      4.3400861928892311
    13   1       5.803146772581897      6.8898848478891637      1.6875636004899093
    14   1      3.0357391095391506      1.4812396568608506      4.3331302063768078
    15   1      9.7827056576257405    0.019235759147068432      8.4717990900264226
    16   1      1.6327260720585315      5.5459868260212488     0.14489956393718284
    17   1      9.8839565015105109       8.259160961420605      5.7472075064789578
    18   1     0.30995939819936069       4.197727279258288      4.3222598145427185
    19   1     0.32369863154142209      6.8825674018667655      1.6202820010293095
    20   1      7.0806167131588609      2.7219961485202759      3.0369033076736116
    21   1        7.10712590702326      8.3241185449564341      8.4518286143352839
    22   1      5.7594101718749471      9.5915863752510973      9.8927801369811164
    23   1      3.0373147355539061       4.180347371545281      7.0650609754324591
    24   1      1.5894732560278584      2.8307970833723743       8.521530597291985
    25   1      1.7561099837654837      8.3213190183387837      8.4433203636435792
    26   1      9.8729264704673483      2.8436749707075535     0.35608628781574225
    27   1      5.8552618360056954       4.211757359340254      9.8343431013020677
    28   1       5.721846936192037      9.6783736472178816      4.3152204392564499
    29   1     0.30150466476791316      1.5054050421343135      1.5625897860909674
    30   1      7.1419025948860053      0.1025781794198144      5.7072685019163032
    31   1      4.4870454412889558     0.14022204588210396      8.4263557774501123
    32   1      4.3696181486880334      8.2784837951172108      5.7328263499250056
    33   1      1.6942355135723659        8.33244509248334       3.067602057366372
    34   1     0.24438104283566808      9.7019042070593287      4.3229424992904626
    35   1      9.7978077863800195    0.098184968007469564      2.9256776089812604
    36   1      8.4699197601505034      9.5993230364322812       1.753681001816048
    37   1      0.2741186517365044      1.3528211884917383      7.1797838111073133
    38   1      8.4749678634325392      6.9239022760989997      9.7895214731253191
    39   1      4.5111039137181308      5.5686620831083928      8.3705579802397665
    40   1     0.29933398116781262       4.234294392234176      9.8136484087112308
    41   1      7.1006468913184335      8.2053787714597775      3.0250147291767746
    42   1       7.164127487700398      2.8432583513082648      8.4876747551108451
    43   1      9.9390969226282095       2.795497025501021      5.7421853607918933
    44   1      3.0749175565691473       9.693165582712254      7.0716061830044623
    45   1       8.532826693683603      1.4581557298878778      9.8725805855143562
    46   1     0.31038039794280081      6.9676609407616752      7.1299802715157057
    47   1      4.4501749489218412      2.8028706048225445      5.7670280770591376
    48   1      5.8762712644355588      1.5107313783874474      7.1029954047234583
    49   1      8.4947981681108331       1.412256050344979       4.399436611441331
    50   1      3.0796976476831048      6.8962762567109621      4.3791650276485257
    51   1      4.4411735039256826       2.835028820292564     0.26640541322890776
    52   1      1.7168661560431531      2.7895751246782652      2.9516864702025885
    53   1      7.1822173356358689      5.6094654755835904      5.7669625341318351
    54   1      7.1692086869160221   0.0070732329637327451     0.30067586715160033
    55   1      3.0174166166587497      4.1209349792351873       1.532704807000556
    56   1      2.9986294828283633      9.5837802775033651      1.5849553366231106
    57   1         3.2043862530073      1.3836429934081593      9.8135134292173802
    58   1      5.8406366780590133      6.8925279799971122      7.1072939824506989
    59   1      9.8883653990163793      8.2434131374914159     0.27152980750491373
    60   1      7.1190170812795941      5.6134103810793476     0.29452736463649387
    61   1        8.51834689826876       4.152086364490259      7.0786718403556392
    62   1      8.4416220879925845      9.6498910271957925      7.0406069741499095
    63   1      4.3297177560478985    0.059128323949969808      2.9765029044049243
    64   1      3.0566460054688775      6.8765381014948161      9.7198376604850978

Velocities

     1                       0                       0                       0
     2                       0                       0                       0
     3                       0                       0                       0
     4                       0                       0                       0
     5                       0                       0                       0
     6                       0                       0                       0
     7                       0                       0                       0
     8                       0                       0                       0
     9                       0                       0                       0
    10                       0                       0                       0
    11                       0                       0                       0
    12                       0                       0                       0
    13                       0                       0                       0
    14                       0                       0                       0
    15                       0                       0                       0
    16                       0                       0                       0
    17                       0                       0                       0
    18                       0                       0                       0
    19                       0                       0                       0
    20                       0                       0                       0
    21                       0                       0                       0
    22                       0                       0                       0
    23                       0                       0                       0
    24                       0                       0                       0
    25                       0                       0                       0
    26                       0                       0                       0
    27                       0                       0                       0
    28                       0                       0                       0
    29                       0                       0                       0
    30                       0                       0                       0
    31                       0                       0                       0
    32                       0                       0                       0
    33                       0                       0                       0
    34                       0                       0                       0
    35                       0                       0                       0
    36                       0                       0                       0
    37                       0                       0                       0
    38                       0                       0                       0
    39                       0                       0                       0
    40                       0                       0                       0
    41                       0                       0                       0
    42                       0                       0                       0
    43                       0                       0                       0
    44                       0                       0                       0
    45                       0                       0                       0
    46                       0                       0                       0
    47                       0                       0                       0
    48                       0                       0                       0
    49                       0                       0                       0
    50                       0                       0                       0
    51                       0                       0                       0
    52                       0                       0                       0
    53                       0                       0                       0
    54                       0                       0                       0
    55                       0                       0                       0
    56                       0                       0                       0
    57                       0                       0                       0
    58                       0                       0                       0
    59                       0                       0                       0
    60                       0                       0                       0
    61                       0                       0                       0
    62                       0                       0                       0
    63                       0                       0                       0
    64                       0                       0                       0
