(written by ASE)

64 atoms
1 atom types

0.0      10.887404441833496  xlo xhi
0.0      10.887404441833496  ylo yhi
0.0      10.887404441833496  zlo zhi

Atoms # atomic

     1   1      1.2892622326199543      6.6990978227301525      8.7548192905771884
     2   1      10.874403580392141      5.2780363072310479      7.4305432636879232
     3   1      10.821530555195181      10.815483084506752      1.9271573935936317
     4   1       6.801577758736812      1.1706733376440681      8.9400728054282013
     5   1      8.1549600368673509      10.726617258122644      10.225774548310426
     6   1      2.5544938972253277      8.0474689871514897      1.9817089017754199
     7   1      5.4203572578793455      8.1004361086302197       10.20664574763623
     8   1      9.4354073135875183      1.2521879731323153      6.1308062492047384
     9   1      8.0996872320152988      2.6531509284325949      7.5173240462559647
    10   1      4.0375234924944152      3.9989936608687628      8.8841445713031248
    11   1      9.4502265045566105       6.730596715287902     0.60912360047256442
    12   1      6.7513647380845327       3.978626358444501     0.66025633116166915
    13   1      5.4119544599172116      2.5909289509367994      10.200979204654004
    14   1      6.8314945358810633      6.7184161138476384      3.4246361218685024
    15   1      1.2973996141735071      1.2881696612241171      3.3581882479113858
    16   1      9.5387230841522523      9.3795472181492414      8.9132735354399983
    17   1      1.2763757468314409      9.4568619147711388      6.1061374488238016
    18   1      1.2726566724119337      3.8147223165174751      6.1971635960493927
    19   1      3.9909455085479237      1.1876946249590503     0.66995542708142253
    20   1      9.4694163055789886       6.684845156271308      6.0707689277957115
    21   1      1.2459349507387074      1.2871698071128179      8.8133945504494591
    22   1      8.1255559222237821      5.3065971245079879       4.697312668064086
    23   1      7.9730939881600875       5.366618871360032      10.203685283929758
    24   1   0.0032071489472172421      5.2868764906684476      2.0198813297653118
    25   1      5.4409591520681602      2.5918079399965137      4.6432906948197115
    26   1      2.6369303518049918      5.2089397851770514       4.787215824837233
    27   1      5.3553247217880369      10.880628860606123      7.4639104541437291
    28   1      4.0410472360117637      6.6661777518477265      6.1238879012050234
    29   1      8.2057992844983119      8.0361962525953459      1.9952972160379687
    30   1      2.6727297689096048      10.725459549386926      4.7371332410996843
    31   1      2.6149820696120116      2.6370392114689025      1.9868691094207378
    32   1      3.9914711498460917      3.8768041230004258      3.3614339206926047
    33   1      2.6674102465251508      5.3637200569416166      10.161927300899492
    34   1      2.6929981080030387      2.6340229389332421      7.5329115820362063
    35   1      10.857392270527725      2.5261834085048918      4.7662699925150491
    36   1      4.0390968472196107      9.4266109335916326      8.7138348438770663
    37   1      8.2137520426576316      10.770618626298301      4.7885211673943502
    38   1      4.0213882514602801      6.7189729042597719     0.63730235439852123
    39   1    0.022545877234630529      7.9944155566694803      10.219391575706993
    40   1      9.5607532950043606      9.4313339179966533      3.3166398724605131
    41   1      2.6450438848181648      8.0431321219716665      7.4327924892921828
    42   1      5.3482194791045288      10.740839424407397      2.0997471712679783
    43   1      9.4574277903415123       3.995457587493803      8.8371639201646417
    44   1      6.6756120397400309      6.7632507208218726      8.8096488694951063
    45   1      9.4568099995811963      1.3178958122802982      0.5927357190336231
    46   1      1.3355999465779931      9.4715286048697749     0.56386357285199651
    47   1      6.7196335250517905      9.4596796117052691     0.73994639107588966
    48   1  0.00012459645586204715       2.729705229756803      10.314693587764225
    49   1      6.7633798598568546      3.9469185072472328      6.1384046861927004
    50   1      5.3518934522027735      8.0110881199195205      4.6533398532428976
    51   1      5.3509823406192822      5.3538710964696463      7.5936536521487028
    52   1      5.3153347754452511      5.3678560752303497      2.1177124227475872
    53   1      1.3803275595904552      4.0407935005209197     0.59958860522351998
    54   1      6.7388745923242368        9.47272524999795      6.1353527219639545
    55   1      1.2837105519954761      6.7277147733062179      3.3562514868565927
    56   1      10.801219386070045      10.786557887490403      7.5240503080528924
    57   1      6.8299779633948674      1.2480945415228319      3.3805095082971093
    58   1      10.853149501629673       8.128103011230337      4.6748191141417408
    59   1       2.617781596229662      10.778771257938899      10.102777080298608
    60   1      9.5705860319794738      3.8571850482512104      3.4065183695184373
    61   1      4.0749803020379431      1.3248148092198875      6.0772057624087097
    62   1      3.9557674513729353      9.3743920397879492      3.3546518500664888
    63   1      8.2020438694458448      2.6997753115800975      2.0123391883114436
    64   1       8.159340381018751      8.0465390563116443        7.52552924202638

Velocities

     1                       0                       0                       0
     2                       0                       0                       0
     3                       0                       0                       0
     4                       0                       0                       0
     5                       0                       0                       0
     6                       0                       0                       0
     7                       0                       0                       0
     8                       0                       0                       0
     9                       0                       0                       0
    10                       0                       0                       0
    11                       0                       0                       0
    12                       0                       0                       0
    13                       0                       0                       0
    14                       0                       0                       0
    15                       0                       0                       0
    16                       0                       0                       0
    17                       0                       0                       0
    18                       0                       0                       0
    19                       0                       0                       0
    20                       0                       0                       0
    21                       0                       0                       0
    22                       0                       0                       0
    23                       0                       0                       0
    24                       0                       0                       0
    25                       0                       0                       0
    26                       0                       0                       0
    27                       0                       0                       0
    28                       0                       0                       0
    29                       0                       0                       0
    30                       0                       0                       0
    31                       0                       0                       0
    32                       0                       0                       0
    33                       0                       0                       0
    34                       0                       0                       0
    35                       0                       0                       0
    36                       0                       0                       0
    37                       0                       0                       0
    38                       0                       0                       0
    39                       0                       0                       0
    40                       0                       0                       0
    41                       0                       0                       0
    42                       0                       0                       0
    43                       0                       0                       0
    44                       0                       0                       0
    45                       0                       0                       0
    46                       0                       0                       0
    47                       0                       0                       0
    48                       0                       0                       0
    49                       0                       0                       0
    50                       0                       0                       0
    51                       0                       0                       0
    52                       0                       0                       0
    53                       0                       0                       0
    54                       0                       0                       0
    55                       0                       0                       0
    56                       0                       0                       0
    57                       0                       0                       0
    58                       0                       0                       0
    59                       0                       0                       0
    60                       0                       0                       0
    61                       0                       0                       0
    62                       0                       0                       0
    63                       0                       0                       0
    64                       0                       0                       0
