(written by ASE)

64 atoms
1 atom types

0.0      10.887404441833496  xlo xhi
0.0      10.887404441833496  ylo yhi
0.0      10.887404441833496  zlo zhi

Atoms # atomic

     1   1       10.51652297382401      10.054382389174066      10.844891741729441
     2   1      1.0568246239798711      6.0139789015175893      6.8432215283492042
     3   1       2.377733382978974      4.6158651978528269      8.0811294984304709
     4   1      0.9863671127745377      3.2244378461827239      4.1498089100014681
     5   1      10.604299230159199      4.6068510985291198      5.4163588148439601
     6   1      6.5080486258619317      3.3200604345378508      4.0040274874735644
     7   1      2.4591858824742587      1.9303691592664194       5.480674921314062
     8   1      5.0831700460223033        4.64989203569084      10.750881120022029
     9   1      9.1186312075962519      3.1627441057445935      6.7366104411028687
    10   1      10.636149848128809      1.8437300078259398      2.6131554661008778
    11   1       9.286789050399193     0.39732199592343775      4.0231562881477601
    12   1      1.0033992698324141      3.2883561525098912      9.4838357495855234
    13   1      2.3505223606405394       10.07916150933363      2.6368528034900152
    14   1      6.5331392371611514      8.7608894741612175       3.976560782824663
    15   1      5.0136861068633607      10.041288729330688      5.4161826276680927
    16   1      9.1173054234330948      8.6041101431139282      6.7359186711968846
    17   1      3.8007652421713658     0.52777898723137895      9.4981143736393392
    18   1       10.55410892240252      1.9078644111312428      8.0992946233913585
    19   1      1.0562336019893692      5.9144140034262023      1.2923696812079513
    20   1      5.0862904734077858      9.9807205751044989    0.005205581153764044
    21   1      9.2202616813074769      5.8866517066645656      9.5179946466879528
    22   1      9.2149559488953514      3.2301647405732581      1.3509434809655048
    23   1      6.3147437139907083     0.51493277627381318      6.8058146871759959
    24   1     0.93576626942989094      0.5292167135228496       1.294030723933659
    25   1      2.3856697554064681      7.3539346136492441      5.2889498535667769
    26   1      9.2583246006935838      8.6887546156158351       1.291708005888637
    27   1      10.392788959054883      7.2969602884468259        8.10742194637686
    28   1      9.2056605341361433     0.53011748262709446      9.4555880457979242
    29   1      9.3142301219230603       5.940106181988881      4.0183917715907853
    30   1      7.9138937991888838      7.2738203904096963       10.82390243043568
    31   1      6.5548962443261871      3.2844751675917507      9.5105376785925841
    32   1      3.6826851160569163      5.9892478029087215      9.4873289929287807
    33   1      5.1336442649739809      1.8747503072264067      2.6107208059275422
    34   1     0.88784392541634105      8.6817674799894462      9.4668270354806054
    35   1      10.542690825314537      7.4258890669095763      2.6468047831670276
    36   1      3.8783291317049873      6.0117608250272951      4.0039814127424904
    37   1     0.99709717136081366     0.51930865896357759       6.755768444071407
    38   1       7.867192841136216      10.072046532552008      8.0829744344930532
    39   1      2.3444740787772673      7.3343840020567654      10.785581232979609
    40   1      3.7037156350326939      8.7054096574892696      1.2735368782339123
    41   1      6.5451238587593821      8.7820806057558798        9.54039605114815
    42   1      5.0406054307283057      4.5118910777856343      5.3816635689354371
    43   1      3.7457270290838665      8.6805649944024026      6.7819324019226883
    44   1      5.1315618169174115      1.9868345533724323      8.1858716388388757
    45   1      6.4061118525300458       5.998864442905699      1.2404823145625414
    46   1      7.8098051412338805      4.6471947171033889      2.6596915934254781
    47   1       2.351685585365189      4.6479059552056015      2.6920540627209277
    48   1      5.0799136657331587      7.3491434905574238      8.1540670956003396
    49   1      7.8847421221564105      4.6213088299882372      8.1187822878160318
    50   1      7.8855026796890684       7.295556631498755      5.3422657802279332
    51   1      7.8546994506765486      1.8163611308630863      5.3537912768651097
    52   1      10.567283699730183      4.5883673440899599      10.819744672661159
    53   1      2.3139549231947143      9.9376439462496933      8.1061733860587424
    54   1      5.2034581900589956      7.4037615150763258      2.6586257096819708
    55   1      1.0618513933635398      8.7229686726075784      4.0268010589516621
    56   1      2.4094910403115932      1.9430246224596885      10.723560751314778
    57   1      7.8373915752895869      10.092305137547328      2.6164509450174478
    58   1      6.4503260729844669      5.9236477688973537      6.7651871574067286
    59   1      6.3863230800037059     0.53544844257683266      1.2147005011797276
    60   1      10.575967164187944      10.014946961953854      5.4143464522938132
    61   1      3.7565808729511616      0.5800670742491576      3.9712258481181948
    62   1        3.70958756748513      3.2953997459053426       1.273032489716627
    63   1      7.8074274255345131      1.8105531189882669      10.841050666613569
    64   1      3.7166269427713985      3.2183491678122778      6.7946412404206171

Velocities

     1                       0                       0                       0
     2                       0                       0                       0
     3                       0                       0                       0
     4                       0                       0                       0
     5                       0                       0                       0
     6                       0                       0                       0
     7                       0                       0                       0
     8                       0                       0                       0
     9                       0                       0                       0
    10                       0                       0                       0
    11                       0                       0                       0
    12                       0                       0                       0
    13                       0                       0                       0
    14                       0                       0                       0
    15                       0                       0                       0
    16                       0                       0                       0
    17                       0                       0                       0
    18                       0                       0                       0
    19                       0                       0                       0
    20                       0                       0                       0
    21                       0                       0                       0
    22                       0                       0                       0
    23                       0                       0                       0
    24                       0                       0                       0
    25                       0                       0                       0
    26                       0                       0                       0
    27                       0                       0                       0
    28                       0                       0                       0
    29                       0                       0                       0
    30                       0                       0                       0
    31                       0                       0                       0
    32                       0                       0                       0
    33                       0                       0                       0
    34                       0                       0                       0
    35                       0                       0                       0
    36                       0                       0                       0
    37                       0                       0                       0
    38                       0                       0                       0
    39                       0                       0                       0
    40                       0                       0                       0
    41                       0                       0                       0
    42                       0                       0                       0
    43                       0                       0                       0
    44                       0                       0                       0
    45                       0                       0                       0
    46                       0                       0                       0
    47                       0                       0                       0
    48                       0                       0                       0
    49                       0                       0                       0
    50                       0                       0                       0
    51                       0                       0                       0
    52                       0                       0                       0
    53                       0                       0                       0
    54                       0                       0                       0
    55                       0                       0                       0
    56                       0                       0                       0
    57                       0                       0                       0
    58                       0                       0                       0
    59                       0                       0                       0
    60                       0                       0                       0
    61                       0                       0                       0
    62                       0                       0                       0
    63                       0                       0                       0
    64                       0                       0                       0
