(written by ASE)

64 atoms
1 atom types

0.0      10.887404441833496  xlo xhi
0.0      10.887404441833496  ylo yhi
0.0      10.887404441833496  zlo zhi

Atoms # atomic

     1   1      7.3437761088572415      4.0003888815984681      9.8109514145937169
     2   1      0.4258631016516965      10.775882177618598      5.6902468090138996
     3   1      10.044676195474437      4.0060648342088712      6.9210183872976927
     4   1       5.970529781174946      8.1363549306717005      2.8539158908635898
     5   1      5.9099784993854882      5.3349434671564779     0.25378708156407015
     6   1      10.053176009947776      6.6145214889150452      9.7880996458607683
     7   1      8.6233284974907747     0.13117923096895989      8.4152374905840475
     8   1     0.42409924251465725      8.1862421835070904      2.8855260766097786
     9   1      7.2730468540795528      1.2865818675867189      1.6242145766674554
    10   1       1.780071277448485      9.3893066249185608      9.7042527204643534
    11   1     0.50302071426527561      2.7260802516190665      3.0696134465067075
    12   1      8.6830082530290724      5.3581463123614128      8.3912663005679633
    13   1      9.9525929251936418      4.0347950247929987      1.6585116979631067
    14   1     0.50411393460098708      5.4797144903001254      5.7191655166315059
    15   1      5.8336125528597904      2.6390543320135151      2.9096822144900329
    16   1      7.3304871181117051      6.7023237028452058      1.5913503146142176
    17   1      1.8628067310752243      1.3543504964229669      1.5764392986529145
    18   1      4.5918219755106975      9.4841238788897044      7.0727379341452092
    19   1      7.2256924135734835      1.3126931801906991      7.0265736493685722
    20   1      1.8846909304556192       6.793361530988534      7.0516610159684205
    21   1      3.2543770117526378      5.3729070987418197      2.9666201990594914
    22   1      7.3987789547215925      9.4886197343387266      9.8110455108754877
    23   1      1.8598900708102661      4.0431887375968927      9.8325812295433934
    24   1      5.8849294202382225      10.734841273149414      5.6721751313949085
    25   1      4.6891535470247447      6.8180757571606705      9.7412994000073354
    26   1      8.6477078706877819      10.860629182620642      2.9213988239201854
    27   1      8.6905346576909892      8.0861756548928838     0.15778168966091588
    28   1      9.9330403667815403      9.4923375108784853      7.1406832368622304
    29   1      3.1784831689854798      10.812796473427227       8.441148361884359
    30   1      4.5954190492338398      9.4949540364515883      1.5436877899028332
    31   1      3.2048872345902453      10.885001417479032      2.9378238166081871
    32   1       5.946226982883104      5.4711783351938266      5.6298363471771609
    33   1      3.1784020515011946      8.1492746746287708      5.7444151181999246
    34   1      9.9722765694603481      1.2809334949209727      4.4324137890326938
    35   1       4.620768912012835      1.3206263079188219      9.7924430004393344
    36   1     0.56893309114988355      2.6883938795950115      8.4612298062939999
    37   1      1.8235147195672283      6.7876859028480681      1.5690783736589395
    38   1      4.6273540293871065       1.338000861877866      4.2866424250728414
    39   1      9.9131704767709152      9.4640125832458466      1.5237207211460344
    40   1      4.5281424790572657      4.1098884002252305      6.9846741974457132
    41   1      10.035399599971583      6.8171867095329048      4.3499705205843497
    42   1      3.3053986114882719      2.6656298799800595      5.6617985828051474
    43   1     0.45688952542222694      10.829159492357235     0.26300539415446522
    44   1       3.239212909240365      2.6159345511124883     0.26558340920190382
    45   1      8.6258684481587125       5.388132201602275      3.0167297138018228
    46   1     0.41945364418964459      8.1386950078583595      8.3614533538035971
    47   1      8.6420017423732247      2.6565651633461584     0.28424045086686789
    48   1      8.5745522297201546      2.6135597556425552      5.6796366420693971
    49   1      7.2191491528211031      3.9035819779727774      4.3347668327397457
    50   1      7.3126088245752499      6.8210096143322971      7.0622069378653691
    51   1      1.8790211427740218      9.4935069005319406      4.3493913417465535
    52   1     0.50731977869742195      5.3878275243312999     0.40137636946423783
    53   1      5.9584231588803505      10.785316465510903     0.27744740910100241
    54   1      8.6076066311565569      8.1595934675697208      5.7287412734164036
    55   1      5.8164695082008961      2.6428655558951704      8.4008693128275809
    56   1      6.0483383210411716      8.1649881047446229      8.4625341754413057
    57   1      4.5778626298750282      4.0060534777610712      1.5122085277762807
    58   1      3.2222187962826183      5.4485770572523506      8.3510119112264078
    59   1      7.2124248378437983      9.4570501073346804      4.3137239839063568
    60   1      3.2224073133160971       8.052497622237297      0.1747594067471514
    61   1      1.8708225986373179      1.3046021978381575      6.9662767520098328
    62   1      10.027187914802425      1.4200541985792512      9.8342879414127538
    63   1      1.8744900823368198       4.067731968112156      4.4078199412072365
    64   1      4.5773460737351002      6.8110276211860992      4.3371941923394957

Velocities

     1                       0                       0                       0
     2                       0                       0                       0
     3                       0                       0                       0
     4                       0                       0                       0
     5                       0                       0                       0
     6                       0                       0                       0
     7                       0                       0                       0
     8                       0                       0                       0
     9                       0                       0                       0
    10                       0                       0                       0
    11                       0                       0                       0
    12                       0                       0                       0
    13                       0                       0                       0
    14                       0                       0                       0
    15                       0                       0                       0
    16                       0                       0                       0
    17                       0                       0                       0
    18                       0                       0                       0
    19                       0                       0                       0
    20                       0                       0                       0
    21                       0                       0                       0
    22                       0                       0                       0
    23                       0                       0                       0
    24                       0                       0                       0
    25                       0                       0                       0
    26                       0                       0                       0
    27                       0                       0                       0
    28                       0                       0                       0
    29                       0                       0                       0
    30                       0                       0                       0
    31                       0                       0                       0
    32                       0                       0                       0
    33                       0                       0                       0
    34                       0                       0                       0
    35                       0                       0                       0
    36                       0                       0                       0
    37                       0                       0                       0
    38                       0                       0                       0
    39                       0                       0                       0
    40                       0                       0                       0
    41                       0                       0                       0
    42                       0                       0                       0
    43                       0                       0                       0
    44                       0                       0                       0
    45                       0                       0                       0
    46                       0                       0                       0
    47                       0                       0                       0
    48                       0                       0                       0
    49                       0                       0                       0
    50                       0                       0                       0
    51                       0                       0                       0
    52                       0                       0                       0
    53                       0                       0                       0
    54                       0                       0                       0
    55                       0                       0                       0
    56                       0                       0                       0
    57                       0                       0                       0
    58                       0                       0                       0
    59                       0                       0                       0
    60                       0                       0                       0
    61                       0                       0                       0
    62                       0                       0                       0
    63                       0                       0                       0
    64                       0                       0                       0
