(written by ASE)

216 atoms
1 atom types

0.0      16.331106185913086  xlo xhi
0.0      16.331106185913086  ylo yhi
0.0      16.331106185913086  zlo zhi

Atoms # atomic

     1   1       8.165553092956543       8.165553092956543       8.165553092956543
     2   1      9.5264782839793725      9.5264782839793725      9.5264782839793725
     3   1       6.804627415228822       6.804627415228822      9.5264782839793725
     4   1       6.804627415228822      9.5264782839793725       6.804627415228822
     5   1      9.5264782839793725       6.804627415228822       6.804627415228822
     6   1      8.4877273958851447      11.775197973948707     0.14788461206313031
     7   1       0.215060503340613       12.06506772640887      8.3960808648156444
     8   1       8.499300264795238       14.82438173077287      8.5998106653487412
     9   1      11.179587022516557      14.832064854190094      11.269670257474559
    10   1      5.6997440398873209      6.5673986904235448      13.958106401899158
    11   1      5.7104578746639163       3.828855060656764      5.9654323465181847
    12   1      2.7897240560422745      11.875949780128394      5.6817286583284385
    13   1      3.0095333694283113      3.6676138670943033      8.6208324230224207
    14   1      5.5629342151159449      9.2662070027909067     0.45685537176172275
    15   1       1.494237189415216      7.8952926805749257      1.5946810330748065
    16   1      15.272329338353188      13.378867229607295      4.3356095168099387
    17   1      1.6194756053911732      2.3821140631646074      1.8953018532357646
    18   1      13.706666867671856      1.3424763987580661      11.207711751376792
    19   1      1.6404304411422714      13.365197636024618      1.5993633774834848
    20   1      12.470417948475301      8.0207223715732425      7.0846117046377231
    21   1      15.105470353580586      7.8909459191889368      4.2913378664692914
    22   1      4.1217981111543054      16.237205237786156      12.272148003415055
    23   1       10.98491480001428      3.6908515921389835     0.33519791744403449
    24   1      11.188227981160253       1.327369930659458      13.977473362941737
    25   1       10.91652205525088      14.794044441475876      5.4422450297608407
    26   1      7.5198918440069633      11.085371663029719      10.506593886974997
    27   1      12.407193036249851      7.9811133540931678      1.7060218342264193
    28   1      1.4595320887456751      10.782803779950314      15.232031146746749
    29   1      13.741273532277091      1.0079338902885482     0.19810855676013084
    30   1      13.889582246815053      9.1259620148953218      8.6559257925191559
    31   1      2.7121610610656717      11.993435473887644      11.027249364886757
    32   1      9.7374035296284092      7.9956083991718288      15.426069679480293
    33   1      6.9808705570144411      15.936886904715266      9.8433056469699522
    34   1      1.4912605022988004      5.2918975084323847      14.985150090533239
    35   1      9.7694793287978428      2.4536051712672986      9.8627164114527659
    36   1      11.080388778350539      11.733565237529774      8.6294704614367674
    37   1      16.292311912421383      3.9702827414386945      0.2977499609393881
    38   1      5.6186293159649949      6.4402061543082141      2.8180111009838242
    39   1      7.0710345849844316      8.0274530135177997      1.6000936781731809
    40   1      2.7621062303265376      12.164812053463152     0.32151055913281823
    41   1    0.088271263066001637      1.1023527532581454      13.734425594453683
    42   1      2.9092561005178368      9.3198224136385761      3.0657312364302811
    43   1      5.6175337432542278       14.70909204948407      5.6746680304674442
    44   1      13.809693532514416      4.0862102494878059      2.9041907193595478
    45   1      6.7237560437522461      5.0770255728181723       9.758965529731654
    46   1      2.8917028452534339      14.713121965985692      8.3332404494544789
    47   1      3.0033200947834189      14.778809604962134      3.0812167259631451
    48   1      15.286294848509897      5.2726512502028982      12.412450422487836
    49   1      2.9315771168993763      6.6957831668181598     0.35580837906534057
    50   1     0.33889091248451564      9.2720980787976259      5.8107823539488663
    51   1      15.305782512365568      15.940853549580993      1.5673109401488432
    52   1      2.7840763324813054       1.341509437814878      5.7032653497773254
    53   1      13.895132629397722      14.820755779331193      8.6595059937010319
    54   1      8.4879415460374048      12.183641692305514      11.452375380104627
    55   1      5.8516441498196627      1.0816615898820174      13.732002777503794
    56   1      1.7571430041813727       2.401495625353931      6.9380760560194972
    57   1      6.8550802176915226      13.438209210208356        12.6675110411079
    58   1      15.213137262858709      13.344696652584844      9.8451152157565502
    59   1      8.2972106597464972      11.991266716891118      5.9039980215885635
    60   1     0.17093399752432781      1.0006653786007718      8.4501586453102391
    61   1      1.6429316175796913      13.477448331970891      7.0019531527995582
    62   1      12.339746445795527      5.3756457925226186      9.9168652508615196
    63   1      2.8293150654413637      4.1802017247245544      13.572134821792702
    64   1       1.588128890149207       7.873863064202169      12.330049337537275
    65   1      8.5934757144809737      3.9227097718190009      3.0152317102979964
    66   1      13.973995369787076      11.889170631801107       5.569532473330014
    67   1       9.633198065538636     0.11397655149153252      7.2153727610175338
    68   1      12.473041287840488      16.302416879378711      9.7290351257239536
    69   1      7.0597337841086869      5.3038933238931918      15.207414586744449
    70   1      9.7730001519829557      13.273638711835588      15.249305276755877
    71   1      6.9249919684212955      5.1518851654749369      4.4193509870316916
    72   1      11.121382957951823      3.9572441607478481       5.705326544992829
    73   1      5.5795225779329485      11.853545780562854      2.9563866553911566
    74   1      12.548087288470697      13.378402913140803      1.5035485840469534
    75   1      14.892685895246018       7.949544214715786      15.354193101103533
    76   1      12.275006907947727      10.541764155844589      9.8804334429131586
    77   1      12.451797592736284      5.2547862604554894      4.4375031326650856
    78   1      8.2402399053768249      6.4529587958753041       0.122398508143581
    79   1      6.9697980207328101      13.258787398776349      7.0935315451842484
    80   1      12.537475175016425      15.921367832544888      4.3443429493830195
    81   1      6.9374632945610983      16.234195454737119      15.225559918509362
    82   1      2.9153822549871506      6.4743587232496793      5.6882801928729236
    83   1      4.1008474123947849      10.835652143888979      6.9548347655485259
    84   1      14.981462814275233       2.560986384774111       9.788143487977095
    85   1     0.21462347276710148      14.912437353152882       11.10703976479931
    86   1      13.861565566440731      9.1862443093467618      2.9497601682933805
    87   1      6.6812569726264428      10.278817944572438      9.4222056546145723
    88   1      15.366268249461655      10.616591139273623      1.6048134988585048
    89   1      5.6649738424385419      3.7319046630321395       11.10340310585002
    90   1      4.2620932296537148      5.1133989761795533      6.8745873497428533
    91   1    0.058671194793879167      14.635999682288343      5.7369545756620823
    92   1      7.0010308470301652      2.6022842682276917      7.1139011183033176
    93   1      2.7106357279357098      6.4353176903779854      11.321443977012791
    94   1      8.2866433231422434      1.4682016413017465     0.12805011013415424
    95   1     0.21111048248883613      9.1798996243811644      11.245525801217013
    96   1      13.906907967542679      11.999893074388069      11.184001435882465
    97   1      6.9664188286711237      10.647252574028357      15.246006391001288
    98   1     0.20884049087487888      14.886638100264236      0.1393463937801247
    99   1      2.9760451526637439      1.3328690875522966      11.111933095778454
   100   1     0.26079622283300452       6.434554537108113      13.953032016700377
   101   1       4.180358930404509      13.395118305934488      4.4455031009666754
   102   1      8.2632415785491276      3.9512756986633804      8.3961266150754454
   103   1      6.9127459866462573      16.249067209401801       4.318982217601615
   104   1      4.2144613687421497      13.467912809736617      9.9237930082871344
   105   1      1.4880416794988633      10.596613850297103      9.7545589036440106
   106   1      12.518744823971929      2.6848973131585012       7.106373253746483
   107   1      12.319957998316909      2.4589034407161705      12.583407462446871
   108   1     0.17299049299572289      6.5496548901941196       8.637838865341223
   109   1      15.275429648512045       10.56407081443183      7.0553933498862875
   110   1     0.44529345371168816      11.898272986681945      13.742534097946077
   111   1       8.249390930746813      9.1722155275541581      13.830339554011857
   112   1      11.131210503120997      1.2786499192867211      8.4837987140009545
   113   1      15.152161900641772      16.290059442183519      7.3121559755119279
   114   1      11.130932107923059      6.5486917012138406      8.4303156868837732
   115   1      13.861037978338345      1.1438128311168185      5.9091283778498678
   116   1      9.6982821904496177      5.2090520619158838      1.6925704061113578
   117   1      2.9004070755330247      3.8209251778595501      3.1176619182960223
   118   1      11.119326143080343      6.4199694516245245      2.8495206190119973
   119   1      12.503140091740647      13.380556095580801      12.454710034807022
   120   1      1.5370958137796151      13.319336407508331      12.531539322159688
   121   1      4.0595524491705532      2.4376198358108638      4.2262070178887257
   122   1      1.8067187644295899      5.2717912426596172      9.9325244940406492
   123   1      15.335048077491479      2.4721622553704208      4.5246724654376749
   124   1      12.354316443427479      10.562095765982122      4.2504274001093449
   125   1      12.698867490447697      13.090066281088866      7.4157686330438537
   126   1      4.3119610128368322      7.7441732452885503      4.3393337826396987
   127   1      12.634219453119499      8.0211628395000503      12.391072396833579
   128   1      6.9382113599793342      2.3690282720992855      1.6659046968396183
   129   1      11.082984862241801      6.5538921429795209      13.859917583678111
   130   1      12.715263604832558      5.1557934057536841      15.180896957435948
   131   1      9.6217488196709837      13.413584862927792      9.6249795667407625
   132   1       15.16881012816043      13.424591207344179      15.334650926300014
   133   1      4.4974885371327105      2.4758704599387613      15.340605273942629
   134   1        11.0457937946627      9.2018363872508644      11.352173550452335
   135   1      4.1141412698012232       5.116561584564522      12.537822682308956
   136   1      8.2372525107527963      14.766546588515894      2.9031168050164524
   137   1      9.5318768146358934      10.741460146236932      1.6352769663986209
   138   1     0.18216446954325072      3.9065813451244651      11.318157745585381
   139   1       1.556498547631719      15.866570702220656       15.21944106461342
   140   1       11.10631944155989       1.315159721693945       3.100529906115213
   141   1      5.6012992148933449      12.018666255463017      13.868868086632801
   142   1      4.3367230976016913      5.2684324922033738      1.6231516874366747
   143   1      1.4570832330840915      16.137606922199325      4.3851030239314923
   144   1      13.907807398182172      14.770429520140283      13.828638033711172
   145   1       4.338897208352023      7.9840730065383809      9.7801381659216986
   146   1      1.5021775363675971      10.518268963912305      4.2552272837493206
   147   1      15.028652747145316      2.6268137080544136      15.131038908350661
   148   1      2.7731493209622329      9.3017169916747662       8.355219068944848
   149   1      13.918584991299554      6.6859760632544294      5.7101970008420722
   150   1      9.6596417157036285      5.1775642022553825      12.574407315593248
   151   1       8.289555765212981      6.4335027678375809      5.5497552200639007
   152   1      6.8436251313651724       13.30633359962701      1.6520528322750749
   153   1     0.41943029038697688     0.98806501482660991      3.0111930331083272
   154   1      5.6057452640771999      11.943378849206624      8.0405619230654679
   155   1      13.858725156693936      6.6713554483137614      11.083503689656141
   156   1      3.9972632270990118      7.7156844611694737       15.10077754501674
   157   1      1.4887654096725242      7.8647037648490254      7.1841097590169056
   158   1      6.9172066369768572      10.724945275858545      4.2767853902134334
   159   1      5.7580303575787184      1.2189360961485534      2.8632736824835661
   160   1      13.960294627091344      3.8666851717584052      8.5185990871530066
   161   1      12.351889732838458      2.7890927997979986      1.4380742434892113
   162   1      8.2334406380425662      1.2148599426822386      11.097192751434477
   163   1      4.2753140813264281      10.670259114249575      12.712885564732687
   164   1      5.5811535260243659      14.792214431083835      11.007938861611592
   165   1      2.8443041159848974      14.567861970888089      13.930530676156536
   166   1      9.7664705191585881      10.614181950060697      12.544233559139798
   167   1        6.77642238006149      2.6392833307270962       12.42481175332216
   168   1      5.6908426941266725      14.817634054157111    0.085210885522539748
   169   1     0.17562093521041966      6.5926494268994702      2.9199139642319096
   170   1      11.233297827522961      9.3812766934687488     0.13642313773507908
   171   1      9.6507437768772206      2.5229968778205034      4.3804053483187317
   172   1      9.6867677261265044      13.290534185439128      4.3412582137806908
   173   1      6.9734872438103821      7.7275055495742322      12.573567262950519
   174   1      11.945502829353131      14.007675348278894      6.6602113664130798
   175   1      15.324263670505616        10.4841129880366      12.568085992462443
   176   1      9.4651826699438288      15.634024078471612      1.4728831339768647
   177   1       8.482818490349473      6.5300995743585304      11.339743107523418
   178   1      8.1388991862784223      9.2246453252861329      3.0675887456486919
   179   1      9.6560488601945735      16.073398866093044      12.593984533148955
   180   1      11.280666867793116      12.028291331397327      2.9449739123903669
   181   1      2.9566127298132585      1.1587545496096538     0.48327374369141296
   182   1      11.125298985508834      14.704914174695432     0.34777537566924011
   183   1      5.4460841579449948      9.2483089171108759       10.94834379446695
   184   1     0.24612278520208086      3.7579380209735973      5.7871416372540239
   185   1      4.2835345269438676      16.092269388146292       1.663572406999549
   186   1      4.2452143040164856      10.527489101376887      1.7426064675107114
   187   1       5.441068177333193      1.1902001876208175       8.511918575812274
   188   1       15.35247600624632      16.154155861920117      12.591847898675269
   189   1       11.15685303703458       11.81838135215196      13.710198398364582
   190   1       15.28775885682353      5.1850755188459061      1.5994502543066176
   191   1       9.844709303877039      10.730597866468429      6.9790780228990457
   192   1      4.2288065087142286      13.447130510869556      15.221338240280488
   193   1      13.811208158136765      6.6002595445829684     0.21155256262559696
   194   1      6.7805399034435823      7.8536891464494829      7.0616995851654565
   195   1      14.925336979597205      5.2684320054984823      7.2087788831474882
   196   1      13.799085312699276      11.810713803291264     0.21506920319054856
   197   1      13.713565422803981      14.769371423706161      3.0276889219959457
   198   1      3.0026983292845273      9.2032380973383852      14.082676572059086
   199   1      9.7092340239181567      8.0121300834186968      4.4237269507111705
   200   1      10.956556452806126      3.9582423924803152      11.058631122880911
   201   1      13.689071512434339      9.1925286429058133      13.771265261101121
   202   1      8.3372664723169692      14.769574866350808      13.889621183206373
   203   1      1.5893241156865088      5.0464167021917206      4.2849654393248784
   204   1      11.082242150577372      9.2766672643190304      5.7651099669304813
   205   1      10.161795593869897     0.39354324810352637      1.8933680530256112
   206   1      0.2334009885574897      11.925899329733284      3.0657446208147974
   207   1      4.3085847410044948      16.160399312268282      7.1828706083631459
   208   1      8.4013976290503933      1.2719249961246391      5.6494839725616544
   209   1       12.52680368356539      10.666030622152221       15.22884907016612
   210   1      13.879377992059858      3.9368964893488965      14.029022224820096
   211   1      1.5486694127470457      2.6893275444333824      12.426571678209825
   212   1      12.478517691279649      16.110757360154821      15.330781622412587
   213   1      8.3358472408533544       3.829809488948996      13.833612157702305
   214   1      1.6894626737029057      16.060564458104182      9.7803970929239767
   215   1      5.3451021403516279      3.7522861604210505     0.23013781477431472
   216   1     0.22723630835410802      9.2008318283548078     0.37064420882521887

Velocities

     1                       0                       0                       0
     2                       0                       0                       0
     3                       0                       0                       0
     4                       0                       0                       0
     5                       0                       0                       0
     6                       0                       0                       0
     7                       0                       0                       0
     8                       0                       0                       0
     9                       0                       0                       0
    10                       0                       0                       0
    11                       0                       0                       0
    12                       0                       0                       0
    13                       0                       0                       0
    14                       0                       0                       0
    15                       0                       0                       0
    16                       0                       0                       0
    17                       0                       0                       0
    18                       0                       0                       0
    19                       0                       0                       0
    20                       0                       0                       0
    21                       0                       0                       0
    22                       0                       0                       0
    23                       0                       0                       0
    24                       0                       0                       0
    25                       0                       0                       0
    26                       0                       0                       0
    27                       0                       0                       0
    28                       0                       0                       0
    29                       0                       0                       0
    30                       0                       0                       0
    31                       0                       0                       0
    32                       0                       0                       0
    33                       0                       0                       0
    34                       0                       0                       0
    35                       0                       0                       0
    36                       0                       0                       0
    37                       0                       0                       0
    38                       0                       0                       0
    39                       0                       0                       0
    40                       0                       0                       0
    41                       0                       0                       0
    42                       0                       0                       0
    43                       0                       0                       0
    44                       0                       0                       0
    45                       0                       0                       0
    46                       0                       0                       0
    47                       0                       0                       0
    48                       0                       0                       0
    49                       0                       0                       0
    50                       0                       0                       0
    51                       0                       0                       0
    52                       0                       0                       0
    53                       0                       0                       0
    54                       0                       0                       0
    55                       0                       0                       0
    56                       0                       0                       0
    57                       0                       0                       0
    58                       0                       0                       0
    59                       0                       0                       0
    60                       0                       0                       0
    61                       0                       0                       0
    62                       0                       0                       0
    63                       0                       0                       0
    64                       0                       0                       0
    65                       0                       0                       0
    66                       0                       0                       0
    67                       0                       0                       0
    68                       0                       0                       0
    69                       0                       0                       0
    70                       0                       0                       0
    71                       0                       0                       0
    72                       0                       0                       0
    73                       0                       0                       0
    74                       0                       0                       0
    75                       0                       0                       0
    76                       0                       0                       0
    77                       0                       0                       0
    78                       0                       0                       0
    79                       0                       0                       0
    80                       0                       0                       0
    81                       0                       0                       0
    82                       0                       0                       0
    83                       0                       0                       0
    84                       0                       0                       0
    85                       0                       0                       0
    86                       0                       0                       0
    87                       0                       0                       0
    88                       0                       0                       0
    89                       0                       0                       0
    90                       0                       0                       0
    91                       0                       0                       0
    92                       0                       0                       0
    93                       0                       0                       0
    94                       0                       0                       0
    95                       0                       0                       0
    96                       0                       0                       0
    97                       0                       0                       0
    98                       0                       0                       0
    99                       0                       0                       0
   100                       0                       0                       0
   101                       0                       0                       0
   102                       0                       0                       0
   103                       0                       0                       0
   104                       0                       0                       0
   105                       0                       0                       0
   106                       0                       0                       0
   107                       0                       0                       0
   108                       0                       0                       0
   109                       0                       0                       0
   110                       0                       0                       0
   111                       0                       0                       0
   112                       0                       0                       0
   113                       0                       0                       0
   114                       0                       0                       0
   115                       0                       0                       0
   116                       0                       0                       0
   117                       0                       0                       0
   118                       0                       0                       0
   119                       0                       0                       0
   120                       0                       0                       0
   121                       0                       0                       0
   122                       0                       0                       0
   123                       0                       0                       0
   124                       0                       0                       0
   125                       0                       0                       0
   126                       0                       0                       0
   127                       0                       0                       0
   128                       0                       0                       0
   129                       0                       0                       0
   130                       0                       0                       0
   131                       0                       0                       0
   132                       0                       0                       0
   133                       0                       0                       0
   134                       0                       0                       0
   135                       0                       0                       0
   136                       0                       0                       0
   137                       0                       0                       0
   138                       0                       0                       0
   139                       0                       0                       0
   140                       0                       0                       0
   141                       0                       0                       0
   142                       0                       0                       0
   143                       0                       0                       0
   144                       0                       0                       0
   145                       0                       0                       0
   146                       0                       0                       0
   147                       0                       0                       0
   148                       0                       0                       0
   149                       0                       0                       0
   150                       0                       0                       0
   151                       0                       0                       0
   152                       0                       0                       0
   153                       0                       0                       0
   154                       0                       0                       0
   155                       0                       0                       0
   156                       0                       0                       0
   157                       0                       0                       0
   158                       0                       0                       0
   159                       0                       0                       0
   160                       0                       0                       0
   161                       0                       0                       0
   162                       0                       0                       0
   163                       0                       0                       0
   164                       0                       0                       0
   165                       0                       0                       0
   166                       0                       0                       0
   167                       0                       0                       0
   168                       0                       0                       0
   169                       0                       0                       0
   170                       0                       0                       0
   171                       0                       0                       0
   172                       0                       0                       0
   173                       0                       0                       0
   174                       0                       0                       0
   175                       0                       0                       0
   176                       0                       0                       0
   177                       0                       0                       0
   178                       0                       0                       0
   179                       0                       0                       0
   180                       0                       0                       0
   181                       0                       0                       0
   182                       0                       0                       0
   183                       0                       0                       0
   184                       0                       0                       0
   185                       0                       0                       0
   186                       0                       0                       0
   187                       0                       0                       0
   188                       0                       0                       0
   189                       0                       0                       0
   190                       0                       0                       0
   191                       0                       0                       0
   192                       0                       0                       0
   193                       0                       0                       0
   194                       0                       0                       0
   195                       0                       0                       0
   196                       0                       0                       0
   197                       0                       0                       0
   198                       0                       0                       0
   199                       0                       0                       0
   200                       0                       0                       0
   201                       0                       0                       0
   202                       0                       0                       0
   203                       0                       0                       0
   204                       0                       0                       0
   205                       0                       0                       0
   206                       0                       0                       0
   207                       0                       0                       0
   208                       0                       0                       0
   209                       0                       0                       0
   210                       0                       0                       0
   211                       0                       0                       0
   212                       0                       0                       0
   213                       0                       0                       0
   214                       0                       0                       0
   215                       0                       0                       0
   216                       0                       0                       0
