(written by ASE)

216 atoms
1 atom types

0.0      16.331106185913086  xlo xhi
0.0      16.331106185913086  ylo yhi
0.0      16.331106185913086  zlo zhi

Atoms # atomic

     1   1      9.6648163621100593      11.926083304182271      16.178871709720283
     2   1      13.752531016417493      13.307959193964621      14.824098468526017
     3   1      9.6875415869039898      6.4976679939134101      5.2671222826354551
     4   1      12.385272821346462      1.0135072088392292      13.450260996731686
     5   1      5.6074652791637618      10.548634482093007      3.9641225176269757
     6   1      6.9917192090459821      6.4962453555155548      7.9925124693569956
     7   1      9.6873829211093607      9.2096480007594437      2.5736414420104552
     8   1      9.6829733747923683      14.648653036057567      2.5572390004620047
     9   1      12.403490185435317      14.641616256736256      5.2967767249696749
    10   1      1.4971536468013085      11.886387653231509      2.5521663187303432
    11   1      13.803122043069379      5.0976448255465812      12.131556481636721
    12   1      15.101255489220193      14.650208544890802      8.0181798252200451
    13   1      11.031903237059282      15.968172295140903      3.9233724205287785
    14   1      9.6731828191949489      3.7307175898017704      7.9971269184333096
    15   1       8.307828613659467      5.1044786489281364      1.1933136388117447
    16   1      15.152693382383291      1.0362480081896877      10.750770810811332
    17   1      2.8977379859080372      10.550271757348014      1.2123764092971356
    18   1     0.16740873315707994      2.3994843173898062      12.089745611227499
    19   1      9.6996780600784405       11.90883740305685      10.762796315270521
    20   1      1.5091102825183498      3.7675314610899591      16.159735446796276
    21   1      13.767441707473495      13.294819135303896      9.3771903191997126
    22   1       8.335214524494404      2.4124754443537313      14.841026064652397
    23   1       9.645903983436142      3.7681018792227974      2.5865104060466138
    24   1      6.9619391968497553      1.0736980027710672      13.447120776771726
    25   1      1.5211191173350045      3.7556889576699746      10.748469670084319
    26   1      11.070760782186881      7.8216654247034398      1.2383520927089506
    27   1      5.6029486577706393      16.017443378127041      14.844189646447148
    28   1      12.372533807516334      1.0160192752985964      7.9950214330726794
    29   1      6.9235182260098327      14.651497339443495      16.211670752358486
    30   1      9.7026265183111491      1.0787120365633029      10.739557130111166
    31   1     0.16043495170016264      13.297496985616931      1.2071814429614847
    32   1      11.062743779214088      13.290852490438169      1.2092406913574223
    33   1      11.018761231578992      7.8598931737014368      12.128187510377757
    34   1      8.3265161346735113       15.99477655792009      12.103237070819887
    35   1      6.9715808207503756        14.6656176217557      5.2735360796956456
    36   1      5.6138362461935003      5.1201237776654125      9.4116976960070815
    37   1      12.402387312151177      3.7315036182015433       5.307918373345899
    38   1      4.2512518781955464      3.7486059413839712       2.570939986510183
    39   1      1.5366296721697807      14.624200008898811      5.2829139095450728
    40   1      12.373711633353764      3.7513996274611827      10.717378961615282
    41   1      8.3337524630003372      10.572022598949161      12.101233793486472
    42   1      9.6524550312757356      3.7291555104525003      13.475582305416879
    43   1      4.2126250311865192      3.7338456421394426      13.443997104778077
    44   1      1.4755512501920691      9.1831751483009612      16.184650843601958
    45   1      8.3295677743432179      7.8039138371957506      14.813120352993337
    46   1      6.9341040573999635      11.946456770940472      13.499809501505979
    47   1      13.755240989253366      2.4067413306745209      3.9093120029182273
    48   1      13.761483466191748      7.8183018071982815      9.3858293310238423
    49   1     0.19405216047050544      2.3602203736778051      6.6750490517353569
    50   1      4.2416891004873492      6.4971253179593873      10.763507877821894
    51   1      2.8919498479858703       5.115528310079867      6.6912271223288258
    52   1      4.2458669752759874      1.0177610704290529      10.719816379711915
    53   1      15.121762313118666      6.4796662400914897      10.794295855848418
    54   1      4.2209593657485698      6.4640060235025771      16.179958035038112
    55   1      1.5052252823981718      14.632920787144712      10.723486134593827
    56   1      2.9013673442839547      2.3975959024107851      3.9513024674324129
    57   1       8.344310065506761      13.298441193106441      3.9241518784125162
    58   1      8.3160373783595105      10.534832504779843      6.6534636897973201
    59   1      12.388799484990273      14.634804335074818      10.748751958921389
    60   1      9.6850204555660184       6.454568815656387      16.164419494672075
    61   1      13.760096357250973      10.552428833427143      12.107703074904293
    62   1      5.5738349445708764      7.8293490348255546      6.6636187873584731
    63   1      2.8737290769627748      13.277120598629381      3.9237435330085475
    64   1      6.9731801330238454      6.4440399287385617      2.5815221676136275
    65   1       5.594166068003517      2.3539579418388712       12.08287139133995
    66   1      6.9845904425001777      3.7559062714040294      16.180731895815597
    67   1      4.2013816614879715      14.622873251364581      2.5690666593827984
    68   1      2.8660539841762613      2.4116349050061103      14.829478504396661
    69   1      9.6734631612124531      14.637330333461705      7.9992197494667607
    70   1     0.12634358589880357        15.9811478475483      9.3849639697267548
    71   1      4.2439868342801219       11.92195994034148      10.727349598022556
    72   1      6.9782165552410902      9.2185877962065206      5.2761302167673421
    73   1      13.764212907223282      16.008482167664738       12.09029072070598
    74   1      9.6411673714320614      14.634920170838996      13.460547991318435
    75   1      11.078234622500759      10.585709713907931      14.831692038243204
    76   1      13.783684996522425      5.0996850924517503       1.225984799739706
    77   1      0.1552316961718283      5.1031251226248742      3.9287682743083963
    78   1      13.746743121847771      2.3707283322852959      9.4219681426275201
    79   1        2.88964968066864      10.587236020447676      12.080377515475902
    80   1      4.2092322113878708      1.0176525352382484      16.178417127351622
    81   1      12.409362766656159      3.7147534260081159      16.164496394044932
    82   1      5.6194815362300119      10.554960672272728      9.3684471525288018
    83   1      1.5481965789449532      6.4503374033296836      13.455204945019545
    84   1      15.128103104445131      11.925583944963591      16.130586690844325
    85   1      0.1431680005881848      16.007551587912189      3.9283570086750785
    86   1      13.778297173373517      16.013338509072128      1.2103991706754158
    87   1     0.17633660433431508      10.586281105450553      3.9084466416211399
    88   1      13.793687755452538      7.8378040722006972      14.834654124212875
    89   1      2.8479135194602634      15.966984735205642      1.2098208435880906
    90   1      5.6315936741598875      5.0949961775270367      3.9382728907820592
    91   1      11.012634590404787      5.1022101174288537      9.4044516335824255
    92   1      6.9793549579823093      3.7269609580967256      10.753325038081925
    93   1      4.2426897657442737      11.933905625198463      5.2993747556805033
    94   1       12.41136799080914      11.941521583340659      13.463875105956731
    95   1      8.3585383963048798       15.98023965622076      6.6371162459016091
    96   1     0.16355603807407526      2.3960031606533505      1.2160683092516109
    97   1      1.5132898607741083      11.915425440468198      13.466318364512063
    98   1      12.445941559481753      6.4847746946326765       13.48392345384741
    99   1      12.404827650477159      9.2076856066369146      16.178893124735509
   100   1      2.8592948699955514      13.294871699432179      9.3620168075023003
   101   1      15.133066520928651      14.624391770626062      2.5527282195275802
   102   1      1.5256948733724442      3.7335438851067124      5.2963659460412487
   103   1       13.77349047586506      10.520044463356498      6.6475925686911523
   104   1      15.125005714515623      11.907058009973525      5.3180817448902076
   105   1     0.16755924664477639      5.1253212992017438      14.801476425169085
   106   1      5.5965436213984958      7.8222830532107537      12.129101542163994
   107   1      6.9581185634514782      9.1929647304885975      16.196471932006716
   108   1      2.8926932897076369      13.296840907423189      14.798961134289812
   109   1      4.2384082228137459      9.2106953896859523      13.461298490261129
   110   1      6.9421200869629729      3.7507226209571058      5.2992550262771942
   111   1      2.9114382418988782      5.0966105776521431       1.201813818065574
   112   1      8.3382866057695537      5.1508382632533198      6.6339458502383764
   113   1      4.2583392748255733      6.4609388092763425      5.3074521100598417
   114   1      12.390687899969294      6.4862489237490308      8.0209676708385587
   115   1      15.138241167335082      14.647559896871257      13.443867641276938
   116   1      11.027478116185762      13.278841587125726      12.100413209039402
   117   1      1.5252995473243232      14.605877516553392      16.155861275859934
   118   1     0.14017651460116198      7.8133870612039118      1.2481448384783818
   119   1      8.3236027191929907      15.979006346025699      1.2321212966879642
   120   1      5.5873108296067358      15.998841517173901      9.3648134138088608
   121   1      12.393493266963901      9.2024243267597967      5.2915830970724755
   122   1      1.5051606723238251      11.911231017713249       7.997891045112965
   123   1       2.881342114875622      7.8204486624746892      3.9300485515254877
   124   1      11.014146295797786      7.8489243055616953      6.6501180803731472
   125   1      5.6122437477885114      5.0991998476749245      14.858593191006207
   126   1      13.771796742842639      10.571186439945564      1.2117076767762143
   127   1      1.5311466982145845      9.1910286184302095      10.731572249661212
   128   1     0.15855108436997156      16.000223759065761      14.797157405961912
   129   1      15.139816144363976      9.2016076359518593      8.0495056121516768
   130   1      5.6221467322158674      13.250711991216576       12.07618211931117
   131   1      1.4965399119331266     0.99955751659149428      8.0532512929966629
   132   1      5.5849434970144785      16.017517357270549      3.9457279929576146
   133   1      11.049903530766528      10.584767453237987      9.3954913965299056
   134   1      1.5432231850111577        9.21391932288725      5.3050677427963819
   135   1      11.004430692753658      16.020199101222715      14.814732319593986
   136   1      2.8765361474245026      7.8139151360111896      9.3618815035424632
   137   1      12.391353712260866      14.622635739377529      16.216547535371319
   138   1      6.9302318332831874      1.0247764955732492      2.5749779336425149
   139   1      9.6597030405199575      11.894147676021589      5.2953097964266931
   140   1      4.2526443408901287      1.0494861378860492      5.3290360118832041
   141   1      15.147232553500658      9.2040333731310966      13.469317440053487
   142   1      2.8767466472900765      2.3846444418955173      9.3484241132924808
   143   1     0.15560810156729232       13.26859158211073      12.107144337688851
   144   1      9.6749544250000099      1.0319908005037348      16.192110082769091
   145   1      12.396776578161962      1.0215253068980275      2.6071208980869756
   146   1      11.068181246261929      5.0832665896418803      14.842194156391997
   147   1      11.055018799176196      2.4021069266976554      12.124154673646785
   148   1      2.8827586694623335      15.998453126670483      6.6440225883119979
   149   1      11.043092582514873      16.008117138996113       9.409010111596217
   150   1      13.789173080878982      13.324113902723298      3.9258283334112889
   151   1      6.9724768444556275      1.0110486190798156      8.0276457486548338
   152   1      4.2241745382618205      9.1997990405750443      8.0202322597475018
   153   1      11.057797884106662      10.567075730431952      3.9220030763165425
   154   1     0.16585918645876596       10.58294523012421      14.816442600582718
   155   1      9.6702139193567973      1.0066039691725237      5.2583893367672658
   156   1      15.136042234635283      6.4802882489428271      16.176751623212908
   157   1     0.18894801022570284      7.8229994828110421      12.148653451065343
   158   1      11.054280954560681      5.1324612599600528      3.9381249324950431
   159   1      4.2391485009537178      11.904624485516024      16.175785027298389
   160   1      15.140677612021932      9.2167792008297056      2.5462195150135472
   161   1       5.581374490045107      2.4120288926157798      6.6619172670577882
   162   1      12.387961379167109      9.1668286778150332      10.772010612276404
   163   1      4.2585855475006724      9.1733534435904858      2.6040381093042129
   164   1     0.17028132626482595      5.1260007392302782      9.4056352998785542
   165   1      5.6170397377893551      2.3872495298272725      1.1944037360924824
   166   1      12.414816781670311      11.897708409007805      8.0363207766409346
   167   1      4.2459059116673075      3.7584188854063996      8.0146736031816772
   168   1      12.393122397836578      6.4597274008013983      2.5662111617843664
   169   1      5.6346905773845037      13.308120779988599       6.636052795713681
   170   1      15.118555901293462      3.7447750871829726      2.5970105773758405
   171   1      15.143271749093628      1.0191442248925853      16.151553937570156
   172   1      8.3144507204132196      10.570357094810447       1.206886986502127
   173   1       15.16492038266756      3.7442061291648088      13.453450860590578
   174   1      9.6731000793633939      6.4467620691967227      10.767543634782214
   175   1      1.5273006344857265      6.4684029154923905      8.0386481994320889
   176   1     0.17667862098728904       7.835604166091116       6.670616630288464
   177   1      1.5276569024663047      1.0284193600099059      2.5869294589581955
   178   1       6.952306333637182      14.647176373416755      10.735497037906271
   179   1      5.6492445137550362      10.558898114844965      14.837201537614988
   180   1      12.421698788836125      11.937435209071623      2.5445381929658595
   181   1      8.3556288744634912        7.83471008920543      9.3794515501256228
   182   1       1.535293180537721      1.0512684511987231      13.470127316992944
   183   1      6.9457713470590079      9.1914685996521257      10.740906276070405
   184   1      5.5817516863360197       13.26134746650564      1.2278908577710439
   185   1     0.14585176740755657      13.281367585512612      6.6517889382656676
   186   1      1.5085769756334884      6.4580244203860389      2.5662221126444251
   187   1      8.3232814939646005      2.3657943614477119      9.3844811584743866
   188   1      11.054558376348837      2.3847965371741111      6.6328064740873742
   189   1       4.239556359652795      14.599906620944466      7.9961904982220631
   190   1      6.9479887745446831      6.4438301589303251      13.455644926241462
   191   1        8.31694556968705      5.1094075093643596      12.103194240789435
   192   1      13.757125510593255      5.1039792897094571      6.6429532976653718
   193   1      11.061371271420057      13.279773140288057      6.6781917052197741
   194   1      8.3065699948100473      13.285644748099116      14.838697668451459
   195   1      2.8802660103605149      5.1207881298423104      12.074976064590032
   196   1     0.16035473665023225      10.579529535195661       9.403564857270112
   197   1      8.3160733945214815      7.8490153193764058      3.9122239582840734
   198   1      8.3127180509994787      2.4053656592986954      3.9406925441501528
   199   1      11.046958966172951      2.4118417545849979      1.1980453837669103
   200   1      13.780838746316931      2.3925823553234409      14.830702080493893
   201   1      6.9994149867903843      11.894985781844753      8.0260294017101614
   202   1      9.6742983468062675      9.2113232389959876      13.478033351250474
   203   1      15.104017052774566      1.0366544067740904       5.274211626085048
   204   1      2.8875128028425081      10.570033922762491      6.6765875258973892
   205   1      15.117082158881999      11.919681188039476      10.757218677213928
   206   1      9.6912298365717788      9.2119024178168729      8.0064877136115342
   207   1      13.761163214373141       15.99242772011371      6.6462682446813801
   208   1      15.131155717524621      6.4594266171784511      5.3012602504301753
   209   1      6.9596181012221905      11.915910198540132      2.5858200151580206
   210   1      8.3410248074891342      13.311566650620421      9.3467186993526639
   211   1      13.767078625624436      7.8234418975574158      3.8774338059347428
   212   1      5.6091994086921773      7.8142139728145708      1.1965151835880334
   213   1      4.2409580697403158      14.644195792661208      13.454288966413742
   214   1      2.8579466974460956      7.8484989254865241      14.822348277736182
   215   1      15.115188876854063      3.7154786162964513      8.0273211164922031
   216   1      2.8576098976611775      16.014279796332289      12.095184051685123

Velocities

     1                       0                       0                       0
     2                       0                       0                       0
     3                       0                       0                       0
     4                       0                       0                       0
     5                       0                       0                       0
     6                       0                       0                       0
     7                       0                       0                       0
     8                       0                       0                       0
     9                       0                       0                       0
    10                       0                       0                       0
    11                       0                       0                       0
    12                       0                       0                       0
    13                       0                       0                       0
    14                       0                       0                       0
    15                       0                       0                       0
    16                       0                       0                       0
    17                       0                       0                       0
    18                       0                       0                       0
    19                       0                       0                       0
    20                       0                       0                       0
    21                       0                       0                       0
    22                       0                       0                       0
    23                       0                       0                       0
    24                       0                       0                       0
    25                       0                       0                       0
    26                       0                       0                       0
    27                       0                       0                       0
    28                       0                       0                       0
    29                       0                       0                       0
    30                       0                       0                       0
    31                       0                       0                       0
    32                       0                       0                       0
    33                       0                       0                       0
    34                       0                       0                       0
    35                       0                       0                       0
    36                       0                       0                       0
    37                       0                       0                       0
    38                       0                       0                       0
    39                       0                       0                       0
    40                       0                       0                       0
    41                       0                       0                       0
    42                       0                       0                       0
    43                       0                       0                       0
    44                       0                       0                       0
    45                       0                       0                       0
    46                       0                       0                       0
    47                       0                       0                       0
    48                       0                       0                       0
    49                       0                       0                       0
    50                       0                       0                       0
    51                       0                       0                       0
    52                       0                       0                       0
    53                       0                       0                       0
    54                       0                       0                       0
    55                       0                       0                       0
    56                       0                       0                       0
    57                       0                       0                       0
    58                       0                       0                       0
    59                       0                       0                       0
    60                       0                       0                       0
    61                       0                       0                       0
    62                       0                       0                       0
    63                       0                       0                       0
    64                       0                       0                       0
    65                       0                       0                       0
    66                       0                       0                       0
    67                       0                       0                       0
    68                       0                       0                       0
    69                       0                       0                       0
    70                       0                       0                       0
    71                       0                       0                       0
    72                       0                       0                       0
    73                       0                       0                       0
    74                       0                       0                       0
    75                       0                       0                       0
    76                       0                       0                       0
    77                       0                       0                       0
    78                       0                       0                       0
    79                       0                       0                       0
    80                       0                       0                       0
    81                       0                       0                       0
    82                       0                       0                       0
    83                       0                       0                       0
    84                       0                       0                       0
    85                       0                       0                       0
    86                       0                       0                       0
    87                       0                       0                       0
    88                       0                       0                       0
    89                       0                       0                       0
    90                       0                       0                       0
    91                       0                       0                       0
    92                       0                       0                       0
    93                       0                       0                       0
    94                       0                       0                       0
    95                       0                       0                       0
    96                       0                       0                       0
    97                       0                       0                       0
    98                       0                       0                       0
    99                       0                       0                       0
   100                       0                       0                       0
   101                       0                       0                       0
   102                       0                       0                       0
   103                       0                       0                       0
   104                       0                       0                       0
   105                       0                       0                       0
   106                       0                       0                       0
   107                       0                       0                       0
   108                       0                       0                       0
   109                       0                       0                       0
   110                       0                       0                       0
   111                       0                       0                       0
   112                       0                       0                       0
   113                       0                       0                       0
   114                       0                       0                       0
   115                       0                       0                       0
   116                       0                       0                       0
   117                       0                       0                       0
   118                       0                       0                       0
   119                       0                       0                       0
   120                       0                       0                       0
   121                       0                       0                       0
   122                       0                       0                       0
   123                       0                       0                       0
   124                       0                       0                       0
   125                       0                       0                       0
   126                       0                       0                       0
   127                       0                       0                       0
   128                       0                       0                       0
   129                       0                       0                       0
   130                       0                       0                       0
   131                       0                       0                       0
   132                       0                       0                       0
   133                       0                       0                       0
   134                       0                       0                       0
   135                       0                       0                       0
   136                       0                       0                       0
   137                       0                       0                       0
   138                       0                       0                       0
   139                       0                       0                       0
   140                       0                       0                       0
   141                       0                       0                       0
   142                       0                       0                       0
   143                       0                       0                       0
   144                       0                       0                       0
   145                       0                       0                       0
   146                       0                       0                       0
   147                       0                       0                       0
   148                       0                       0                       0
   149                       0                       0                       0
   150                       0                       0                       0
   151                       0                       0                       0
   152                       0                       0                       0
   153                       0                       0                       0
   154                       0                       0                       0
   155                       0                       0                       0
   156                       0                       0                       0
   157                       0                       0                       0
   158                       0                       0                       0
   159                       0                       0                       0
   160                       0                       0                       0
   161                       0                       0                       0
   162                       0                       0                       0
   163                       0                       0                       0
   164                       0                       0                       0
   165                       0                       0                       0
   166                       0                       0                       0
   167                       0                       0                       0
   168                       0                       0                       0
   169                       0                       0                       0
   170                       0                       0                       0
   171                       0                       0                       0
   172                       0                       0                       0
   173                       0                       0                       0
   174                       0                       0                       0
   175                       0                       0                       0
   176                       0                       0                       0
   177                       0                       0                       0
   178                       0                       0                       0
   179                       0                       0                       0
   180                       0                       0                       0
   181                       0                       0                       0
   182                       0                       0                       0
   183                       0                       0                       0
   184                       0                       0                       0
   185                       0                       0                       0
   186                       0                       0                       0
   187                       0                       0                       0
   188                       0                       0                       0
   189                       0                       0                       0
   190                       0                       0                       0
   191                       0                       0                       0
   192                       0                       0                       0
   193                       0                       0                       0
   194                       0                       0                       0
   195                       0                       0                       0
   196                       0                       0                       0
   197                       0                       0                       0
   198                       0                       0                       0
   199                       0                       0                       0
   200                       0                       0                       0
   201                       0                       0                       0
   202                       0                       0                       0
   203                       0                       0                       0
   204                       0                       0                       0
   205                       0                       0                       0
   206                       0                       0                       0
   207                       0                       0                       0
   208                       0                       0                       0
   209                       0                       0                       0
   210                       0                       0                       0
   211                       0                       0                       0
   212                       0                       0                       0
   213                       0                       0                       0
   214                       0                       0                       0
   215                       0                       0                       0
   216                       0                       0                       0
