(written by ASE)

216 atoms
1 atom types

0.0      16.331106185913086  xlo xhi
0.0      16.331106185913086  ylo yhi
0.0      16.331106185913086  zlo zhi

Atoms # atomic

     1   1      7.3134900336195301      2.8250804895328656      9.2085967181938031
     2   1      8.6716940575939816      4.1398835782175638      7.8179163369242133
     3   1      14.133102119047862      4.1534821128860813      7.8681583961688943
     4   1      1.9075618277764335     0.10364649873141296      1.1246897092248815
     5   1      4.6423504076290669      2.7934889617304748      6.4806552244310183
     6   1     0.53100677838229871      12.358463169103061      7.8466596677015445
     7   1      12.824596018249395      5.5369539080076606       11.93614641451893
     8   1       8.668797190079772      1.4602154224133415      10.569866496279815
     9   1      15.494687281903566       5.511111338383671       3.777974931299326
    10   1      12.766271250871569        13.6983500544859       9.186509076807738
    11   1      11.435122665110725      12.348608368459963      2.4087022646823755
    12   1     0.56460797151980557      12.293414086944267      13.310731465026606
    13   1      11.435812812646873      15.080961842064198      5.1185546410952156
    14   1      8.6752518703508485      6.8785131113976945      5.1317316893276939
    15   1      10.033629647971566      13.680573645028744      11.916455308018612
    16   1      8.6955854273079467      9.6111912171645599      13.278605048548457
    17   1      11.401746390471203        6.89591962513731      7.8750511108423211
    18   1      7.3244822635940636       8.224005377015942       9.219428822259033
    19   1      6.0003933322844318      1.4374900759431881      2.3934606143001531
    20   1      5.9737350452622877      4.1958488002813965      16.034552028473058
    21   1      14.129947297941158      6.9216079093106941      5.1207628211879523
    22   1     0.54718551819499339      4.1848317483573965      16.004233233961941
    23   1     0.51600507351158598      15.054124934346873      5.1134082235724918
    24   1       15.53862699950821      5.5407463125222307      14.666369094108177
    25   1      10.058398059900014      10.986253238465906      9.2168940631840997
    26   1      1.9023437429584362      8.2580630385035647      14.679368008350366
    27   1      1.8796884819926589      2.8217358535184758      14.675741083498906
    28   1      7.3468098504916384      5.5240026908448385      11.984958048087492
    29   1      8.7098195985647635      12.333665554881122       10.56628337486859
    30   1      10.057175457212566      10.984164301071587      3.7548515819041484
    31   1      5.9821764549004683      6.8902013293670734       7.863801413980184
    32   1      12.750082472770487    0.079069567153950082      6.4959499256464142
    33   1      4.6056440981218998      13.707638330635291      11.952297229638475
    34   1      3.2754436134896991      9.6071632474825037      2.4317487147046961
    35   1       12.76038698873333      5.5260264097836966      6.4834970942924883
    36   1      15.490829658933535      13.712289282578467      6.4576413836364281
    37   1      3.2793759456605756      9.6365680102073838      7.8517574147351183
    38   1      4.6140636060399629      13.686419944185445      6.4620329218724351
    39   1      11.404721130768053      9.6093904090660089      16.034954046713437
    40   1       4.626145081561674      8.2732667259042501      11.954160335963138
    41   1      3.2541402970362867      9.6378587515796426       13.28585987166116
    42   1      0.5540863851753528      9.6288556844966706      10.555106683740178
    43   1      12.786646664449336      13.675253960564646      14.677462071995251
    44   1      15.480551425034832      13.679692709175129       11.94502877878881
    45   1      11.413730038309723      12.344584292417039      7.8414066618075822
    46   1      15.522444061865826    0.081754900554691368      9.2089559064037303
    47   1      7.3504265545403769      10.942899513550628      6.4939383743298436
    48   1      15.491345566118525      5.5460411750368621      9.2198795109885623
    49   1       14.16261006320974      1.4657111723719396      5.1754484960920308
    50   1      1.9253934782387745      8.2504723890157265      3.7770883983394583
    51   1      8.7168417767393294      15.082976800315009      7.8697669558353027
    52   1      5.9563781754216052      9.6220291616884879      16.020992430195861
    53   1      12.764867593964482      10.998568819040429      11.909767009399616
    54   1      10.054560878535426      13.690945326266615      1.0697970630656926
    55   1       7.353501069339984      5.5405710987612906      1.0641744048066357
    56   1      7.3074826351437423      13.727683758296621      3.7862024341376923
    57   1      5.9844410927606191      15.058426432177953      10.567859325307268
    58   1      10.077139118452124      5.4998173513764073      14.657680438385114
    59   1       0.547836485987375      6.8681370498158003      13.307763538598238
    60   1      15.500855779698441      2.8177889202008544       6.488290164063983
    61   1      10.048762276458092      8.2454272061104348      1.0308015371013539
    62   1      4.5978285909741885      10.988008296304656      3.7849095025934218
    63   1      15.515398521856469      13.672480716092878      1.0748215610130956
    64   1     0.57549878436257274      1.4580398515483353      2.4426762129286601
    65   1      3.2488237761539835      15.049623887510279      7.8352780738138108
    66   1      8.7093134254776032      12.329920847445919      16.021524885347162
    67   1     0.53538821749180698      6.8964934502043889        7.83751302267558
    68   1      8.6609427465407407      4.1657689778720055      2.4082199401348987
    69   1      3.2743843002933488      12.326364008098835      16.006731976874903
    70   1       3.267026052391202       1.454631335516936      10.564853435897362
    71   1       12.72972652738838      8.2450767785885546      3.7997795537909838
    72   1      7.3311350327559808      2.7492883703039865      14.695341662889405
    73   1      1.9026407546184743      10.961873217040875      1.0956672531922749
    74   1      1.9114437859910396      5.5296898375020191      1.0992840789172362
    75   1      1.8895205291820787    0.094405417746969533      11.938797009358041
    76   1      7.3450572261773459    0.077145615113085597      6.5204959134394471
    77   1      5.9918667492902387      12.344287402433224      7.8313046150796026
    78   1      7.3282294045537242      2.8221400619308668      3.7971610814747123
    79   1      8.6910386302115512      4.1508329781616453      13.317460646856489
    80   1      11.385221785994986      9.6028179462111893      5.1404086641333606
    81   1      15.519015712610098    0.063647501352259717        3.78480023734528
    82   1      8.7190309753412976      1.4175315251049909      5.1571264904515033
    83   1       4.622441257337357      2.8086089358898221      11.939957313819377
    84   1      12.783959080038471      2.7887766849709692      9.2023435337478077
    85   1      14.134258529870067      6.8927905993898548      16.017341170099826
    86   1      7.3313336083517129      13.707537096017859      14.668907746822242
    87   1      3.2514410317080262      6.8978737452766836        5.12658527180497
    88   1      10.064196661977348      13.682829035495956      6.5155023212526544
    89   1      15.506626152892068      2.7652513173354123      1.0535270052477301
    90   1     0.55503308702743226      1.4548286943504394      13.330822642947737
    91   1      6.0082219804642136      6.8954519017365783      2.4008373569881769
    92   1      14.136325078839377      12.323734828274951      5.1449160381335446
    93   1      8.7195429888871558      12.320233473285498       5.126522973578858
    94   1      14.155234537283945      4.1706983250131202      13.288388790277395
    95   1      5.9883021226648907      6.8921277073276315      13.299656981925409
    96   1      15.512539617323796      2.7949639209041663      11.966788381078004
    97   1      12.758379817760783    0.050472578651299838      1.0182059795379956
    98   1      5.9470358750292576      1.4104205232877263      13.285779078649171
    99   1      5.9956611006243747      15.087313340898277      5.1470867419496358
   100   1      15.507448684158703      10.993713451042822      3.8027594044891941
   101   1      12.783166724475109      10.927627687465133      1.0870012292466669
   102   1      14.177360141651548      9.6172283046387292      2.4249097809217801
   103   1      4.6305166648971294      5.5515511611135366      14.664613062859644
   104   1      14.123024407564458      15.017901436092075      7.8569121062409977
   105   1      3.2853979452831084      4.1740570754693636      7.8577093288532751
   106   1      11.431888024401815      6.8831601697017391      2.4469037316162314
   107   1       1.894130841266815    0.084777877869147034      6.4615987811092168
   108   1      8.6775043405887118      9.6326198601275337      2.4159346993700694
   109   1      14.148262976418096      6.8989021527124237      10.560154786874818
   110   1      12.803560632838753      8.2563323159093898      9.2217396970838763
   111   1      8.6957353324145288      1.4235136149264207      16.015432313515362
   112   1      7.2999917601586617      8.2591191881181203       14.63279035023379
   113   1      12.774432318492245      5.5446097759509598      1.0782413929332222
   114   1     0.52449551866758526      4.1795232581058031      5.1103449029853891
   115   1       12.75152409265911      2.8307968384835362      14.652513579256947
   116   1       11.39836184465571      12.323700758932546      13.327946217038971
   117   1      3.2749761334414131      1.4507053305096491      5.0862763726909179
   118   1      7.3716361803021755      0.0966031108702472      11.922746455446145
   119   1       15.48476142234631       10.96624480037633      9.1784210149207865
   120   1      10.044419895416127      8.2306119092131667      6.5089999439022108
   121   1      10.036256880975884      2.7951301306246137      1.0686287279736462
   122   1      5.9845321065753296      15.001324267487576      16.051722003635405
   123   1      10.043831955907194      2.7938165141224545      11.936547459349526
   124   1     0.56753525808973393      6.8863052567106138      2.4447286474561167
   125   1      8.6837010672672932      6.8744301440628988      15.995023804004973
   126   1       5.961408757180152      12.326701781293536      13.284665497857418
   127   1      14.156535012754034      4.1512466773194205      2.4142621380104288
   128   1      11.442414477795182       6.854831511491966      13.299345490794849
   129   1       11.38558000079513      9.5889546440816957      10.536657648122969
   130   1     0.56316197128715828      9.5943648556556127      16.046390638253911
   131   1      3.2549260820836139      12.335731130440649      5.1156806487109066
   132   1       1.839670632403724      10.969374312828677      6.4906433822143867
   133   1      11.430355877403372       4.176778729222633      5.1386798883587517
   134   1      15.477749951679357      8.2587668137766741      6.4913714927320711
   135   1      5.9822489739293019      1.4057080031757749      7.8318073812325224
   136   1      5.9889275384504685      9.6155306779771763      5.1330126966021226
   137   1      11.424087118400848      15.036335870562539       10.56759066420716
   138   1      14.127850573268574      12.294039016024954      16.049036366044106
   139   1      12.752715546233503    0.071474377622045893      11.935566262288262
   140   1      7.3200751508015287      8.2503059359428335      3.7678254308444252
   141   1      4.5909426901692427      10.993510008398175      14.672994121091278
   142   1      6.0140979686192964      12.347387712592081      2.4213079213722324
   143   1      7.3075103773225578      10.998015922283685      11.931250163310438
   144   1      15.510056448967362      8.2538199452594654      1.0600326678561913
   145   1     0.56646462900465622      4.1607325556547607      10.559207659155959
   146   1      11.451601519327141      4.1770381429298027      10.572748762647279
   147   1       11.42517441712846      1.4698011969276621      2.3903916966067982
   148   1      4.6155032791090207      10.962843706594526      9.2060239961373327
   149   1      1.9240759680974833      8.2474781805232169      9.1759514743013142
   150   1      1.8927346066093236      10.994330592845245      11.928462317691924
   151   1      14.138013944812883      15.062911904458019      2.4218447568675572
   152   1      5.9861830095672985      4.2110189050445683      5.1293590029816301
   153   1      10.068098088387615    0.091989680832299747      3.7527874664592957
   154   1      12.769385188767387      2.8227292182020278      3.7736466646992142
   155   1      3.2509781753562095      4.1869391805375926      13.297790955371397
   156   1      3.2907229835010128      6.9034406758256637      16.065468496590938
   157   1      8.7175961693211548      15.067600819382733      13.280125514629503
   158   1      1.8740782347083353      13.699102500248159      3.7798584792294321
   159   1      1.8826115098947866      5.5456717660242134      11.953572396454206
   160   1      3.2473938371827558      15.029192016165098      13.303312135660576
   161   1      8.6926905066133031      15.069798778672748      2.4174257198051805
   162   1      4.6265363922944402      8.2436283448314498      1.0672828672724251
   163   1     0.53842592523399446      9.5577013761788976      5.1160851004757433
   164   1      11.411825075364391      4.1473272428281689       16.03520129279832
   165   1      10.058267622989092    0.059014728597257093      14.653438318550798
   166   1      1.9054689967429823      5.5570411922896596       6.513021099715786
   167   1      15.488376666280374      0.1078317881648827      14.671224462105783
   168   1      7.3221037367893018    0.080608391135123192      1.0501103369093983
   169   1      4.6407817577637616      5.5076299382947695      9.2024223799402307
   170   1      14.135908459452253      1.4541578933337291      16.014793756697713
   171   1      14.146721095321823      9.6164155074699238      7.8317222078765099
   172   1      5.9930947057314938      9.5906152811714946      10.570235418587572
   173   1      1.8965199539029669      2.8145846985476624      9.1805313673303317
   174   1      11.429644314851998      1.4359919982871503       7.841184724377058
   175   1        9.99240477025171      5.4903538614660761      9.2135688953653698
   176   1      4.6019261594557292    0.051552185160196551      9.1836015017859154
   177   1      4.6339747031512388      5.5558550924690735      3.7673389693053707
   178   1      15.491690153181708       10.96518378371286      14.687274042607896
   179   1      4.5837014947935018      13.712198755468648      1.0595253996830252
   180   1      3.2826979498975106       12.32887637874876      10.577048313658793
   181   1      10.069768459575243       2.827547109922989       6.502046877822238
   182   1     0.56413799710895063      15.034085347144241      10.562024707067962
   183   1     0.54030132085716787      1.4314433760474117      7.8282383742631509
   184   1      1.8954111184839064      13.704677218075403      9.2090795294461714
   185   1      7.3538806991553543      10.973295207434603      1.0874408454399145
   186   1       4.613312620392378    0.061645775390686275      14.675237830641095
   187   1      10.049373577801816     0.10448220144917464      9.1972331323870549
   188   1      14.138750816018614      1.4388978698418526      10.562420884849644
   189   1      10.053264296704469      5.4922451966744461      3.7655405947312772
   190   1      12.777545282978281      13.695120280825904      3.7709780617791182
   191   1      14.126086754741777      15.028882471854104      13.327569507452949
   192   1      8.6545270026609842      6.8836108584312683      10.572177371104658
   193   1      14.108707496476086      9.6283485379997273      13.281662528676861
   194   1      10.040889338133184      8.2277861006131161      11.908083010475025
   195   1      4.6128809131536173    0.079920722752016893       3.772856012602972
   196   1      15.508237146082934      8.2684785231816704      11.956421566889048
   197   1      6.0133445494472539      4.1797111261939222      10.612204954791423
   198   1      3.2707739234081998       1.450345047213716      16.034774939313365
   199   1      8.6861832622139445       9.600361059918896       7.875783601704029
   200   1      3.2585899965068279        4.19221652167613      2.4293638607363448
   201   1     0.52423762591320155      15.030459395702565      16.027726479074659
   202   1       3.271981438244012      15.057315771615549      2.4342202021437345
   203   1      7.3478635665817364      13.704469881791624      9.2254736970114664
   204   1      4.6326255571920001      8.2521992179707695      6.4778912273521883
   205   1      3.2859060651898346      6.9296190718247885      10.595839016109835
   206   1      0.5586714494438425      12.354678551866755      2.4320290567222003
   207   1      1.8874234394808269      2.8450261426914381      3.8003789308648663
   208   1      12.758323359993369      10.968374620981535      6.4921122575769346
   209   1      11.392320863542409      15.012262473219153      16.050538337339276
   210   1      1.8788163068270904      13.672763978339731      14.653215407710491
   211   1      10.054100455708067      10.998586340416523      14.631226080712509
   212   1      7.3472761137776956      5.5208950801126093      6.5018195866379074
   213   1      12.775164322649061      8.2730009850334909      14.703757763873227
   214   1      11.441163646224027      1.4487128823600699      13.307931938490697
   215   1      14.131561211361372      12.347465585374721      10.562459821240964
   216   1      4.6147352587902333      2.8392117227051301      1.0505269562965225

Velocities

     1                       0                       0                       0
     2                       0                       0                       0
     3                       0                       0                       0
     4                       0                       0                       0
     5                       0                       0                       0
     6                       0                       0                       0
     7                       0                       0                       0
     8                       0                       0                       0
     9                       0                       0                       0
    10                       0                       0                       0
    11                       0                       0                       0
    12                       0                       0                       0
    13                       0                       0                       0
    14                       0                       0                       0
    15                       0                       0                       0
    16                       0                       0                       0
    17                       0                       0                       0
    18                       0                       0                       0
    19                       0                       0                       0
    20                       0                       0                       0
    21                       0                       0                       0
    22                       0                       0                       0
    23                       0                       0                       0
    24                       0                       0                       0
    25                       0                       0                       0
    26                       0                       0                       0
    27                       0                       0                       0
    28                       0                       0                       0
    29                       0                       0                       0
    30                       0                       0                       0
    31                       0                       0                       0
    32                       0                       0                       0
    33                       0                       0                       0
    34                       0                       0                       0
    35                       0                       0                       0
    36                       0                       0                       0
    37                       0                       0                       0
    38                       0                       0                       0
    39                       0                       0                       0
    40                       0                       0                       0
    41                       0                       0                       0
    42                       0                       0                       0
    43                       0                       0                       0
    44                       0                       0                       0
    45                       0                       0                       0
    46                       0                       0                       0
    47                       0                       0                       0
    48                       0                       0                       0
    49                       0                       0                       0
    50                       0                       0                       0
    51                       0                       0                       0
    52                       0                       0                       0
    53                       0                       0                       0
    54                       0                       0                       0
    55                       0                       0                       0
    56                       0                       0                       0
    57                       0                       0                       0
    58                       0                       0                       0
    59                       0                       0                       0
    60                       0                       0                       0
    61                       0                       0                       0
    62                       0                       0                       0
    63                       0                       0                       0
    64                       0                       0                       0
    65                       0                       0                       0
    66                       0                       0                       0
    67                       0                       0                       0
    68                       0                       0                       0
    69                       0                       0                       0
    70                       0                       0                       0
    71                       0                       0                       0
    72                       0                       0                       0
    73                       0                       0                       0
    74                       0                       0                       0
    75                       0                       0                       0
    76                       0                       0                       0
    77                       0                       0                       0
    78                       0                       0                       0
    79                       0                       0                       0
    80                       0                       0                       0
    81                       0                       0                       0
    82                       0                       0                       0
    83                       0                       0                       0
    84                       0                       0                       0
    85                       0                       0                       0
    86                       0                       0                       0
    87                       0                       0                       0
    88                       0                       0                       0
    89                       0                       0                       0
    90                       0                       0                       0
    91                       0                       0                       0
    92                       0                       0                       0
    93                       0                       0                       0
    94                       0                       0                       0
    95                       0                       0                       0
    96                       0                       0                       0
    97                       0                       0                       0
    98                       0                       0                       0
    99                       0                       0                       0
   100                       0                       0                       0
   101                       0                       0                       0
   102                       0                       0                       0
   103                       0                       0                       0
   104                       0                       0                       0
   105                       0                       0                       0
   106                       0                       0                       0
   107                       0                       0                       0
   108                       0                       0                       0
   109                       0                       0                       0
   110                       0                       0                       0
   111                       0                       0                       0
   112                       0                       0                       0
   113                       0                       0                       0
   114                       0                       0                       0
   115                       0                       0                       0
   116                       0                       0                       0
   117                       0                       0                       0
   118                       0                       0                       0
   119                       0                       0                       0
   120                       0                       0                       0
   121                       0                       0                       0
   122                       0                       0                       0
   123                       0                       0                       0
   124                       0                       0                       0
   125                       0                       0                       0
   126                       0                       0                       0
   127                       0                       0                       0
   128                       0                       0                       0
   129                       0                       0                       0
   130                       0                       0                       0
   131                       0                       0                       0
   132                       0                       0                       0
   133                       0                       0                       0
   134                       0                       0                       0
   135                       0                       0                       0
   136                       0                       0                       0
   137                       0                       0                       0
   138                       0                       0                       0
   139                       0                       0                       0
   140                       0                       0                       0
   141                       0                       0                       0
   142                       0                       0                       0
   143                       0                       0                       0
   144                       0                       0                       0
   145                       0                       0                       0
   146                       0                       0                       0
   147                       0                       0                       0
   148                       0                       0                       0
   149                       0                       0                       0
   150                       0                       0                       0
   151                       0                       0                       0
   152                       0                       0                       0
   153                       0                       0                       0
   154                       0                       0                       0
   155                       0                       0                       0
   156                       0                       0                       0
   157                       0                       0                       0
   158                       0                       0                       0
   159                       0                       0                       0
   160                       0                       0                       0
   161                       0                       0                       0
   162                       0                       0                       0
   163                       0                       0                       0
   164                       0                       0                       0
   165                       0                       0                       0
   166                       0                       0                       0
   167                       0                       0                       0
   168                       0                       0                       0
   169                       0                       0                       0
   170                       0                       0                       0
   171                       0                       0                       0
   172                       0                       0                       0
   173                       0                       0                       0
   174                       0                       0                       0
   175                       0                       0                       0
   176                       0                       0                       0
   177                       0                       0                       0
   178                       0                       0                       0
   179                       0                       0                       0
   180                       0                       0                       0
   181                       0                       0                       0
   182                       0                       0                       0
   183                       0                       0                       0
   184                       0                       0                       0
   185                       0                       0                       0
   186                       0                       0                       0
   187                       0                       0                       0
   188                       0                       0                       0
   189                       0                       0                       0
   190                       0                       0                       0
   191                       0                       0                       0
   192                       0                       0                       0
   193                       0                       0                       0
   194                       0                       0                       0
   195                       0                       0                       0
   196                       0                       0                       0
   197                       0                       0                       0
   198                       0                       0                       0
   199                       0                       0                       0
   200                       0                       0                       0
   201                       0                       0                       0
   202                       0                       0                       0
   203                       0                       0                       0
   204                       0                       0                       0
   205                       0                       0                       0
   206                       0                       0                       0
   207                       0                       0                       0
   208                       0                       0                       0
   209                       0                       0                       0
   210                       0                       0                       0
   211                       0                       0                       0
   212                       0                       0                       0
   213                       0                       0                       0
   214                       0                       0                       0
   215                       0                       0                       0
   216                       0                       0                       0
