(written by ASE)

216 atoms
1 atom types

0.0      16.331106185913086  xlo xhi
0.0      16.331106185913086  ylo yhi
0.0      16.331106185913086  zlo zhi

Atoms # atomic

     1   1      14.754478254026253      3.2033854941884101      3.0532691576834168
     2   1      12.072787839397847      8.6262913050854877      11.249695888727388
     3   1      12.031043160853869      11.387443107119793      13.964087031605914
     4   1      2.4732108610591581      4.5533573916280261      7.1551834272003703
     5   1      2.5330412500188402      12.689270643397094      9.8863731894090279
     6   1      7.9410940443895583      15.448377311477316       12.60448081083905
     7   1      1.1427395251548376      14.082378708665487     0.33082968020470815
     8   1      3.8581174622008803      11.343366138735746      0.3667566839234162
     9   1        2.49214416804341       7.289544152957717      4.4217801311451694
    10   1      5.2142072401266546       15.42814498913765      9.8589405549045068
    11   1      3.8848346405148959      3.1817628993261735      13.970614717610715
    12   1      9.3060837079613066     0.48231983252312816     0.34848998012618537
    13   1      12.001922633785625     0.47479814303460444      8.4989303690776978
    14   1      13.360132984923666      15.430693375949545      7.1398643907403994
    15   1       2.499886912809842      15.450813756164166      12.572835258793702
    16   1      14.722758722837398       11.33429687978753      5.8064570075781035
    17   1      14.747520320897365     0.42592679685966672     0.36274915584680301
    18   1      7.9639574933726749      15.445306203611949      1.7058273956222649
    19   1      5.2192991467015304      12.718997604760148      1.7159661885695527
    20   1      14.718885525310839      11.380196071285354      11.263775287828707
    21   1      2.4871101793506227      1.8104206418343409      15.316184369306711
    22   1      6.5984232070273379     0.44530306613329529      3.0541943836821588
    23   1      10.647020902500003      7.2820050941883778      7.1725378635165953
    24   1      14.736742727779983      5.9065678234156849     0.33895534004452799
    25   1      6.5572645211727263      14.077138843803596      11.215694685007179
    26   1      16.081655327872454       1.816964389100562       1.703508368490489
    27   1      5.2027429064073658      1.8395004073679218      1.7131952559460188
    28   1      14.755124598122165      5.9140226822387945      5.8146613919341235
    29   1      6.5755758193056408      3.1922745082203505      11.219740176065329
    30   1      2.4685338704042863      1.8035421632789905      4.4341614168800447
    31   1      7.9421273188742134      4.5317097314638772      12.583763730427449
    32   1      6.5753991454300262       8.610467555653031      11.260544540758929
    33   1      16.051794035959347      7.2738683618122764      12.637753904041574
    34   1      7.9543952023693691      12.694155213688191      9.8690104791096473
    35   1      7.9284922813388334      1.8496393219914324      15.332497743860017
    36   1      6.5739195625598654      8.6062332230969787      5.7929991306232296
    37   1       3.864515441352097      8.6075473263040294      3.0936072590909589
    38   1      16.109003275725854      15.422164359430894      15.320392419798623
    39   1      12.014516609558086      11.343221100678079      8.5026546349074579
    40   1      9.3002743983763594      14.109431713354638      13.975016476649444
    41   1      6.5953243569831557      5.9013605677815235      13.924802159583578
    42   1       3.857604475245239     0.47194264543617237      11.215369566139657
    43   1      13.390043920735707      12.699544010246882      15.330644371633184
    44   1      16.080725721529689      4.5442594170912116      9.8634678838052423
    45   1      5.2128196444809873      4.5648543345750454      9.8628108322017169
    46   1      10.671097220072738      4.5759025356121015      4.4187362787537268
    47   1      2.4749367166044181      4.5393466179164079      1.7082970579179602
    48   1      14.734949706959696       14.07175491429382      3.0821682340260281
    49   1      9.2880444778627407      3.1901240026572566      13.959165471743063
    50   1      12.034495845354172      5.9314997681876775      13.943848868807549
    51   1      6.5902796607827554      11.344579980735148      13.955200773696902
    52   1      5.1872467093668888      7.2219471706919194      1.7309704486409458
    53   1      7.9091331075745188      10.002505843569907      12.596106566475896
    54   1      9.3116788673939936      11.358142499241694     0.35441034968356178
    55   1      10.662543868309513      1.8265921419117745       7.172061866132708
    56   1      3.8709431095016953       14.05311119672001      13.972689053858289
    57   1      14.744172764653626     0.47244489446514493       5.786424720948844
    58   1      5.2292181923903058      1.8327802295785318       12.59858292096385
    59   1      1.0926622155159293      5.8915992144775942       8.530146647408742
    60   1       6.601319587836656       14.08718735299351     0.38349598609489632
    61   1       3.855767650984717      3.1707894074899627      3.0881637082319742
    62   1      5.2182537045945878      9.9584162208586804      4.4320208887672266
    63   1      14.747787035177907      8.6296846115890276      3.0949087079708306
    64   1      3.8470383554032139      5.9125168173044926      5.8034715597736408
    65   1      1.1577080124167054      14.075058667097323      11.237316063107187
    66   1      13.351958289566028      10.005312183974297      12.617587773567152
    67   1      9.3246076961318067     0.47648871247523061      5.7919278931570375
    68   1      10.677929583339619      4.5608249047783147      9.8645581027622029
    69   1      2.4973081069422278      7.2348166214329694      15.284982692122412
    70   1      2.4852039996430619      15.444547917390992       7.140046905074712
    71   1      7.9277773118532195      7.2431903790912315      9.8624604046798368
    72   1      12.032846889181769       8.595915079397173      5.7978827275045433
    73   1      16.119801310448679      9.9890231446655662      15.300840510897274
    74   1      10.669125091852379       7.285926962204087      1.7433166916236331
    75   1      6.5985453699551044      3.2195844930922135     0.33826382365087326
    76   1      6.5974965209139214      5.8844879693078838       3.091939808132679
    77   1      7.9168352124825105      10.013609528964594      1.7303067048451624
    78   1      7.9062746897467377      12.717932694457545       4.445597035010735
    79   1      3.8683331545210251      3.1656510205979487      8.5255171104807914
    80   1      13.390591950443536      15.417941707792238      1.7066399494386246
    81   1      12.022319462378618      14.081358575212903      5.7853062731081764
    82   1      1.0948849967554111      5.8981127860405422      13.970413221785634
    83   1      16.096955382841657      7.2667868056409475      7.1605366943019817
    84   1      7.9631403158598459      4.5288814893393692      7.1520597552067215
    85   1      10.642048725328436      12.731739538819625      12.602360724331675
    86   1      9.2945799511458063      5.9172840917167377       11.21608112869103
    87   1       6.559388988024125     0.49600040738491913      8.4988748847200668
    88   1      14.749892520538538      14.077756959015801      13.953467130873378
    89   1      16.100217279024491      15.412181068696441      4.4514803237391902
    90   1      13.401057079020575      12.715077683564004      4.4363233600080889
    91   1      14.729090753475816      3.1947807950591312      13.981024361830123
    92   1      5.2229007628986324      9.9953717232702957      15.336240504475654
    93   1      16.095210059100737      1.8426826056247734      12.612819039040232
    94   1      13.371912216707756      4.5118054482210823      1.6939275827013063
    95   1      9.2816316542123332      8.6440278047415404      3.0716529748451649
    96   1      5.2015670273895012      7.2759154425859265      12.627406558048278
    97   1      1.1289623697911395      14.077632362563577      5.8050314489508992
    98   1      7.9594072893420389      15.460937217907372      7.1354601981772134
    99   1      1.1156665655651352      8.6325873195619351      11.237150583444077
   100   1      12.016849872807938      14.088301907195046      11.226121850602681
   101   1      9.3127320967792002     0.48061916395600335      11.233256944312075
   102   1      1.1083986014203617      0.4480192444565354      8.4889636263095554
   103   1       5.208572657597756      15.438243142226497      15.321299637716379
   104   1      7.9382813768215783      1.8353247227512952      4.4360761139232068
   105   1      3.8478915490780139     0.47153652062327112      5.8101043740350065
   106   1      2.4947061825922674      4.5011962549961595      12.604469129921654
   107   1      13.402277734888457      1.8288043373198661      15.334667474266325
   108   1      1.1246861806144182      8.6245703165891427      5.8260390921827252
   109   1      5.2710903876158568      12.716560186663514      7.1480965172752349
   110   1      6.5836113170643102      8.6452786363126961     0.37101440873331626
   111   1      12.046444450440504      8.5993288275061559     0.37148547823017708
   112   1      9.3148025393876424      8.6826887210929726      13.951461906720397
   113   1      12.019241540644771     0.48176273793669466      13.955923043755888
   114   1       3.885035162930194      11.345652678316014      11.260143495928332
   115   1      13.379460036165142      4.5165420602251629      12.615151328880302
   116   1      6.5734119293580306      14.106146455337012      5.7673575701194295
   117   1      10.650302266878498      1.8224844743037352        1.72418103708074
   118   1      13.392941761659699       15.42378508671959      12.594032230228322
   119   1      1.1584353928770525      11.344653959878656      8.5352541285401458
   120   1      7.9589463798097881       7.293280099704873      4.4138779905267711
   121   1       16.09691449963077      12.706481501770327      1.7166010951005148
   122   1       5.168413663590286      4.5399530522112173      4.4680613859828213
   123   1      9.3224194709396215      14.056794579338884      3.0551772842105436
   124   1      10.653663450859199      15.436701261130224      15.343701690462353
   125   1       1.112761545743993     0.46267380706338557      13.925664600651317
   126   1      13.367536739733168      1.8291767882380867      9.8695984186185797
   127   1      5.2171313631147882      1.8469081774927787      7.1176336581162332
   128   1       10.68099874438542      12.756167257324023      7.1093061374226636
   129   1      16.085653121851237      4.5474668023261984      15.315269364110691
   130   1      5.2154123214380093      7.2777473997975335      7.1158489112791017
   131   1      9.2438983973841005      8.6221260846240284      8.5349971483574336
   132   1      13.361709908772127      1.8466870917958147      4.4355008287414535
   133   1      7.9538646940376339      12.722899031170414      15.330869229293057
   134   1       16.08601425688073      15.435096108398056      9.8680000797548928
   135   1      6.5871297067249657     0.46395895132939202       13.99177761970293
   136   1      10.658827389758017      4.5436490891572703      15.322645863446269
   137   1        16.1265168645416      9.9740092721725659      4.4385675562627966
   138   1      14.718288825113859      5.9526320078717276      11.241056876903258
   139   1      6.5974356828024838       11.34821079922574      8.4941441131746842
   140   1      16.089733655661576      7.2780408828471082      1.7079042870705194
   141   1      14.732187169995541      8.6222759897306105       13.95211506468479
   142   1      13.377198805239232      9.9641632322175155      7.1641480445969137
   143   1      12.046097916557756      5.8942580832998601      3.1012512027644163
   144   1       16.09990870812328      12.700567063928816      7.1253270023361779
   145   1      14.711927592181951      3.2082880725604923      8.5079821066498198
   146   1      12.028100543079859      14.064034801304842     0.35643525496559292
   147   1      3.8710275528003706      8.6132427469443655      8.5258772721005016
   148   1      2.4672718446206261      7.2625889759517577      9.8582406732705294
   149   1      3.8339970978354643      14.063794369088441      3.0882097018442209
   150   1      1.1523278548698386      11.345209776864749      3.0989133158180948
   151   1      10.653367534285167      10.000165766451573      15.320663027718297
   152   1      6.5742110987898741      11.338795006394776      3.0681141435790664
   153   1      9.3040619358420145      3.1808977813815318      8.5115934569447518
   154   1      3.8926652355142437      14.078562942316125      8.5018934284571515
   155   1      10.650060861252314      9.9789006563321436      9.8797510826552752
   156   1      2.5005848476242534      9.9954710110681617      12.578128661193659
   157   1      13.358733221655712      7.2612529710245894      9.8510744304480795
   158   1      1.1703748722466685       3.208190001524855      5.7886669703839857
   159   1      14.720446874602771      14.093021971232815      8.4598830090424144
   160   1      9.3078874362892066      11.345555337337714        11.2476624356907
   161   1      10.689095566960418      1.8054791270709387      12.613786608364535
   162   1      5.2487710747014376      4.5247766202844559      15.293098982893071
   163   1      16.049191138199603      9.9899702723844257      9.8614879683066192
   164   1      10.668485561624948      9.9912376519218924       4.431983412490581
   165   1      13.396490813728519      7.2622239472831325      15.319265211269908
   166   1       1.139450130145633      11.307628371962664      13.971721484533987
   167   1      11.997796349715486      3.1846578200208171      0.3526872014342608
   168   1      3.8678695681118711      11.355277754250324      5.7803954207529387
   169   1      7.9585263534884234      4.5459589905723305      1.7330627929695055
   170   1        9.33048709122113      5.9337420176228193     0.38298917420756595
   171   1      7.9601933177418118      1.8283840676460557       9.870236975436228
   172   1       3.864983894810166      5.9007852825997702     0.31955607396477603
   173   1      9.3062949378842177      11.349202703794617      5.7908303736267044
   174   1      13.379434727510784      12.706857237946565      9.8211868564708311
   175   1       12.02421761145547      3.1877260076568348      11.262366763872706
   176   1      10.652054404487899      15.453666820238141      4.4437032662779075
   177   1      12.009699204542017      5.9072127073969227      8.4887485027475122
   178   1      3.8570148322691864      8.6486164584586049      13.955120954094696
   179   1      14.741478366374281      8.6528069875744222      8.5100583897169599
   180   1      6.5856788394434034      3.2009651107629793      5.7843022009170113
   181   1      2.4866587605637562      12.712275236798746      4.4518064160164954
   182   1      13.435033947496208      7.2577778980992775      4.4552576404021238
   183   1      6.5480799131652248      5.8696162146432016      8.4969095703681887
   184   1      9.3265700902543358      3.2002430840564386      3.0728444284195575
   185   1      1.1135132614489152      3.1721855204712313       11.21008589783753
   186   1      16.117234428850907      12.719171845111305      12.603213431301583
   187   1      1.1326456307337907      3.1694718973486715     0.30791305871219521
   188   1      12.012923137743314      11.395843633547088      3.0598739864135212
   189   1      9.2963690783269612      5.8934107300837582      5.8082733902331825
   190   1      12.029668706240273     0.45351888805426555      3.0761467211083868
   191   1      13.392836633403135      4.5592995716483529      7.1314653244277793
   192   1      16.119414866764828      1.8230561091988022       7.133796154153174
   193   1      12.004136167632169      3.2052668519465044      5.7907179447967678
   194   1      1.1593601321709031      5.9303462775948219      3.0603694519930684
   195   1      2.5286034748181407      9.9735556632136877      1.7069458434629325
   196   1      2.5007542209264955      15.434771962940317      1.6828226805443904
   197   1      10.644558175749012      12.709941973548894      1.7197381514786798
   198   1      5.2123017904764311       15.46133242227927      4.4242053816195153
   199   1      7.9474518703872263      9.9957786085595899      7.1381638438494974
   200   1      14.723976458475931      11.345468703867027     0.36136511923065484
   201   1      13.379230311456354      9.9712418681594954      1.7236276536191042
   202   1      2.5447516130607823      12.684420142448403      15.314390375076641
   203   1      7.9375829553022754      7.2637186180049298      15.324071908778365
   204   1      3.8609960782816586      5.9071309409751507      11.241288548431612
   205   1      5.2468515106093605      12.681967149795241      12.626903305190467
   206   1      1.1143640215992576      8.6053785693075042     0.33150586539428062
   207   1      14.713600883598929      0.4638939153882653      11.250800708831093
   208   1      3.8628608880734419     0.48346672218089282     0.34433495004839187
   209   1      9.3151792489736636      14.085385571485176      8.5098899898245008
   210   1      5.2275585287102899      9.9943457493590131      9.8857200314446345
   211   1      10.661705762486349      15.468661224535481       9.868422539600715
   212   1      1.1342819325790146     0.45826134051704415       3.053750995526002
   213   1      16.107758284613396      4.5474006104609543       4.432813244330589
   214   1       10.65515276782719      7.2516069667799457      12.599165020014084
   215   1      2.4846501294765346      1.8204617287746601      9.8855944615826274
   216   1      2.5186654476385968      9.9819338012159733      7.1563802345285694

Velocities

     1                       0                       0                       0
     2                       0                       0                       0
     3                       0                       0                       0
     4                       0                       0                       0
     5                       0                       0                       0
     6                       0                       0                       0
     7                       0                       0                       0
     8                       0                       0                       0
     9                       0                       0                       0
    10                       0                       0                       0
    11                       0                       0                       0
    12                       0                       0                       0
    13                       0                       0                       0
    14                       0                       0                       0
    15                       0                       0                       0
    16                       0                       0                       0
    17                       0                       0                       0
    18                       0                       0                       0
    19                       0                       0                       0
    20                       0                       0                       0
    21                       0                       0                       0
    22                       0                       0                       0
    23                       0                       0                       0
    24                       0                       0                       0
    25                       0                       0                       0
    26                       0                       0                       0
    27                       0                       0                       0
    28                       0                       0                       0
    29                       0                       0                       0
    30                       0                       0                       0
    31                       0                       0                       0
    32                       0                       0                       0
    33                       0                       0                       0
    34                       0                       0                       0
    35                       0                       0                       0
    36                       0                       0                       0
    37                       0                       0                       0
    38                       0                       0                       0
    39                       0                       0                       0
    40                       0                       0                       0
    41                       0                       0                       0
    42                       0                       0                       0
    43                       0                       0                       0
    44                       0                       0                       0
    45                       0                       0                       0
    46                       0                       0                       0
    47                       0                       0                       0
    48                       0                       0                       0
    49                       0                       0                       0
    50                       0                       0                       0
    51                       0                       0                       0
    52                       0                       0                       0
    53                       0                       0                       0
    54                       0                       0                       0
    55                       0                       0                       0
    56                       0                       0                       0
    57                       0                       0                       0
    58                       0                       0                       0
    59                       0                       0                       0
    60                       0                       0                       0
    61                       0                       0                       0
    62                       0                       0                       0
    63                       0                       0                       0
    64                       0                       0                       0
    65                       0                       0                       0
    66                       0                       0                       0
    67                       0                       0                       0
    68                       0                       0                       0
    69                       0                       0                       0
    70                       0                       0                       0
    71                       0                       0                       0
    72                       0                       0                       0
    73                       0                       0                       0
    74                       0                       0                       0
    75                       0                       0                       0
    76                       0                       0                       0
    77                       0                       0                       0
    78                       0                       0                       0
    79                       0                       0                       0
    80                       0                       0                       0
    81                       0                       0                       0
    82                       0                       0                       0
    83                       0                       0                       0
    84                       0                       0                       0
    85                       0                       0                       0
    86                       0                       0                       0
    87                       0                       0                       0
    88                       0                       0                       0
    89                       0                       0                       0
    90                       0                       0                       0
    91                       0                       0                       0
    92                       0                       0                       0
    93                       0                       0                       0
    94                       0                       0                       0
    95                       0                       0                       0
    96                       0                       0                       0
    97                       0                       0                       0
    98                       0                       0                       0
    99                       0                       0                       0
   100                       0                       0                       0
   101                       0                       0                       0
   102                       0                       0                       0
   103                       0                       0                       0
   104                       0                       0                       0
   105                       0                       0                       0
   106                       0                       0                       0
   107                       0                       0                       0
   108                       0                       0                       0
   109                       0                       0                       0
   110                       0                       0                       0
   111                       0                       0                       0
   112                       0                       0                       0
   113                       0                       0                       0
   114                       0                       0                       0
   115                       0                       0                       0
   116                       0                       0                       0
   117                       0                       0                       0
   118                       0                       0                       0
   119                       0                       0                       0
   120                       0                       0                       0
   121                       0                       0                       0
   122                       0                       0                       0
   123                       0                       0                       0
   124                       0                       0                       0
   125                       0                       0                       0
   126                       0                       0                       0
   127                       0                       0                       0
   128                       0                       0                       0
   129                       0                       0                       0
   130                       0                       0                       0
   131                       0                       0                       0
   132                       0                       0                       0
   133                       0                       0                       0
   134                       0                       0                       0
   135                       0                       0                       0
   136                       0                       0                       0
   137                       0                       0                       0
   138                       0                       0                       0
   139                       0                       0                       0
   140                       0                       0                       0
   141                       0                       0                       0
   142                       0                       0                       0
   143                       0                       0                       0
   144                       0                       0                       0
   145                       0                       0                       0
   146                       0                       0                       0
   147                       0                       0                       0
   148                       0                       0                       0
   149                       0                       0                       0
   150                       0                       0                       0
   151                       0                       0                       0
   152                       0                       0                       0
   153                       0                       0                       0
   154                       0                       0                       0
   155                       0                       0                       0
   156                       0                       0                       0
   157                       0                       0                       0
   158                       0                       0                       0
   159                       0                       0                       0
   160                       0                       0                       0
   161                       0                       0                       0
   162                       0                       0                       0
   163                       0                       0                       0
   164                       0                       0                       0
   165                       0                       0                       0
   166                       0                       0                       0
   167                       0                       0                       0
   168                       0                       0                       0
   169                       0                       0                       0
   170                       0                       0                       0
   171                       0                       0                       0
   172                       0                       0                       0
   173                       0                       0                       0
   174                       0                       0                       0
   175                       0                       0                       0
   176                       0                       0                       0
   177                       0                       0                       0
   178                       0                       0                       0
   179                       0                       0                       0
   180                       0                       0                       0
   181                       0                       0                       0
   182                       0                       0                       0
   183                       0                       0                       0
   184                       0                       0                       0
   185                       0                       0                       0
   186                       0                       0                       0
   187                       0                       0                       0
   188                       0                       0                       0
   189                       0                       0                       0
   190                       0                       0                       0
   191                       0                       0                       0
   192                       0                       0                       0
   193                       0                       0                       0
   194                       0                       0                       0
   195                       0                       0                       0
   196                       0                       0                       0
   197                       0                       0                       0
   198                       0                       0                       0
   199                       0                       0                       0
   200                       0                       0                       0
   201                       0                       0                       0
   202                       0                       0                       0
   203                       0                       0                       0
   204                       0                       0                       0
   205                       0                       0                       0
   206                       0                       0                       0
   207                       0                       0                       0
   208                       0                       0                       0
   209                       0                       0                       0
   210                       0                       0                       0
   211                       0                       0                       0
   212                       0                       0                       0
   213                       0                       0                       0
   214                       0                       0                       0
   215                       0                       0                       0
   216                       0                       0                       0
