(written by ASE)

64 atoms
1 atom types

0.0      10.887404441833496  xlo xhi
0.0      10.887404441833496  ylo yhi
0.0      10.887404441833496  zlo zhi

Atoms # atomic

     1   1      5.0428381083657712      8.5342407336696624      2.5251915039070525
     2   1      10.528519276339978      5.8352563175613454      10.628731816425898
     3   1      9.1529503928476288      4.5097943530518307      3.7944481369651726
     4   1      7.7370914283206389      8.6265426966880909       10.64134720758193
     5   1      3.7084262895801032      4.4945536756343927      9.1563540824882352
     6   1     0.98810367587811498      7.1932545050176486      9.2485619492248929
     7   1      5.0872440905530425     0.38069214102887372      5.1892963751825505
     8   1      5.1066259777782079      5.8307981006250316      5.2781781005935784
     9   1      3.6859447410454322      1.8109950470426526      6.4418755779415733
    10   1      2.3984736635959791      5.9458421615376551      7.9186031558565446
    11   1      7.7120981580025614      3.1643291413875261      10.732778942228947
    12   1      6.4799761358403885      1.7187938319397063      3.8031442557504818
    13   1      2.3036804204001839      8.5176492879039074      5.1704680336701472
    14   1      2.3908289896419745     0.43292182345796704      2.4145681836530031
    15   1      10.501692750877055       3.149353555908732      7.9504109437944521
    16   1      5.0557114531218303       3.095754691462389      7.8745686917472995
    17   1      10.500951012600751     0.35982990027424577      10.631331469562269
    18   1      7.8458102722786407     0.44638448673735809      7.8979649210347702
    19   1      7.7254598300140174      8.5562287634299423      5.2164145991189628
    20   1      2.2869843330797011      3.1407440705966394      5.1049358138756418
    21   1      6.3365117531336068      9.9194333954976059      1.1527367206364119
    22   1       9.240615680464316      1.8122994161899584      6.5577515797730257
    23   1      6.3656867920015543      9.9531406304475354      6.6175513891880655
    24   1       3.697341747587501      1.7603553484230332      1.0947526449896117
    25   1      6.3772249429662793      7.1984382367334092      3.8611082142611792
    26   1      3.6993249078433053       7.152001397209574      1.1509448354085521
    27   1      10.516891571672602      3.1531771096479986      2.3761055173043388
    28   1     0.99120203930787198      9.9211128518922465      1.1533631909675464
    29   1       10.48136665613481       5.809544021862564      5.2158889578207948
    30   1       6.457481932978169      4.4100730604507419      6.5981435443679288
    31   1      9.0771230664175846      4.5447975209307003      9.3175611302977472
    32   1      5.1179700957205227      5.7593829164002273      10.649887905267349
    33   1      6.3411464817157253      7.2570563266373824      9.2817532769747686
    34   1      6.3565380376539338      1.7938826647928181      9.3014641767161947
    35   1      10.474221179179096      8.5381544900514541      2.3727889478418547
    36   1      7.7267317521676091      5.8717345257744569      7.8572900186546804
    37   1      7.7233079453908999      5.8412174792464953      2.5256642566054666
    38   1      7.7668219597209713     0.33982146160046156      2.3890888573690887
    39   1       3.745555384487119      4.4742691130441017      3.8581474260847699
    40   1      9.1207156024724441      9.9147253367096937      9.2633999594503393
    41   1       2.303935291535808     0.45124561421811649      7.8651045526207781
    42   1      3.5786613520893411      9.9282550841485886      9.3379060442963464
    43   1        9.16727379375277       7.263378947832507      6.5309737248006741
    44   1      7.8496675708913699      3.0557543620816148      5.1909657730091396
    45   1       1.010673966940594      9.9253647059485388      6.5291437143552002
    46   1     0.98689494424478141      4.4986997524911772      1.0881380008510604
    47   1      9.1297157495888541      1.7101454102351568      1.0383424107729127
    48   1      4.9679179998799725      8.6301780578638159      7.9570405135501119
    49   1      9.0957398535309721      9.9168778702726854      3.8629907888364698
    50   1     0.92933584309815132      1.7716811338138996      9.2445813520360502
    51   1      2.3460949683482539      3.1618339675709137      10.573514820403034
    52   1     0.93606770200149469      7.1484841430909682      3.8219930388689249
    53   1       10.49603399517332      8.5837431651596034      7.8784370223378914
    54   1      3.6615572560999965      7.2566669627128135      6.5220929826211318
    55   1      9.0420128234594586      7.1470110495763493      1.0586973022220789
    56   1      2.2424159536888908      8.5482429093370342      10.741216458474355
    57   1      2.3490327191591263      5.7993232188426305      2.5030405902383279
    58   1     0.98263149038823627      1.7687201834025217      3.7861939462342491
    59   1      6.4324354495904004      4.4153177925146849      1.2049049971299013
    60   1      10.530202626373864     0.39156139721818306      5.2329784649400608
    61   1      3.6575896377086394      9.9104942487293783      3.8195585409305579
    62   1      5.0114608920344494     0.38094725551695063      10.577909441231668
    63   1      5.0083161294036813      3.1041860427789914      2.4619970900096462
    64   1     0.99269086961444231      4.5241729138462858      6.6210887604427739

Velocities

     1                       0                       0                       0
     2                       0                       0                       0
     3                       0                       0                       0
     4                       0                       0                       0
     5                       0                       0                       0
     6                       0                       0                       0
     7                       0                       0                       0
     8                       0                       0                       0
     9                       0                       0                       0
    10                       0                       0                       0
    11                       0                       0                       0
    12                       0                       0                       0
    13                       0                       0                       0
    14                       0                       0                       0
    15                       0                       0                       0
    16                       0                       0                       0
    17                       0                       0                       0
    18                       0                       0                       0
    19                       0                       0                       0
    20                       0                       0                       0
    21                       0                       0                       0
    22                       0                       0                       0
    23                       0                       0                       0
    24                       0                       0                       0
    25                       0                       0                       0
    26                       0                       0                       0
    27                       0                       0                       0
    28                       0                       0                       0
    29                       0                       0                       0
    30                       0                       0                       0
    31                       0                       0                       0
    32                       0                       0                       0
    33                       0                       0                       0
    34                       0                       0                       0
    35                       0                       0                       0
    36                       0                       0                       0
    37                       0                       0                       0
    38                       0                       0                       0
    39                       0                       0                       0
    40                       0                       0                       0
    41                       0                       0                       0
    42                       0                       0                       0
    43                       0                       0                       0
    44                       0                       0                       0
    45                       0                       0                       0
    46                       0                       0                       0
    47                       0                       0                       0
    48                       0                       0                       0
    49                       0                       0                       0
    50                       0                       0                       0
    51                       0                       0                       0
    52                       0                       0                       0
    53                       0                       0                       0
    54                       0                       0                       0
    55                       0                       0                       0
    56                       0                       0                       0
    57                       0                       0                       0
    58                       0                       0                       0
    59                       0                       0                       0
    60                       0                       0                       0
    61                       0                       0                       0
    62                       0                       0                       0
    63                       0                       0                       0
    64                       0                       0                       0
