(written by ASE)

64 atoms
1 atom types

0.0      10.887404441833496  xlo xhi
0.0      10.887404441833496  ylo yhi
0.0      10.887404441833496  zlo zhi

Atoms # atomic

     1   1      3.5436646736092143      7.2803902576969222      6.6601218449409316
     2   1      4.9214156174288348      8.5586304899046581      10.726904738486951
     3   1      3.5354503926805592      4.4250937472507985      3.8969358602503235
     4   1      2.1809011584210936      5.8075232230940514      10.757737818733688
     5   1      2.1166525416979169      3.1166658055012988      2.5150485736720327
     6   1      6.2314782387216496      9.9639383410157052      6.6834914676935568
     7   1      9.1048736822614842      4.5589012556883972      3.8890291768220777
     8   1      7.6384447801513602      5.8344406001393736      10.733023592561551
     9   1     0.82643182488364886       9.950078283180801      1.1419440393522677
    10   1      2.2497720116338087      0.4041055266642708      5.2792851920191026
    11   1      9.0624784402746741      1.8188658765428443      6.6882735056271372
    12   1      10.372426523679678      5.9440439491460211      2.6011241208316989
    13   1      2.1393089795287068      5.9005597860501666      5.1824730968744177
    14   1      3.5089201082702459      1.8588345701047473      6.6633535655148535
    15   1      6.3409427145952009      1.8361515257391119      3.8669876095221696
    16   1      10.289205176322071       8.657750215242288      10.695885412496295
    17   1      4.9555712698318928      5.9504619645026651      7.9712711160532308
    18   1      10.430340513820056      3.1565850173977879      10.697418857419223
    19   1       3.541782747973798      4.6243783155935887      9.2843665578485002
    20   1     0.81155025456914132      7.2448750762572445      9.4265447417244559
    21   1     0.78809456616568951      4.5310464849946754      1.1853835067142811
    22   1      10.419557728868995      5.9174289780821141        7.98633236159543
    23   1     0.79444111701867826      1.7693679876320232      3.9435514827095233
    24   1      10.525893665608635     0.45083507863014916      7.9346592262260174
    25   1      7.7245649419273832      5.8966362955702607      5.2446817711027904
    26   1      9.0051530386002696      1.8708013458564352      1.1216726989119152
    27   1      6.3277549584700523      1.8269227895519862      9.3795413776903729
    28   1     0.85513289429091799      9.9842469143813446      6.5704889716254229
    29   1      7.7197913402121685      8.6301086212972677      7.9606778215454597
    30   1      2.1954847842158216      3.2886465531036322      8.0264258138481637
    31   1      4.8644049515934569      5.8736768028181814      2.6126767107086266
    32   1      4.8985229654838065      8.5997057881871797      5.2484676863293487
    33   1      3.6462374080178961      10.062586936004607      3.8843525916180681
    34   1     0.81583642132128631       7.372070536315789      3.8835644541407532
    35   1       3.524064093646416      7.2606981772118502      1.2321472496997856
    36   1      10.409136403427908      3.1737582377608362      5.2396385348698118
    37   1      2.2653073077541706     0.41550464226093098      10.734623878291529
    38   1      2.1701224293442465      8.6535398933379497      8.0883619333293382
    39   1      6.2122053733953635      4.5853793004388308      1.1910726003571384
    40   1      7.6075221462019726      8.6311079887036612      2.5549896872892788
    41   1      4.9233630859915536      0.5079914314673033      2.5127503531072648
    42   1      2.2207869499140571      8.6108474368887187      2.5036022476995186
    43   1     0.82998452734288719      4.5550569358731536      6.5747492619000809
    44   1      7.5927697960399314     0.39241609159135393      10.743019213445109
    45   1      9.0180890060541969       7.238029409523449      6.6180809241254792
    46   1      7.7318382600383302      3.2450851661627382      2.5097193171894645
    47   1      6.3364708699215271      7.1959891376478708       9.374356997034738
    48   1      8.9813155301982874      10.002670317412196      3.9705327803324622
    49   1      10.354349005601819     0.46178772359330367      2.5508909830433169
    50   1      4.9242852295529076      3.1690673758795924      5.3124791155284754
    51   1      7.6194003416608211     0.45870680042266798      5.3185583842707445
    52   1      3.5382116318456269      1.8319205999937651      1.1406610041033289
    53   1      9.0583875233072035      10.061283864737049      9.3151009992343461
    54   1      7.6843955637093586      3.1836049269432465      7.9797268026151187
    55   1      4.8855798596912621      3.2539597434134748       10.68591899390708
    56   1      5.0070756808339922      0.4526030342001448      7.9972890624327988
    57   1      10.349441722272502      8.6432743134666907      5.2686367376220176
    58   1      6.1937774277853919      9.9928823572884085      1.1995021670890864
    59   1      8.9499983408053367      7.2533255713001381      1.2212405172327365
    60   1      3.5804475590933009      9.9529083099725426      9.3477900475215279
    61   1       9.034588302357804      4.4954836064742381      9.3419067586212918
    62   1     0.87701425455936288      1.8146847569328486      9.3060865754407018
    63   1      6.2593184082682001       7.257341211242192      3.9797960725678934
    64   1      6.3265933560950884      4.5849299095758909      6.6923929759490761

Velocities

     1                       0                       0                       0
     2                       0                       0                       0
     3                       0                       0                       0
     4                       0                       0                       0
     5                       0                       0                       0
     6                       0                       0                       0
     7                       0                       0                       0
     8                       0                       0                       0
     9                       0                       0                       0
    10                       0                       0                       0
    11                       0                       0                       0
    12                       0                       0                       0
    13                       0                       0                       0
    14                       0                       0                       0
    15                       0                       0                       0
    16                       0                       0                       0
    17                       0                       0                       0
    18                       0                       0                       0
    19                       0                       0                       0
    20                       0                       0                       0
    21                       0                       0                       0
    22                       0                       0                       0
    23                       0                       0                       0
    24                       0                       0                       0
    25                       0                       0                       0
    26                       0                       0                       0
    27                       0                       0                       0
    28                       0                       0                       0
    29                       0                       0                       0
    30                       0                       0                       0
    31                       0                       0                       0
    32                       0                       0                       0
    33                       0                       0                       0
    34                       0                       0                       0
    35                       0                       0                       0
    36                       0                       0                       0
    37                       0                       0                       0
    38                       0                       0                       0
    39                       0                       0                       0
    40                       0                       0                       0
    41                       0                       0                       0
    42                       0                       0                       0
    43                       0                       0                       0
    44                       0                       0                       0
    45                       0                       0                       0
    46                       0                       0                       0
    47                       0                       0                       0
    48                       0                       0                       0
    49                       0                       0                       0
    50                       0                       0                       0
    51                       0                       0                       0
    52                       0                       0                       0
    53                       0                       0                       0
    54                       0                       0                       0
    55                       0                       0                       0
    56                       0                       0                       0
    57                       0                       0                       0
    58                       0                       0                       0
    59                       0                       0                       0
    60                       0                       0                       0
    61                       0                       0                       0
    62                       0                       0                       0
    63                       0                       0                       0
    64                       0                       0                       0
