(written by ASE)

64 atoms
1 atom types

0.0      10.887404441833496  xlo xhi
0.0      10.887404441833496  ylo yhi
0.0      10.887404441833496  zlo zhi

Atoms # atomic

     1   1      4.1837471675466418      10.150702587894045      4.6651992294453919
     2   1      1.3679594145265241      1.8558554493768895      10.058403220635114
     3   1      6.9157120059456929      1.9343581926736277      10.059087203262607
     4   1     0.02548414009962241      6.0166492891002576      8.7174968115876368
     5   1      8.2268671175168606      5.9195970862020886     0.49018752266393761
     6   1      8.1126621358616831       8.745991112527463      8.6718309126344479
     7   1      1.3982318107218816      1.8516800079907938      4.7067073706240592
     8   1       5.476744292495539      0.6383011134237826      8.7145227201438047
     9   1      6.8681589898380935      1.9235505857723751      4.5843371030007347
    10   1      8.2261798901899965     0.58207456975024741      5.9409913359774009
    11   1      1.3810306859442392      4.7006495168976414      7.3562234245858349
    12   1      8.2185516019678175      8.7515252717753356      3.1782657741275955
    13   1      6.7515970585595255      10.068222978812742      7.3077904460087098
    14   1       4.167716405832266      7.3461823779110773      7.3124816323598907
    15   1      2.7171024929283192      6.0417710495134429      5.9703331523930387
    16   1      2.7556268085650402      8.8239093232324421      3.3079268812384726
    17   1      2.8364162537437778      0.5708455980768754      5.9780230899032745
    18   1       8.293498965928336      5.9915826885763863      5.9716427130593388
    19   1      9.5497284554801922      7.3482479535309153      7.3822673285603742
    20   1    0.013650056075236061     0.54043169243018241      8.6896981741930404
    21   1      5.4819494392271508      3.3321881473783606      5.9157138299943881
    22   1       4.112646719160864      1.9789205693706009      1.8397688788333255
    23   1    0.036208132619026667     0.57682237487775012      3.2703448262992083
    24   1      2.8415688363455729     0.52699673077167475     0.47928634674456205
    25   1      6.8398373069048262      4.5865327910653662      1.8817818952341838
    26   1      5.5791288343406791      6.0069087015872924       8.661860600405987
    27   1      6.8920789136041094      4.6951416397146772      7.2728476295381483
    28   1      4.1267481826290009      1.9698553660317941      7.3243144020275395
    29   1       2.744779778566425      8.6901576236240317      8.6692500787544304
    30   1      9.5555007756619261      10.026877072602645      4.6014905306976175
    31   1      6.8648604284571206      7.3444659319436028      4.5685513160889002
    32   1    0.045197952465718672      6.0445835549285789      3.2315401686367977
    33   1       8.190529080316594      3.3066286770199724      8.7475355894282529
    34   1      5.4442680964871215      8.7028372598276178      5.9136651268112814
    35   1      9.6249425337290404      4.6116405992712544      10.035167928436465
    36   1      2.7965408452888028      5.9751619139975674     0.53969757919740147
    37   1    0.067517205193706076      8.6827889113515653      5.9595867080749372
    38   1      1.4189143356900757      10.100835452194758      1.8283897181377995
    39   1      4.1240602736697269      4.6802364642122427      4.5672972397818512
    40   1      2.6894114173178849       3.312319555247484      8.7308416111623615
    41   1      6.8134137731038322      10.092266201154871       1.882060128205282
    42   1      4.0675593501055971      7.4196728718538338      1.9582784409095808
    43   1      10.835972063157442      3.2247457681530705     0.54647478277446027
    44   1      5.5434332476159511      6.0058100463801338      3.1250306404807873
    45   1    0.052437845103297409       3.302058517955345      6.0586843694568415
    46   1      9.5688494688758965      1.9080743431805729      1.9319785301546375
    47   1      8.2435915959568433      3.3197353156608358      3.2452733587262799
    48   1    0.052203227989530809      8.7056270523471539     0.44189260604506586
    49   1      9.5992276422707619      4.6034561695768161      4.5983561511048379
    50   1       5.525700316611335     0.63652378878435201      3.2018219670940766
    51   1       1.423825188188701      7.3019383062224392      4.6335734691422203
    52   1      9.5897291093309036      7.3945550050798943      1.8474070633885873
    53   1      5.5119953554063841      8.6657114096199734     0.53689659246503396
    54   1      6.8496531714432081      7.3609509515699756      10.099956138665107
    55   1      1.3688332120672442      4.5983275977503695      1.9038357923917033
    56   1      4.1731159100562252       4.622073605630078      10.013230515986379
    57   1      1.4412711255339161      10.142666765430818      7.3124199830718339
    58   1       2.749346692931681      3.2743238011383653      3.2253476598864665
    59   1      4.1371286248580077      10.068053605505554      10.058595955777776
    60   1      5.5215341226184478      3.2871306295573106     0.48448524742988397
    61   1      8.2308860021582859     0.49694477133986226     0.51019811095105538
    62   1      1.4347625830648099      7.3513888225224377      10.022291663450972
    63   1      9.5497102851637123      10.003614524929276      9.9903255341837394
    64   1      9.5513819542798615      1.9372383500706576      7.3245356905246695

Velocities

     1                       0                       0                       0
     2                       0                       0                       0
     3                       0                       0                       0
     4                       0                       0                       0
     5                       0                       0                       0
     6                       0                       0                       0
     7                       0                       0                       0
     8                       0                       0                       0
     9                       0                       0                       0
    10                       0                       0                       0
    11                       0                       0                       0
    12                       0                       0                       0
    13                       0                       0                       0
    14                       0                       0                       0
    15                       0                       0                       0
    16                       0                       0                       0
    17                       0                       0                       0
    18                       0                       0                       0
    19                       0                       0                       0
    20                       0                       0                       0
    21                       0                       0                       0
    22                       0                       0                       0
    23                       0                       0                       0
    24                       0                       0                       0
    25                       0                       0                       0
    26                       0                       0                       0
    27                       0                       0                       0
    28                       0                       0                       0
    29                       0                       0                       0
    30                       0                       0                       0
    31                       0                       0                       0
    32                       0                       0                       0
    33                       0                       0                       0
    34                       0                       0                       0
    35                       0                       0                       0
    36                       0                       0                       0
    37                       0                       0                       0
    38                       0                       0                       0
    39                       0                       0                       0
    40                       0                       0                       0
    41                       0                       0                       0
    42                       0                       0                       0
    43                       0                       0                       0
    44                       0                       0                       0
    45                       0                       0                       0
    46                       0                       0                       0
    47                       0                       0                       0
    48                       0                       0                       0
    49                       0                       0                       0
    50                       0                       0                       0
    51                       0                       0                       0
    52                       0                       0                       0
    53                       0                       0                       0
    54                       0                       0                       0
    55                       0                       0                       0
    56                       0                       0                       0
    57                       0                       0                       0
    58                       0                       0                       0
    59                       0                       0                       0
    60                       0                       0                       0
    61                       0                       0                       0
    62                       0                       0                       0
    63                       0                       0                       0
    64                       0                       0                       0
