(written by ASE)

64 atoms
1 atom types

0.0      10.887404441833496  xlo xhi
0.0      10.887404441833496  ylo yhi
0.0      10.887404441833496  zlo zhi

Atoms # atomic

     1   1      8.5926414287157513      9.5743433938515636      4.4489510483189463
     2   1      5.8873882534218751      6.8340247524508868       9.836637752697527
     3   1       4.451587691028152      2.6401361147839424     0.28912228358549008
     4   1       1.769004419067457      2.7036507805093066       3.001136986502587
     5   1      7.2473183348839143      2.7872960478397886      2.9748412938568265
     6   1      10.003496417872157      10.789443723111333       3.019761885364403
     7   1      3.1915573606326291      4.0644288641520632      9.8619671738704824
     8   1      3.1128727519361234      9.5053085210856239      4.4372201622115597
     9   1     0.37290299683535721      6.7567055132498695      4.4266992244997709
    10   1      3.1310670791913537      1.2806419586824518      1.7038902787869574
    11   1      5.8979367710783208      6.7133952660403224      4.3638863872484421
    12   1      1.7772509847548577       10.83366637978412      5.7519136184472472
    13   1       8.551384427268431      6.7184998270914207      7.0975845440516991
    14   1     0.41120310374551394      1.3453390739762412      9.8565835686734431
    15   1      8.6046786144437988      1.3024195696884959      7.1375761127441706
    16   1      4.5088485231850655      2.6802508198175587      5.8773660260034717
    17   1      7.2827887394722666       8.177038269270156      8.4374993729712742
    18   1      8.6147748210078703      9.4496320756317687      9.8270055381435668
    19   1      5.9298023146650394       4.000882075902922      7.0608759621832178
    20   1      7.1751698486011719      5.4654163980500812     0.28560373158713581
    21   1      4.5286311307825997    0.020925718988463182      3.0959909055766275
    22   1      7.2524203001755154      2.6275533328565928      8.4967073492209693
    23   1      4.3598266193949371      10.860908875706457      8.5213287769910835
    24   1      1.8510469671434322      2.7290650505708243      8.4395928530057063
    25   1      7.2678494946264323      8.2270806187354992      3.0591651900608383
    26   1     0.47957508442987518      4.1006854593981075       1.612655821861722
    27   1       3.047280505203247      1.3676076891146636      7.1225538035944282
    28   1      9.9923813757054631      10.867460572677203      8.5074213465453568
    29   1      1.8801884233728856      8.1604507171436467      3.0912140591620414
    30   1      4.4897612546628238      8.0671221312441048      5.7607937116869152
    31   1      8.5912565910240346      4.0525178972295635      9.8995855694427064
    32   1      9.9175404378843268      8.1493713666700387      5.8099230027491444
    33   1       8.624880761670056      4.0234434440421296      4.3525017105639847
    34   1     0.40727945103063945      4.0559949170759637      7.1933881866317506
    35   1      7.2967733937630328      5.3526192914521573      5.7304265702699126
    36   1       5.869846759680172      9.5903806449646822      1.7592187302332292
    37   1      1.6949989913344581      5.3917266795659202      5.7788971873597461
    38   1       3.269140718362479      6.8254924909838337      1.6773475022840643
    39   1      3.0724392551892663      9.3897161059792325      9.8185608835595417
    40   1      0.4682789069207729      1.2961661417074666      4.3822672847175284
    41   1      9.9726419226095686      2.6912226085070046     0.33585907528684089
    42   1      5.8001188191284996       4.104845488462189      1.5920060683571791
    43   1      7.2744777665023435      10.830429467691204     0.35626324560771039
    44   1      8.6635997592690615      1.2664153309360628      1.7476255816141588
    45   1      5.8374802345105081      1.3135169282436152      9.8652585969128381
    46   1      1.7128837742696561      8.0285465493573156      8.4309003033897056
    47   1     0.47458964440444973       9.501488860985603      1.6645455409141761
    48   1      9.9206495088220095      8.0999753613194798     0.36735180291578473
    49   1      8.5461779826570705      6.7638977138765313      1.7061020281134773
    50   1      9.9497213662499462      2.6371639701597331      5.7755025828773796
    51   1     0.47163660294778964      9.5292342853105083      7.1332301624061074
    52   1      1.8385670421861562      5.5127481256605506     0.35818337757822505
    53   1      1.7817640371105483      10.843389445920479     0.33761652614262161
    54   1      3.0722776691605702      6.6929199151269927      7.0788976714318892
    55   1      9.9943080781922049      5.3843982015656593      2.9796009433647441
    56   1      3.0953929074824771      4.0016718357299226       4.421277331850149
    57   1      4.4462449690431924      5.3410678372200096      3.0798728614491608
    58   1      5.8492773124850714      9.4968262279888904      7.1007948496097697
    59   1     0.34415682610682552       6.778485233310505      9.8351847763190108
    60   1      5.8869898043390663      1.3955362767190849      4.5349021612577189
    61   1      9.9017965075943835      5.3520741819577609      8.4998715800479658
    62   1      7.2540017666491394      10.885076045564574      5.8164708060806447
    63   1      4.5404385917951515      8.2091744207844499     0.33434357760731181
    64   1      4.6002841514713282      5.4199682184247138      8.4839388082546066

Velocities

     1                       0                       0                       0
     2                       0                       0                       0
     3                       0                       0                       0
     4                       0                       0                       0
     5                       0                       0                       0
     6                       0                       0                       0
     7                       0                       0                       0
     8                       0                       0                       0
     9                       0                       0                       0
    10                       0                       0                       0
    11                       0                       0                       0
    12                       0                       0                       0
    13                       0                       0                       0
    14                       0                       0                       0
    15                       0                       0                       0
    16                       0                       0                       0
    17                       0                       0                       0
    18                       0                       0                       0
    19                       0                       0                       0
    20                       0                       0                       0
    21                       0                       0                       0
    22                       0                       0                       0
    23                       0                       0                       0
    24                       0                       0                       0
    25                       0                       0                       0
    26                       0                       0                       0
    27                       0                       0                       0
    28                       0                       0                       0
    29                       0                       0                       0
    30                       0                       0                       0
    31                       0                       0                       0
    32                       0                       0                       0
    33                       0                       0                       0
    34                       0                       0                       0
    35                       0                       0                       0
    36                       0                       0                       0
    37                       0                       0                       0
    38                       0                       0                       0
    39                       0                       0                       0
    40                       0                       0                       0
    41                       0                       0                       0
    42                       0                       0                       0
    43                       0                       0                       0
    44                       0                       0                       0
    45                       0                       0                       0
    46                       0                       0                       0
    47                       0                       0                       0
    48                       0                       0                       0
    49                       0                       0                       0
    50                       0                       0                       0
    51                       0                       0                       0
    52                       0                       0                       0
    53                       0                       0                       0
    54                       0                       0                       0
    55                       0                       0                       0
    56                       0                       0                       0
    57                       0                       0                       0
    58                       0                       0                       0
    59                       0                       0                       0
    60                       0                       0                       0
    61                       0                       0                       0
    62                       0                       0                       0
    63                       0                       0                       0
    64                       0                       0                       0
