(written by ASE)

64 atoms
1 atom types

0.0      10.887404441833496  xlo xhi
0.0      10.887404441833496  ylo yhi
0.0      10.887404441833496  zlo zhi

Atoms # atomic

     1   1      9.7091749294107785       7.189327120898497      7.4766251331005265
     2   1      5.5423592521240153      8.5736281393391778      8.9271206144774169
     3   1    0.077884567228371893      8.6398381768323702      8.8925256297794704
     4   1      1.5231767472964179      7.1947853541810787      4.7915783231420903
     5   1      4.1850301216780963      7.2711298856909252      7.4834519805779678
     6   1      9.6573187929968185      1.7395952751398625      2.0058622816612086
     7   1      6.8577564836533611      9.9425817297531012      7.5564810782701102
     8   1      2.7922912625220704     0.43121466544244313      3.4699000025695739
     9   1      6.9086203909995447       4.546316040236519      2.1081777114097378
    10   1      5.6397469569371879      5.8622457269327128     0.66291734967490257
    11   1      4.1942311156855965      10.073576732775564      10.306123038844589
    12   1      5.5215341226184478      8.5317565918309128      3.3647431895815032
    13   1      4.1771390128068333      1.8042755991144048      2.0221829572644197
    14   1      2.8411492967168499      3.1474440503286587     0.67258221401628759
    15   1      9.5523806727463807      9.9718593011211851      10.246580858559639
    16   1      6.9460447535493586      7.2019107140006895      4.7617910095027582
    17   1     0.15546674875469968      3.1978796573578165      3.4213012198545698
    18   1      5.6166745486469836      3.1297244225914653      8.8529383506286763
    19   1      8.3256279791040129     0.49324666579004273      8.8441562473100248
    20   1      6.9580572795621833      1.8556902941788849      10.306842064225293
    21   1      8.3207589832272788      5.8843590020887291      8.8412275816573924
    22   1      1.5526953998277975      4.5952779048111836      2.0595271757397597
    23   1     0.12492144292315022      5.8695060662461742     0.66200315562700851
    24   1      4.1818402577260656      9.9612763896514025      4.7909978464245455
    25   1      8.2973919562341507      5.8768721827591435      3.4506245414837906
    26   1     0.10206426973781113       3.233765383465709      8.8987755697086754
    27   1      2.8798485016496898     0.52237749562905478      8.8853541952287856
    28   1      1.5475274049039882      4.5232001529747379      7.5242183834803313
    29   1      2.8923824508514997      5.9164302596155949      3.4260637895919217
    30   1       1.468171630142507      1.8619150876879615      10.209785967687878
    31   1      9.6241897634748739      9.9269474703019114      4.8048731543464953
    32   1       5.529847691347868     0.36537687608463543      6.1341852791301221
    33   1      1.4980353564520357      7.3047540563369466       10.21829681413908
    34   1      5.6048956409889001      3.1116125107002688      3.4042461065486407
    35   1      9.6422789624704706      4.5632702433919974      10.205158377444377
    36   1       8.286993343688664      8.5848788099395961     0.73071278783970683
    37   1      2.7870004557270533      3.1132017644523842      6.1754928978876364
    38   1      2.7980424921578901       8.566894739203633      6.1667698480975446
    39   1      6.9374119064017918      4.5242381323036511      7.4368113739336081
    40   1      1.3933079794257708      1.7705445156240955      4.8442307087817937
    41   1      9.6923686845466364      7.2194866015557295      2.1293454811689259
    42   1     0.13359306422820527      8.5788942864189721      3.5255135008556238
    43   1      9.6431057118703052      4.4804103555443646      4.8005755500290661
    44   1      4.2602136997528532      7.2236359231118854      1.9815637014785494
    45   1      8.2654959124733409      8.6095430677414129      6.1958748014590697
    46   1       2.855071328309748      8.6670138319476564      0.6687242664636841
    47   1      9.6727583704857238      1.8382336493257441      7.5459046561990704
    48   1      6.9318316724228453      9.9358515743169278      2.0457837648472577
    49   1      4.1609258989877844      4.4496515789132332      4.7319955841149977
    50   1       4.201309751834259      1.8255890558753691      7.5502298404611565
    51   1      8.2980415450483065     0.45905077911477932      3.3621565152426172
    52   1      6.9177282621350855       1.721989698585574      4.7964804149524127
    53   1      4.1559864931346908      4.5148843129557577      10.225621398500095
    54   1      6.9933050977736571       7.216363902880687      10.229312568505009
    55   1      1.5395645881766171      9.9766802754472224      7.5680380484911893
    56   1     0.11913684358223264     0.42129724181373618     0.68010748303342439
    57   1      5.5580382884265305     0.48496209656125444     0.68795251717361339
    58   1      8.2853093447149035      3.1972891220722204     0.76847200336464994
    59   1     0.15962829877161155      5.7796337341170556      6.1123393672023099
    60   1      5.4868054563063993      5.8419936113361359      6.1031056017311585
    61   1      2.8569490358359815      5.9892821967220584      8.8567547660293258
    62   1      1.4337877131386705      9.9448906578257947      2.0930778539450188
    63   1       8.220657411859861      3.1269141884658893       6.114887105148739
    64   1    0.080636472812904092     0.40683987538329802      6.2006263392185588

Velocities

     1                       0                       0                       0
     2                       0                       0                       0
     3                       0                       0                       0
     4                       0                       0                       0
     5                       0                       0                       0
     6                       0                       0                       0
     7                       0                       0                       0
     8                       0                       0                       0
     9                       0                       0                       0
    10                       0                       0                       0
    11                       0                       0                       0
    12                       0                       0                       0
    13                       0                       0                       0
    14                       0                       0                       0
    15                       0                       0                       0
    16                       0                       0                       0
    17                       0                       0                       0
    18                       0                       0                       0
    19                       0                       0                       0
    20                       0                       0                       0
    21                       0                       0                       0
    22                       0                       0                       0
    23                       0                       0                       0
    24                       0                       0                       0
    25                       0                       0                       0
    26                       0                       0                       0
    27                       0                       0                       0
    28                       0                       0                       0
    29                       0                       0                       0
    30                       0                       0                       0
    31                       0                       0                       0
    32                       0                       0                       0
    33                       0                       0                       0
    34                       0                       0                       0
    35                       0                       0                       0
    36                       0                       0                       0
    37                       0                       0                       0
    38                       0                       0                       0
    39                       0                       0                       0
    40                       0                       0                       0
    41                       0                       0                       0
    42                       0                       0                       0
    43                       0                       0                       0
    44                       0                       0                       0
    45                       0                       0                       0
    46                       0                       0                       0
    47                       0                       0                       0
    48                       0                       0                       0
    49                       0                       0                       0
    50                       0                       0                       0
    51                       0                       0                       0
    52                       0                       0                       0
    53                       0                       0                       0
    54                       0                       0                       0
    55                       0                       0                       0
    56                       0                       0                       0
    57                       0                       0                       0
    58                       0                       0                       0
    59                       0                       0                       0
    60                       0                       0                       0
    61                       0                       0                       0
    62                       0                       0                       0
    63                       0                       0                       0
    64                       0                       0                       0
