(written by ASE)

8 atoms
1 atom types

0.0       5.443702220916748  xlo xhi
0.0       5.443702220916748  ylo yhi
0.0       5.443702220916748  zlo zhi

Atoms # atomic

     1   1       2.721851110458374       2.721851110458374       2.721851110458374
     2   1       1.360925555229187       4.082776665687561       4.082776665687561
     3   1       4.082776665687561       4.082776665687561       1.360925555229187
     4   1       1.360925555229187       1.360925555229187       1.360925555229187
     5   1       4.082776665687561       1.360925555229187       4.082776665687561
     6   1      2.7288642036797341     0.02341422976421792      5.4262937598492726
     7   1    0.025824377247771091    0.013721229062932161       2.712269026509702
     8   1       5.441684991317544      2.7303152332386276      5.4420234134619818

Velocities

     1                       0                       0                       0
     2                       0                       0                       0
     3                       0                       0                       0
     4                       0                       0                       0
     5                       0                       0                       0
     6                       0                       0                       0
     7                       0                       0                       0
     8                       0                       0                       0
