(written by ASE)

8 atoms
1 atom types

0.0       5.443702220916748  xlo xhi
0.0       5.443702220916748  ylo yhi
0.0       5.443702220916748  zlo zhi

Atoms # atomic

     1   1      1.8868210755929482     0.14690583253632283      5.4405217665928944
     2   1      3.2215883511947538      4.3074500332018033      1.4799751975158131
     3   1     0.56748506293790868      4.2238110930350956      4.0388541437066294
     4   1      4.6229032752593469      3.0014994194223732     0.11901972007461037
     5   1      3.3669810587379629       1.603811582550108      4.1955195858059824
     6   1     0.50994745792461416      1.4894012114247204      1.3379270449671665
     7   1      4.6120607878398516     0.28268812584947334      2.7632836501416875
     8   1      1.8705526396496168      2.8402437011222901      2.8308548390211854

Velocities

     1                       0                       0                       0
     2                       0                       0                       0
     3                       0                       0                       0
     4                       0                       0                       0
     5                       0                       0                       0
     6                       0                       0                       0
     7                       0                       0                       0
     8                       0                       0                       0
