(written by ASE)

8 atoms
1 atom types

0.0       5.443702220916748  xlo xhi
0.0       5.443702220916748  ylo yhi
0.0       5.443702220916748  zlo zhi

Atoms # atomic

     1   1      0.7848489745019549      3.8382892169918819      4.9639364292813184
     2   1      4.9032014975074389      2.5174266138413373      3.6269778459590327
     3   1       3.474280346720974      3.7922709436869582      2.2479948897880888
     4   1     0.88730214173880029       1.046548498835655      2.3891493710123655
     5   1      4.9842605772039406      5.2273787627648858      1.0614469415868939
     6   1      2.2528864363254542      5.2402235541664766      3.7432166051802085
     7   1      3.6238765622998415      1.1862915358333694      5.0878148331724731
     8   1      2.0554051096583237      2.4350514840797928     0.85656599688578439

Velocities

     1                       0                       0                       0
     2                       0                       0                       0
     3                       0                       0                       0
     4                       0                       0                       0
     5                       0                       0                       0
     6                       0                       0                       0
     7                       0                       0                       0
     8                       0                       0                       0
