(written by ASE)

8 atoms
1 atom types

0.0       5.443702220916748  xlo xhi
0.0       5.443702220916748  ylo yhi
0.0       5.443702220916748  zlo zhi

Atoms # atomic

     1   1      3.7546823993489511     0.16619072352965425      4.9355297352245202
     2   1       5.122922480371102      4.2591899971011742      3.6150779110143958
     3   1      5.1192303369563774       1.577386588634397     0.89484339090034126
     4   1      2.3507311570450895      1.5352139330244654      3.5948822531868814
     5   1      1.0172903145463152     0.19711729167702963      2.2518677629578008
     6   1      1.0173192734882051       2.952635220298788      4.9738444432818483
     7   1      2.4781000462850358      4.2631102428817087     0.87862751908682668
     8   1      3.7155548940990855      2.8986132470544135      2.3161306563582116

Velocities

     1                       0                       0                       0
     2                       0                       0                       0
     3                       0                       0                       0
     4                       0                       0                       0
     5                       0                       0                       0
     6                       0                       0                       0
     7                       0                       0                       0
     8                       0                       0                       0
