(written by ASE)

216 atoms
1 atom types

0.0      16.331106185913086  xlo xhi
0.0      16.331106185913086  ylo yhi
0.0      16.331106185913086  zlo zhi

Atoms # atomic

     1   1      12.618583571775162      10.547481964909935      8.0036190749810316
     2   1      7.1912545868241295      7.8462946390329193      5.3036704130528847
     3   1      1.7280817334336689      5.0925996426412894      13.456959029448512
     4   1      9.9183925308110474      15.985106705135763      16.199936297424415
     5   1      11.296163551538484      9.1869656059959652      14.794216735007467
     6   1      7.1405365301955612      15.991987738891794      13.486103891761331
     7   1       11.25541272438295      3.7672645034569712      14.824984271428548
     8   1      7.1717688697880249      16.004704364296913        2.58509798845148
     9   1      9.9197231819844092      13.260159906570379      13.457106987735528
    10   1      5.8493809720741865      11.882099783137392      6.7063008595234805
    11   1      9.8775862192978821      10.533725737856571      10.748325605436435
    12   1      4.4479302982605873      13.264106109830664      8.0332774109543834
    13   1      5.8218670578527849      11.860105589090495      1.2065686815030858
    14   1      11.270051834109495      1.0053609857177435      12.103985622943014
    15   1      3.1210194519900369      11.919541990440507      9.4101071444216586
    16   1      7.1562444438638408      13.263021731332401      16.177255849480503
    17   1      1.7570818010412665      7.8427533742423634      5.3378901472693769
    18   1      7.1997149779530787      13.262682984727917      10.732321775194123
    19   1      15.373386795204738      15.985626505959885      5.2858930301859459
    20   1      9.9206391605902127      2.3467680938291835      13.451953756344324
    21   1      9.8817329449734643      7.8423474623628522      2.5944118166076748
    22   1      12.609243704907271      7.8300484297546404      16.157400236726858
    23   1      9.9344576858696882       7.834808403593513      13.439462962008861
    24   1      8.5536953768790909     0.98912493640407462       9.356144226281458
    25   1      3.0914881459933667      6.4430178484664111      3.9466064952867725
    26   1      9.9282074216530418       10.52033356606205      16.175215582575333
    27   1      8.5508170041507583      9.1972876433349029      6.6531682599281794
    28   1      13.989669214112951      1.0294688174322033      9.3675467484795263
    29   1      8.5647095085737419      14.608780224526299      1.2155075035403797
    30   1      12.597750655599384      13.269322612857763      5.2515710879422386
    31   1      12.605859159091779      15.975260665180713      7.9827316478574062
    32   1      11.247439524850392      6.4884103801721835      12.072129814384539
    33   1       11.25511096735022      14.610312371524742      14.824484912209869
    34   1     0.38071249040135058      3.7612218188765496      3.9357685507628446
    35   1      5.8228059115884889      14.655300451465678      3.9127371885921605
    36   1      3.0751360784011865       6.494770639694309      14.805247414668429
    37   1      4.4494604984394641      15.982947682237068      16.189117821096147
    38   1      9.9015759033999302      13.274509913591373      8.0001040922546167
    39   1       1.741107903149782      10.563816754478466      13.449112373187745
    40   1      9.8816609126495223      2.3608294848495177      7.9918554177534702
    41   1      12.624552520564521      2.3612061944355389      5.2949082648912054
    42   1      7.1497810029047173      10.521984469054019      2.6038852839682818
    43   1      12.607831287312138      5.1225860177115123      8.0230595284622268
    44   1      9.9000272084351764      10.543887162581314      5.3016778432270826
    45   1     0.39432170215842532      3.7544824162439454      9.3812075813741558
    46   1      11.220768096796178      11.911025628249035       12.08903210185656
    47   1      8.5403294871487105      3.7271461493079414      6.6436356579232552
    48   1      13.967244772941967      3.7617284786686014       6.690748691420481
    49   1      9.8831784585012201      5.0802543730683851      10.749840231058784
    50   1      11.248861676543356      9.1694121073791166      3.9423380933883152
    51   1      1.7367434987114763      7.8331686948140486       16.20962172476527
    52   1       11.23914023304053      6.4992823940385165       1.220316512897071
    53   1      13.986057863818019      3.7458998621872297      12.079470297558146
    54   1      4.4234767843969394      7.8099212356715384      2.5947566470233028
    55   1      12.611046459825388      15.999453791927408      2.5474944384768321
    56   1      5.8322416593200046      11.927690403734005      12.091461732674929
    57   1      12.606353651261543      5.1044002894406049        2.59196417770832
    58   1      3.1302675749858793      3.7461787440900594      12.129057738723759
    59   1      11.244111436802314      3.7403178437866131      3.9581226630770061
    60   1       7.153801672013401      10.526003678048028      13.459816960571402
    61   1      5.8015524823864553      9.1778749320325232      3.9394054530645803
    62   1      7.1906379317265987      10.549490109292265      8.0439158064727962
    63   1      4.4773233800680714      5.0958834405442417      5.2899214865728936
    64   1      15.356906967578539      5.1029085389481565      10.704144482205606
    65   1      5.8153559198142943      6.4972596485094414      1.1882347515927165
    66   1      3.0821261340529134       3.730973109869808      6.6624789245025795
    67   1      4.4404272556532192       10.55448467488884      16.163559973833685
    68   1      11.245793488907339       14.59464923470648       9.354287933825276
    69   1      8.5186477576421566      9.1796572453451972      12.109478574348486
    70   1      15.332900735510179      5.1030686648574601      16.152532214402072
    71   1      8.5353115597173428      14.626899274227071      12.121379482355451
    72   1      13.989792837155392      3.7508881006202159      1.2399955734513242
    73   1      5.7997039772085373      1.0559559060087622       12.08507421767888
    74   1      15.357936835128953      2.4053712564049476       8.006070120814627
    75   1      11.223083838669936      9.1963307815182134      9.3604398836538394
    76   1      12.598047545583199      2.3484189968211524      10.758409157378537
    77   1      8.5579803267438592       1.024718334338715      14.802088699922592
    78   1      5.8191833670810524       9.173854749628731      9.3872076792765711
    79   1      3.0980472244636701      11.896085734899543      3.9222685738348559
    80   1      3.0804231536375539      9.1925948347710573      12.121208162233643
    81   1      3.0975987259061526      1.0140900987849122       9.438042058374208
    82   1       1.734859220724033      2.3579730138413026      5.2972571026975857
    83   1      12.598496287493163      7.8259362601263547      5.3038553609116548
    84   1      5.8254414185759629      1.0346252124052029      1.1700332054128353
    85   1     0.34208722518322077      14.604698717306178      14.827332135825145
    86   1      8.5332790800904377      6.4532561725640107      3.9461039724862985
    87   1      5.8430143853884715      6.4615194482119023      6.6438274196505063
    88   1      7.1865179748200489      5.1223241704798852      8.0218632078389192
    89   1      7.1708528911822214      15.964520061635085      8.0244334963709321
    90   1       12.61483302388126      10.527082216087592      2.5894423163130114
    91   1      12.642936337726269      15.993268746166223      13.463421496997853
    92   1      15.362505047240575      7.8466129440319605      8.0253781905653341
    93   1      13.945052003299338      9.1874075340374475       12.09001816596674
    94   1       9.877433393961951      15.981330848587504      5.3142932340147695
    95   1      12.608410466133023      13.308349531287604      16.197297383502701
    96   1      1.7181597675155444      13.259248795013491      10.743283342760492
    97   1      8.5508101902822773      1.0125562483193491      3.9406789164131908
    98   1       15.32573157245838      13.281180690834276      13.442416287290484
    99   1      13.966645152515639      11.884842851905887      14.812860452581276
   100   1      8.5615566342866032      11.882596222126722      14.837514975565114
   101   1     0.35751050774713988      6.4618333728669199      1.2038383887379922
   102   1       12.58499022675403      7.8457904127653251      10.712230597272992
   103   1      1.7368848864824571      2.3609730627925103      10.774299098676238
   104   1      8.5511284952813185      6.4851290157936887      9.3822637309887114
   105   1      7.1732752214272182      7.8137895661491825      10.746392413607396
   106   1      1.7399232634438704      15.969184641315223      2.6046119343712917
   107   1      9.9083391545722179      15.985219620670591      10.743296970497454
   108   1      8.5189329667085758      14.637541563384616      6.6699668792583111
   109   1      7.1887066867171256       5.138316319804801      13.444145063065093
   110   1      8.5355159757717729       6.491071682518907      14.786349637141257
   111   1      12.605126181525179      5.0960513537318093      13.445856317463608
   112   1      14.005061743011538      11.888638176649806      9.3636161197757701
   113   1      13.968002085753142      11.900974198829772      3.9622925072349346
   114   1      4.4779088860525462      7.8243223467061398      8.0160981883990985
   115   1       3.098791396242774      9.1753031833858358      6.6859848239424764
   116   1      7.1836877858759749      2.3827842558002033      16.196717231272032
   117   1       8.541119895892507      9.1929335813755415      1.1961948100932034
   118   1       13.98431935394558      1.0260008017278182      3.9259960032464107
   119   1      3.0963272093771081      9.1675694426598966      1.2034549869597129
   120   1      11.250658591002775      11.908239729450088      6.6374345509006503
   121   1      15.354120095369808      7.8206920149204393      2.5896457589576585
   122   1      7.1652757398305198       2.381806709025625      5.3230704700280853
   123   1       11.24391870166528      6.4563798445576595      6.6683106225125357
   124   1      7.1791594835654564      13.287003628156185      5.2666423916124359
   125   1     0.35348965612412186      11.950859503388983      12.128994467087864
   126   1      15.336040955470139      10.547184101516336      16.196461224499103
   127   1       1.742895083511371      10.553317556559023      8.0345705858510996
   128   1      15.362680261001515      10.530244824472561      5.3321421625007588
   129   1        9.89563907713341      7.8464026875188324      7.9866252869894083
   130   1     0.36235708463764382      6.4749982534771107      6.6607671833991731
   131   1      8.5543826041858892      11.893801142138841      9.3991270820694126
   132   1      5.8103005161062811      14.609337988331959      9.3845054937189616
   133   1     0.36708852540225223      1.0217676859339946       6.661478259245655
   134   1      11.228485289555806      14.597310537053204       3.939740792734824
   135   1      1.7346872922211105      13.229589972335248      5.3047601453049538
   136   1      4.4634644582826013      15.960939860453209      10.736143382002183
   137   1      1.7257285152832651      5.1150381982541262      2.5802285060120198
   138   1      1.7304914093514867      5.1138783804976811      8.0202093846176012
   139   1      5.8004559362659052      14.644781785350574       14.84695413023087
   140   1     0.35227350227648557     0.99380904511798462      12.118747382302217
   141   1      1.7143368222690327      2.3731657503819292      16.180849678399341
   142   1       7.248668242645067      5.1083284846199035      2.5446199593876315
   143   1      3.1063462729210869      1.0068764630736524      3.9630133171792465
   144   1      5.7960746188326198      6.4817425231586299      12.093172987073444
   145   1      9.8646301350861449      5.1024782918240703      5.2913295238240039
   146   1      3.1326293104718843      14.622583175249247      12.105112831471729
   147   1      4.4527803125043874      2.3681380888527315       13.49683184097978
   148   1      11.226872349545374      1.0128312365830467      6.6267766871865774
   149   1      5.8071860915055709      0.9994317642151529      6.6443895638001891
   150   1      12.596492036749964      13.257867526531413      10.759849803857378
   151   1       3.098859534927584      11.916715208430674      14.821265846057486
   152   1      3.0969382673683867      14.628946355000721      1.1877291868866706
   153   1       5.826531150828032      3.7394692738082824      9.3658530154571054
   154   1      15.357171735039515      7.8570440032665942      13.443416952547409
   155   1       5.834706332890562      3.7471582376842036      14.814618430649375
   156   1      15.376572765424498      5.0834778195647914      5.3374915359632382
   157   1      12.588570427935906      10.543279754876721      13.422675536891234
   158   1      4.4473209437364289      5.1241240051686532      16.179150104918222
   159   1     0.35381218937190795      9.2214106845772221       9.367043495621715
   160   1      13.970070581542018      14.631990207392164      1.2204610642498466
   161   1      15.364525845950084      2.4049891930651199      2.5763402206338242
   162   1      14.006522831095822      6.4796394713224572      9.3958535049691818
   163   1       4.488478169476366      2.3808379229390937      8.0651400333813399
   164   1      8.5402009970573545      3.7463520110314334      12.131947792369488
   165   1      3.1008190088207641      1.0121114608866293      14.807084238928951
   166   1      7.1905245294868791      2.3831105914299542      10.753922711688688
   167   1       3.097440546816415      6.4651293383921598       9.383388019288077
   168   1      12.615482288206522      2.3929549279178843      16.161721202753597
   169   1      15.348731298811117       13.30365088226506      2.5541206822221625
   170   1      0.3664130398509613      11.907939919236924       1.219395180537461
   171   1      4.4684079198655695      7.8058012787649886      13.455971018518767
   172   1      11.274504210456939      3.7586276818048532      9.3539754692849328
   173   1      4.4736623858742064      2.3690611246794617      2.5649491360007062
   174   1      4.4705893311892737      10.543667171970355      5.2946800002970917
   175   1      4.4766930972335786      10.577226447649082      10.748100747776562
   176   1      15.340932339629717      10.538785521908608      10.728629631887202
   177   1     0.37180274898132382      1.0124303742667848      1.2113354692104394
   178   1      3.0880649071389996      3.7468243581286345      1.1920692560804014
   179   1      1.7325170751099108      13.271425177989045      16.207599952645978
   180   1      15.334698623379381      15.976282745452863      16.173230800027795
   181   1      1.7243051468280726      10.511747118366202      2.5753351750328761
   182   1      5.8395670546419751      3.7361720915208139      3.8983312105086441
   183   1      1.7296786121826813      7.8217462177154289      10.748468696674536
   184   1      5.7913107513546151      9.1855152254192944      14.842033543777802
   185   1      13.952829547465512      9.1839606899958426      6.6861376492784075
   186   1      4.4639331550931161      13.271589684242372      13.454469047223597
   187   1      1.7561372285230874      15.980725387702478      8.0191439876101072
   188   1      11.249344487795724      11.915920906047745      1.2171963695138857
   189   1      13.958271881562268      1.0244549053161904      14.822145808501318
   190   1      11.245373949290865      1.0483959189290886      1.1848892638447666
   191   1      8.5773356068690418      3.7324074291850593      1.2102409915856782
   192   1      14.018274807405987      6.4781954179093759      3.9811625425832915
   193   1      15.344441481897434      15.999528744480699      10.740208341255993
   194   1      4.4311822962391716      5.0981237431598174      10.729772414972444
   195   1     0.37157816509295216      9.1893611674719295      14.832546692032679
   196   1      3.0908683273140412      14.633042463367588      6.6558908870912319
   197   1      13.976742332194704      14.653206647022444      12.063683537697443
   198   1      4.4464293003752005      13.291929081658168      2.5559991197509078
   199   1     0.38802666109176087      14.612203706733112      3.9301497861429198
   200   1      9.8728174847709624      13.266158057653229      2.5881158021312274
   201   1      4.4908844384599433      15.991793056935194      5.2892868233943773
   202   1      0.3680083368090763      6.4900715039668739      12.088151166002945
   203   1     0.36514258798886701      14.623268455736479      9.3551552419419295
   204   1      9.9114414115506406      5.1417110864230153      16.155170154914003
   205   1      15.349181014130863      13.254470326388741      8.0319779088940777
   206   1      1.7570117155368905      15.964409092919823      13.435532333305105
   207   1     0.39182517983653042       11.89605555919627      6.6661467325649255
   208   1      8.5492984848892775       11.88998245556013      3.9074106902595815
   209   1      13.990881109292786      9.1596945575154223      1.2261710860369277
   210   1     0.38293694468889683      3.7333367921753791       14.81300451722916
   211   1        13.9618832318572      6.4871833971407113       14.81595005523252
   212   1      15.331798835635823      2.3796304081032815      13.468337216402006
   213   1      7.1905809872542932      7.8290346234656454      16.198454767734688
   214   1      9.9118035199899168      2.3976061232135066      2.5765760291537561
   215   1      13.960621692778432      14.600126611555424      6.6396850743189475
   216   1       0.369911930896901      9.1736834295069229      3.9378859603933165

Velocities

     1                       0                       0                       0
     2                       0                       0                       0
     3                       0                       0                       0
     4                       0                       0                       0
     5                       0                       0                       0
     6                       0                       0                       0
     7                       0                       0                       0
     8                       0                       0                       0
     9                       0                       0                       0
    10                       0                       0                       0
    11                       0                       0                       0
    12                       0                       0                       0
    13                       0                       0                       0
    14                       0                       0                       0
    15                       0                       0                       0
    16                       0                       0                       0
    17                       0                       0                       0
    18                       0                       0                       0
    19                       0                       0                       0
    20                       0                       0                       0
    21                       0                       0                       0
    22                       0                       0                       0
    23                       0                       0                       0
    24                       0                       0                       0
    25                       0                       0                       0
    26                       0                       0                       0
    27                       0                       0                       0
    28                       0                       0                       0
    29                       0                       0                       0
    30                       0                       0                       0
    31                       0                       0                       0
    32                       0                       0                       0
    33                       0                       0                       0
    34                       0                       0                       0
    35                       0                       0                       0
    36                       0                       0                       0
    37                       0                       0                       0
    38                       0                       0                       0
    39                       0                       0                       0
    40                       0                       0                       0
    41                       0                       0                       0
    42                       0                       0                       0
    43                       0                       0                       0
    44                       0                       0                       0
    45                       0                       0                       0
    46                       0                       0                       0
    47                       0                       0                       0
    48                       0                       0                       0
    49                       0                       0                       0
    50                       0                       0                       0
    51                       0                       0                       0
    52                       0                       0                       0
    53                       0                       0                       0
    54                       0                       0                       0
    55                       0                       0                       0
    56                       0                       0                       0
    57                       0                       0                       0
    58                       0                       0                       0
    59                       0                       0                       0
    60                       0                       0                       0
    61                       0                       0                       0
    62                       0                       0                       0
    63                       0                       0                       0
    64                       0                       0                       0
    65                       0                       0                       0
    66                       0                       0                       0
    67                       0                       0                       0
    68                       0                       0                       0
    69                       0                       0                       0
    70                       0                       0                       0
    71                       0                       0                       0
    72                       0                       0                       0
    73                       0                       0                       0
    74                       0                       0                       0
    75                       0                       0                       0
    76                       0                       0                       0
    77                       0                       0                       0
    78                       0                       0                       0
    79                       0                       0                       0
    80                       0                       0                       0
    81                       0                       0                       0
    82                       0                       0                       0
    83                       0                       0                       0
    84                       0                       0                       0
    85                       0                       0                       0
    86                       0                       0                       0
    87                       0                       0                       0
    88                       0                       0                       0
    89                       0                       0                       0
    90                       0                       0                       0
    91                       0                       0                       0
    92                       0                       0                       0
    93                       0                       0                       0
    94                       0                       0                       0
    95                       0                       0                       0
    96                       0                       0                       0
    97                       0                       0                       0
    98                       0                       0                       0
    99                       0                       0                       0
   100                       0                       0                       0
   101                       0                       0                       0
   102                       0                       0                       0
   103                       0                       0                       0
   104                       0                       0                       0
   105                       0                       0                       0
   106                       0                       0                       0
   107                       0                       0                       0
   108                       0                       0                       0
   109                       0                       0                       0
   110                       0                       0                       0
   111                       0                       0                       0
   112                       0                       0                       0
   113                       0                       0                       0
   114                       0                       0                       0
   115                       0                       0                       0
   116                       0                       0                       0
   117                       0                       0                       0
   118                       0                       0                       0
   119                       0                       0                       0
   120                       0                       0                       0
   121                       0                       0                       0
   122                       0                       0                       0
   123                       0                       0                       0
   124                       0                       0                       0
   125                       0                       0                       0
   126                       0                       0                       0
   127                       0                       0                       0
   128                       0                       0                       0
   129                       0                       0                       0
   130                       0                       0                       0
   131                       0                       0                       0
   132                       0                       0                       0
   133                       0                       0                       0
   134                       0                       0                       0
   135                       0                       0                       0
   136                       0                       0                       0
   137                       0                       0                       0
   138                       0                       0                       0
   139                       0                       0                       0
   140                       0                       0                       0
   141                       0                       0                       0
   142                       0                       0                       0
   143                       0                       0                       0
   144                       0                       0                       0
   145                       0                       0                       0
   146                       0                       0                       0
   147                       0                       0                       0
   148                       0                       0                       0
   149                       0                       0                       0
   150                       0                       0                       0
   151                       0                       0                       0
   152                       0                       0                       0
   153                       0                       0                       0
   154                       0                       0                       0
   155                       0                       0                       0
   156                       0                       0                       0
   157                       0                       0                       0
   158                       0                       0                       0
   159                       0                       0                       0
   160                       0                       0                       0
   161                       0                       0                       0
   162                       0                       0                       0
   163                       0                       0                       0
   164                       0                       0                       0
   165                       0                       0                       0
   166                       0                       0                       0
   167                       0                       0                       0
   168                       0                       0                       0
   169                       0                       0                       0
   170                       0                       0                       0
   171                       0                       0                       0
   172                       0                       0                       0
   173                       0                       0                       0
   174                       0                       0                       0
   175                       0                       0                       0
   176                       0                       0                       0
   177                       0                       0                       0
   178                       0                       0                       0
   179                       0                       0                       0
   180                       0                       0                       0
   181                       0                       0                       0
   182                       0                       0                       0
   183                       0                       0                       0
   184                       0                       0                       0
   185                       0                       0                       0
   186                       0                       0                       0
   187                       0                       0                       0
   188                       0                       0                       0
   189                       0                       0                       0
   190                       0                       0                       0
   191                       0                       0                       0
   192                       0                       0                       0
   193                       0                       0                       0
   194                       0                       0                       0
   195                       0                       0                       0
   196                       0                       0                       0
   197                       0                       0                       0
   198                       0                       0                       0
   199                       0                       0                       0
   200                       0                       0                       0
   201                       0                       0                       0
   202                       0                       0                       0
   203                       0                       0                       0
   204                       0                       0                       0
   205                       0                       0                       0
   206                       0                       0                       0
   207                       0                       0                       0
   208                       0                       0                       0
   209                       0                       0                       0
   210                       0                       0                       0
   211                       0                       0                       0
   212                       0                       0                       0
   213                       0                       0                       0
   214                       0                       0                       0
   215                       0                       0                       0
   216                       0                       0                       0
