(written by ASE)

8 atoms
1 atom types

0.0       5.443702220916748  xlo xhi
0.0       5.443702220916748  ylo yhi
0.0       5.443702220916748  zlo zhi

Atoms # atomic

     1   1      3.5484879192248115      3.8850343029560008    0.072203331841804719
     2   1      2.2071835477994313      2.5298354798823794      1.4193187874667217
     3   1     0.83097902770022358        3.84604242613986      2.7924966519922805
     4   1     0.86406068461134566      1.1403895850009107     0.05773373695061057
     5   1      3.5938530345462709      1.1652304355660164      2.7389217983212859
     6   1      4.9575816855624169      5.2230957595946279      1.3926551459122436
     7   1      2.2339599426570658      5.2383743999947114      4.1093254448842913
     8   1      4.9222475583476637      2.4879017963811521      4.1477796750145899

Velocities

     1                       0                       0                       0
     2                       0                       0                       0
     3                       0                       0                       0
     4                       0                       0                       0
     5                       0                       0                       0
     6                       0                       0                       0
     7                       0                       0                       0
     8                       0                       0                       0
