(written by ASE)

216 atoms
1 atom types

0.0      16.331106185913086  xlo xhi
0.0      16.331106185913086  ylo yhi
0.0      16.331106185913086  zlo zhi

Atoms # atomic

     1   1      8.4393722915048102      8.4824116050601788      8.0596670368764194
     2   1      9.8104559870230332       7.105411038175987      3.9718484710746509
     3   1      7.0683835034404296      9.8431070713742201      3.9227676897010895
     4   1      13.884519542533667      11.186377529162769      10.740093478901599
     5   1     0.23288787992562554       11.21431633675445      2.5850264428324294
     6   1      15.219693177747217      12.555382021384503      3.9184620548784324
     7   1      15.253954281879487      4.4010187605884425      1.2117120571202378
     8   1      7.0800551734434976      1.6436100841984427      6.6461392678851325
     9   1      1.6509498373147125      1.7140720548080566      1.2067685955372696
    10   1      15.195625620862529      15.269454859263988      6.6568341211709594
    11   1      7.0791888387366271      12.556880099040541       12.12556417101257
    12   1      13.857356542539037     0.29045458922541201      5.2895248220863209
    13   1      4.3497555944813939      12.537943385122048      3.9604861020301314
    14   1      9.8225360024300699      7.1309046403927709      9.4249506702026338
    15   1     0.26199299974214796      13.903038663655252      10.739881275568905
    16   1      5.6986728024211288      5.7623887998821033      2.5485788169750947
    17   1      12.534105230347677      15.247778970216132      9.3803646085020773
    18   1      4.3250811165970049      7.1552447520166993       3.898186172450977
    19   1      9.8108112815938284      1.6863172216653624      9.3811423629186947
    20   1      13.860802413170859      11.203864835914374      16.216183480112477
    21   1     0.27130542862177975      3.0463382366760072      5.2646128322148797
    22   1      9.7932976927780828      1.6184282164646646      3.9267825183510752
    23   1       13.86390077651015      8.4831708646909192      8.0133205635833065
    24   1      1.6162230782774998      9.8517490034276989      3.9348681467135691
    25   1      11.149483351567483      5.7593454341955521      13.484988364150013
    26   1      13.866572786364486      5.7726008419155619      10.760786224068625
    27   1     0.24883890268720954     0.33602720174103951       13.47864854623333
    28   1      4.3519048832822591      9.8485202031774861      1.1762142358586658
    29   1      7.0921162073597657      7.1122122523298117      6.6806729267566425
    30   1      12.530869616228983      4.4175044286733396       3.948796423946078
    31   1      4.3214230426324889      4.3984796211694857      12.129011015054175
    32   1      11.145453435065861      3.0331429370100977      10.745086097678609
    33   1       4.332522834388044      7.1166091443196251      14.805158834378176
    34   1     0.27807534156726987     0.28539042482935173      2.5855934540310272
    35   1      11.156344917127853      11.215012324749296       13.45696486990721
    36   1      11.158320938987345      13.891812328627907      16.168164202107278
    37   1     0.27600012316707989       8.506437305324198      5.2850374029866884
    38   1      12.532246017662146      4.3714855077722063      9.3802770016216073
    39   1     0.27154914609619851      8.4656709036121356      16.226185265632807
    40   1      5.6879833028891085      13.913299376177861      16.170782674423549
    41   1      11.154787461475053     0.29095151491963378      2.5967421596281781
    42   1      2.9645715715515166      11.202274284328951      10.746628952184665
    43   1      1.6230516695814714      12.566525616580293      12.127094371191447
    44   1     0.25865277449083734      11.196946812586589      8.0501821319508622
    45   1      5.6813796909212329      3.0197665831245502      10.737090509721043
    46   1      8.4660515068372888      0.3080652452479562      5.3278586727506649
    47   1      7.1129739454850096      15.276412792392875      3.9395156917225052
    48   1      12.514400496110397      12.518831457442616      12.098679566215878
    49   1      0.2895353557806466      3.0073083980168178      16.192078933656035
    50   1      1.6001672922880203      15.277365760570433      9.3833218274228329
    51   1       1.598439854951863      1.6744722847209204      12.100926195995044
    52   1      15.221237005663056      9.8515455607830518      1.2296359381595181
    53   1      3.0041596607212568      5.7532406947414643      5.3170601513229485
    54   1      12.531441007771605      7.1332096747589162      6.6881311925139926
    55   1      5.7255389124319436     0.30810777108785103      13.465912452632551
    56   1      7.1203017743314376      4.3998969058135344      14.827413902246917
    57   1      2.9852197832209697      5.7713597444422362      10.736993168742742
    58   1      15.225483019136504      1.7269503879133765      14.854595397027424
    59   1      11.150788694086486      11.202568254083417      8.0492822146064782
    60   1      9.7739278115061552       9.837301655428405      12.072654482257576
    61   1      8.4498276859840189     0.30912340252018922      16.205214125267844
    62   1       1.600480243533255      9.8380073775210803      14.880311910084515
    63   1      9.7860720719588699      12.558514454066199      9.3900753444972906
    64   1       11.18373374819214       3.042221686703698      16.178776315561549
    65   1      5.7048335129377392      3.0438862174326289      16.206027895846432
    66   1      4.3300528070636801      4.3760279245245783      6.7033421804880504
    67   1      7.0579208083878484      9.8506879867642283       9.385296875872541
    68   1      5.6802028384935852      11.175685596106291      8.0166734735808518
    69   1      7.0646582642008866      4.3790732370306955      9.3923161338177579
    70   1      11.139009462302397      5.7732593536337617       8.040815009609048
    71   1      12.513567257336149      12.570389080009022      1.2469306314503115
    72   1      5.6663302889711531      13.915172216600354       10.73476698056902
    73   1      9.7979593522288724      4.3863329271923135      1.2442132363648426
    74   1      4.3574148693589336      12.517328512737663      9.3775368530824608
    75   1      1.6424076797639913      7.1301044975511445       6.646964719381117
    76   1      2.9802901927274092     0.32057900597048672      10.715790356849425
    77   1      2.9832649330242589      13.892966792630546      2.5866814828159761
    78   1     0.26837826372807427      8.4440738607567027      10.760957544190433
    79   1      13.866711983963455      13.916312079456247      2.5820200667176323
    80   1      15.225900611933412       9.842890000992611      6.6541163610568219
    81   1      0.2452670819551841      13.938755988822891      5.3039118186790688
    82   1      2.9699462536683541      3.0413964785601593      2.5902838290704153
    83   1      8.4562444032735584      5.7504888652849218      16.200793871443238
    84   1      9.8158778795143462      12.572647390705583      3.9530765067619313
    85   1       9.799090454396719      9.8540491707449291      6.6831015841652288
    86   1     0.25838046310404295      5.7503199786875712      2.6008351044132496
    87   1      15.277565309575948      9.8250201441962872      12.109695644730095
    88   1       15.23424078695416      7.1010842316905496      3.9643914220795295
    89   1      4.3211534081225977      1.6846675354356222      3.9449344206320234
    90   1      15.222335985308064      1.6806806923168978      9.3899507480450666
    91   1      11.194790709917243      8.4845258511088559      5.2788689051918141
    92   1      4.3449381894653243       15.28201379228426      12.115515661822656
    93   1      2.9645440727251469      11.228418124280779       16.18745134354765
    94   1      15.215513356139013      15.316344981920906      12.134905011290243
    95   1      1.5988030584771451      12.574383953758456      1.2457638781491625
    96   1      15.251621992039418      4.3870605510051064      12.104844170371621
    97   1       12.54567128538929      4.3840205922527957      14.828034937688471
    98   1      9.7908067371433845      7.0903119923269742      14.826055022189848
    99   1      8.4091761466263506      11.189555712104266      10.760319960782567
   100   1        7.10192136410393      15.320402153896453      9.3931406119039593
   101   1      9.7649977501569083      9.8676233701688716      1.2099259718446547
   102   1      5.6937020853642366      8.4872397175838614      5.2969748138605155
   103   1      12.533204826298402      9.9001391505602214      3.9313217715216524
   104   1      12.510542873140366      1.6580287166091381      12.141617645153815
   105   1      12.516055292741498      12.540365228662154      6.6969848411952739
   106   1      2.9503142818123536      8.4914516617149047       13.47232235605361
   107   1      4.3451601268958484      12.557578033854952      14.830750750983043
   108   1      7.0806163441833974      4.4407767097653164      3.9773567536842052
   109   1      2.9761137780534455      13.904284628177493       8.057146878948231
   110   1      1.5740167601439339      12.562082000920896      6.6665721126400967
   111   1      15.219482921234089      15.292011684165459      1.2132369035453081
   112   1      5.7055966662076116      0.3140793054969464      2.5927078627825324
   113   1      8.4260609127222779      13.906715232405645      8.0615749200511004
   114   1      5.6941917104850859     0.30969476364375481      8.0146716563621112
   115   1      13.842556820198297      5.7808665510879109      5.3341050433281794
   116   1       8.415298894161424      11.215299480635281      16.201659232740326
   117   1      9.7952922094234509      15.290910757700885      1.2220780195756333
   118   1      5.7211493210155027      5.7357086111398417      13.484077252593124
   119   1      11.159049049505029     0.32921226859308561      8.0613004184922943
   120   1      5.7064274714574026      3.0463542979374267      5.3028016448215567
   121   1      9.8053932827416475      4.3958373003135307      6.6577773552506869
   122   1      11.144619222881829      13.920527917226423      5.3299305754737816
   123   1      5.6990879616935786      5.7124484976701524      8.0750167357445548
   124   1      12.502941516144915      1.6575297224191274      1.2041630209006229
   125   1      2.9950590093075391      13.945878428205106      13.489200308281056
   126   1       11.12834381131006      5.7566768312754562      2.5871122166449538
   127   1      2.9820192118544639      8.4511739117139086      8.0145675015153302
   128   1      7.0603971628758018      1.6528736600745901      12.116791802048169
   129   1     0.29873742432613071      3.0537057319710925      10.723289505817661
   130   1       15.23585956742329      4.3861100163520064      6.6791300722505866
   131   1      2.9855171599096764      5.7915735719960253      16.175163991856834
   132   1      8.4238483522855176      13.886234690571314      2.5925083137770173
   133   1      7.0606648505661269      12.542593363655442       1.218295592511339
   134   1       5.694367897655809      11.199440688450636      13.477203032705575
   135   1      4.3441969379155694      15.278921269403668      1.2294367541826716
   136   1      8.4570688813597599     0.32696919784343947      10.760765782463181
   137   1      12.516684115461317      9.8461791526493698      14.823599109307338
   138   1      1.6366081042768741      1.6642481967413971      6.6582037087356412
   139   1      2.9681926559442786      3.0383292643339246      8.0282609436376902
   140   1     0.25098592526842367      5.7469660952802428      13.500555133399757
   141   1      4.3394462114696353      15.269725467183662      6.6823802875160254
   142   1      12.525733906213873      1.6496483884348407      6.6605048494626544
   143   1       12.52213521024612      9.8298414428514889      9.3786708754796564
   144   1      7.0594573357303148      1.6570336484584658       1.245009485567337
   145   1      9.8005398615636068      4.4022364962269762      12.132006196956468
   146   1      12.516067947068677      15.273323189741632      14.844252918083043
   147   1      3.0121309134342482     0.29612184182015255      5.3011093719138103
   148   1      1.6063562316883377      7.0997618545003434      12.141288632647161
   149   1      12.497980046480961      7.1150351407005132      12.119068607530608
   150   1      4.3448325745038687      1.6850143126708161      14.842509541161689
   151   1      9.7799259625890045      15.280839860085962      6.6909336392792511
   152   1      13.876836419116444      13.927533547434678      13.429192515388422
   153   1      7.0588499280257224      12.547098304131168      6.6691195260422091
   154   1     0.23805895209300942     0.31799883124536521      8.0117718686185526
   155   1        4.30518656745204      9.8361929416855673      12.118803840069631
   156   1      8.4763326609653404      3.0380861552406202      13.461520427691653
   157   1      13.859936078463988     0.28739735244945308      10.747651032456815
   158   1      15.227291614513319      12.546670003826648      9.4032407118123729
   159   1      11.166023530600228      3.0098769830817105      5.3031530457532199
   160   1      1.6461022565953698      4.3848927674183642      14.825827244300626
   161   1      5.7065905175960552      8.4841286999173917      16.154080909366826
   162   1      13.878706339309588       13.90849462548897      8.0425929425776985
   163   1      8.4316560721549649      13.922246958903202      13.468103598054086
   164   1      4.3439419045524232      4.3998988526331004      1.2311574993265708
   165   1      15.222074138076437      7.1071977318326844      9.3968999204859074
   166   1      11.168779253695902     0.24802671389951847      13.472297047399252
   167   1     0.24363248357708045      5.7633841113852213      8.0064010801408472
   168   1      11.210196866552792      8.4907391257537483      10.745026719681846
   169   1     0.28196910237549488      13.915386366752614      16.196379458077331
   170   1      1.6377040420163098      7.0993072721316821      1.2498315142798759
   171   1      8.4505051791929873      5.7744113841119429      5.3080872599432496
   172   1      15.235959828630939      7.1268849446938702       14.88717152882532
   173   1      7.0630316964534927      15.285541429337854      14.839483210146341
   174   1       15.21533716896829      1.6583107620937625      3.9237931769074805
   175   1      1.6033919555466554      15.281718849120011      14.827388593592559
   176   1      2.9767090181357503       11.20751317578106       5.316991525933247
   177   1      12.481905157324491      7.1166373732033321      1.2079117436511808
   178   1      11.161477706913615      8.5009482475578579      16.152739550685851
   179   1      2.9803220718978025     0.29676383599109712      16.193949827258962
   180   1     0.27677681291674716      11.187136788793509      13.511855447570611
   181   1      2.9544301017273256      8.5140941466772802      2.5639192684502916
   182   1      13.889447916264999      3.0420189741163881      8.0367826595829683
   183   1      1.6195110131720298      4.4309087680901484      3.9309365446000299
   184   1      9.7969207239904108      12.557018323229727      14.799079890283338
   185   1      1.6506037901368558      15.272291375371651      3.9534130631944038
   186   1      12.526569091807687      15.251796232390575      3.9218149648759777
   187   1      8.4186999879432278      11.193525277199342      5.3077986439425899
   188   1      5.7001007945727906       11.15641500263223       2.584601306109704
   189   1      8.4184595557268267      8.4994822924246591      13.464404640878683
   190   1       13.85575820367535       5.755496571913568      16.195999828261961
   191   1       15.23098375782024      12.573942025716974      14.856784595629392
   192   1      8.4149562539178078      5.7355426447718401      10.742383912120999
   193   1      8.4557401770059641      3.0283384296736529      2.5782607581356842
   194   1      9.7741380680192833      1.6746217031226109      14.824422613983756
   195   1      4.3601676722252591      7.1436402472886584      9.3845755792233376
   196   1      8.4429125828855831      8.4729889983607336      2.5981550639282034
   197   1      4.3305935361981369      1.6916421382070439      9.3974158276708977
   198   1      13.870079008402854      8.4942774703149553      2.5651046382135405
   199   1       11.13791729652587      11.208609235196718      2.5743773398064036
   200   1      1.6433459251185809      4.4075741887720596      9.3442014616538245
   201   1      13.870074141353939     0.31599515846422577      16.160575499439005
   202   1      13.848714610485558      11.249416520119667      5.3240604277773969
   203   1      4.3158853143769988      9.8634571762976293      6.6468396362240014
   204   1      7.0473880278308911       7.121012363473028       12.11954947196341
   205   1      13.906643200081703      3.0482290851794858      13.465998112693455
   206   1      13.887531272402271      8.4829333527038671        13.4816622229215
   207   1       2.981211768439465      2.9964390610273881      13.457594666036812
   208   1      11.162464744433578       13.90680770633503      10.798377363068539
   209   1      7.0537054573225646      9.8565790627709475      14.821493623946708
   210   1      13.863724589339427      3.0306690160466019      2.6019005014207437
   211   1       8.439121151780796      3.0448063330300101      8.0337402673062002
   212   1      7.0858255466371247      7.1212824846878107      1.1852302006212625
   213   1      5.6979597797550809      13.913679005993231      5.3110668672890142
   214   1       5.736297524058557      8.4894727196260646      10.743301837546369
   215   1      9.7704264565167023      15.295410831127697      12.096214892645321
   216   1      1.6126361849033657       9.848282691190434      9.3796072956909029


Velocities

     1                       0                       0                       0
     2                       0                       0                       0
     3                       0                       0                       0
     4                       0                       0                       0
     5                       0                       0                       0
     6                       0                       0                       0
     7                       0                       0                       0
     8                       0                       0                       0
     9                       0                       0                       0
    10                       0                       0                       0
    11                       0                       0                       0
    12                       0                       0                       0
    13                       0                       0                       0
    14                       0                       0                       0
    15                       0                       0                       0
    16                       0                       0                       0
    17                       0                       0                       0
    18                       0                       0                       0
    19                       0                       0                       0
    20                       0                       0                       0
    21                       0                       0                       0
    22                       0                       0                       0
    23                       0                       0                       0
    24                       0                       0                       0
    25                       0                       0                       0
    26                       0                       0                       0
    27                       0                       0                       0
    28                       0                       0                       0
    29                       0                       0                       0
    30                       0                       0                       0
    31                       0                       0                       0
    32                       0                       0                       0
    33                       0                       0                       0
    34                       0                       0                       0
    35                       0                       0                       0
    36                       0                       0                       0
    37                       0                       0                       0
    38                       0                       0                       0
    39                       0                       0                       0
    40                       0                       0                       0
    41                       0                       0                       0
    42                       0                       0                       0
    43                       0                       0                       0
    44                       0                       0                       0
    45                       0                       0                       0
    46                       0                       0                       0
    47                       0                       0                       0
    48                       0                       0                       0
    49                       0                       0                       0
    50                       0                       0                       0
    51                       0                       0                       0
    52                       0                       0                       0
    53                       0                       0                       0
    54                       0                       0                       0
    55                       0                       0                       0
    56                       0                       0                       0
    57                       0                       0                       0
    58                       0                       0                       0
    59                       0                       0                       0
    60                       0                       0                       0
    61                       0                       0                       0
    62                       0                       0                       0
    63                       0                       0                       0
    64                       0                       0                       0
    65                       0                       0                       0
    66                       0                       0                       0
    67                       0                       0                       0
    68                       0                       0                       0
    69                       0                       0                       0
    70                       0                       0                       0
    71                       0                       0                       0
    72                       0                       0                       0
    73                       0                       0                       0
    74                       0                       0                       0
    75                       0                       0                       0
    76                       0                       0                       0
    77                       0                       0                       0
    78                       0                       0                       0
    79                       0                       0                       0
    80                       0                       0                       0
    81                       0                       0                       0
    82                       0                       0                       0
    83                       0                       0                       0
    84                       0                       0                       0
    85                       0                       0                       0
    86                       0                       0                       0
    87                       0                       0                       0
    88                       0                       0                       0
    89                       0                       0                       0
    90                       0                       0                       0
    91                       0                       0                       0
    92                       0                       0                       0
    93                       0                       0                       0
    94                       0                       0                       0
    95                       0                       0                       0
    96                       0                       0                       0
    97                       0                       0                       0
    98                       0                       0                       0
    99                       0                       0                       0
   100                       0                       0                       0
   101                       0                       0                       0
   102                       0                       0                       0
   103                       0                       0                       0
   104                       0                       0                       0
   105                       0                       0                       0
   106                       0                       0                       0
   107                       0                       0                       0
   108                       0                       0                       0
   109                       0                       0                       0
   110                       0                       0                       0
   111                       0                       0                       0
   112                       0                       0                       0
   113                       0                       0                       0
   114                       0                       0                       0
   115                       0                       0                       0
   116                       0                       0                       0
   117                       0                       0                       0
   118                       0                       0                       0
   119                       0                       0                       0
   120                       0                       0                       0
   121                       0                       0                       0
   122                       0                       0                       0
   123                       0                       0                       0
   124                       0                       0                       0
   125                       0                       0                       0
   126                       0                       0                       0
   127                       0                       0                       0
   128                       0                       0                       0
   129                       0                       0                       0
   130                       0                       0                       0
   131                       0                       0                       0
   132                       0                       0                       0
   133                       0                       0                       0
   134                       0                       0                       0
   135                       0                       0                       0
   136                       0                       0                       0
   137                       0                       0                       0
   138                       0                       0                       0
   139                       0                       0                       0
   140                       0                       0                       0
   141                       0                       0                       0
   142                       0                       0                       0
   143                       0                       0                       0
   144                       0                       0                       0
   145                       0                       0                       0
   146                       0                       0                       0
   147                       0                       0                       0
   148                       0                       0                       0
   149                       0                       0                       0
   150                       0                       0                       0
   151                       0                       0                       0
   152                       0                       0                       0
   153                       0                       0                       0
   154                       0                       0                       0
   155                       0                       0                       0
   156                       0                       0                       0
   157                       0                       0                       0
   158                       0                       0                       0
   159                       0                       0                       0
   160                       0                       0                       0
   161                       0                       0                       0
   162                       0                       0                       0
   163                       0                       0                       0
   164                       0                       0                       0
   165                       0                       0                       0
   166                       0                       0                       0
   167                       0                       0                       0
   168                       0                       0                       0
   169                       0                       0                       0
   170                       0                       0                       0
   171                       0                       0                       0
   172                       0                       0                       0
   173                       0                       0                       0
   174                       0                       0                       0
   175                       0                       0                       0
   176                       0                       0                       0
   177                       0                       0                       0
   178                       0                       0                       0
   179                       0                       0                       0
   180                       0                       0                       0
   181                       0                       0                       0
   182                       0                       0                       0
   183                       0                       0                       0
   184                       0                       0                       0
   185                       0                       0                       0
   186                       0                       0                       0
   187                       0                       0                       0
   188                       0                       0                       0
   189                       0                       0                       0
   190                       0                       0                       0
   191                       0                       0                       0
   192                       0                       0                       0
   193                       0                       0                       0
   194                       0                       0                       0
   195                       0                       0                       0
   196                       0                       0                       0
   197                       0                       0                       0
   198                       0                       0                       0
   199                       0                       0                       0
   200                       0                       0                       0
   201                       0                       0                       0
   202                       0                       0                       0
   203                       0                       0                       0
   204                       0                       0                       0
   205                       0                       0                       0
   206                       0                       0                       0
   207                       0                       0                       0
   208                       0                       0                       0
   209                       0                       0                       0
   210                       0                       0                       0
   211                       0                       0                       0
   212                       0                       0                       0
   213                       0                       0                       0
   214                       0                       0                       0
   215                       0                       0                       0
   216                       0                       0                       0
