(written by ASE)

216 atoms
1 atom types

0.0      16.331106185913086  xlo xhi
0.0      16.331106185913086  ylo yhi
0.0      16.331106185913086  zlo zhi

Atoms # atomic

     1   1       15.84222475013803      10.913238744052819      2.9660489642496657
     2   1      14.456480529878036      14.999491336866186      6.9899962737300712
     3   1      13.082738452242438      16.322972373766333      5.6415521429448745
     4   1      10.433296130315057      5.4531944297049222      2.9273067681813529
     5   1      14.491816278410738      4.1601305017039749      1.5781054462612047
     6   1      15.844394480544338      5.4396528395087103      13.844752832668746
     7   1      13.064192075646929      13.594508645654969      13.858922758879885
     8   1      10.417188145225964        13.6557419614644      11.164059189658133
     9   1      15.837292482767566       10.91679460999012       13.82402407133975
    10   1      7.7114530488427704      5.4672762623306994      5.6316433180588206
    11   1        13.1445655480195      5.4424523660446198      11.113844872592267
    12   1     0.92212793959327399      9.5441028415103801      9.7375894508969623
    13   1      6.3231268591333674      4.1049094514192461      4.2731686861646949
    14   1      6.3304055307857539      12.229840694016502      1.6124443014998917
    15   1      4.9626508967253926      2.7438769419678408      11.106291212676183
    16   1      6.3651650207269199      14.987142660359041      9.7669309419859474
    17   1      6.2666442697698699      1.3980554204904934      12.486431512815443
    18   1      7.6833210194091635      2.7753808628897616      2.9703709036861881
    19   1      13.111545541360556       8.253200856637477      8.3726917745497076
    20   1     0.34319475258288534      3.4636949817108587      10.365487431421457
    21   1      6.3831857560396088       1.376422848177981      1.5448774949373671
    22   1      4.9620103930881783      10.915416261737391      13.836479822923025
    23   1      4.9886423980461814      8.2394709116482545      11.129231561032157
    24   1      0.9195458484676422      1.3605450745025678      12.542415229665153
    25   1      11.778439428526099      9.5536169487294273      15.226224757391151
    26   1      7.7141070506161213      2.6013468746066621      13.936043095757668
    27   1      3.6113174423518046      1.3974040876694431      15.217672379037708
    28   1      11.756883268881552      4.1031835958739862      4.3029019746913377
    29   1     0.89865793463912524      12.305871785347108      12.454463762131923
    30   1      10.376443158529128      8.2230631163459975      0.2254736305419005
    31   1     0.87588452606093625      15.027332803479567      4.3234978655849545
    32   1      9.0541818040870794      14.996824194060764      12.507857235549068
    33   1      4.9308379181973692      13.606873870128425     0.20676092254972112
    34   1       14.46362535768526      1.3888615650900533      4.3078366755862589
    35   1      10.393735783324132      2.7774914586517525     0.21229685608092375
    36   1      5.0083656270693382      13.641151522227005      11.122158765548875
    37   1      8.3382243075434417      15.688063895984669     0.91076648312042607
    38   1      5.0659301614066408      2.6415822812820977     0.23797682064256875
    39   1      7.7027580659561181      2.7266526992100921      8.3660239175361539
    40   1      6.3415603201940485      12.280288629430288      7.0118279083432071
    41   1       15.80648114290625      16.308008145172266      13.861627864666843
    42   1      9.0622873873501248      12.302777315646949      9.7337035990432241
    43   1      6.3655431904276156      9.6009538664767433       4.278697653732138
    44   1      14.475903948688028      9.6065684941050904      1.5807470370598224
    45   1      9.0262595444617091       1.369072630906544      9.7461116535471319
    46   1       7.725310510513566      10.978922489390129      5.6436975381066077
    47   1       11.66250145632182      12.353155165556359       1.545292532533594
    48   1      5.0806018803609163      5.5715464581710421      8.3021000970865089
    49   1      11.731980526403049      1.3342538846448377      12.544437001784445
    50   1      9.0371568669824001       9.547591542172654      12.504405524458548
    51   1      4.9671840660848261    0.040680452670128986      2.9440189973932434
    52   1      15.808686889474529      13.649205514771552     0.24046102324689755
    53   1     0.88779455978461641      1.3074141783743869      1.5692792964062932
    54   1      9.0567584197826818      4.1222244646392596      12.524056721157763
    55   1      7.7312741055491188      13.686174644920129      8.3145772636850097
    56   1     0.87159708183359896      4.0709926909977128      15.198592573881115
    57   1      13.108305060192947       8.192865998057755       13.88751472443596
    58   1      3.6503338966264778      12.270142779262073      9.7327233753917426
    59   1      15.811069796623315      2.7258722679165714     0.25151288978016773
    60   1      14.488084225302714      6.8315962199717433        9.74251977144786
    61   1      9.0191497594066732      6.8154960221609144      15.223957686006543
    62   1      10.392574505453013      10.935921138816298      13.836574243671976
    63   1      3.6389958628265333      4.1008537395583744      1.5444926330444133
    64   1      3.6382431737118281      6.8485681062432491      4.2667417480724339
    65   1      4.9972098642512606      5.4715037810182707      2.8893194513997571
    66   1      14.388673777804001      1.3319714820561472      15.229908140010025
    67   1      15.855204196184559      8.1790562334663264      5.6674088270107177
    68   1      14.455817637815812      9.5407582054959903      12.475938155354697
    69   1       13.08559054290663      16.303615146821585      11.103954055787199
    70   1      4.9846280561010872      8.2043152439254072     0.21349218808492054
    71   1      9.0474720904528567      15.000310947903472      7.0018577586408242
    72   1      3.6180955380232831      9.5341555669378977      12.482411330411651
    73   1      9.0293559609814338      9.5740157241419865      1.5864324802498828
    74   1     0.90943832630963328      6.8405452628117587      12.481970375779952
    75   1      3.6554464881592423      4.1184831641382971      12.486456821469801
    76   1      6.3306610508537915      4.1282888075873529      9.7465438474907842
    77   1      7.7040755760974093      8.2123137521123226      8.3389933012720121
    78   1     0.90542751297500246      6.8546708988777709      7.0135143407922556
    79   1      3.6473854383937692      14.997393638783819      1.6065394760799876
    80   1       7.699801333740254      13.652509267575056      2.9177486141696249
    81   1      9.0560001335617244      6.8241919784573497      4.2858312873268574
    82   1      11.767375652932515      6.8536853214724829      7.0090960337872161
    83   1       2.349946520123126      5.5663275216194847      11.183777551632375
    84   1      9.0273517102382357      6.8335625077334043      9.7464640278885781
    85   1      15.848124586832796      13.652354495419559      5.6857050372919957
    86   1      10.430306788871462      8.1863490195605664      11.117708336020996
    87   1      13.132329787047183      8.1983287737599539      2.9326926445106949
    88   1      3.6016626774191138       12.31099484103504      4.3060412212415144
    89   1      10.363910507572996      13.674552132111103     0.29162371521290709
    90   1      10.445467646241696      13.582291379468529      5.6890589206993241
    91   1      6.3147122182642192      12.278920015275389      12.538798038911523
    92   1      14.472283837705049      12.309591184127953      9.7227284037398931
    93   1       7.679702368540859      5.4715539116220953      11.152665428148111
    94   1      9.0510230893412427      1.3992966396400419      4.3173279076754056
    95   1      9.0585679885692798      12.249109340670998      15.161200983886715
    96   1      2.3343191561143897      8.2779585610583126      8.3087494593141855
    97   1      13.084558728536649      2.7244627705507867      8.3681089612913411
    98   1      2.2792779432870702      10.922503658367418      5.6310582987792372
    99   1      2.2489486846207853      13.660876698069728      2.9613464215879901
   100   1      7.6649503432794859      13.629096815474327      13.798142078619549
   101   1      14.465118568292382      4.0830967982968787      7.0196585033425549
   102   1      6.3622725335567338      9.5688761204877437      9.7343256078945615
   103   1     0.88381556478226742      1.3510708770846236      7.0160009160829304
   104   1      10.380143089114313    0.018733360629821449      8.3654369514370046
   105   1      11.762323656158742      9.5267586259968766      9.7309546898160306
   106   1      9.0408752923534621      1.3394498243902717      15.230656692133152
   107   1      14.514732291522137       6.871217891778997      4.2428046280986678
   108   1     0.89590488842035398      6.8547843011174905      1.5770926133819927
   109   1      3.6645079598291943      14.987893159301734      12.472354060533689
   110   1      5.0068281263170888      10.910073215438501      8.3378962684465705
   111   1      7.6694864328682684      8.1961619635829948      13.852336668288103
   112   1      15.525588175464918      2.5113093899084618      11.384156875692383
   113   1      9.0387503387971719      4.0999650164264949       7.017946275534257
   114   1      11.658969925629094       15.04919266697641      4.2375832580226529
   115   1      14.435005163245478      4.1543596418054562      12.547878005367352
   116   1        6.31241886481547      4.1361778071736808      15.156671708166414
   117   1      0.8911930983657399      9.5901441508365224      15.198866102030138
   118   1      2.2386466021823992       10.94086606051394     0.26660258176954699
   119   1      7.6882542601894102      5.4626184965190419     0.24425389925683128
   120   1      3.6667231971428578      6.8433438159378852      15.230494132699391
   121   1      14.483237617993154      12.310791398390393      4.2935494534962686
   122   1      7.6921600669436998    0.013548388855165072       11.14882727337374
   123   1     0.89586753381993134      12.280118282718263      7.0010639429627872
   124   1      4.9650299102350459      10.940747304520414      2.9326855872897681
   125   1      15.816183118213416    0.028888112174215719      8.3701190524932372
   126   1       10.38286084922845    0.039772402030722187      13.847324581315434
   127   1       6.359894980161755      1.3524761157826077      7.0065286654845522
   128   1      3.6302096227727247      1.3729645665714258      4.2691003199766442
   129   1      5.0327821513612321      5.4930672412361901      13.899847826386576
   130   1      2.2643665221737308      13.639555130182885       13.86057560869142
   131   1       3.652620436206746      9.5873455977103959      6.9968451849632629
   132   1      2.2731488685884074      16.325129449845463     0.25059122281094481
   133   1      11.738503345358936      4.1005198600028052      9.7812838692362902
   134   1      13.089405335846209      13.600753069412917      8.3837516565041597
   135   1      6.3458053602577138      6.8243954211019968      1.5711335203666863
   136   1      15.787920165163996      5.5556005458108189      8.2690460210851597
   137   1      6.3443067958967845      14.977843676702037      4.3240614698493118
   138   1      0.9129772792519546      14.977010437927788      15.221921312740506
   139   1      14.463540671034139      14.991144347976956      1.5839843546456365
   140   1     0.85821214977433868      12.290495804414832      1.6120298722847792
   141   1      14.438827743463321      9.5590330007620423      6.9775921128652953
   142   1      11.714909839038569       14.99297533177878      9.7436937036461586
   143   1      13.098147529107337       5.452882938574362      5.6314564233804845
   144   1      13.081951937137774      2.7803109400882136      13.876070345617222
   145   1       11.71567591253779      4.1143768349687093      15.237647721194662
   146   1      6.3464765263030927      15.006043358115562      15.231991236945646
   147   1      7.6835366296760981    0.039870073816253182      5.6845948634344836
   148   1      6.3750981808575489      6.8412251895451845      6.9510793506057098
   149   1      9.0524364803461594      9.5903495403007355      7.0324797702993465
   150   1      3.6343575652105358      1.3862520968142746      9.7528301278694016
   151   1      14.418875763141159       14.94086189222628      12.525542144486622
   152   1      11.800629277939379      12.229675214353392      12.479962231397622
   153   1      7.6472693279810642      10.912592399956907      11.110400948780011
   154   1      2.3109743559935794      2.7183227449920651      13.862083420445288
   155   1      13.089761603826787  0.00090817896979811241     0.22702670585067786
   156   1      11.778625349794652      1.3899731990622399      1.5717535823984576
   157   1      2.3115063244399892      8.1831445545549286      13.906870977970925
   158   1      2.3388537855884977      5.5290225650957723       5.586824611420127
   159   1      15.835675649118002      13.622959466792508      11.107551778345169
   160   1      2.2572808290108242    0.009767865833639644      11.142340470579825
   161   1      2.3611358655787171      2.6688496794759544      8.3073555365049288
   162   1      15.855428080434649      8.2101372078375334     0.23767562636236939
   163   1      13.120731609482732      2.7222163841240672      2.9296492788241437
   164   1     0.88841504768316781      9.6208737242760662      4.3159403120297384
   165   1      2.2612394432458416      2.7331446124053684      2.9244352093215014
   166   1      3.6374191823305182      12.261399612591163      15.190555129302879
   167   1       3.632523417826917      9.5630736247712775      1.5614086699296195
   168   1      14.398302747377443      1.3027564125627293      9.7269831779013884
   169   1      10.423060726446806      10.905443678510551      8.3820812853165307
   170   1      10.410657538991813      2.7322459118232132      5.6310091415851957
   171   1      11.777005595915739      14.956797583783782      15.187456765963589
   172   1        2.26931679762518      13.660328668361899      8.3809423958704201
   173   1      4.9955944907163712      2.7303465459841334      5.6405373632460964
   174   1      11.722769149626515      12.283529110597897      7.0003796358853378
   175   1      13.138508992349671      10.937425056931033      5.6616793370279765
   176   1      6.3623839889768874      9.6024023002338481      15.225079054076559
   177   1      2.2741909037611094      5.4877300353959981     0.22353374652060332
   178   1      10.362584723448549      5.4988473485276472       13.87987832468832
   179   1      15.869605793924052      2.7284970673964324      5.6930552545634328
   180   1      11.720791180947458      1.3822125678910453      6.9666928435250384
   181   1      2.2657730993101666       10.91516609542316      11.089460957528104
   182   1      5.0158939783310643      8.2240608613735731      5.6075266039800908
   183   1      9.0602811897873607      4.1300020088054339      1.6072175776700703
   184   1      10.398495757163005      8.2035783727196758      5.6903316539905973
   185   1      10.387148719322568      5.4731371626341456      8.3781866727747456
   186   1      10.413412288677705      2.7229345171914758      11.155203107452394
   187   1     0.86911592113484204      15.014490608212441      9.7442504940420349
   188   1        15.8227633683465      10.892364944666156      8.3878701532960349
   189   1      15.873742785501804      8.1588487330761268      11.100009799346481
   190   1      10.437783549414689      10.852582660244707      2.9915505970971594
   191   1      6.3340090938024218      6.8728678213611829      12.491811548686087
   192   1      7.6916441597587095      10.930550837043484     0.20500448064393595
   193   1      5.0175847911241362      13.646055560713762      5.6783957032314447
   194   1      15.883373701894811      5.4804576909072011      2.9158407309949439
   195   1      5.0357924211151612      16.270642837242008       13.93483022716805
   196   1      3.6660802599811859      6.8769230465171631      9.7140232000505193
   197   1      11.764891511166297      6.8551386222785027      1.5929422798499218
   198   1       11.75289228877125      9.5950462425037131      4.2827494719538777
   199   1      9.0229226957255833      12.376430366877685      4.2082792432103133
   200   1      13.138298735836543      10.908192587737744      11.102528983864886
   201   1      3.6295167983596741      4.1016339274994493      7.0074242024849127
   202   1      5.0256689593719557      16.325536335134757      8.3581042555416616
   203   1     0.88187215215050685      4.1052199691400233      4.2994960138606189
   204   1      2.2636605567286097      8.2134234392649432      2.9571863115278916
   205   1      11.753858884685769      6.8671957625556388      12.518719515317571
   206   1      13.125075937344263      5.4894305822869001     0.25763869443034082
   207   1      2.3255475172073261      16.331058488833719      5.6210531063246663
   208   1      1.2488129626181887       4.585097851127216      9.3320971110022128
   209   1      14.469212729839683      12.280563130989094      15.209678737899708
   210   1      7.7253791359032675      8.2128676222788499      2.9212224703327081
   211   1      14.469778280923606      6.8776248749707065      15.255804733876971
   212   1      15.769467235907655      16.321658270559283      2.9557281436729568
   213   1      13.110136043994771      10.963875520964507     0.25277523496391296
   214   1      10.343397843215826      16.321584291415775       2.921482614097215
   215   1      13.146607761744235      13.580594726216759      3.0147812649209129
   216   1      3.6374167488060607      14.976856639182074      6.9998700558639371


Velocities

     1                       0                       0                       0
     2                       0                       0                       0
     3                       0                       0                       0
     4                       0                       0                       0
     5                       0                       0                       0
     6                       0                       0                       0
     7                       0                       0                       0
     8                       0                       0                       0
     9                       0                       0                       0
    10                       0                       0                       0
    11                       0                       0                       0
    12                       0                       0                       0
    13                       0                       0                       0
    14                       0                       0                       0
    15                       0                       0                       0
    16                       0                       0                       0
    17                       0                       0                       0
    18                       0                       0                       0
    19                       0                       0                       0
    20                       0                       0                       0
    21                       0                       0                       0
    22                       0                       0                       0
    23                       0                       0                       0
    24                       0                       0                       0
    25                       0                       0                       0
    26                       0                       0                       0
    27                       0                       0                       0
    28                       0                       0                       0
    29                       0                       0                       0
    30                       0                       0                       0
    31                       0                       0                       0
    32                       0                       0                       0
    33                       0                       0                       0
    34                       0                       0                       0
    35                       0                       0                       0
    36                       0                       0                       0
    37                       0                       0                       0
    38                       0                       0                       0
    39                       0                       0                       0
    40                       0                       0                       0
    41                       0                       0                       0
    42                       0                       0                       0
    43                       0                       0                       0
    44                       0                       0                       0
    45                       0                       0                       0
    46                       0                       0                       0
    47                       0                       0                       0
    48                       0                       0                       0
    49                       0                       0                       0
    50                       0                       0                       0
    51                       0                       0                       0
    52                       0                       0                       0
    53                       0                       0                       0
    54                       0                       0                       0
    55                       0                       0                       0
    56                       0                       0                       0
    57                       0                       0                       0
    58                       0                       0                       0
    59                       0                       0                       0
    60                       0                       0                       0
    61                       0                       0                       0
    62                       0                       0                       0
    63                       0                       0                       0
    64                       0                       0                       0
    65                       0                       0                       0
    66                       0                       0                       0
    67                       0                       0                       0
    68                       0                       0                       0
    69                       0                       0                       0
    70                       0                       0                       0
    71                       0                       0                       0
    72                       0                       0                       0
    73                       0                       0                       0
    74                       0                       0                       0
    75                       0                       0                       0
    76                       0                       0                       0
    77                       0                       0                       0
    78                       0                       0                       0
    79                       0                       0                       0
    80                       0                       0                       0
    81                       0                       0                       0
    82                       0                       0                       0
    83                       0                       0                       0
    84                       0                       0                       0
    85                       0                       0                       0
    86                       0                       0                       0
    87                       0                       0                       0
    88                       0                       0                       0
    89                       0                       0                       0
    90                       0                       0                       0
    91                       0                       0                       0
    92                       0                       0                       0
    93                       0                       0                       0
    94                       0                       0                       0
    95                       0                       0                       0
    96                       0                       0                       0
    97                       0                       0                       0
    98                       0                       0                       0
    99                       0                       0                       0
   100                       0                       0                       0
   101                       0                       0                       0
   102                       0                       0                       0
   103                       0                       0                       0
   104                       0                       0                       0
   105                       0                       0                       0
   106                       0                       0                       0
   107                       0                       0                       0
   108                       0                       0                       0
   109                       0                       0                       0
   110                       0                       0                       0
   111                       0                       0                       0
   112                       0                       0                       0
   113                       0                       0                       0
   114                       0                       0                       0
   115                       0                       0                       0
   116                       0                       0                       0
   117                       0                       0                       0
   118                       0                       0                       0
   119                       0                       0                       0
   120                       0                       0                       0
   121                       0                       0                       0
   122                       0                       0                       0
   123                       0                       0                       0
   124                       0                       0                       0
   125                       0                       0                       0
   126                       0                       0                       0
   127                       0                       0                       0
   128                       0                       0                       0
   129                       0                       0                       0
   130                       0                       0                       0
   131                       0                       0                       0
   132                       0                       0                       0
   133                       0                       0                       0
   134                       0                       0                       0
   135                       0                       0                       0
   136                       0                       0                       0
   137                       0                       0                       0
   138                       0                       0                       0
   139                       0                       0                       0
   140                       0                       0                       0
   141                       0                       0                       0
   142                       0                       0                       0
   143                       0                       0                       0
   144                       0                       0                       0
   145                       0                       0                       0
   146                       0                       0                       0
   147                       0                       0                       0
   148                       0                       0                       0
   149                       0                       0                       0
   150                       0                       0                       0
   151                       0                       0                       0
   152                       0                       0                       0
   153                       0                       0                       0
   154                       0                       0                       0
   155                       0                       0                       0
   156                       0                       0                       0
   157                       0                       0                       0
   158                       0                       0                       0
   159                       0                       0                       0
   160                       0                       0                       0
   161                       0                       0                       0
   162                       0                       0                       0
   163                       0                       0                       0
   164                       0                       0                       0
   165                       0                       0                       0
   166                       0                       0                       0
   167                       0                       0                       0
   168                       0                       0                       0
   169                       0                       0                       0
   170                       0                       0                       0
   171                       0                       0                       0
   172                       0                       0                       0
   173                       0                       0                       0
   174                       0                       0                       0
   175                       0                       0                       0
   176                       0                       0                       0
   177                       0                       0                       0
   178                       0                       0                       0
   179                       0                       0                       0
   180                       0                       0                       0
   181                       0                       0                       0
   182                       0                       0                       0
   183                       0                       0                       0
   184                       0                       0                       0
   185                       0                       0                       0
   186                       0                       0                       0
   187                       0                       0                       0
   188                       0                       0                       0
   189                       0                       0                       0
   190                       0                       0                       0
   191                       0                       0                       0
   192                       0                       0                       0
   193                       0                       0                       0
   194                       0                       0                       0
   195                       0                       0                       0
   196                       0                       0                       0
   197                       0                       0                       0
   198                       0                       0                       0
   199                       0                       0                       0
   200                       0                       0                       0
   201                       0                       0                       0
   202                       0                       0                       0
   203                       0                       0                       0
   204                       0                       0                       0
   205                       0                       0                       0
   206                       0                       0                       0
   207                       0                       0                       0
   208                       0                       0                       0
   209                       0                       0                       0
   210                       0                       0                       0
   211                       0                       0                       0
   212                       0                       0                       0
   213                       0                       0                       0
   214                       0                       0                       0
   215                       0                       0                       0
   216                       0                       0                       0
