(written by ASE)

216 atoms
1 atom types

0.0      16.331106185913086  xlo xhi
0.0      16.331106185913086  ylo yhi
0.0      16.331106185913086  zlo zhi

Atoms # atomic

     1   1     0.46624789401506206      14.144973824761337      3.6258424197812928
     2   1       4.529403723687949      12.783637854810081      13.135213026824431
     3   1      3.1400549670015039      14.139275483891652      11.792231671741433
     4   1      15.423852251994617      1.8623189578247974      13.190766496550054
     5   1      7.2134395691884947      4.5842782400899296      13.138878888067211
     6   1      1.7722487422226436       1.874965862754209      4.9901901196011522
     7   1       12.67539079330129        12.7582815033727       10.43530524810717
     8   1      8.5899101144458427      14.127197415304181     0.92614562763449726
     9   1        11.3410153541098      11.396852086082276     0.91371293369545725
    10   1      15.435693782004819      7.3130894754938254      13.146848193960636
    11   1      1.7901261429447857      4.6050245227950199      2.2517776568026306
    12   1      1.7759384520051071      4.6082679241919777      13.178849040576779
    13   1      15.411780023865845       4.580571008931372      10.413698471153907
    14   1      8.5843490243555607      14.149625750114296      11.771664496436415
    15   1      3.1601583125449224      3.2500619533979602      6.3627821135781346
    16   1      12.703930194729082      12.741799728926935      5.0013458824192298
    17   1      12.688964019315449      7.3255807565341797       4.959722880098127
    18   1      4.5216232592924257       10.05162604803968      10.401091841054267
    19   1      1.7735842604449203      1.8691625153041826      10.446071160307156
    20   1     0.42001205482759829      3.2121612700870514      9.0142515613786145
    21   1      8.5979485324338611      11.365454753531594      9.0529007968126507
    22   1      9.9593575081188419      1.8582923265811928       7.687895071979483
    23   1      7.2626069840327432      15.512353696055243      7.6984536478956898
    24   1      9.9525562939650172      1.8644491434586712      2.2505947205638392
    25   1      1.8139406132858937      12.801153390445393      15.879579350560675
    26   1      1.7717874676617242      15.474846270296666      2.2861886660414825
    27   1      14.048498207758371      11.373947753888274      9.0731428532501468
    28   1      9.9199821089866873      7.3172658901677892       13.13684446162074
    29   1      3.1633858960329064     0.52310110915343699      9.0816796570470615
    30   1       5.880380666728513      8.7039178150504313      3.6172557287329994
    31   1      11.330613497168656     0.48075230816288439      6.3200791131027927
    32   1      12.688806326930603      1.8403185582905337      15.883029114831629
    33   1      11.306557621201364      11.375737854479212      11.809178736063473
    34   1       4.513126365296614      4.6022128286368229      10.437698862763568
    35   1      12.705552868837344       7.355308691307016       10.43485747960699
    36   1      5.8888410578574621      5.9803152953953713       11.77966300462333
    37   1      3.1828679627823249      3.2434074807689228     0.90198176401940344
    38   1     0.44267820581532291      8.6791513499415487      14.501271981042805
    39   1      1.7860944012998203      4.6107316243527521      7.7170048915401139
    40   1      14.051251984034479      3.2195063769571277      11.793764792149659
    41   1      8.6220686534468314      5.9680328107534706      3.6323937109733322
    42   1      4.5262625303182062      7.3067146148249549      2.2911126594287907
    43   1       3.183647907370954     0.53566661268974514      14.531481753658227
    44   1      15.411681709477762      12.772174981205467      7.6982497185461511
    45   1      5.8783924772467344     0.50595501294982981      11.770074918260775
    46   1      11.297485442023799      11.376317033300097      6.3773272892606201
    47   1       12.66534715116029      1.8530800822218936      10.419605121717154
    48   1      3.1694551060299148      8.6854220557636381     0.91148826647452097
    49   1      9.9530137965630274      12.782264373606267       13.13542036310821
    50   1      5.8744672022967848      5.9564881707270843     0.88123104013217812
    51   1     0.43504913706011195      11.401340478591692      11.795544185232984
    52   1      5.8520982454834325      14.114409730984903      14.527233793365212
    53   1      15.409356233506173      1.8854358583801627      2.2778265893006164
    54   1      14.034199791455876      3.1983700002814999      6.3541255803779109
    55   1       1.805969725601571      15.505961314010278      13.163408814598824
    56   1      4.5785176009941324      10.058164441552094      4.9821224993196438
    57   1      7.2137680949902574      15.486288702295838      13.150918993673145
    58   1      4.5318581764557848      15.472582119141407       4.964235121147226
    59   1      4.5121850780364525      7.3448971002680423      7.7127948942286366
    60   1      3.1457501442893943      8.7085940756479658       6.345322062300454
    61   1      7.2539470438982789      12.776802571313851      15.857503390092006
    62   1      5.9026965727086917      11.419726242573006      6.3435597038883316
    63   1      7.2682537341839293      10.017976245251134      2.2440792021813252
    64   1      5.8716165717472677     0.51759690269734904      6.3508500564581141
    65   1      5.9104853110873705      8.6720396180669468      14.516881580323002
    66   1      5.8889174705254277      8.6640430566995974      9.0841307028806568
    67   1      7.2502948103924609      12.758227965834635      10.404831681440555
    68   1      1.8054102583287914      1.8726024238010837      15.874389129597716
    69   1      3.1496167712999181      11.431459724097294      9.0668828549356704
    70   1      15.447060288040916      10.048062394824115      10.413518390344052
    71   1      9.9529787538108394      12.784880899102973      7.7076085669048098
    72   1      11.330703050868692      14.107627985026738      3.6270027242426295
    73   1      5.8799927629299873      3.2344650084449427      9.0557645683942383
    74   1      9.9719086538608508       10.00510874132965      4.9936622722971151
    75   1      4.5116073593302417      1.8575319718644465       13.13157928810449
    76   1      7.2432896668890976      7.3428456391503687      10.441157387722569
    77   1      5.8757044061309784      14.121067853900627      3.6256204823507687
    78   1      5.8910609188675949      3.2481640476735549      3.5968221539206979
    79   1      9.9715231835867826      4.5721208386051444      10.430550141317212
    80   1       9.961277072210919      7.3070562816587881      2.2485449629132859
    81   1      9.9818627423018143      7.3219110016522677      7.7149646246349448
    82   1      4.5200278406580878      4.5718278422604612      15.846094054025457
    83   1      9.9561326015077611      10.021960411492955      10.412180925302209
    84   1      3.1849537365948493      5.9604616294612924      3.6253693426267546
    85   1      14.061630479140831      14.132181273393144      11.785127727145095
    86   1      8.5890223647237463      3.2216909518626267     0.88065472070253037
    87   1      15.396382627918342      12.755258092586701      2.2528075243530452
    88   1      3.1683349547221269      5.9633307547966865      9.1007176055829859
    89   1      5.8886736313747861      14.141130802938051      9.0666365822605712
    90   1       9.941251112745249      15.485885710645675      4.9926314313369176
    91   1      3.1745314380482625      5.9633375686651675      14.505073146245422
    92   1      8.5945114224900863      3.2178340589499328      11.785023572298314
    93   1      15.391961400683954      10.042502278143616      5.0203857777747203
    94   1     0.42951633669164835      11.409198815769855      6.3653611627981945
    95   1      14.050387596147175      5.9701266151967047      3.6243256039869323
    96   1      7.2372623135127583      1.8628865774045096      15.916822008858276
    97   1      7.2488235015054556      15.481680580383113      2.2720167930107777
    98   1      15.400282107509042      15.474557167591115      10.429420985968932
    99   1      4.5186952426651601      15.483367499537053       15.84069357654937
   100   1      3.1530368465724905      8.6702251822314338      11.792040883423965
   101   1      9.9818062845344002      15.486492144940485      10.419765734331349
   102   1      12.702357164519753      12.773309977012445      15.854949162821413
   103   1      7.2556587850016854      10.043983807833342      13.172285338410006
   104   1      14.031542382748285      14.112122217994852     0.89402937112095771
   105   1      9.9333966692062177      15.504671546047803      15.849732659794313
   106   1      1.7833929457995481      7.3130466454633734        15.8680512585006
   107   1      7.2160677756025962      4.6418067582652611      2.2548918380508951
   108   1      4.5429321728520904      4.5742642869473116      4.9645923625375872
   109   1       1.784787720342365      10.058001882118333      13.170816463047458
   110   1       5.907633220423179      3.2079612502258499      14.517400407737341
   111   1      14.054347427144421       0.478508507355901      14.509641358357044
   112   1      7.2256909047173394      4.5964312612306912      7.6765850237107998
   113   1      12.674896301131525      1.8322577518775063      5.0050438661848489
   114   1      14.036029801847917      14.147890160471206      6.3425848339906565
   115   1     0.44773981501070281      8.6520925047936998      9.0548505366080008
   116   1      15.412885817379333      7.3147686073695013      2.2667248507254953
   117   1      3.1514577325520179      3.2478304114704315      11.799301546995366
   118   1      12.675878471602573      10.028612693949981       2.255147114766487
   119   1      12.666388699628101      15.481006980813277      13.136306166010741
   120   1      5.8601532114377619      5.9837348839630522      6.3588193623515394
   121   1      11.300855386692547      8.6646329430280957      3.6189484883456373
   122   1      8.5806958174399597      8.6403015920922144      6.3741758750881559
   123   1      11.304568945014694      3.2205832115295721       9.037036164169308
   124   1      0.4342334196619575     0.50048381116919671     0.90272800429429623
   125   1      11.330790657749162      8.6584946209364944        9.06986732933035
   126   1      11.341395957334953      5.9557235573425373      11.769267961550668
   127   1      11.387326297945833      3.2154326570152705      3.6279240566022395
   128   1     0.45204377678529539      14.129870398568301      9.0439045435981598
   129   1      12.698380785556196      4.6100916074204292      13.132229525839534
   130   1      15.425924641422625      4.6122335956479219      5.0031204084536398
   131   1       9.963140178535582      1.8369128408122606      13.166633721209905
   132   1       14.02777431347829      3.2158110700684119     0.88749505376200943
   133   1      7.2546172365338748      7.3285481962576569      15.897509558763545
   134   1      14.056727414063857      8.6919205394749497      11.815791108719395
   135   1      3.1628916472155879      14.128165958038267     0.91816391076633863
   136   1      8.5949329089261255      11.393983447451774      14.510744231641183
   137   1      14.029609190919246       8.637872934683628      6.3691720620986416
   138   1      12.689406920766714      7.3322125973857624      15.840098823171957
   139   1      14.048457324547485      11.391739737901958      3.6296087855841677
   140   1     0.41956559434681395     0.48485632548423752      11.782379791327685
   141   1     0.40594053426170973      11.424886287832692     0.90302306913476826
   142   1      7.2410036140137208      7.3284493951646823      4.9853439989964841
   143   1      11.341565330637195      5.9894054826539218      6.3161397237109895
   144   1      11.317671040693881      8.6768638369514974      14.488295455225625
   145   1      7.2206087322402936      1.8592871513794194      10.394655655569068
   146   1      4.5134407766565232      15.485418473949835       10.41390386061812
   147   1      12.674753209893424      4.6063804826227397       2.253356040765766
   148   1      15.410850417523079      15.485463250799853      15.879118927733316
   149   1       8.577609135018065     0.52333156391956237      14.501437460705915
   150   1      4.5729798727386424      10.028166872269367      15.852849517919481
   151   1     0.41868058233973215      8.6370815525300486      3.6397045051485577
   152   1      1.7969116608658595      7.3129128016182108      4.9799444949301801
   153   1      3.1415250591262804      11.391577178468197      3.6385841104883241
   154   1     0.43288667680812054      14.118348146966923      14.533797495531985
   155   1      12.665572008820163      4.6141117898242214       7.694259711845632
   156   1      14.067807737623752      8.6698056426149606     0.86392551765754888
   157   1      5.9013128707021565      11.398740501061297     0.88635190564809818
   158   1     0.45017385659215137     0.49600980687313623      6.3317931264314211
   159   1      14.033630346732821      11.403123765314149       14.49518427625992
   160   1      3.1638728442768524      11.422125697688102      14.506432026302491
   161   1      4.5447101058207409      7.3176640147690364      13.139925303583937
   162   1      5.8598850370425453     0.50280511973015152      0.8876577348719934
   163   1      15.384250048383024      15.465107305417746      4.9821507282033508
   164   1      9.9684987993909999      4.5801431953317433      4.9946721849469782
   165   1       8.597748983428346      8.6352135791564706     0.87390899090633667
   166   1      4.4936674170295419      1.8685972075727051       7.695221927416128
   167   1      3.1516964613012988     0.50612137476555574      3.6399371500866948
   168   1     0.48261860848839788      3.2119067234287968      14.525055302270857
   169   1     0.45961723950665245       3.230536813265644       3.621636802813839
   170   1      14.067984898204259      5.9509251338172362      14.489020645513961
   171   1      8.5789027966196727      11.405186420644327      3.6225995050892266
   172   1         12.672727544135      15.470592469544954      7.7178386170192539
   173   1      15.388070681781301      7.3068338575233724       7.698896549346955
   174   1      11.315377687245132      5.9355399054920213     0.87902985642225673
   175   1      11.341711342104645     0.50071037229619009      11.770244291563017
   176   1       8.617767155615752      3.2258836711504557      6.3519441690542067
   177   1        11.3265855274866      3.1892652118762044      14.490572260708063
   178   1       1.821046139673129      15.448174842242452       7.680634408408082
   179   1      8.6148917031167684      8.6848380098938378      11.799672416122689
   180   1     0.42608500636846003      5.9222913116404925     0.89040135118349184
   181   1        4.51218751156091       12.73379148664219      2.2513843992502984
   182   1      7.2301724833582739      12.772493286204508      4.9714154784115294
   183   1      1.7924979775572893      7.3555262483935167      10.420829671224169
   184   1      15.438990720939842      12.756560514876355      13.157237396574601
   185   1     0.43972901752527704      5.9602445590796833      6.3740108821299373
   186   1      8.5741798123525541      5.9451464866404535      14.492634916038241
   187   1       11.32130088577469      14.151312669268236      14.497692753270712
   188   1      1.7593987596772536      10.039863364221901      2.2389344881257216
   189   1      3.1734903762853435      14.105770719160773      6.3091126784875087
   190   1      9.9552107824432596      10.064146044668632      15.845290017544698
   191   1        8.58123119282061      5.9828967781398887       9.062580383694808
   192   1      9.9654247712962842      4.6008281532205046      15.837455042201327
   193   1     0.48131305303600413      5.9401884239107403      11.770322164345657
   194   1      7.2276795809040095      1.8695247454196817      4.9688344823719035
   195   1      1.7826277240338868      12.770674956729863      4.9765336670505462
   196   1       1.765361746331692      12.773194141248268       10.43705057184809
   197   1      9.9860834471209046      12.785796877708776       2.267992230262962
   198   1      15.410666443074092      1.8500873338440584      7.6818847532743462
   199   1      8.5929101633970504     0.51851178621714666      3.6310735239551377
   200   1      8.5651485163858752      14.120862464436414      6.3396962404596024
   201   1      12.694202910767558      10.039241355370564        13.1593847385559
   202   1      11.340997832733706      14.119718707941388      9.0598227137795675
   203   1      4.4928974498911884      1.8576710477871927      2.2758245287294301
   204   1      11.346439193420679       0.510914809565719     0.89169744630955705
   205   1      12.682981442789128      15.466875990993458      2.2837208288891304
   206   1      14.046319716664016     0.47490737786369053      9.0691947031702966
   207   1      4.5179744327208482       12.76697891978381      7.7346761727407056
   208   1      15.441168238624414      10.035542398195162      15.868142759020202
   209   1      15.401430731052983      4.5630686143281309      15.861471008367516
   210   1      12.682991176886958      10.034294486853355      7.7010273433619432
   211   1      7.2168567242317181      10.038034327239643      7.6956512011304312
   212   1      14.039985739206031      5.9429066707297693      9.0933002230365219
   213   1      1.7861569428783781      10.083114881109964      7.6968153992308999
   214   1      5.8834362000373517      11.427874655866503      11.777439736678957
   215   1      14.081276808791131      0.5235593418087845      3.6390584044050911
   216   1      8.6410783730990488     0.47282707948119551       9.095464112984132


Velocities

     1                       0                       0                       0
     2                       0                       0                       0
     3                       0                       0                       0
     4                       0                       0                       0
     5                       0                       0                       0
     6                       0                       0                       0
     7                       0                       0                       0
     8                       0                       0                       0
     9                       0                       0                       0
    10                       0                       0                       0
    11                       0                       0                       0
    12                       0                       0                       0
    13                       0                       0                       0
    14                       0                       0                       0
    15                       0                       0                       0
    16                       0                       0                       0
    17                       0                       0                       0
    18                       0                       0                       0
    19                       0                       0                       0
    20                       0                       0                       0
    21                       0                       0                       0
    22                       0                       0                       0
    23                       0                       0                       0
    24                       0                       0                       0
    25                       0                       0                       0
    26                       0                       0                       0
    27                       0                       0                       0
    28                       0                       0                       0
    29                       0                       0                       0
    30                       0                       0                       0
    31                       0                       0                       0
    32                       0                       0                       0
    33                       0                       0                       0
    34                       0                       0                       0
    35                       0                       0                       0
    36                       0                       0                       0
    37                       0                       0                       0
    38                       0                       0                       0
    39                       0                       0                       0
    40                       0                       0                       0
    41                       0                       0                       0
    42                       0                       0                       0
    43                       0                       0                       0
    44                       0                       0                       0
    45                       0                       0                       0
    46                       0                       0                       0
    47                       0                       0                       0
    48                       0                       0                       0
    49                       0                       0                       0
    50                       0                       0                       0
    51                       0                       0                       0
    52                       0                       0                       0
    53                       0                       0                       0
    54                       0                       0                       0
    55                       0                       0                       0
    56                       0                       0                       0
    57                       0                       0                       0
    58                       0                       0                       0
    59                       0                       0                       0
    60                       0                       0                       0
    61                       0                       0                       0
    62                       0                       0                       0
    63                       0                       0                       0
    64                       0                       0                       0
    65                       0                       0                       0
    66                       0                       0                       0
    67                       0                       0                       0
    68                       0                       0                       0
    69                       0                       0                       0
    70                       0                       0                       0
    71                       0                       0                       0
    72                       0                       0                       0
    73                       0                       0                       0
    74                       0                       0                       0
    75                       0                       0                       0
    76                       0                       0                       0
    77                       0                       0                       0
    78                       0                       0                       0
    79                       0                       0                       0
    80                       0                       0                       0
    81                       0                       0                       0
    82                       0                       0                       0
    83                       0                       0                       0
    84                       0                       0                       0
    85                       0                       0                       0
    86                       0                       0                       0
    87                       0                       0                       0
    88                       0                       0                       0
    89                       0                       0                       0
    90                       0                       0                       0
    91                       0                       0                       0
    92                       0                       0                       0
    93                       0                       0                       0
    94                       0                       0                       0
    95                       0                       0                       0
    96                       0                       0                       0
    97                       0                       0                       0
    98                       0                       0                       0
    99                       0                       0                       0
   100                       0                       0                       0
   101                       0                       0                       0
   102                       0                       0                       0
   103                       0                       0                       0
   104                       0                       0                       0
   105                       0                       0                       0
   106                       0                       0                       0
   107                       0                       0                       0
   108                       0                       0                       0
   109                       0                       0                       0
   110                       0                       0                       0
   111                       0                       0                       0
   112                       0                       0                       0
   113                       0                       0                       0
   114                       0                       0                       0
   115                       0                       0                       0
   116                       0                       0                       0
   117                       0                       0                       0
   118                       0                       0                       0
   119                       0                       0                       0
   120                       0                       0                       0
   121                       0                       0                       0
   122                       0                       0                       0
   123                       0                       0                       0
   124                       0                       0                       0
   125                       0                       0                       0
   126                       0                       0                       0
   127                       0                       0                       0
   128                       0                       0                       0
   129                       0                       0                       0
   130                       0                       0                       0
   131                       0                       0                       0
   132                       0                       0                       0
   133                       0                       0                       0
   134                       0                       0                       0
   135                       0                       0                       0
   136                       0                       0                       0
   137                       0                       0                       0
   138                       0                       0                       0
   139                       0                       0                       0
   140                       0                       0                       0
   141                       0                       0                       0
   142                       0                       0                       0
   143                       0                       0                       0
   144                       0                       0                       0
   145                       0                       0                       0
   146                       0                       0                       0
   147                       0                       0                       0
   148                       0                       0                       0
   149                       0                       0                       0
   150                       0                       0                       0
   151                       0                       0                       0
   152                       0                       0                       0
   153                       0                       0                       0
   154                       0                       0                       0
   155                       0                       0                       0
   156                       0                       0                       0
   157                       0                       0                       0
   158                       0                       0                       0
   159                       0                       0                       0
   160                       0                       0                       0
   161                       0                       0                       0
   162                       0                       0                       0
   163                       0                       0                       0
   164                       0                       0                       0
   165                       0                       0                       0
   166                       0                       0                       0
   167                       0                       0                       0
   168                       0                       0                       0
   169                       0                       0                       0
   170                       0                       0                       0
   171                       0                       0                       0
   172                       0                       0                       0
   173                       0                       0                       0
   174                       0                       0                       0
   175                       0                       0                       0
   176                       0                       0                       0
   177                       0                       0                       0
   178                       0                       0                       0
   179                       0                       0                       0
   180                       0                       0                       0
   181                       0                       0                       0
   182                       0                       0                       0
   183                       0                       0                       0
   184                       0                       0                       0
   185                       0                       0                       0
   186                       0                       0                       0
   187                       0                       0                       0
   188                       0                       0                       0
   189                       0                       0                       0
   190                       0                       0                       0
   191                       0                       0                       0
   192                       0                       0                       0
   193                       0                       0                       0
   194                       0                       0                       0
   195                       0                       0                       0
   196                       0                       0                       0
   197                       0                       0                       0
   198                       0                       0                       0
   199                       0                       0                       0
   200                       0                       0                       0
   201                       0                       0                       0
   202                       0                       0                       0
   203                       0                       0                       0
   204                       0                       0                       0
   205                       0                       0                       0
   206                       0                       0                       0
   207                       0                       0                       0
   208                       0                       0                       0
   209                       0                       0                       0
   210                       0                       0                       0
   211                       0                       0                       0
   212                       0                       0                       0
   213                       0                       0                       0
   214                       0                       0                       0
   215                       0                       0                       0
   216                       0                       0                       0
