(written by ASE)

216 atoms
1 atom types

0.0      16.331106185913086  xlo xhi
0.0      16.331106185913086  ylo yhi
0.0      16.331106185913086  zlo zhi

Atoms # atomic

     1   1      3.0024973201643377      15.376307997963522      15.277752204254284
     2   1      4.3242021275629554      3.1727875744220171     0.32095090934570436
     3   1      11.194983445054277      12.695199682385351       15.32248719765164
     4   1     0.29629821150520996      1.7934612882137912       9.811827521407281
     5   1      11.179566580911114      15.403587807132112       7.168366802596438
     6   1      15.312752126411851      8.6005222279001146     0.34114590750400353
     7   1      5.7199583541460015       4.516758157196989      12.587487022847426
     8   1      11.180002668493898      12.690488379035628      4.4046145363268465
     9   1      15.241954086074657      3.1319445166895434      11.226356442360384
    10   1      3.0021617371416482      7.2331209415909825      1.7044109627117763
    11   1      7.0883184490913891      8.5804076881441915      13.961457851782029
    12   1     0.25209396979203547      4.5207335627507632      12.570356957486183
    13   1      15.224461912274137      5.8744954311804918      13.938609003945658
    14   1      2.9706799612922907      12.673108147360153      12.597600750492802
    15   1     0.28197393900535417      4.5190359360892103      7.1283455460732625
    16   1      7.0730110935488142      11.317685641840626       5.756482149318856
    17   1       9.817306845075791       3.154833274327018     0.29923182523872782
    18   1      9.8327499912830945      11.314279681009907      13.943682415734656
    19   1      12.545498991857698       3.156295092468639      13.910634180192005
    20   1     0.28916284402431458      1.7802052721126671      4.4223276741481072
    21   1      9.7907814284890264      5.8755598547782029      8.4687254635111913
    22   1      13.893577120564487      4.5231729276669626      4.4163572652440735
    23   1      2.9984751909409795      15.402835361369853      9.8891084708992594
    24   1      5.7724368223671263      1.7784683440311255      4.4403853990325501
    25   1      15.268392869190734     0.41571603242654831      3.0325233616832179
    26   1      9.8146328884018885      8.6009047779448338     0.31705456291774325
    27   1      2.9837394702934716      12.654568584633125      7.1655945315344525
    28   1      13.889271729094276      7.2118198153095818      7.1165609605353666
    29   1      3.0210872568476361      12.678457034117741      1.7007850112700993
    30   1      9.8057797264254987      11.314156057967466      8.4844976222251489
    31   1      4.4299806218620574     0.41545810925310889      8.4844450580968669
    32   1       8.437213268606115      9.9652709725505701      15.310427623850046
    33   1      13.904315777290549      12.701924970576101      7.1229251136966241
    34   1      4.3958908378515957       14.03085320862192      11.240900157928195
    35   1       8.435470865094544      1.7930265390694586      1.6519118095327627
    36   1      1.6522763514964964      14.029751308747564      13.943957890703246
    37   1      1.6385612510064647      14.055144649756699      8.5286378622450911
    38   1       1.618990725643016      3.1642023434883981      3.0885340906544059
    39   1      2.9837983615853432      7.1743508392374338      7.1399977478806704
    40   1      12.525190743554958     0.44151604579158743      5.8016138072027843
    41   1      5.7104972977601278      15.360699372093109      1.7058151063237545
    42   1      12.516212985126344      3.1213937280516006      8.4968054155214077
    43   1      12.523928231066407      8.5716616012439317      13.929922295042161
    44   1      13.901820928016718      7.2330849254290115      1.6657115966739156
    45   1      15.259807394904669      14.050970668607192      5.7977138409071927
    46   1      13.894638137227957       4.491265528389988      15.329411061438122
    47   1      12.499615374916402     0.41110596369425778      11.217650265261227
    48   1      5.7217971252260895      9.9330910185343555      1.6964748744271958
    49   1      4.3500223087619361      3.1624757578858009      5.7452558142915109
    50   1      1.6102589965370555      8.6203408510820054      13.920762508984126
    51   1      8.4395455584461843      9.9710432925637633      4.4207157075474584
    52   1      11.161837868533325      4.5241891674804151      7.1426853322915349
    53   1      12.521692308794854      5.8883592200148769     0.32545341629697333
    54   1      13.902472139161546      15.376895937472455      15.308950961209234
    55   1      5.7305534329290708      12.658358068918346      15.328603131318232
    56   1      4.3554553954657536      5.8708115618567263      3.0489778806550589
    57   1      4.3482010590579421      8.5871300561055932     0.34167763259796757
    58   1      5.7321026145987162      4.5311057306935254      7.1205937972663378
    59   1      15.266835413537933      5.8557553460381655      8.4815978344815903
    60   1      7.1122516754260232      5.8416447978237898      11.234697590790915
    61   1      12.525891598598719     0.41889068675758168     0.36140180461185167
    62   1      1.6332774610281149     0.39000846257183852     0.32341314939180421
    63   1      13.900099939520373      15.391533100379434      4.4129371899715011
    64   1      7.1077477083600797       8.614078905947963      8.5111865716554576
    65   1      7.0767713755405453      8.5779887648334352      3.0653499031477907
    66   1      5.7270131415482979      15.412083727718141      7.1177748025347682
    67   1      12.520774383369485       14.01653045707485      8.4932777784678137
    68   1      8.4550870190415708      9.9873936566888233      9.8289575867685244
    69   1      5.7077264868128168      1.7921310020690981      15.323372027144387
    70   1      9.8321581581350301     0.41095018770992198       13.92723276381173
    71   1     0.30326867728505391      9.9477028727869765      7.1605464283998117
    72   1      11.168033621802124      4.5099827384024138       12.58207681127351
    73   1       12.50076302505056      3.1591849027619219      3.0439083625051921
    74   1      11.143488120713982       7.217671954924981      9.8415466954920703
    75   1      1.6278650592821862      5.8824958861869732     0.31799536347301327
    76   1     0.26655862623403337      1.7752759249715524      15.291462681047847
    77   1      5.7164754939424256      1.7991652261897286      9.8477317412532557
    78   1     0.27096595195995832      12.691365421250111      15.286688106062229
    79   1      8.4812055503390411      7.2389497193715897      1.6661916093731577
    80   1      9.7908106307825165      5.8655259467350334      3.0265271574199346
    81   1      9.8078676904100348      5.8551440446944412      13.905986148478178
    82   1        12.5510532680795      8.5787635990207036      3.0187218710749448
    83   1      2.9885644192353595       4.513043625465059      4.4071814179246189
    84   1     0.29884516862148658      7.2491004365887193       9.870217507240568
    85   1      4.3709734942263481     0.39178606093087609      13.925644159045873
    86   1      15.235679486613435      11.314153137738117      13.924197672108335
    87   1      11.153395485485362      12.661406788358704      9.8706944780342383
    88   1        7.07904380067896      11.306757170206879     0.35023162316136336
    89   1      1.6336444365163061      5.8636102762820883      5.7824882517863898
    90   1      9.7471405476877635     0.41652861666196372      8.4881848984831549
    91   1      15.251477927391534     0.42281319357346092      8.5034693788958293
    92   1      12.521598861455686      11.292650515631635     0.31294020311744575
    93   1      8.4264970003050621       4.479236616996559      15.261016369855156
    94   1      5.7380394408652364      7.2284256995026794      9.8606352613367108
    95   1      2.9946647783454239      1.8083703974788961      7.1272363456255334
    96   1      4.3541057628016233      14.005996216403219     0.31739072390249135
    97   1      4.3805688811622758     0.45642326907523767      3.0660376171594805
    98   1      5.7393593845309852      12.639696829968443      9.8613769995913572
    99   1      8.4240167521779767      1.7654845176405729        12.5681628918353
   100   1      1.6379578586172272     0.41935387771901134      5.7662581037695304
   101   1      7.0618480301573641      3.1474682125563902       8.495561397818733
   102   1      7.0814043194027363      3.1504096135681721      13.950239304032948
   103   1      1.6682554814655646      11.298782023854756      11.193393866878637
   104   1      13.878863058284651      7.2575739687497389      12.605329624169826
   105   1      5.6919854772119152      9.9537925243894279      7.0982520959269095
   106   1      1.6368311367934041      3.1664961836420389      8.4902835699753041
   107   1      9.8097570787988388      14.025377778592542      11.232155044437718
   108   1      4.3618380434128881      11.328780566547266      13.953718270597392
   109   1      9.7967678986544797      14.042834909640874     0.31092141206561408
   110   1      9.8098164567956019      14.057748520926225      5.7702549243385306
   111   1      4.3576207455280382      8.5664927952961989      5.7720343174218556
   112   1      13.857042131179128      9.9465464619647719      9.8625382774624768
   113   1       13.87019776439638      15.371502273864849      9.8696237272729377
   114   1      11.186593626134595      1.7913138245562692      15.245947986414308
   115   1      9.8116970844963589      3.1583377928982657      5.7919999254809795
   116   1      8.4341548150679273      15.407559319046754       4.424593285418041
   117   1       11.15314823940048      4.4874453816966025      1.6960196836774202
   118   1      13.912977177539688      1.7878449571183239      7.1314176273484122
   119   1      12.534230800209684      5.8636574866565638      5.7627460412724645
   120   1      11.170182910602989      15.404672185630375      1.6935770335032032
   121   1      8.4513831948172538       12.67727239441183      7.1098458931473374
   122   1       2.999922894640747       15.40177045106725       4.437405304981894
   123   1        7.10007869938471      14.028919043383098      13.954243911880212
   124   1      8.4258749914537248      15.370735226955844      9.8494731713550436
   125   1      7.0749384449191552      3.1397184105690314      3.0545774204317695
   126   1      8.4314983797701188      7.2403397485417145      12.563096293914782
   127   1     0.27122016400860005      15.417704195805186      12.575714604931818
   128   1      8.4311304308721446      12.669773245443594      1.6607551157350997
   129   1      12.533936830455218      14.030905772750202      13.940870234871568
   130   1      15.236804748322584     0.40016724083873356      13.902709651148598
   131   1      13.877343565613387      9.9006239086321557      15.326850993708831
   132   1      12.539115370500781      14.052382112792543      3.0365566851190806
   133   1      15.291190126308607      14.029744494879083      0.3588246109541906
   134   1     0.26251572079561925      12.701162790716012      4.3937877860154231
   135   1      7.0596505575722404     0.41908120130354831     0.29753170421460595
   136   1      11.187120240827198      9.9336088725389118      1.6891576314121579
   137   1      13.886816789621548      1.8095951903383565      12.561139740250951
   138   1      1.6576778023823664      11.292091778416193       5.757337289813222
   139   1      12.531304730401985      5.8633065724297921       11.20213119309085
   140   1      9.8216394920199264      8.5856164038930274      11.221418334531222
   141   1      1.6569864380839903      8.5811533200379699      3.0802493999912883
   142   1      13.887131200981457      1.7624445588882622       1.718894570225487
   143   1      15.242825287830442      3.1431584407421553      5.7531633086637157
   144   1     0.29902844343219215      15.412945195376096      7.1277785348746647
   145   1      7.1035479318513239      14.052447331248004      3.0629694295234628
   146   1       5.721730446655954      9.9713070866149565        12.5923900879244
   147   1      5.7164482384685016      7.2119979492998709      15.302200364364126
   148   1      4.3377038079580643      5.8469771366150667      13.913038502356017
   149   1      4.3739015108536137      3.1760324359336494      11.240273282027943
   150   1      4.3668442899268598       11.30131386270034      3.0370940073192969
   151   1      2.9878153804073406      9.9257505353607485       4.398149148548157
   152   1      1.6328477006089201      3.1519045276424151       13.93476890235172
   153   1     0.26013926248664632      4.5124040952376276      1.6786034358399746
   154   1     0.30082380651976948      15.356022138085791      1.6909946990251257
   155   1      9.7904942726030413     0.41747136403679974      3.0483889677363436
   156   1      4.3860204626519703      14.044549084268738      5.7547976636893736
   157   1      11.164732789227969      9.9665948098554509      12.576751286350714
   158   1      15.271118416583136      3.1559767874695979     0.34495397783226878
   159   1      13.888719805747314      9.9586177166837615      4.4158248100927722
   160   1      5.7282415846944446      12.685807251389178      4.3986811169945668
   161   1      11.165794779301223      15.375168135107629      12.593902766727183
   162   1      8.4477280410820867      7.2394768207690845      7.1187224169585193
   163   1     0.26320705467493966      7.2648618877950639      4.4168084406784942
   164   1      1.6607691085007303     0.42680353488359302      11.214381555209911
   165   1      5.7416366767183149      4.5193182249262804      1.6618230679432742
   166   1      11.169892834487655      7.1963698552337974      4.3942997995612814
   167   1      12.518961894353538      11.313253707098625      11.229525864613834
   168   1      15.235452682133996      5.8852793514614632      3.0735426065864146
   169   1      1.6766208434644483      8.5918501201433628      8.4998142251606623
   170   1     0.28254207570901357      9.9838319502928243      1.6936349513852917
   171   1      2.9990120264363043      4.5034555391025037      9.8521004043593621
   172   1      7.0858883315681283      5.8747976749181134      5.7713480635248402
   173   1      1.6296925144735468      5.8541200176027246        11.2370347476799
   174   1      3.0411348746809779      9.9298661119232747      9.8496999758344828
   175   1      4.3730468570641392       11.31128644592718      8.4839203902238296
   176   1       13.91004526727329      4.5005747328497137      9.8742221150878322
   177   1      13.880663866383202      12.703083328217872      12.556827534912259
   178   1     0.28791173868165743      9.9618416498850593      12.559872360713484
   179   1      9.7685166265224552      3.1776327216169022      11.216906580187015
   180   1      7.0912615535702912      5.8827538397794683     0.29102114413817404
   181   1      11.133721900361138      1.7718187384510031      9.8672914374328684
   182   1      8.4332261821349448      12.644003194848437      12.569535399629331
   183   1      11.158965336263691      7.2198976563938118      15.270172262274059
   184   1      4.3692057820604191      5.9041304053190515      8.5109110966868684
   185   1       3.040044899076463      9.9598685482549172      15.258492318287836
   186   1       15.24922837738302      11.318743738274748      8.5072403683951734
   187   1      8.4558521191310092      4.5147816486326064      4.4159620608721752
   188   1        1.65336754386324      14.021716784398677      3.0504920195725163
   189   1      9.8146611172855955      11.298790784542803      3.0528369637397645
   190   1       15.26184182135114      14.058409466168882      11.218328731879978
   191   1      1.6692899727124484      11.285264282198227     0.31117872685793913
   192   1      12.501433704391047      8.5491515000120444      8.5015079581830832
   193   1      5.7047833823339147      15.407358796631456      12.558907711618531
   194   1      13.917090807282648      12.715831102736047      1.6647643472788332
   195   1      15.230510680665702      11.315903328527952      3.0578675454983113
   196   1      5.7291337147605645      7.2042705357375212      4.4049279742769727
   197   1      7.0895240171076352      11.321144166799627      11.219156130195529
   198   1      7.0755701878683226      14.014906809556805      8.5107991545618233
   199   1     0.30693274380354651      12.656035513176107      9.8557594517336611
   200   1       8.442771438467048      15.381850593267927      15.294863774829651
   201   1      2.9834270057531285      1.8105289336726997      1.6744983234326156
   202   1      7.0930083374258857     0.43583635180305791      5.7889507193357304
   203   1      2.9991916205412679      4.5259705073833061      15.263871380748697
   204   1     0.30039787890159531      7.2518839018632093      15.317692181060579
   205   1      12.544663806263884      11.302522837650827      5.7607914344281994
   206   1      15.253630136421748      8.5943790387595982      5.7894529987837586
   207   1      7.0856386519587886      0.4087545402681414      11.202925495473778
   208   1       4.359073072924275      8.5996636804715081      11.248995033683627
   209   1      2.9865528679187889       1.791182535911787      12.593323587906298
   210   1      2.9852027485497672      7.2482370221111978      12.586928285631984
   211   1      11.148625777548659      9.9489624650461792      7.1238824622182051
   212   1      15.241803207558291       8.584934043635144      11.223009859526428
   213   1      11.162565005641227      1.7908622840931798       4.424590365188692
   214   1      8.4660047831677048      4.5152157893958247      9.8575514991441651
   215   1      8.4333283901621598      1.7916048740813864      7.0915326481948568
   216   1      9.7828617664945341      8.5839265645097385      5.7420936926114337


Velocities

     1                       0                       0                       0
     2                       0                       0                       0
     3                       0                       0                       0
     4                       0                       0                       0
     5                       0                       0                       0
     6                       0                       0                       0
     7                       0                       0                       0
     8                       0                       0                       0
     9                       0                       0                       0
    10                       0                       0                       0
    11                       0                       0                       0
    12                       0                       0                       0
    13                       0                       0                       0
    14                       0                       0                       0
    15                       0                       0                       0
    16                       0                       0                       0
    17                       0                       0                       0
    18                       0                       0                       0
    19                       0                       0                       0
    20                       0                       0                       0
    21                       0                       0                       0
    22                       0                       0                       0
    23                       0                       0                       0
    24                       0                       0                       0
    25                       0                       0                       0
    26                       0                       0                       0
    27                       0                       0                       0
    28                       0                       0                       0
    29                       0                       0                       0
    30                       0                       0                       0
    31                       0                       0                       0
    32                       0                       0                       0
    33                       0                       0                       0
    34                       0                       0                       0
    35                       0                       0                       0
    36                       0                       0                       0
    37                       0                       0                       0
    38                       0                       0                       0
    39                       0                       0                       0
    40                       0                       0                       0
    41                       0                       0                       0
    42                       0                       0                       0
    43                       0                       0                       0
    44                       0                       0                       0
    45                       0                       0                       0
    46                       0                       0                       0
    47                       0                       0                       0
    48                       0                       0                       0
    49                       0                       0                       0
    50                       0                       0                       0
    51                       0                       0                       0
    52                       0                       0                       0
    53                       0                       0                       0
    54                       0                       0                       0
    55                       0                       0                       0
    56                       0                       0                       0
    57                       0                       0                       0
    58                       0                       0                       0
    59                       0                       0                       0
    60                       0                       0                       0
    61                       0                       0                       0
    62                       0                       0                       0
    63                       0                       0                       0
    64                       0                       0                       0
    65                       0                       0                       0
    66                       0                       0                       0
    67                       0                       0                       0
    68                       0                       0                       0
    69                       0                       0                       0
    70                       0                       0                       0
    71                       0                       0                       0
    72                       0                       0                       0
    73                       0                       0                       0
    74                       0                       0                       0
    75                       0                       0                       0
    76                       0                       0                       0
    77                       0                       0                       0
    78                       0                       0                       0
    79                       0                       0                       0
    80                       0                       0                       0
    81                       0                       0                       0
    82                       0                       0                       0
    83                       0                       0                       0
    84                       0                       0                       0
    85                       0                       0                       0
    86                       0                       0                       0
    87                       0                       0                       0
    88                       0                       0                       0
    89                       0                       0                       0
    90                       0                       0                       0
    91                       0                       0                       0
    92                       0                       0                       0
    93                       0                       0                       0
    94                       0                       0                       0
    95                       0                       0                       0
    96                       0                       0                       0
    97                       0                       0                       0
    98                       0                       0                       0
    99                       0                       0                       0
   100                       0                       0                       0
   101                       0                       0                       0
   102                       0                       0                       0
   103                       0                       0                       0
   104                       0                       0                       0
   105                       0                       0                       0
   106                       0                       0                       0
   107                       0                       0                       0
   108                       0                       0                       0
   109                       0                       0                       0
   110                       0                       0                       0
   111                       0                       0                       0
   112                       0                       0                       0
   113                       0                       0                       0
   114                       0                       0                       0
   115                       0                       0                       0
   116                       0                       0                       0
   117                       0                       0                       0
   118                       0                       0                       0
   119                       0                       0                       0
   120                       0                       0                       0
   121                       0                       0                       0
   122                       0                       0                       0
   123                       0                       0                       0
   124                       0                       0                       0
   125                       0                       0                       0
   126                       0                       0                       0
   127                       0                       0                       0
   128                       0                       0                       0
   129                       0                       0                       0
   130                       0                       0                       0
   131                       0                       0                       0
   132                       0                       0                       0
   133                       0                       0                       0
   134                       0                       0                       0
   135                       0                       0                       0
   136                       0                       0                       0
   137                       0                       0                       0
   138                       0                       0                       0
   139                       0                       0                       0
   140                       0                       0                       0
   141                       0                       0                       0
   142                       0                       0                       0
   143                       0                       0                       0
   144                       0                       0                       0
   145                       0                       0                       0
   146                       0                       0                       0
   147                       0                       0                       0
   148                       0                       0                       0
   149                       0                       0                       0
   150                       0                       0                       0
   151                       0                       0                       0
   152                       0                       0                       0
   153                       0                       0                       0
   154                       0                       0                       0
   155                       0                       0                       0
   156                       0                       0                       0
   157                       0                       0                       0
   158                       0                       0                       0
   159                       0                       0                       0
   160                       0                       0                       0
   161                       0                       0                       0
   162                       0                       0                       0
   163                       0                       0                       0
   164                       0                       0                       0
   165                       0                       0                       0
   166                       0                       0                       0
   167                       0                       0                       0
   168                       0                       0                       0
   169                       0                       0                       0
   170                       0                       0                       0
   171                       0                       0                       0
   172                       0                       0                       0
   173                       0                       0                       0
   174                       0                       0                       0
   175                       0                       0                       0
   176                       0                       0                       0
   177                       0                       0                       0
   178                       0                       0                       0
   179                       0                       0                       0
   180                       0                       0                       0
   181                       0                       0                       0
   182                       0                       0                       0
   183                       0                       0                       0
   184                       0                       0                       0
   185                       0                       0                       0
   186                       0                       0                       0
   187                       0                       0                       0
   188                       0                       0                       0
   189                       0                       0                       0
   190                       0                       0                       0
   191                       0                       0                       0
   192                       0                       0                       0
   193                       0                       0                       0
   194                       0                       0                       0
   195                       0                       0                       0
   196                       0                       0                       0
   197                       0                       0                       0
   198                       0                       0                       0
   199                       0                       0                       0
   200                       0                       0                       0
   201                       0                       0                       0
   202                       0                       0                       0
   203                       0                       0                       0
   204                       0                       0                       0
   205                       0                       0                       0
   206                       0                       0                       0
   207                       0                       0                       0
   208                       0                       0                       0
   209                       0                       0                       0
   210                       0                       0                       0
   211                       0                       0                       0
   212                       0                       0                       0
   213                       0                       0                       0
   214                       0                       0                       0
   215                       0                       0                       0
   216                       0                       0                       0
