(written by ASE)

216 atoms
1 atom types

0.0      16.331106185913086  xlo xhi
0.0      16.331106185913086  ylo yhi
0.0      16.331106185913086  zlo zhi

Atoms # atomic

     1   1      9.3588279170531905      2.6540762391993553      12.196777857327106
     2   1      16.214505321646584      4.0359404480643093      10.871316904928335
     3   1      1.2139822920866408       10.85972067418345      1.3398588998515777
     4   1      6.6421112982030763      10.849018033619359      12.211475371640631
     5   1      14.819549724610056      16.296707831001413      9.4942895692751108
     6   1      5.2901989083610488      14.916583105418681      5.4031738211858737
     7   1      12.101734126114934      13.554967766859704      4.0652274282054464
     8   1      16.213558193927724      6.7611242719118536      2.7167667494539387
     9   1      3.9637229329110539       8.161889178533329      12.226683926090232
    10   1       10.72422689943869      1.3284426282403246      13.584424120303083
    11   1      2.6160215137902867      12.188585640593374      10.878819947535703
    12   1      2.5913424122094284      6.7450673908363683      16.293262933779374
    13   1      6.6833639181017475      13.565021143098534      4.0753014894021646
    14   1      2.5811985088607798      12.185800715204209      16.315126690915349
    15   1      14.836142467771083      2.6584989265484182      6.7831024046973312
    16   1      1.2276622281482616      2.6463906822576746      9.5006838981396413
    17   1       12.09974739674783      16.264981485944077      6.7709552240152675
    18   1      2.6232045479314934      6.7910960458353316       10.87624625206945
    19   1      14.832204051789063       8.101721746436283      1.3558662587043528
    20   1      8.0020582123939903      9.4936023419683124      13.556418147436375
    21   1      1.2289545513114177      8.1282617641697925      9.5082287973676785
    22   1      16.176108199346345      14.933962363684373      10.883912827520362
    23   1      6.6542210026084945      16.271683412300035      12.246309814135088
    24   1      12.119674068415634      8.1299618243558029      9.4875185308245591
    25   1      12.117277533529887      8.1203532963878047      4.0615131398259621
    26   1      12.104657275693285      16.299416830427504      1.3358415160009116
    27   1      1.2356337242136988      13.554092671464787      4.0166017159054377
    28   1      12.114518890204863      13.529117896662342      14.935200540928349
    29   1      1.2306913577167364      8.1288375360564373      14.947300024531046
    30   1      5.2894566834015109      1.3297163349413808      13.599571349936355
    31   1       6.657076013502035      2.6567835351583255       9.510985493873136
    32   1      3.9521999512523394      8.1295972823920692      1.3447345877784045
    33   1      2.5924080525693682      14.929204336665066      8.1744967820427519
    34   1       14.82221784082526      5.4162170255731894      9.5231589566193406
    35   1      10.734196562436182      14.918928049585929      5.4112652900070657
    36   1       12.09496892812308      10.844835291781806      12.202879189846954
    37   1      9.3805437159021494      16.257540741562821      14.946317854059998
    38   1      2.5942132410119427      1.2908770412472137      5.4096100066710733
    39   1      3.9176954946743194      16.281394148295249      9.5126607321096799
    40   1      14.861495898979115      10.801425109099114      4.1090863527981014
    41   1      16.175559196228733      12.181211088077362      2.7116599983798721
    42   1      6.6419268370491977      16.272594523856924      6.7535068536549829
    43   1       9.356081928055346      16.274318432582618      4.0825526622281814
    44   1      3.9522408344632254      2.6707543990688407      12.220962223385754
    45   1      9.3389859320365076      10.821183380874459      9.4809431477403905
    46   1      6.6962645179558535      5.4307237515692464      1.3449770884905945
    47   1      13.495740648613037      12.178180863422881      16.295484254904181
    48   1      9.3349443346174894      5.3995064998284192      4.0390619298859463
    49   1      1.2221867981188836      16.283110269742679       6.806502202470881
    50   1      8.0596500022052169      9.4870658952754638      2.7193343611090484
    51   1      9.3991270820694126      13.572979741484346      1.3329705655221744
    52   1      3.9807916734559683      5.4024841603546179      14.951929561458996
    53   1      14.827042059709811      16.276860978935815      14.942086441733295
    54   1       9.379801977647503      10.836021066196736      4.0698409038719774
    55   1      16.204436370851226      4.0215288728745406      5.4037544601214336
    56   1      13.437347742550401      14.898453348210296      2.6952641273474569
    57   1      13.497202710107103      9.4734936426710874      8.1626163156412304
    58   1      9.3765313207766212       13.55578056402851      6.7801315580396135
    59   1      2.6012086504174761      9.4605541064256613      8.1522524216816237
    60   1       14.80563385835228      13.556931134392016      12.266669653156328
    61   1      5.2938053916070658      1.3244882726731078      8.1331458477559977
    62   1      6.6464828815385317      10.812283495228485       1.304421186644106
    63   1      10.731024219953383      14.917397849407052      16.323754021822083
    64   1      2.5652708479339879      9.4757860227100537      2.7003100403100859
    65   1      13.449696419057545      1.3187343257695687      5.4473554311215935
    66   1        2.57140454632912      14.923795098500932      13.615435009169914
    67   1      16.202492471514574      12.190054515955921      13.582180410753267
    68   1      2.5581306438232332      12.170911439163433      5.4527179456161434
    69   1      12.106469764709232       13.56925352883502      9.5233361171998467
    70   1      8.0093363973414853       9.467310543729468       8.126404985008719
    71   1       8.046229114822097      12.223042400092027      10.846036479454028
    72   1      16.203754984003126      1.2926642216088027      8.1416626966523609
    73   1      5.3208661835744806      6.7649059689188107      13.608670784587844
    74   1       1.243766806303114      16.276718861107497      12.234519874843386
    75   1      13.441518803470558      4.0202855852292032      8.1565660871349905
    76   1      9.3820359530994892      8.1312121692220671      12.202535576193554
    77   1      16.221061236535093      1.2999465435478754      13.596800052284152
    78   1      13.502963349202901      4.0529232851958739      13.598062564772704
    79   1      1.2243646808321245      13.544973768617638      9.5261979419618683
    80   1       6.683452011687109      13.550597156934032      9.5157999786598566
    81   1      14.854881579503626      13.537730626422331      1.3402688270464438
    82   1       14.81718920588628      10.825361255663097      9.5032303381319707
    83   1      10.708847998277065      4.0492963603444139      16.327281658875677
    84   1      8.0362759997909166       12.20617418196241      5.4404198864177147
    85   1       8.013421311495847      4.0317793645944278      13.585831670849302
    86   1       16.21244071949684       14.88863456372917      16.287226819714988
    87   1      1.2106376560722509      10.850331163416627      6.7878803866171893
    88   1       14.82176033822725      2.6734052372603969      12.231672651228109
    89   1      9.3841764812123074      16.259192617964572      9.4938067580227425
    90   1      2.5712427169526961      1.3179751878150512       16.31416982909866
    91   1      6.6799895930889761      2.6803923726827747      4.0599795327128447
    92   1      16.168724886142286      12.231076924440913      8.1376712298371672
    93   1      13.475409038475505      6.7559608197179273      5.4436924901081625
    94   1      6.6689535596742076      13.559721900239879      14.968949631514761
    95   1      16.167992881985469       6.775531223405153      8.1376717165420587
    96   1      9.3695422385346774      2.6687649928248334      6.7846291979419675
    97   1      14.850495395021426      8.0851630726176609      12.204540800346535
    98   1      10.741249889723804      6.7562431085549974      8.1122224044704012
    99   1      13.477465853346985      14.912961047616136      13.609724987382833
   100   1      5.3165758799559057      14.926675418048831      16.302807216701694
   101   1      9.3574816913233008       5.398142266017544      9.5235746025966819
   102   1      6.6689691342307356      8.1293325149310931        14.9892121295577
   103   1      8.0258751162595559      1.3174923765626829   0.0022834076057735853
   104   1      12.094278780586933      2.6674800919112727      9.5089617749342779
   105   1      5.3084230863183848      9.4730731296448312      10.875466550833266
   106   1      16.186734913947362      6.7419524795307666      13.580654104213522
   107   1      8.0213497341783864      14.936239169166811      2.6994040391545582
   108   1      1.2152356788584768      5.4098747741320494      6.7712603879822382
   109   1      2.6204870311698016      4.0653216056019517      13.621138217088514
   110   1      13.462913377091127      1.3059090434974223      16.317426858232579
   111   1       3.949772267253536      2.6917123984017337      6.7806547657979763
   112   1      1.2127587159894091      10.848192582123374      12.218630906955468
   113   1      10.744335598735915      9.4903384989659116      16.310927401111485
   114   1      3.9612407379644026      5.3852212245579949      4.0617474882312194
   115   1       2.578746976322293       6.771852707835194      5.4411450767060501
   116   1      16.202980149815858      1.3001257726241704      2.6966310380352354
   117   1       9.401725112780241      10.826941099740907      14.944607573071266
   118   1      6.6513440899948364      8.1390111284034674      4.0630569677418009
   119   1      3.9362927319309904      10.840781040035608       14.97906141234057
   120   1      8.0242431947583555      4.0305621156607856      2.6990424174201735
   121   1      12.065958396360315      8.1361527105756863      14.946822080327593
   122   1      16.184957467683603      14.916271614288121       5.400816709396338
   123   1       6.645115240793416       8.113693226652515      9.4841232775014532
   124   1      10.747439802533904      9.4559907613629548      5.4563487641067354
   125   1      3.9402625403785123      10.854069056983349       4.052345566489663
   126   1      5.2565924223078468      1.3281677616528498      2.7195086014602055
   127   1      10.719393919866093        4.01033320025536      5.4323220904329332
   128   1      6.6934800792715805      2.6561350008904014      14.985978462258572
   129   1      14.799999762528273      13.580398097440593      6.7629912718756486
   130   1      14.813448392090208      5.4070504256466734      14.937391686349883
   131   1      3.9327322422972202      16.251747006534401         4.0486787318371
   132   1      7.9871304866667856      1.2769258888848043      10.878592169646481
   133   1      9.3602559092048523      8.1162143579904864      1.3405359063556546
   134   1      8.0148171811246698      1.3235344527619901      5.4193114952733481
   135   1      5.3047971348767078      12.181066050019695        13.6002673379312
   136   1      12.069189143430094      5.4111742761923551      12.223288672767126
   137   1      2.5960201329216375      9.4774563938976826      13.589366121771377
   138   1      6.6808130977653946      5.3836477076437745      6.7648772533302122
   139   1      13.459934743155145      12.192283624358993      5.4219270473602705
   140   1      5.2951399364195595      9.4692709910324311      5.4072314798663115
   141   1      1.2520399377250584      5.4323089494008627      12.238834027001644
   142   1       12.09274663358849      5.3975114964781596      1.3544472705931838
   143   1        5.30797385770353      9.4571471721851594      16.311881342698825
   144   1      2.5650287122504665      4.0411946707205004       8.143753580866246
   145   1      10.739483150967658      6.7603328897582742      2.7332183481964307
   146   1       10.73072148951087      12.208081091727308      2.7155254086281673
   147   1      13.432115664966773      6.7483390211170331      10.886398916106145
   148   1      1.2210024017654177      16.287964664330502      1.3229849629394863
   149   1      16.195474186979141      9.4448315916106367      5.4223105708147727
   150   1      3.9713651731173911      8.1150881228715548       6.728957945632601
   151   1      5.2882700968760332      4.0206905236989314      10.861677227847281
   152   1      6.6354356539112587      10.874682955957951      6.8004003832461422
   153   1      10.740427358457168      1.3016390598080676       2.718650054031599
   154   1      12.089491551274136      2.6783842283004446      14.950760496309613
   155   1      5.2935148287868401      6.7441684469017673      8.1195541269559612
   156   1      8.0071822414917051      6.7689777420411019      10.870674454471555
   157   1      13.463544146630511      14.941310634136244      8.1195497466119377
   158   1      3.9573843317566002      13.554925910239035      12.244958721356284
   159   1      9.3857495114216363      8.1255152884670565      6.7749719994848192
   160   1      10.725102968243391      9.4801858349292161      10.849856139442522
   161   1      10.698185267514077      1.2904452123322301      8.1433929325416443
   162   1      5.3104068954561399      4.0359827913898698      5.4317253902359539
   163   1      5.3269864975850965      4.0602236152159321      16.282771523138194
   164   1      8.0537628198376296      12.181620893596005      16.314341149220468
   165   1      1.2518489060551445       2.683051971562378      14.942688008979189
   166   1      3.9534534597003983      16.283910412584305      14.960042932000306
   167   1      10.748343126812529      12.215901465923935      8.1143892146473604
   168   1      16.185865659011142      4.0264725778099546       16.31552286869703
   169   1       13.43046670879437      4.0183993604221939      2.6782250758009241
   170   1      8.0392132638111207      6.7913408583957562      16.327576602039926
   171   1      16.220836378875219      9.4748924325292592      10.853335106006966
   172   1       1.220974902939048      8.1103408033598612      4.0661030103052553
   173   1      14.811746871789524      10.789502786076923      14.931865639011789
   174   1      12.111667772950454      16.287667774346687      12.224642685775279
   175   1      8.0185346330859488      6.8014151629449202      5.4131979951312132
   176   1      2.5953954471933969      4.0483068892999938      2.7067462257952855
   177   1      9.3775796831129128      5.4131916679676237       14.95324463807583
   178   1      6.6503959888661939      5.4249095749353842      12.221461582604434
   179   1      8.0490661176346521       14.92614004266818      13.589547175991015
   180   1      1.2532675291376449      2.6833695465040819      4.0569137786012845
   181   1      8.0328778262384617      4.0391585408069091      8.1385730940011172
   182   1      3.9067553421231764      13.612106921121836      6.7681960939853525
   183   1      14.851390932021786      2.6557519641407907      1.3427269301009659
   184   1      3.9380996238406851      10.833659574063176      9.5049075231880806
   185   1      12.130734923779869      2.6974170664350083      4.0791941551243838
   186   1      3.9473903335145337      5.3683476526745721      9.5023640034251002
   187   1      3.9527494410748432      2.6921531096809872      1.2710881070637043
   188   1      13.476948972752211      1.3101607757533458      10.903198022141169
   189   1      9.4116013284385645      2.6583400174013434      1.3725158246614626
   190   1      1.2229758684242285       13.53148230902525      14.962142576902238
   191   1      14.808798413556815      16.271461474869511      4.0504556913959675
   192   1      8.0338434487431982      14.910904232744656      8.1612812841238451
   193   1      10.719338435508462      4.0396211538062801      10.874138819889254
   194   1      13.467638308177811      9.4521779152429417      2.6842660569142254
   195   1       13.45376916558962      9.4488897369959659      13.561752433047218
   196   1      5.3358547474131228      12.187249148961314      2.6900568717132955
   197   1       5.281541401751042      14.918885219555477      10.874000595700068
   198   1      1.2288718114798627      5.4354355416238604      1.3260738355333928
   199   1      13.450523817373096      6.7647536302877711      16.315242526679526
   200   1      9.3979229741678409      13.551668881105115      12.224062533544611
   201   1      12.089990910492816       10.82882367426123      6.7680676038939964
   202   1      12.105630685476285      5.3756676942427362      6.7870539617114218
   203   1      12.116602960550267      10.840672018139912      1.3567407457181559
   204   1       5.302369937582796      6.7502128349493091      2.6964361127261895
   205   1      14.822888520165748      5.4017249007238775      4.0568787358490965
   206   1      16.209941976583877      9.4564667587468421       16.31549366640354
   207   1      10.749328217512925      6.7443465808920564      13.582709945675219
   208   1      2.6001853533830968      14.924323660013101      2.6777897182754771
   209   1      5.2807952831523721      12.216474804286122       8.128194112189874
   210   1      2.5812313614409561      1.2920709283460639      10.895683298616404
   211   1      3.9358902269857197      13.559678096799644      1.3369794320372392
   212   1      10.751330521436557       14.92097221013023      10.885937519869003
   213   1      13.485519845891531      12.199678618480448      10.854419484505229
   214   1      14.828080687948272      8.1252237522370478      6.7812504925851727
   215   1      10.762002986297375      12.187838061880029      13.574891518298159
   216   1      6.6322710987067239      16.292932947862937      1.3687420366089924


Velocities

     1                       0                       0                       0
     2                       0                       0                       0
     3                       0                       0                       0
     4                       0                       0                       0
     5                       0                       0                       0
     6                       0                       0                       0
     7                       0                       0                       0
     8                       0                       0                       0
     9                       0                       0                       0
    10                       0                       0                       0
    11                       0                       0                       0
    12                       0                       0                       0
    13                       0                       0                       0
    14                       0                       0                       0
    15                       0                       0                       0
    16                       0                       0                       0
    17                       0                       0                       0
    18                       0                       0                       0
    19                       0                       0                       0
    20                       0                       0                       0
    21                       0                       0                       0
    22                       0                       0                       0
    23                       0                       0                       0
    24                       0                       0                       0
    25                       0                       0                       0
    26                       0                       0                       0
    27                       0                       0                       0
    28                       0                       0                       0
    29                       0                       0                       0
    30                       0                       0                       0
    31                       0                       0                       0
    32                       0                       0                       0
    33                       0                       0                       0
    34                       0                       0                       0
    35                       0                       0                       0
    36                       0                       0                       0
    37                       0                       0                       0
    38                       0                       0                       0
    39                       0                       0                       0
    40                       0                       0                       0
    41                       0                       0                       0
    42                       0                       0                       0
    43                       0                       0                       0
    44                       0                       0                       0
    45                       0                       0                       0
    46                       0                       0                       0
    47                       0                       0                       0
    48                       0                       0                       0
    49                       0                       0                       0
    50                       0                       0                       0
    51                       0                       0                       0
    52                       0                       0                       0
    53                       0                       0                       0
    54                       0                       0                       0
    55                       0                       0                       0
    56                       0                       0                       0
    57                       0                       0                       0
    58                       0                       0                       0
    59                       0                       0                       0
    60                       0                       0                       0
    61                       0                       0                       0
    62                       0                       0                       0
    63                       0                       0                       0
    64                       0                       0                       0
    65                       0                       0                       0
    66                       0                       0                       0
    67                       0                       0                       0
    68                       0                       0                       0
    69                       0                       0                       0
    70                       0                       0                       0
    71                       0                       0                       0
    72                       0                       0                       0
    73                       0                       0                       0
    74                       0                       0                       0
    75                       0                       0                       0
    76                       0                       0                       0
    77                       0                       0                       0
    78                       0                       0                       0
    79                       0                       0                       0
    80                       0                       0                       0
    81                       0                       0                       0
    82                       0                       0                       0
    83                       0                       0                       0
    84                       0                       0                       0
    85                       0                       0                       0
    86                       0                       0                       0
    87                       0                       0                       0
    88                       0                       0                       0
    89                       0                       0                       0
    90                       0                       0                       0
    91                       0                       0                       0
    92                       0                       0                       0
    93                       0                       0                       0
    94                       0                       0                       0
    95                       0                       0                       0
    96                       0                       0                       0
    97                       0                       0                       0
    98                       0                       0                       0
    99                       0                       0                       0
   100                       0                       0                       0
   101                       0                       0                       0
   102                       0                       0                       0
   103                       0                       0                       0
   104                       0                       0                       0
   105                       0                       0                       0
   106                       0                       0                       0
   107                       0                       0                       0
   108                       0                       0                       0
   109                       0                       0                       0
   110                       0                       0                       0
   111                       0                       0                       0
   112                       0                       0                       0
   113                       0                       0                       0
   114                       0                       0                       0
   115                       0                       0                       0
   116                       0                       0                       0
   117                       0                       0                       0
   118                       0                       0                       0
   119                       0                       0                       0
   120                       0                       0                       0
   121                       0                       0                       0
   122                       0                       0                       0
   123                       0                       0                       0
   124                       0                       0                       0
   125                       0                       0                       0
   126                       0                       0                       0
   127                       0                       0                       0
   128                       0                       0                       0
   129                       0                       0                       0
   130                       0                       0                       0
   131                       0                       0                       0
   132                       0                       0                       0
   133                       0                       0                       0
   134                       0                       0                       0
   135                       0                       0                       0
   136                       0                       0                       0
   137                       0                       0                       0
   138                       0                       0                       0
   139                       0                       0                       0
   140                       0                       0                       0
   141                       0                       0                       0
   142                       0                       0                       0
   143                       0                       0                       0
   144                       0                       0                       0
   145                       0                       0                       0
   146                       0                       0                       0
   147                       0                       0                       0
   148                       0                       0                       0
   149                       0                       0                       0
   150                       0                       0                       0
   151                       0                       0                       0
   152                       0                       0                       0
   153                       0                       0                       0
   154                       0                       0                       0
   155                       0                       0                       0
   156                       0                       0                       0
   157                       0                       0                       0
   158                       0                       0                       0
   159                       0                       0                       0
   160                       0                       0                       0
   161                       0                       0                       0
   162                       0                       0                       0
   163                       0                       0                       0
   164                       0                       0                       0
   165                       0                       0                       0
   166                       0                       0                       0
   167                       0                       0                       0
   168                       0                       0                       0
   169                       0                       0                       0
   170                       0                       0                       0
   171                       0                       0                       0
   172                       0                       0                       0
   173                       0                       0                       0
   174                       0                       0                       0
   175                       0                       0                       0
   176                       0                       0                       0
   177                       0                       0                       0
   178                       0                       0                       0
   179                       0                       0                       0
   180                       0                       0                       0
   181                       0                       0                       0
   182                       0                       0                       0
   183                       0                       0                       0
   184                       0                       0                       0
   185                       0                       0                       0
   186                       0                       0                       0
   187                       0                       0                       0
   188                       0                       0                       0
   189                       0                       0                       0
   190                       0                       0                       0
   191                       0                       0                       0
   192                       0                       0                       0
   193                       0                       0                       0
   194                       0                       0                       0
   195                       0                       0                       0
   196                       0                       0                       0
   197                       0                       0                       0
   198                       0                       0                       0
   199                       0                       0                       0
   200                       0                       0                       0
   201                       0                       0                       0
   202                       0                       0                       0
   203                       0                       0                       0
   204                       0                       0                       0
   205                       0                       0                       0
   206                       0                       0                       0
   207                       0                       0                       0
   208                       0                       0                       0
   209                       0                       0                       0
   210                       0                       0                       0
   211                       0                       0                       0
   212                       0                       0                       0
   213                       0                       0                       0
   214                       0                       0                       0
   215                       0                       0                       0
   216                       0                       0                       0
