(written by ASE)

216 atoms
1 atom types

0.0      16.331106185913086  xlo xhi
0.0      16.331106185913086  ylo yhi
0.0      16.331106185913086  zlo zhi

Atoms # atomic

     1   1      11.287203314485964      14.405197408870436      11.974692468515968
     2   1      14.015273785044997       14.43809087225759      3.8336839032377839
     3   1       1.787074503275079      7.6528727613969068      10.600118125515905
     4   1      4.5346557561721283      2.2058237110045127      13.317489849149979
     5   1      4.5256254336152324      10.367859631062629      5.1760315685520482
     6   1      11.356916002915113     0.84788640131060333      9.2453935548107893
     7   1      0.4192718071066821      6.3022657140738829      3.7798540988854086
     8   1      3.1615556422884197      14.422258362137086      9.2249577898264761
     9   1      9.9641087212696675      2.1882641285765203      7.8877341536099266
    10   1      12.708065239487269      7.6540671352006484        16.0699198995286
    11   1      12.723393523340178      13.093120840987922      16.046531782672446
    12   1      15.429886419239438      2.1925123322219804      13.340165430044976
    13   1      11.343688337373919      9.0027254161381052      1.0326650084546856
    14   1      7.2426345621051382      7.6448547850143314      10.600173609873536
    15   1      8.5820683252339904       11.75646080903573      1.0837186481059433
    16   1      8.5985977967591225      3.5855627229607308      14.692288076400132
    17   1      5.8626714225463843      11.692439647607785       9.265014575806731
    18   1      11.308756553901162      14.472050219357129      6.5452526444504997
    19   1       4.519505606309508      2.1727796124534393      2.4209660111859534
    20   1      11.355671011802656      14.471311401331832      1.0729932540881748
    21   1      1.8272146374680034      10.342600620603548       7.868512230625015
    22   1      8.5652828469359292     0.81780937745433846      6.5087857937499507
    23   1      3.1850238220992253      9.0086525083067954      14.708827282023094
    24   1      14.024413129497589     0.83333143069217641      6.5424755063395992
    25   1       1.798713929079085      7.6419257949772827      5.1505053571075337
    26   1      12.669663250138115      13.071558840884677      10.586351190954929
    27   1      11.311528824963148      11.761872967429213      3.8434450131892675
    28   1      3.1439756182549843      3.5620380853825111      3.7875827292099871
    29   1      9.9700582018633668      7.6644495239461321      13.344267378870541
    30   1      5.8615008972823262      3.5850156666626845      1.0602331902714894
    31   1      5.8687854093934106      3.5984380141604788      6.5295758798952761
    32   1      3.1519174253220399      11.760066318871964      6.5304903983864051
    33   1     0.39901785681839996      14.433673538662333      1.1225567250378816
    34   1      14.061267397291772      6.2709915178607503      6.5101495408559344
    35   1      5.8679974341740717      11.712726480895299       3.797578187566728
    36   1      7.2343493847371292      15.808832900941979      7.9168176911064165
    37   1      1.7433767996777334      15.816131527494917      2.4592536248856049
    38   1      4.5047156180665979      7.6145705465505102      13.316915537378009
    39   1      14.056279645563677     0.82876194098021472      11.936658428064788
    40   1      11.325254876313238      8.9959718990636475      6.5035230537581583
    41   1      0.4379739901055828      3.5738489529845481       1.061664346004946
    42   1      15.396557841679282      15.822082954908183      5.1819182642147439
    43   1      15.413344293387127      13.071999795516376      7.8579025506952007
    44   1     0.45268899537614615      14.435157015171626      6.5272547842677113
    45   1       1.805750586724173      4.9211982411163149      7.8747663884807935
    46   1     0.44303255739539082      3.5642056256168075      11.990850097503994
    47   1      4.5193153046969314      4.9257932219969689       5.173902721356626
    48   1      14.027511492836879      3.5631212471185449      3.8009746576520627
    49   1      12.650005239570419      13.077849988312209      5.1692415486107279
    50   1       3.154765135642208     0.79866849083386171      1.0801153284417211
    51   1      11.327772114012078      6.2751859406156996       3.802518972272793
    52   1      5.8871001144605657      8.9799524942648077      11.983371390141201
    53   1      15.356048420149932      7.6740264160961829      2.4645421602366469
    54   1      1.7953782971051879      10.363315754195582      2.4232849166415065
    55   1      12.683953879162345      7.6479351402726365      10.597500626609417
    56   1      8.6136973293130268      6.2989098838469886      11.977635086289979
    57   1      15.384849668809352      4.8967111446151534      16.090805379832659
    58   1       11.33156841216578      3.5989982114905956      6.5246406922954634
    59   1      3.1383838657565377      6.2917665161544392       11.94116823558943
    60   1      7.2417531395466312      10.349362898366053      13.338189408185485
    61   1     0.46338579548153902      0.8059654747577909      14.685758443575764
    62   1      11.308763367769643      8.9949945956415149      11.970454242320784
    63   1      4.4933286704250577      4.9690272175089376      16.039270145691262
    64   1      9.9275026729701494      2.1959319207896613      13.337397052622123
    65   1      7.2031233723082551      4.9433525610725155      13.315408699033924
    66   1      1.7906543394282863      2.2102505353451534      10.611559584105294
    67   1      14.051567368804172      11.719066298811981      6.5176910331497311
    68   1     0.41639221761612077       8.965938313618949      1.0819598183042842
    69   1      7.2253988817824393      2.1972472407589407      10.612469722252399
    70   1      14.018156051412461      8.9888796353847056      3.8111876730953043
    71   1      8.5928264501557123      14.456508758761743      9.2626443229851247
    72   1      12.682933745709761      15.816421603610252      13.320658297993646
    73   1      12.698358397131187      2.2316755280214409      16.068723578905292
    74   1      8.5838379842194854      3.5611982760922274      9.2729099025566484
    75   1      11.296505218372317      11.713183983493309      9.2655509245971643
    76   1      15.402405114245767      7.6246906013594753      13.344636301178298
    77   1      4.5388180564042386      10.363035412178078      10.607818770309223
    78   1       9.953975525428632      15.798032919399589      10.607999824528861
    79   1      3.1758922649248973      11.726144934753961      11.974417966957162
    80   1      9.9581884429694583      7.6128524782835143      7.8562998314874903
    81   1      14.074101805280634      3.5584462032832391      9.2445457148897958
    82   1       12.68940886758628      10.360337120259601      13.341473692793329
    83   1     0.41730971717471022      6.2725163642858206       9.232157128581548
    84   1      4.5149816843430131      15.792631468513719      5.1485780057371926
    85   1      7.2377563189776311      13.109211304700921       5.153849506417032
    86   1       3.165265063618989      3.5686691961767565      9.2385436701678145
    87   1      5.8663319300353578      11.707723154610676        14.6967677082215
    88   1     0.42956254323728515      11.747717642364819      14.704330128825632
    89   1      4.4941662895433296       15.77387775563443      10.590661449474055
    90   1      4.4944758338543238      15.813641545270002      16.039236076348857
    91   1      3.1664650345289829      14.471758196422229      14.647042042866701
    92   1      1.7839755315546739      4.9687926257512345      2.4465559809712545
    93   1       5.888484789876884      8.9843600937622341      1.0641464192753745
    94   1       14.08305425505489      11.747013867091709      11.969621003546536
    95   1      4.5429754895874339      7.6404218768625469      2.4117801864162232
    96   1      4.5043403685952512      7.6289395350622726      7.8602470081575575
    97   1       9.954124457125431       10.37537338117761      5.1696932107500402
    98   1      9.9909125330543702      7.6429512821836738      2.4040094561185299
    99   1      14.023173005434046     0.83464632479467582      1.0672062112520138
   100   1      8.5900269236198028      3.5685098003247901      3.7704548540207554
   101   1      5.8623020135337356      3.5682068265298312      11.962554048521952
   102   1      8.5975786367163209      14.445580287127996      14.724818457938227
   103   1      15.393934502314096      2.2231601392397522      2.4832265176688963
   104   1      1.7780343249441302      7.6312723116072334      16.067932196751713
   105   1      11.338697665416476      6.2868074800149429      9.2464701460307879
   106   1      9.9755735416938478      2.1935877066797502      2.4239200665249143
   107   1      4.5463600354029268      13.068522775771498      2.4144755581053516
   108   1       5.857602391101409      6.3342169167910924      14.691906499765196
   109   1      9.9635606915618382      15.823683240591436      16.031497468574003
   110   1      11.353379605173473     0.81306862845868011      3.7735493237209141
   111   1      4.5150381421104271      2.1851122276991646      7.8647981855979765
   112   1     0.42275046948056882      11.724479430615247      3.8273655003363274
   113   1      11.349808164679644      6.2708489133275407       14.67855521118156
   114   1      5.8803246956659905      14.476837448669926      11.981293160254495
   115   1      9.9261973304511457      4.9366954115665749      10.626348598938421
   116   1      15.378218801367552      10.385276852309858      5.1806109748761742
   117   1      9.9764788127920383      4.9402274289641923      5.1813707212118061
   118   1     0.43006722579071521     0.82051916777587763      9.2312742459083665
   119   1      11.324907369020707      3.5829172385229811      11.950771896508513
   120   1      12.692536433219061      4.9224923894228141      13.334302582921964
   121   1      5.8674708194814684     0.82026729799452625      14.698529579928731
   122   1      8.5705489938619621     0.82102089968090297      11.945909714642426
   123   1      1.7767653636157661      4.9214995114441535      13.316312996722331
   124   1      12.701293227626934       7.620534141586063      5.2025759666295812
   125   1       7.204843387394817      10.345810926067884      2.4525589991030188
   126   1      12.691012073498882      10.358529498292569      7.8920935693230945
   127   1      8.5712926789361745      11.709888017968069      6.5006115850972037
   128   1      3.1399318306639543      6.3037929940234108      1.0473669031122341
   129   1      9.9099881107446208      13.082758893847881      13.333615355615166
   130   1     0.42557402707049619      6.2796193354723755       14.68139367410879
   131   1      4.5231831484696841      13.082816325025078      13.328925467280669
   132   1      3.1335596468719871      14.460832645017831        3.76192267392031
   133   1      3.1815869555078962      8.9737888635188483      3.8209388055965121
   134   1      9.9535939487936957      15.783604066186172      5.1485113271670571
   135   1     0.43916185423140064      8.9995131638542034      11.966754311735599
   136   1      7.2470465419465881      7.6237371464770263      16.044608324941237
   137   1      8.5915950867802167      6.3118961437619987      1.0767175199179349
   138   1       1.792526571469665       2.211834516414541      16.100503461500693
   139   1      9.9391641221704958      10.384661657327001      16.062392521676657
   140   1      3.1838102234522694      9.0158070702118494      9.2674188979707424
   141   1      15.387030106723273      15.794319361077441      16.028893597404476
   142   1      7.2368296328642145      2.2072300447885027       5.134737092032708
   143   1      1.8318223943520593      13.075892461238595      10.586803826504024
   144   1     0.45422494475655384      11.722830474442844      9.2253958242288263
   145   1      8.5917732207705058      8.9791737664384073      14.699096104422438
   146   1     0.42629763556793421      8.9774634854496753      6.4934745445682438
   147   1      14.064798927984498      3.5469555874998093      14.680408583408393
   148   1      7.2301023978538979      10.374159539178208      7.8625174864764062
   149   1      3.1485272824002948      11.714411453229673      1.0766625222651953
   150   1      15.398553331734433      2.2121649890358697      7.8740723473055141
   151   1      11.333318602955615      3.5651695446544238      1.0526000757818679
   152   1      7.2020954515774065      2.1829957914784757      16.068523056489994
   153   1     0.45031922925943135      14.457951352060149      11.943618308013242
   154   1      1.7959968990222848      15.802512551220957      13.309660714265306
   155   1      15.412513974842227      4.9106416120196741      5.1632263628566761
   156   1      11.335985745761036      11.776703838883009      14.680077624082173
   157   1      3.1390925080785621      3.5996119463587775      14.684908656835205
   158   1      8.6118682923307688      9.0050265568651184      3.7987287579302347
   159   1      15.390813750549796      15.783811402469951      10.583802804143033
   160   1      8.5911833344420074      9.0209856102574122      9.1987351036822247
   161   1      1.8043252714494145      10.361684319399274      13.326691491828683
   162   1      15.410174871133677      4.9138626249916229      10.633805891285988
   163   1       1.806419684273763      13.092933946309586      16.060629676559643
   164   1      7.2530485866685694      15.788659956599076      13.324151865704835
   165   1      12.696858372655583      4.9316628829884621      2.4012924260617297
   166   1       5.861142682482182      0.8648070010541673      3.8203737412174803
   167   1      14.044886857463439      6.2979963387656426       11.96826309689925
   168   1     0.43629020411438191      3.5309641682322308      6.5046288472716469
   169   1      5.8654329861007568     0.79851165018257575      9.2627786535351788
   170   1      7.2357525549393245      4.9161671726528766      2.4372093002348834
   171   1      1.7869541654906556       13.08449740372032      5.1774123503292344
   172   1      7.2242887079249272       13.09069023675977      10.626629914365708
   173   1      14.036631369093811      14.442132469676608      14.677318007347367
   174   1      7.2125990298408738      13.080280592540362      16.047336792562987
   175   1       8.579513124553614     0.84536928528798683      1.0372057217399373
   176   1      12.682815963126018      10.351309717932054       2.437914778975113
   177   1      7.2293348642400019      4.9309162776849007      7.8896542044068951
   178   1      15.399891770186059      10.379612580782577      10.610299018436308
   179   1      15.389489913244915      13.088702533982882      2.4336767961323744
   180   1      1.7909739828657791      2.1968306213718165      5.1490267476471558
   181   1      8.5809644785400678      6.3126018658546741      6.5106669081555992
   182   1      12.701906475790224       15.77356626450387      7.8959312373925741
   183   1      9.9740199796801789      13.110077639407791      2.3914186439278637
   184   1       1.752466865260061      15.798879785910799      7.8822908461033876
   185   1      11.327778927880559     0.83206496372638128      14.710341907645443
   186   1      7.2222674225105266      15.838828523405141      2.4437116775853269
   187   1      15.394580846410008       10.36616979167934      16.101322099128197
   188   1      12.675033551910929      2.1770594519168469      5.1612649421439301
   189   1      14.013604387267151      11.746152399433754      1.0735011306424553
   190   1      4.5109118580402878      13.094086463492658      7.8924673586797667
   191   1      4.5048251266671855      10.342513013723078      16.062583309994125
   192   1       8.579406049477484      14.430138114330475      3.7788802023975165
   193   1      9.9406242368449966      4.9364637400382207      16.043649516304981
   194   1      12.700343179678725      4.9420379711605733      7.9026394909121223
   195   1      9.9298554044156617      10.361058416908804      10.604978360562427
   196   1      5.8616133261122627      6.2594050212136949      9.2583369846953474
   197   1      14.047643553968896      6.2966637407727148       1.067505899788955
   198   1      4.5072494037317483      4.8930355492745434      10.617268632482592
   199   1      15.429993494315568      13.081590802108281      13.349227875124711
   200   1      3.1181352388030064     0.82864373252969159      6.5579965253295427
   201   1      5.8225421175372958      6.2963361883807352      3.7999949207054726
   202   1      5.8753797739683478      14.460142497481684      1.0617281043457325
   203   1      12.713533855648166      15.787562923773635      2.4449556952880016
   204   1      8.5657637113687315      11.748693972377168      11.976870959610324
   205   1      3.1440354829566388       0.841693994137934      11.934048716436564
   206   1      5.8720920824262635      8.9703546738044224      6.5288180803792102
   207   1       5.864037116471934      14.442271667275577      6.5632836005659101
   208   1      3.1409541542885506      6.2939883239841379      6.5242420809893247
   209   1      14.062200897273669       9.017071529519967      9.2591556223228508
   210   1      9.9208727789381328      13.065835191360634      7.8524295541902802
   211   1      7.1968998768606411      7.6246010476594392      5.1552468361605293
   212   1      12.723792621351208      2.2056930307411449      10.608443699389909
   213   1     0.43486409794417469     0.86744743592866769      3.7798394977386636
   214   1      14.048762001809564      9.0328923587230747      14.650707904109481
   215   1      14.048241227575659      14.437736551096577      9.2564096333250063
   216   1      15.400145830139422      7.6482330036662347      7.8789690852188983


Velocities

     1                       0                       0                       0
     2                       0                       0                       0
     3                       0                       0                       0
     4                       0                       0                       0
     5                       0                       0                       0
     6                       0                       0                       0
     7                       0                       0                       0
     8                       0                       0                       0
     9                       0                       0                       0
    10                       0                       0                       0
    11                       0                       0                       0
    12                       0                       0                       0
    13                       0                       0                       0
    14                       0                       0                       0
    15                       0                       0                       0
    16                       0                       0                       0
    17                       0                       0                       0
    18                       0                       0                       0
    19                       0                       0                       0
    20                       0                       0                       0
    21                       0                       0                       0
    22                       0                       0                       0
    23                       0                       0                       0
    24                       0                       0                       0
    25                       0                       0                       0
    26                       0                       0                       0
    27                       0                       0                       0
    28                       0                       0                       0
    29                       0                       0                       0
    30                       0                       0                       0
    31                       0                       0                       0
    32                       0                       0                       0
    33                       0                       0                       0
    34                       0                       0                       0
    35                       0                       0                       0
    36                       0                       0                       0
    37                       0                       0                       0
    38                       0                       0                       0
    39                       0                       0                       0
    40                       0                       0                       0
    41                       0                       0                       0
    42                       0                       0                       0
    43                       0                       0                       0
    44                       0                       0                       0
    45                       0                       0                       0
    46                       0                       0                       0
    47                       0                       0                       0
    48                       0                       0                       0
    49                       0                       0                       0
    50                       0                       0                       0
    51                       0                       0                       0
    52                       0                       0                       0
    53                       0                       0                       0
    54                       0                       0                       0
    55                       0                       0                       0
    56                       0                       0                       0
    57                       0                       0                       0
    58                       0                       0                       0
    59                       0                       0                       0
    60                       0                       0                       0
    61                       0                       0                       0
    62                       0                       0                       0
    63                       0                       0                       0
    64                       0                       0                       0
    65                       0                       0                       0
    66                       0                       0                       0
    67                       0                       0                       0
    68                       0                       0                       0
    69                       0                       0                       0
    70                       0                       0                       0
    71                       0                       0                       0
    72                       0                       0                       0
    73                       0                       0                       0
    74                       0                       0                       0
    75                       0                       0                       0
    76                       0                       0                       0
    77                       0                       0                       0
    78                       0                       0                       0
    79                       0                       0                       0
    80                       0                       0                       0
    81                       0                       0                       0
    82                       0                       0                       0
    83                       0                       0                       0
    84                       0                       0                       0
    85                       0                       0                       0
    86                       0                       0                       0
    87                       0                       0                       0
    88                       0                       0                       0
    89                       0                       0                       0
    90                       0                       0                       0
    91                       0                       0                       0
    92                       0                       0                       0
    93                       0                       0                       0
    94                       0                       0                       0
    95                       0                       0                       0
    96                       0                       0                       0
    97                       0                       0                       0
    98                       0                       0                       0
    99                       0                       0                       0
   100                       0                       0                       0
   101                       0                       0                       0
   102                       0                       0                       0
   103                       0                       0                       0
   104                       0                       0                       0
   105                       0                       0                       0
   106                       0                       0                       0
   107                       0                       0                       0
   108                       0                       0                       0
   109                       0                       0                       0
   110                       0                       0                       0
   111                       0                       0                       0
   112                       0                       0                       0
   113                       0                       0                       0
   114                       0                       0                       0
   115                       0                       0                       0
   116                       0                       0                       0
   117                       0                       0                       0
   118                       0                       0                       0
   119                       0                       0                       0
   120                       0                       0                       0
   121                       0                       0                       0
   122                       0                       0                       0
   123                       0                       0                       0
   124                       0                       0                       0
   125                       0                       0                       0
   126                       0                       0                       0
   127                       0                       0                       0
   128                       0                       0                       0
   129                       0                       0                       0
   130                       0                       0                       0
   131                       0                       0                       0
   132                       0                       0                       0
   133                       0                       0                       0
   134                       0                       0                       0
   135                       0                       0                       0
   136                       0                       0                       0
   137                       0                       0                       0
   138                       0                       0                       0
   139                       0                       0                       0
   140                       0                       0                       0
   141                       0                       0                       0
   142                       0                       0                       0
   143                       0                       0                       0
   144                       0                       0                       0
   145                       0                       0                       0
   146                       0                       0                       0
   147                       0                       0                       0
   148                       0                       0                       0
   149                       0                       0                       0
   150                       0                       0                       0
   151                       0                       0                       0
   152                       0                       0                       0
   153                       0                       0                       0
   154                       0                       0                       0
   155                       0                       0                       0
   156                       0                       0                       0
   157                       0                       0                       0
   158                       0                       0                       0
   159                       0                       0                       0
   160                       0                       0                       0
   161                       0                       0                       0
   162                       0                       0                       0
   163                       0                       0                       0
   164                       0                       0                       0
   165                       0                       0                       0
   166                       0                       0                       0
   167                       0                       0                       0
   168                       0                       0                       0
   169                       0                       0                       0
   170                       0                       0                       0
   171                       0                       0                       0
   172                       0                       0                       0
   173                       0                       0                       0
   174                       0                       0                       0
   175                       0                       0                       0
   176                       0                       0                       0
   177                       0                       0                       0
   178                       0                       0                       0
   179                       0                       0                       0
   180                       0                       0                       0
   181                       0                       0                       0
   182                       0                       0                       0
   183                       0                       0                       0
   184                       0                       0                       0
   185                       0                       0                       0
   186                       0                       0                       0
   187                       0                       0                       0
   188                       0                       0                       0
   189                       0                       0                       0
   190                       0                       0                       0
   191                       0                       0                       0
   192                       0                       0                       0
   193                       0                       0                       0
   194                       0                       0                       0
   195                       0                       0                       0
   196                       0                       0                       0
   197                       0                       0                       0
   198                       0                       0                       0
   199                       0                       0                       0
   200                       0                       0                       0
   201                       0                       0                       0
   202                       0                       0                       0
   203                       0                       0                       0
   204                       0                       0                       0
   205                       0                       0                       0
   206                       0                       0                       0
   207                       0                       0                       0
   208                       0                       0                       0
   209                       0                       0                       0
   210                       0                       0                       0
   211                       0                       0                       0
   212                       0                       0                       0
   213                       0                       0                       0
   214                       0                       0                       0
   215                       0                       0                       0
   216                       0                       0                       0
