(written by ASE)

216 atoms
1 atom types

0.0      16.331106185913086  xlo xhi
0.0      16.331106185913086  ylo yhi
0.0      16.331106185913086  zlo zhi

Atoms # atomic

     1   1      6.3235254704395061      16.196151680188109      1.2470497524725062
     2   1      4.9853892625513936      9.3395261744660729      2.5973023569582949
     3   1      13.247479297327232      12.011525321294926      13.398091099411772
     4   1      15.912947837921934      1.2171893122929589      5.3267489855980443
     5   1      3.5956438413783758      2.5565361985986783      12.087825073725639
     6   1      13.249900167457554      14.874559058266982      16.221395116090662
     7   1      3.6485031561770995      2.5655127402650635       1.225885390265617
     8   1      4.9416627216892266      14.764979398765263      8.0332963924451519
     9   1      11.800393712771893      16.144815995052227      6.6696573349473169
    10   1      9.9867443923635619      11.612268644470078     0.22050066247488509
    11   1      11.803329516677422      16.163347770500991      1.2221238915116572
    12   1     0.88465914603546025      16.166039248550987      6.6591654376012457
    13   1      11.784877560830864      10.684993618134854      12.090854324970337
    14   1      15.867041832555628       12.05229561664612      16.198070270870403
    15   1      14.520249578172184      5.2474900674270089      9.3756893213143258
    16   1      11.799781438018385      2.5365314107957886      14.821349559298824
    17   1      7.6775652473622813       1.214948157943823      2.6336003210614933
    18   1      9.0236780617171917      7.9640003234031269      12.073017564106635
    19   1      15.911105173202714      9.2829963747280999      13.463613258725104
    20   1      6.3235668403552836      5.2807188704844066      1.2493585588015605
    21   1      15.931865083644766      6.6531794541406839      10.671897362914365
    22   1      3.5863300132221809       16.18380495050053        14.8216143267598
    23   1      13.195530364028059      12.055974132216079      2.6237462504757332
    24   1     0.90675268871833481      10.678061967070107      6.6346476786919197
    25   1      2.2722226691798824       1.248813692675526      13.457887662381495
    26   1      10.383814790815791      9.3717119689409856      13.486018231700427
    27   1     0.94325464300918327      5.3084746770368838      6.6568054055823609
    28   1      11.791777089372772      2.5493261523359934      3.9415510915787593
    29   1      4.9262624055123752      6.6730993119400068      5.3579501760774519
    30   1      14.536040231672018      16.199106952289299      3.9909555317051684
    31   1      4.9841413512095869      12.047200789841895      16.219767574933485
    32   1      9.0360831959917505      7.9988780826329275      6.7153360491292915
    33   1      9.0085240182154394      10.652719243369688      9.3468189605603129
    34   1      6.2443439383462191      10.623368991592656      1.3179436736733265
    35   1      10.395448984542213      12.069805311822734      10.724603609024712
    36   1     0.90587844505697745      13.406477998102105      14.798392662976539
    37   1      14.540616231061904      16.171612019558665      9.3317710187249077
    38   1      7.6779526644559155      6.5884321290146204      8.0767275034381782
    39   1      2.2371414673054346      12.056656492473962      13.484155125375764
    40   1      10.420942586758997      14.765208150064268      8.0329727336923042
    41   1      6.3229691667485213      13.455843501837194      4.0143137162104949
    42   1      4.9477294981617774      12.036127280150481      10.736725481052417
    43   1      2.2660938378336652      12.049121327343755      8.0153364952439006
    44   1      10.388181507102331      9.3661878684224575      2.5953329056148391
    45   1      15.903947691068311      14.795088910173035      8.0207875900287036
    46   1      3.5929866760232301      2.5812973099537544      6.6787859718922959
    47   1      15.926651500847015      12.059972899604645      5.3346934695420032
    48   1      0.9563645868047459      13.403843951229305      9.3759803708394429
    49   1      9.0262429964953981      16.192380690688765      9.3622037021806364
    50   1      7.6715607691158425      14.830704027313459      5.3416548096051315
    51   1      11.768576840604737      5.2829440852483458      1.2343512568245956
    52   1      7.6393968763610474      9.3130445613195434      10.688840533597272
    53   1      14.585430070651682      13.441696937460847      12.080307429971526
    54   1      7.6532431438193385      9.3332145854330975      16.202692020520089
    55   1      10.384973148457561      6.6243499765975571      5.3382026118097201
    56   1      9.0613032700595113       2.582466375103138      6.6470863956039921
    57   1      3.6171072837410918      13.450567620813331      6.6617332926088011
    58   1      7.6415768275700771       12.04269292913682      13.447456603146861
    59   1      11.813141487290068      13.377407114932794      9.3803860235173033
    60   1      13.174527101140256      14.799676590480317      5.3065911291067778
    61   1      14.524693193831581      5.2258010373470825      14.812208268026666
    62   1      10.426766497490689      6.6208364539858167      10.759267704807144
    63   1      15.868920513436819      9.3350299946783935       7.994248545704977
    64   1      9.0618396188499446      16.191625324697156      4.0065807055418929
    65   1      4.9655443573053617      3.9295883720505742      2.6183676747197637
    66   1       3.635255292382908       7.974179756208855      12.107514233406391
    67   1      13.172193837890404      6.6381612013036602      13.454060215114737
    68   1      6.3474621037083807      5.2703204204775034      6.6362226557208146
    69   1      4.9481028008135581      14.824675700527337      2.6028023655846937
    70   1     0.91795633113011377      8.0103297620250373      3.9413680905395552
    71   1      3.5993515592418248      5.2874378315115678      9.3682505237526357
    72   1      15.921667642758052       9.330554256496157      2.6297446449110282
    73   1      2.2409786486700227      9.3385391369461104      10.768179271370514
    74   1       14.54364840253595      2.5919442228077685      12.090576903182182
    75   1     0.86828012715991321       2.555493433368639      14.811154065231676
    76   1      13.218142673287161      14.860121444365518      10.707503719366741
    77   1      11.766165704572245      8.0248179932352173      14.830935698841813
    78   1      0.8932417609302874      2.5762805992846154      9.3735205643178006
    79   1      11.820904430309497      5.2719143789971668      6.6831405205565488
    80   1       7.700781070686844      3.9207006540268878      16.241497974929189
    81   1      10.386584141648427      6.6663642896514261      16.230737903187901
    82   1      7.6491188065687652      12.014322901011269      7.9887794428391885
    83   1       3.602372536503367      13.459796518965959      1.2485651081521922
    84   1       10.42286409767064      12.059560173856653       5.305238089508407
    85   1      4.9735122030841126      14.813608031294621       13.46023163313896
    86   1       15.88317220606973      6.6224712957163661      16.173230800027795
    87   1      11.086668244860675      12.688706065722954       15.60313291900809
    88   1      13.202105747112228      1.2552441593782504      13.388497172590519
    89   1      6.3429659239207012      16.177900246756849      6.7014518186894634
    90   1      2.2622566564690771      3.9129031549601621      16.178789943298511
    91   1      3.6436954852588599      10.722924477149036      14.815961736149916
    92   1      4.9611304306443458      3.9003220768673259      8.0220963394819478
    93   1      15.884553474551808      14.831315328657183      2.6537377359473169
    94   1      2.3007151035856452      12.054103238613152      2.6423588189364864
    95   1      11.771349111666723      16.173308672810435      12.079403132283119
    96   1      6.3153882513585131      2.5843068496503463      9.3571010880981476
    97   1      4.9791054156972336      1.1974502653608283      16.227789444955192
    98   1      11.798152923451426      7.9556932443150004      9.3692531358291262
    99   1      2.2270710563954026      14.801046178044999       10.74912866850741
   100   1      0.9174193739585661      10.698212522988001      1.2400330497279697
   101   1      0.8999030474278058      5.2811661522796953       12.10662161663538
   102   1      2.2501415983098525      14.785772405139937      16.211518900432338
   103   1      9.0472637807592946      13.449137681842103      12.101391485871318
   104   1      8.9861862105151431      7.9321698234990095      1.2761871925357298
   105   1      10.342519827591559      14.876146689623056      13.379065805203027
   106   1      6.3385315556542423      13.400813726574825      14.825393103537408
   107   1      2.3366536361264707      9.3000067106860342      5.3364524210198852
   108   1      13.154789270970355      12.040867785793694      8.0418336829469581
   109   1      4.9587032333504339       3.891826399633743      13.451720137996404
   110   1      10.364053598811097      1.1981374926676267      10.709287979498981
   111   1     0.92325794667511474      7.9837478876708587      9.3710023532091782
   112   1      14.553306574402882      16.196657853275269       14.79534004989705
   113   1      6.3058064921595474      7.9779921156239766      14.790310441548286
   114   1      9.0378635624848584      13.430929078441295      6.6748850321869213
   115   1      11.772023684646342      13.399483075401463      3.9160866916554653
   116   1      15.847336124908566      6.6251209171456935      5.3164955736488082
   117   1       14.54988017196672      13.446979632353191      1.2217895252511966
   118   1      2.2594851154644289      3.9005199224057208      5.3011083985040273
   119   1      3.6229638037005145       10.70378237376633      9.3680821238601766
   120   1       13.17747069232405      1.2179862915527906      2.6063682089722704
   121   1      8.9651041014349175       13.46447472638306      1.3240875928711802
   122   1      14.541491326456821      10.666007260317429      9.3682115873613157
   123   1      15.911157737330996      1.2129742045801208      10.722260611677029
   124   1     0.93040910164592816      16.166099599957533      12.080628655199916
   125   1      6.3112025892916108       2.540454982278618      14.864031631463831
   126   1      6.2327360266839378      10.665833993376054      6.6678346251286484
   127   1      13.169698015206791      3.8436698708491406      5.3620930081139022
   128   1      6.3525890530354445      7.9821393280044504      9.4148836662268423
   129   1      3.5826205918916116      13.433208804153082      12.117983255622562
   130   1      4.9660296020821875      1.1791226626140485      10.724186989637587
   131   1      2.2823368835301494       9.341542106126667      16.240374660039606
   132   1      9.0560517242802234      5.2466266529494874      14.806191622157939
   133   1      11.798985188815891      10.703870954056583      6.6630527495696583
   134   1     0.92534493724986788       2.584646082959722       3.934246867919569
   135   1      2.2421068306085203      1.1861172202860217      7.9984887187197273
   136   1      5.0160584845843914      12.121562483394655      5.2948401262063953
   137   1      9.0199284872330736      5.2549089100881474      9.3653079059786251
   138   1      14.524376835652106      13.447599694384962      6.6367079004976404
   139   1      2.2608503226850871      6.6577131102050089      13.462498704523568
   140   1      2.2810239970853274      1.1863084953083813      2.5550811943255383
   141   1      6.2711930136858314      10.695469454219506      12.045481748165116
   142   1      11.800464771686052       7.987937443376893      3.9641008592593039
   143   1      13.165112281719075      9.3264649619977718      16.186812786730002
   144   1      10.421160630550389      14.758543213280063      2.5904639098802704
   145   1       14.52128333936173      5.2346249970299823      3.9874288680613574
   146   1      15.872763535260106      1.1982470012682143      16.218935309569019
   147   1      13.149478347194304       9.319682242629824      10.688984598245156
   148   1      13.186650919987528      6.6154987614407332      2.6180493697207226
   149   1      11.780566328901955      5.2536249825843697      12.081699405961217
   150   1      7.6663690880382092      3.9099364452940222      10.727322342548632
   151   1      2.5102004328131784      6.9275676107071149      7.7588654058482689
   152   1      14.556189814180129      7.9682331958445047      12.074928367510665
   153   1      7.6761849522899865      6.6250045946766249      13.465334247221449
   154   1      4.9512814704599464      1.1996962867588792      5.3305180282778224
   155   1      13.203164816956132      9.3308959233299902      5.3153050934841986
   156   1      10.454201078814776      1.1905374741106272      5.3160706802785285
   157   1      14.563256769204713      2.5986135399359966      6.6786613754400719
   158   1      14.531523610278896      10.696016510517552      14.841968325322341
   159   1      9.0270888895968255      2.5340462956197882       1.237482959448954
   160   1     0.91529466375472168      13.428413787562022      3.9757902939909116
   161   1     0.90831373381971048      10.686683457518143      12.068735534471216
   162   1      2.2948481194710553      4.0046845032846079      10.697077527181023
   163   1      13.211248985203952      6.6589634550712731      7.9852902554720231
   164   1      3.6056453835462605      16.214446917059604      3.9573626733889284
   165   1      4.9341372906568495      9.2853598136812252      7.9921367331807573
   166   1      11.866755924727954       10.64595891242675      1.3150006908706473
   167   1      8.9301470093078024       10.63465665143633      14.758587990130081
   168   1      9.0306048457330235      2.5883426066106665       12.10084053593414
   169   1       14.55701721249568       7.992385439380314      6.6548843813756093
   170   1      7.6312075798566639      6.6200294972757092       2.662233169828454
   171   1      14.540293059013948       2.576032623142396      1.2384859365541132
   172   1      8.9739650506895714      10.647615655877416      4.0117546218909865
   173   1      6.3213537932136319      2.5410027686340015      3.9737259351936132
   174   1      7.7002977727295843      9.3585125322834983      5.2981993633675302
   175   1      3.6181904454771256      5.2550189053936265      3.9492850756571443
   176   1      11.808154708971756      2.5463536022111555      9.3694156952628873
   177   1      6.2800583432845087      13.424929953948663      9.3483637618859348
   178   1       9.044401955997273      16.170616221350656       14.83494128009886
   179   1      2.2748589062246936      14.813972086553463      5.3324580339753425
   180   1      15.927716411149618      3.9328176590056785      13.436478487614181
   181   1      10.433405152210753      3.8780932910627257      13.501552878427333
   182   1      3.6303935972217118      5.2891476257954082      14.828618010148489
   183   1      6.3374126211086832      5.2526014421975447      12.078353796537044
   184   1      13.201776734605573       3.928270861909283      10.731938251739621
   185   1      13.189137981983095      1.2086577405736278       8.027006705132294
   186   1      7.6506056900122985      12.075068538519417      2.6155810458634789
   187   1      15.891176554715344      12.058175985145226       10.70532328145282
   188   1      7.7004608188682369      14.797335539952201        16.1762882801562
   189   1      12.112793034659603      13.744963728764446      14.492601820105619
   190   1       3.564976566164944      16.154060467761383      9.3567195114632113
   191   1      15.936477099196622      3.9807541971793228      8.0102630834549018
   192   1      10.459516869639742      9.3186913114707295      8.0427798372560346
   193   1      15.885860763890378      3.9253153464556476      2.5863573373582369
   194   1      10.410519314802627      1.1910098212078282      16.181930163258471
   195   1      7.6486077664326899      14.786086816499846      10.693927573123233
   196   1       4.970700995630807       6.606836874486703      10.778673602241042
   197   1      10.407128928528437      3.9072048140904769      2.5800649731684757
   198   1      10.427867423955263      3.8632456282901728      8.0330530399994018
   199   1     0.93909465462530761      8.0050246787076844      14.835248877590288
   200   1      9.0482848876216622      5.2929307829170398      3.9479721892123223
   201   1     0.91882424762788162      5.2790601802141737      1.2467507939929021
   202   1     0.89573545428000045      16.162488249662601      1.2411951793326494
   203   1      3.6203399776304366      10.667214288448349      3.9595852112759644
   204   1      14.577625271011584      7.9688148081898476      1.2405833912840336
   205   1      6.2934407809812001      7.9761937410498831      4.0283758372881664
   206   1      2.2375636837988111      6.6379553251345556      2.6097087079950825
   207   1      13.165119095587556      3.9055492874020388      16.208360185686502
   208   1      7.6937160624818262      3.9070038049702873      5.3081378772519656
   209   1      4.9270659552882421      9.2859049231597055      13.465318672664921
   210   1      14.588018367264681      10.664980312996363      3.9855857166372459
   211   1      7.6650861339442145      1.2213722974829579      13.428410867332673
   212   1      3.5929586904919688      7.9823456908784465      1.2447122305548532
   213   1      7.6891833798272842      1.2288802071392411      8.0175709574007783
   214   1      6.3216682045735411      16.174541009595714      12.041257149706894
   215   1      4.9561640939314771      6.6508880475115006      16.229611668068969
   216   1        15.9340562290663       14.85177834911542      13.407169119048035


Velocities

     1                       0                       0                       0
     2                       0                       0                       0
     3                       0                       0                       0
     4                       0                       0                       0
     5                       0                       0                       0
     6                       0                       0                       0
     7                       0                       0                       0
     8                       0                       0                       0
     9                       0                       0                       0
    10                       0                       0                       0
    11                       0                       0                       0
    12                       0                       0                       0
    13                       0                       0                       0
    14                       0                       0                       0
    15                       0                       0                       0
    16                       0                       0                       0
    17                       0                       0                       0
    18                       0                       0                       0
    19                       0                       0                       0
    20                       0                       0                       0
    21                       0                       0                       0
    22                       0                       0                       0
    23                       0                       0                       0
    24                       0                       0                       0
    25                       0                       0                       0
    26                       0                       0                       0
    27                       0                       0                       0
    28                       0                       0                       0
    29                       0                       0                       0
    30                       0                       0                       0
    31                       0                       0                       0
    32                       0                       0                       0
    33                       0                       0                       0
    34                       0                       0                       0
    35                       0                       0                       0
    36                       0                       0                       0
    37                       0                       0                       0
    38                       0                       0                       0
    39                       0                       0                       0
    40                       0                       0                       0
    41                       0                       0                       0
    42                       0                       0                       0
    43                       0                       0                       0
    44                       0                       0                       0
    45                       0                       0                       0
    46                       0                       0                       0
    47                       0                       0                       0
    48                       0                       0                       0
    49                       0                       0                       0
    50                       0                       0                       0
    51                       0                       0                       0
    52                       0                       0                       0
    53                       0                       0                       0
    54                       0                       0                       0
    55                       0                       0                       0
    56                       0                       0                       0
    57                       0                       0                       0
    58                       0                       0                       0
    59                       0                       0                       0
    60                       0                       0                       0
    61                       0                       0                       0
    62                       0                       0                       0
    63                       0                       0                       0
    64                       0                       0                       0
    65                       0                       0                       0
    66                       0                       0                       0
    67                       0                       0                       0
    68                       0                       0                       0
    69                       0                       0                       0
    70                       0                       0                       0
    71                       0                       0                       0
    72                       0                       0                       0
    73                       0                       0                       0
    74                       0                       0                       0
    75                       0                       0                       0
    76                       0                       0                       0
    77                       0                       0                       0
    78                       0                       0                       0
    79                       0                       0                       0
    80                       0                       0                       0
    81                       0                       0                       0
    82                       0                       0                       0
    83                       0                       0                       0
    84                       0                       0                       0
    85                       0                       0                       0
    86                       0                       0                       0
    87                       0                       0                       0
    88                       0                       0                       0
    89                       0                       0                       0
    90                       0                       0                       0
    91                       0                       0                       0
    92                       0                       0                       0
    93                       0                       0                       0
    94                       0                       0                       0
    95                       0                       0                       0
    96                       0                       0                       0
    97                       0                       0                       0
    98                       0                       0                       0
    99                       0                       0                       0
   100                       0                       0                       0
   101                       0                       0                       0
   102                       0                       0                       0
   103                       0                       0                       0
   104                       0                       0                       0
   105                       0                       0                       0
   106                       0                       0                       0
   107                       0                       0                       0
   108                       0                       0                       0
   109                       0                       0                       0
   110                       0                       0                       0
   111                       0                       0                       0
   112                       0                       0                       0
   113                       0                       0                       0
   114                       0                       0                       0
   115                       0                       0                       0
   116                       0                       0                       0
   117                       0                       0                       0
   118                       0                       0                       0
   119                       0                       0                       0
   120                       0                       0                       0
   121                       0                       0                       0
   122                       0                       0                       0
   123                       0                       0                       0
   124                       0                       0                       0
   125                       0                       0                       0
   126                       0                       0                       0
   127                       0                       0                       0
   128                       0                       0                       0
   129                       0                       0                       0
   130                       0                       0                       0
   131                       0                       0                       0
   132                       0                       0                       0
   133                       0                       0                       0
   134                       0                       0                       0
   135                       0                       0                       0
   136                       0                       0                       0
   137                       0                       0                       0
   138                       0                       0                       0
   139                       0                       0                       0
   140                       0                       0                       0
   141                       0                       0                       0
   142                       0                       0                       0
   143                       0                       0                       0
   144                       0                       0                       0
   145                       0                       0                       0
   146                       0                       0                       0
   147                       0                       0                       0
   148                       0                       0                       0
   149                       0                       0                       0
   150                       0                       0                       0
   151                       0                       0                       0
   152                       0                       0                       0
   153                       0                       0                       0
   154                       0                       0                       0
   155                       0                       0                       0
   156                       0                       0                       0
   157                       0                       0                       0
   158                       0                       0                       0
   159                       0                       0                       0
   160                       0                       0                       0
   161                       0                       0                       0
   162                       0                       0                       0
   163                       0                       0                       0
   164                       0                       0                       0
   165                       0                       0                       0
   166                       0                       0                       0
   167                       0                       0                       0
   168                       0                       0                       0
   169                       0                       0                       0
   170                       0                       0                       0
   171                       0                       0                       0
   172                       0                       0                       0
   173                       0                       0                       0
   174                       0                       0                       0
   175                       0                       0                       0
   176                       0                       0                       0
   177                       0                       0                       0
   178                       0                       0                       0
   179                       0                       0                       0
   180                       0                       0                       0
   181                       0                       0                       0
   182                       0                       0                       0
   183                       0                       0                       0
   184                       0                       0                       0
   185                       0                       0                       0
   186                       0                       0                       0
   187                       0                       0                       0
   188                       0                       0                       0
   189                       0                       0                       0
   190                       0                       0                       0
   191                       0                       0                       0
   192                       0                       0                       0
   193                       0                       0                       0
   194                       0                       0                       0
   195                       0                       0                       0
   196                       0                       0                       0
   197                       0                       0                       0
   198                       0                       0                       0
   199                       0                       0                       0
   200                       0                       0                       0
   201                       0                       0                       0
   202                       0                       0                       0
   203                       0                       0                       0
   204                       0                       0                       0
   205                       0                       0                       0
   206                       0                       0                       0
   207                       0                       0                       0
   208                       0                       0                       0
   209                       0                       0                       0
   210                       0                       0                       0
   211                       0                       0                       0
   212                       0                       0                       0
   213                       0                       0                       0
   214                       0                       0                       0
   215                       0                       0                       0
   216                       0                       0                       0
