(written by ASE)

216 atoms
1 atom types

0.0      16.331106185913086  xlo xhi
0.0      16.331106185913086  ylo yhi
0.0      16.331106185913086  zlo zhi

Atoms # atomic

     1   1      14.843696127687167      2.8599256395349357      5.1515147830525052
     2   1       5.366293758032441      4.2474653141396743      11.948862066514266
     3   1      9.3915237782543954      8.3190199059346241       5.142070761337834
     4   1      12.116966042399326      2.8578727183025876      13.331540045957809
     5   1      13.438813697683599      9.6990599448662351      14.696038624294033
     6   1      6.6759484823748494      13.741907222045825      2.4477559518812484
     7   1      3.9663579531936364      5.5712310734013499      13.342842306948228
     8   1       14.83423069095727      11.030263041574926      13.322096024243137
     9   1      12.108234556645812     0.17734711015576465        10.6169532477129
    10   1      16.224123583712412      1.5326588903124758      3.7795620759505084
    11   1      8.0201889430121582      12.385260167019283       6.511160913620472
    12   1      1.2356273970501093      11.055920176635254       10.59137009179608
    13   1      8.0456732978360037      1.4809602450037573      6.5307634398305368
    14   1      10.763444606185999      12.399591679254399      9.2476294770823415
    15   1      14.839994250282416      11.056092470166845      7.9373011531700968
    16   1      5.3281229535067496      6.9739929301926509      14.699876779068404
    17   1       9.416259094250222      13.753121876155774      5.1642800789467742
    18   1      13.497657292475765      4.2704290243304399      9.2510802147630784
    19   1      13.494542381170163      1.5147704170540521      1.0991942818647544
    20   1      6.6849345147866188      2.8545373296811363      7.8620604705832875
    21   1      6.6848021310561307      5.6217184319113471      16.062934710925788
    22   1      2.5877721884778282      4.2584137406739728      14.710760473852133
    23   1      13.466113948457632      4.2169469706230416      3.8295033515722423
    24   1      12.110425702067346      5.5963990700457202      10.590916482837201
    25   1      2.5557788857875039      6.9577841971910175        6.53387883784103
    26   1       13.51017144864602      15.110280944728174      3.7947037084775275
    27   1      2.5971290900169208      9.6536893148805802       9.241264350511301
    28   1      3.9628164450506347      2.8870421592124274      16.029947800199466
    29   1      12.121048523029231      5.5971520025128711      16.071343998041129
    30   1      16.162625500442005      9.6689465398193306      1.0667785193286079
    31   1      1.2436666667716878     0.11304917334459841      16.045305286345865
    32   1      8.0370367195363315      4.2050660175166286      14.713537611963034
    33   1      12.112556496082334      8.3158164143387694      13.349634760414006
    34   1      2.5945556379031132      9.6409561415091503      14.690477534203751
    35   1      1.2376559830378824      2.8588110853334001      2.4455823278358082
    36   1      14.838935180438511      13.763416658020788      10.602723943504998
    37   1      14.862142243075027      8.2869810963369446      5.1726961799305968
    38   1      13.466312524053365      1.4816485673965616      6.5291675344913074
    39   1      16.179941487071801      4.2469956439193766      6.5289446236510003
    40   1      10.777380914049218      6.9496323769632795      14.705237346743388
    41   1      9.3754897723088106       8.347995394945201      10.612316896916468
    42   1      2.6196041484966202      1.5590779618804476      11.963622852463686
    43   1      16.168364724522576      6.9532651422734375      9.2723871815031771
    44   1      9.3958807604431058      5.5866669190352809      2.4162685789256386
    45   1       6.699890956102422      11.052939595879707        5.15754067631417
    46   1       10.76689339704717      1.5436478350289917      9.2589989033477877
    47   1      6.6637677190552722      11.027684479059758      10.615799757120044
    48   1      8.0477247589536773      9.7021651220740068       3.802874510196034
    49   1      1.2060834367262601      5.6232038552402059      16.034793434099242
    50   1      10.775800096561625       15.10644181654402      1.0374780331267317
    51   1      14.852737157751676     0.16397652068127577      13.343379629148444
    52   1      1.2441620106750122        8.32595447722872      2.4136238245452262
    53   1      2.6281358418921741      1.5189744522306086       1.086624154631977
    54   1      1.2052463043128796      5.5975554808679249      5.1604511715653416
    55   1      9.3890133544240371     0.13759270479888208      2.4386506767710614
    56   1      9.4502164945301956     0.14247919149048904      7.8946731052480459
    57   1      5.3342734432206385      4.2462013415364481      1.0717576320448785
    58   1       14.85901273062268      8.3152498898450631      16.042458062730589
    59   1      3.9470223846165595      8.3235375007375296      5.1678495726210372
    60   1      6.7233963688374274      8.3094532345872949      7.8932159108028941
    61   1      10.772953846356131      15.092465598879699      11.973387125996965
    62   1      13.461780328103714      4.2396600277946845      14.694180385018285
    63   1       1.251756918830651      13.765475419711834      13.328890424528481
    64   1      12.140443712955516      2.8647822242947711      7.8831386860243811
    65   1      9.3978986389232659      5.6056790722119558      7.8985526299381945
    66   1        5.30602411790818      12.376043923193834      3.7811526275359313
    67   1      8.0510109903810871      15.062176006662071        3.82304842794872
    68   1      12.110915327188195      11.054642089590175      10.652307491031479
    69   1      8.0576000012022178      15.115145073413828      9.2553836594137238
    70   1      5.2993552874848433      9.7019597326097937      1.0638191102358405
    71   1      6.6810647241943002      11.078159669947468       16.05319671945665
    72   1      3.9591790560440074      2.8834712054234899      10.577761823029732
    73   1      5.3019153552141347      4.2617126264285616      6.4997773729131723
    74   1       10.78990091067817      9.6663592166161152      1.0715206067627179
    75   1      13.487690549707622      12.415090309819334      11.970729717289373
    76   1      1.2230952327988689      8.3156217323821693       13.34153891124879
    77   1      13.473807779382469      9.6998201779067585      3.7917540334825901
    78   1      9.4262930022933915      11.061796651495229      7.8822290345821671
    79   1      16.187720004647758      9.6826959530042132       6.550269111767193
    80   1        2.58142239311087      6.9836593760427377      11.967281899837985
    81   1      2.6060056138281027      15.142055960274661      9.2607510409571887
    82   1      6.6953850422169126      13.752649772411019      13.321340658251529
    83   1      14.868568694462397      13.761936101740844       16.05459161567569
    84   1      8.0072854229287032      9.6710491049506118      14.680805734599858
    85   1      8.0346265569136222      4.2127063109033998      3.8033232521059972
    86   1      14.864593288908623      2.8949808026976882       10.59410829351566
    87   1      13.500181344043085      6.9520464332251208      6.5123601544731287
    88   1      13.451964463851937       6.975143013851266      1.0753813933145437
    89   1      8.0256186227817352      6.9457431181753009      11.955599035622413
    90   1      3.9694458523777598      11.029741293931238      7.8856651711161589
    91   1      3.9762351422617428      13.762534748757389      5.1955221526370678
    92   1      9.4136863721937516      8.2946097088063198      16.038226650403885
    93   1      9.4204953736258403      5.5847736370073449      13.307666197619938
    94   1      9.4048653327402008      13.747974485223267      16.079204282038859
    95   1      16.212370633992464      12.418858379089329      9.2638094944953764
    96   1      5.3354926389738466       6.962330994287413      9.2435771721557103
    97   1      16.214713631340146      15.121712669219733      11.973162268337092
    98   1      12.105468126042524      11.064509544560451      16.084010006137532
    99   1      5.2999734026970486      15.128325041875655      6.5475206892448909
   100   1      16.179067365086667      6.9433903867297886      3.8081464975807648
   101   1      5.3374029556729852      6.9535664126012762      3.8046312715019042
   102   1      14.854621679091565     0.16010107214459346      2.4313722484711207
   103   1      14.837300825412854      2.8980752723978469      16.030513351283389
   104   1      10.747837927135151      6.9797452953052925      3.8213454475333606
   105   1      16.198678651984778      15.119042606184962      6.5616399981473137
   106   1      12.137084475794381     0.12959862258457377      5.1726470227365553
   107   1      9.4323992018621539      2.8994433998478542      16.080744216315566
   108   1      1.2309915329585692      5.5929103693834463      10.607409938200362
   109   1      13.464255709181884      9.6974187759720962       9.274090648623428
   110   1      5.3038198314545753      12.384932127922411      9.2262115416269808
   111   1      6.7019005605994266       2.845775181519457       13.31034015429384
   112   1      8.0474380897725837      6.9686396630910394       6.499398716507585
   113   1      6.6917590907752356      5.6108264631444627       10.58309124159166
   114   1      8.0833330622256199       12.38949936662425      11.930974688341848
   115   1      14.839686652790988      5.6100637965794817      13.319155353288693
   116   1      10.794656990877911      1.5156109564016731      14.736474066679875
   117   1      1.2540426066773591       13.77619266142267      7.8889183066109467
   118   1      12.119762648705887      8.2993969381191164      7.8633366108088012
   119   1      3.9765763223906845      13.760386433366307      10.552176720293346
   120   1      1.2527828927419336      11.072245232105956      5.2086422563972405
   121   1      8.0256930886301348      1.4825342486228692      11.961297376492098
   122   1       2.587938884903167       6.937711027350872      1.0592221825356205
   123   1      8.0369262375259609      6.9638753089081433      1.0927741576409744
   124   1      12.153910837303329      13.761347188822128      2.4258953583270682
   125   1       16.19072784087723      6.9467496238909234      14.701994918756213
   126   1      9.4121444910974787      11.081289182399814      2.4454915573735434
   127   1      10.761359562430812      4.2129871396257954      6.5586024729194605
   128   1      12.140272392833708      11.040510126360573      5.1828512774917499
   129   1      12.162385342874131     0.15343599847463807      16.079507012481372
   130   1      16.158122506785844      4.2353512293902327      1.1062012505114609
   131   1      16.199897361033095      15.117827790775777      1.1047127852770302
   132   1      3.9412099114498176       5.598642292890645      2.4120340030171405
   133   1      12.088283549733433      8.3185779778931419      2.4189043292655583
   134   1      14.838909871784153      11.023256437956888      2.4352602904968705
   135   1      2.6106969622772738      15.072025940256253      3.8032677677483662
   136   1      14.823442390332275      8.2961593771808566      10.588820731574401
   137   1      14.836195031899365      5.5954791978007847      7.8587119409297657
   138   1      1.2492080453138641      8.3207837244614211      7.9209838849776588
   139   1      3.9407662799412151     0.17428433711166491      2.4507869065930663
   140   1      12.137826214049028      2.8661724968173417      2.4330961571968146
   141   1      1.2345950959752372     0.14131592117121983      10.602774560813714
   142   1      3.9617564017969471      13.766906332092844      16.071353732138959
   143   1      3.9768014234030034      5.5857309855289259      7.8777824986934206
   144   1      13.437732239414686      15.099712634714137      14.704821700766047
   145   1      6.7023590366072199      8.3033178327250425      13.337099189228525
   146   1      3.9512603674592981      8.2988927118515221      16.057324950346356
   147   1      5.3312490590248558      9.6475013488900458      11.974867682276908
   148   1      6.6696354332271994      5.5851824691162051      5.1767932617072461
   149   1      2.6097437507472705       15.12207185742966      14.695411748393781
   150   1      16.185100558921704      12.391806347809961      14.669939561192223
   151   1      16.213468640227688      1.5336304749521332      14.699415382831262
   152   1       1.252392920447619      2.9092113236678188      13.327855689929152
   153   1       13.45420719999197      6.9510175390844893      11.964293531804174
   154   1      3.9650779193289907     0.16065100304340518      13.331638360345892
   155   1      3.9225202002637616      2.8890293752844229      5.1432661085513587
   156   1      16.210400452591671      4.2281499438155947      11.962896688765568
   157   1      14.839308969795184      13.756860743132279      5.1564086007365404
   158   1       13.49703625703421      12.391231062628208      1.0575302746565427
   159   1      10.754110579776807      6.9545753518413562      9.2410628546862199
   160   1      6.6832466222228959      13.781669064861831      7.9072325249732103
   161   1      5.3051344213665175      1.5105357194693312      14.718798891840152
   162   1      10.797600582061705      12.403428860618988       3.775219694908543
   163   1       2.623926574638034      12.428826095267254      11.967124207453139
   164   1       3.948881110597199      11.025871990043811      13.348930011731113
   165   1      10.783813205895285      15.106199437508053      6.5261971745384812
   166   1      6.6983451813670172     0.14790313726806303       10.55736207420739
   167   1      5.3033540548734095      15.123018985148519       1.102729097815498
   168   1      9.3960355325986029       13.77479776520363      10.604762263590601
   169   1      10.798176840653241      4.1945298300254308      1.0824234047134382
   170   1      6.6874653802224202      2.8506419870820139      2.4578533749127587
   171   1      12.166907804725952      13.756515182659314      7.8816474222368242
   172   1       8.044354327580038      12.391376100685875      1.0523538031067687
   173   1       5.324244402226384      1.5071662615054748      9.2091428010820664
   174   1      13.484672979380321      12.413243751460982      6.5690719818405228
   175   1       2.598367753965789      12.410098664452107      1.0506176050825644
   176   1      8.0725019315701729      1.4944207988355345      1.0636464516755808
   177   1      1.2427281780646524      0.1469478876613266      5.1476133566422391
   178   1      8.0230721827894058      4.2339242106483539      9.2328375420198654
   179   1      6.7122152973649918     0.12046614523381027      5.1577840287599201
   180   1      2.6067855584167319      12.373863485279912      6.5328976407797654
   181   1      3.9555436138569462     0.16027347214287957       7.866587799484023
   182   1      14.832054146682481     0.15351014492295256       7.902195616051074
   183   1      6.6823106887165409     0.14466508962491176      16.062598884550653
   184   1       10.76171583041139      9.7182010748391576      6.5218280247274834
   185   1      16.188474397229584      9.6657070320615048      11.956570498585847
   186   1      10.775751426072475       12.39877109480733      14.696490286433345
   187   1      5.3123980051672675      15.099329111259635      11.950018477336471
   188   1      2.5912837642700026      9.6674805846861318      3.7790403283068201
   189   1      3.9457805570858966      8.3183560404626178      10.596729686061281
   190   1      5.3137442308971572       12.42059104850307      14.680970240853185
   191   1      10.773519397440054      9.6614795133739335      12.014241134589497
   192   1      9.4032903557113059      11.027402190222688      13.377302960086013
   193   1      2.5645093981312357       4.230457898411089      9.2737119922178408
   194   1      1.2632772236124623      13.725830386069788      2.4115872079267433
   195   1      2.5767162001625081      1.5113828293329874      6.5250227556352911
   196   1      10.770762700934597      4.2515716433092621      11.983885350506625
   197   1      9.3812747466491828      2.8529750069794204      10.630751331386932
   198   1      14.832191397461884      5.5866829802967004      2.4466954219226693
   199   1       16.20634814766504      12.387829968846404      3.7700248502491149
   200   1      1.2046044622372136      2.9027031058586772      7.8820265653473029
   201   1      8.0774341989406366      9.6940410440250844      9.2517781495774898
   202   1      9.4061161643113564       2.879953302467726      5.1639340317689175
   203   1      12.148081086112938       13.75642952259841      13.337449616750405
   204   1       6.675319659655031      8.3295512263769069      2.4184687283876656
   205   1      5.3213017844523733      1.5354088946256752      3.7933131926025112
   206   1      12.156667533808786        5.60055796334359      5.2103934205968585
   207   1      16.205775782712635        1.51360183860956      9.2461936976524157
   208   1      2.5821008597296213      4.2695417613132349      3.7663979253976549
   209   1      3.9305931742990765      11.012036916798024       2.444739111611284
   210   1      10.767693539888796      1.5018033819822563       3.806070944570962
   211   1       9.418103705789008     0.18246951183399851      13.321080757839468
   212   1       8.042633339083693      15.099715554943486      14.695373785412244
   213   1      13.475261080188488      15.115529570278113      9.2541036255490781
   214   1      13.502915652123534      1.5396162150602493      11.961902837377124
   215   1      1.2393965614061102      11.020237894219804      16.050608422843652
   216   1      5.2925419057087311       9.671419974077935      6.5494835700723115


Velocities

     1                       0                       0                       0
     2                       0                       0                       0
     3                       0                       0                       0
     4                       0                       0                       0
     5                       0                       0                       0
     6                       0                       0                       0
     7                       0                       0                       0
     8                       0                       0                       0
     9                       0                       0                       0
    10                       0                       0                       0
    11                       0                       0                       0
    12                       0                       0                       0
    13                       0                       0                       0
    14                       0                       0                       0
    15                       0                       0                       0
    16                       0                       0                       0
    17                       0                       0                       0
    18                       0                       0                       0
    19                       0                       0                       0
    20                       0                       0                       0
    21                       0                       0                       0
    22                       0                       0                       0
    23                       0                       0                       0
    24                       0                       0                       0
    25                       0                       0                       0
    26                       0                       0                       0
    27                       0                       0                       0
    28                       0                       0                       0
    29                       0                       0                       0
    30                       0                       0                       0
    31                       0                       0                       0
    32                       0                       0                       0
    33                       0                       0                       0
    34                       0                       0                       0
    35                       0                       0                       0
    36                       0                       0                       0
    37                       0                       0                       0
    38                       0                       0                       0
    39                       0                       0                       0
    40                       0                       0                       0
    41                       0                       0                       0
    42                       0                       0                       0
    43                       0                       0                       0
    44                       0                       0                       0
    45                       0                       0                       0
    46                       0                       0                       0
    47                       0                       0                       0
    48                       0                       0                       0
    49                       0                       0                       0
    50                       0                       0                       0
    51                       0                       0                       0
    52                       0                       0                       0
    53                       0                       0                       0
    54                       0                       0                       0
    55                       0                       0                       0
    56                       0                       0                       0
    57                       0                       0                       0
    58                       0                       0                       0
    59                       0                       0                       0
    60                       0                       0                       0
    61                       0                       0                       0
    62                       0                       0                       0
    63                       0                       0                       0
    64                       0                       0                       0
    65                       0                       0                       0
    66                       0                       0                       0
    67                       0                       0                       0
    68                       0                       0                       0
    69                       0                       0                       0
    70                       0                       0                       0
    71                       0                       0                       0
    72                       0                       0                       0
    73                       0                       0                       0
    74                       0                       0                       0
    75                       0                       0                       0
    76                       0                       0                       0
    77                       0                       0                       0
    78                       0                       0                       0
    79                       0                       0                       0
    80                       0                       0                       0
    81                       0                       0                       0
    82                       0                       0                       0
    83                       0                       0                       0
    84                       0                       0                       0
    85                       0                       0                       0
    86                       0                       0                       0
    87                       0                       0                       0
    88                       0                       0                       0
    89                       0                       0                       0
    90                       0                       0                       0
    91                       0                       0                       0
    92                       0                       0                       0
    93                       0                       0                       0
    94                       0                       0                       0
    95                       0                       0                       0
    96                       0                       0                       0
    97                       0                       0                       0
    98                       0                       0                       0
    99                       0                       0                       0
   100                       0                       0                       0
   101                       0                       0                       0
   102                       0                       0                       0
   103                       0                       0                       0
   104                       0                       0                       0
   105                       0                       0                       0
   106                       0                       0                       0
   107                       0                       0                       0
   108                       0                       0                       0
   109                       0                       0                       0
   110                       0                       0                       0
   111                       0                       0                       0
   112                       0                       0                       0
   113                       0                       0                       0
   114                       0                       0                       0
   115                       0                       0                       0
   116                       0                       0                       0
   117                       0                       0                       0
   118                       0                       0                       0
   119                       0                       0                       0
   120                       0                       0                       0
   121                       0                       0                       0
   122                       0                       0                       0
   123                       0                       0                       0
   124                       0                       0                       0
   125                       0                       0                       0
   126                       0                       0                       0
   127                       0                       0                       0
   128                       0                       0                       0
   129                       0                       0                       0
   130                       0                       0                       0
   131                       0                       0                       0
   132                       0                       0                       0
   133                       0                       0                       0
   134                       0                       0                       0
   135                       0                       0                       0
   136                       0                       0                       0
   137                       0                       0                       0
   138                       0                       0                       0
   139                       0                       0                       0
   140                       0                       0                       0
   141                       0                       0                       0
   142                       0                       0                       0
   143                       0                       0                       0
   144                       0                       0                       0
   145                       0                       0                       0
   146                       0                       0                       0
   147                       0                       0                       0
   148                       0                       0                       0
   149                       0                       0                       0
   150                       0                       0                       0
   151                       0                       0                       0
   152                       0                       0                       0
   153                       0                       0                       0
   154                       0                       0                       0
   155                       0                       0                       0
   156                       0                       0                       0
   157                       0                       0                       0
   158                       0                       0                       0
   159                       0                       0                       0
   160                       0                       0                       0
   161                       0                       0                       0
   162                       0                       0                       0
   163                       0                       0                       0
   164                       0                       0                       0
   165                       0                       0                       0
   166                       0                       0                       0
   167                       0                       0                       0
   168                       0                       0                       0
   169                       0                       0                       0
   170                       0                       0                       0
   171                       0                       0                       0
   172                       0                       0                       0
   173                       0                       0                       0
   174                       0                       0                       0
   175                       0                       0                       0
   176                       0                       0                       0
   177                       0                       0                       0
   178                       0                       0                       0
   179                       0                       0                       0
   180                       0                       0                       0
   181                       0                       0                       0
   182                       0                       0                       0
   183                       0                       0                       0
   184                       0                       0                       0
   185                       0                       0                       0
   186                       0                       0                       0
   187                       0                       0                       0
   188                       0                       0                       0
   189                       0                       0                       0
   190                       0                       0                       0
   191                       0                       0                       0
   192                       0                       0                       0
   193                       0                       0                       0
   194                       0                       0                       0
   195                       0                       0                       0
   196                       0                       0                       0
   197                       0                       0                       0
   198                       0                       0                       0
   199                       0                       0                       0
   200                       0                       0                       0
   201                       0                       0                       0
   202                       0                       0                       0
   203                       0                       0                       0
   204                       0                       0                       0
   205                       0                       0                       0
   206                       0                       0                       0
   207                       0                       0                       0
   208                       0                       0                       0
   209                       0                       0                       0
   210                       0                       0                       0
   211                       0                       0                       0
   212                       0                       0                       0
   213                       0                       0                       0
   214                       0                       0                       0
   215                       0                       0                       0
   216                       0                       0                       0
