(written by ASE)

216 atoms
1 atom types

0.0      16.331106185913086  xlo xhi
0.0      16.331106185913086  ylo yhi
0.0      16.331106185913086  zlo zhi

Atoms # atomic

     1   1      5.8864571772988938      2.5824067537539293      10.128485511095619
     2   1      12.683482748827373      3.9333834534420475      3.3088332725137377
     3   1      3.1499689022889186      8.0211633262049418      12.850138290955329
     4   1      4.4727843702499399       1.198270606455452      3.3057332057073268
     5   1      14.030650739387056      16.147928959538262      4.6909011673757846
     6   1       4.498451239408098      9.3701846889914577      6.0485075177434737
     7   1     0.42005963023074244      7.9870555341134946      10.117095643224729
     8   1      9.9330219064397625      12.091869591374007      14.201715827832004
     9   1      15.376530908803829      3.9402311479130105      11.483800941539016
    10   1      15.417232092060431      14.846081955065301      11.482339853454732
    11   1      1.7850657505116345      9.3856842929661752      14.190733818660192
    12   1       1.774787394936709      3.9654023081391756      3.3236490561158973
    13   1      1.7728023690367252      14.847256860673383      3.3373361710746678
    14   1      11.310941858863998      8.0322991341224679      4.6825741333871065
    15   1      4.4968645814618071      9.3948314246970313     0.60186425755436801
    16   1      3.1509131097784291      13.465524062129134       12.84801723103817
    17   1         3.0970090829301      10.702484818525591       4.666138595906034
    18   1     0.38112104873870933       2.580555571699108      4.6791467575411616
    19   1     0.42966015798708668      10.696699844185218      7.4300913845909236
    20   1      4.4813041393756521      14.843438174094672      6.0347362028384737
    21   1       12.65652319147739      1.2424741181112893     0.59378586892713514
    22   1      3.1210194519900369      10.739637923123155      15.571942922741187
    23   1      8.5447020438939489      10.747521568955676      4.6649510359707733
    24   1      5.8477432101142881      13.473218866463753      15.589198557964437
    25   1      14.033456106381664      8.0096240399323619       1.976162030499836
    26   1      1.7468395833045349      12.109765730234471      11.461495256361559
    27   1      5.8476074194495595      8.0071048554139566       4.716361186955055
    28   1      3.1279501296450007      8.0485034867800778      1.9654940676592645
    29   1      14.043926102007617      13.459846162864892      1.9654584165259621
    30   1      14.054359108061817      13.455970045108984      12.871314820784505
    31   1      9.9588269997871066      3.9602962871224463     0.59890545684271501
    32   1      1.7909150915739076      9.3543862482133591      8.7444194493015175
    33   1      3.1332323378324531      2.5711091164599793      7.3910070349838861
    34   1      1.7575784833830426      6.6701357658556617     0.62510259098016263
    35   1      5.8555363288369904      8.0201723950458472      10.146781721376897
    36   1      12.709322884926905       12.10491522928578     0.57092552268770191
    37   1      12.685187189357407      9.4160975082262439      14.198895859690651
    38   1      8.5693935564495405      13.486404675384279      7.4228920458358516
    39   1       12.65769420344634      14.844149736646045      14.228749364325495
    40   1      15.406352290915834      9.3576247825614018      6.0414799858151014
    41   1      4.4521164470323811      12.076247337766631      3.3327628485616856
    42   1      8.5747161611429874      13.485591878215473      1.9505595280635788
    43   1      14.004599373364613      5.2971879906029926      15.543981726724496
    44   1      9.9725403968100181       6.707139938756427      14.204487125484206
    45   1      7.2043119056532987      6.6430579392170443       6.064482632397187
    46   1      11.292559988521816      2.6044491315850848       15.54120264179403
    47   1     0.39476798012487535       16.20659150011079      7.3942548167248674
    48   1      15.360447258959312      6.6949129384721573      3.3415756140320809
    49   1      3.1542935186023442      8.0161273906925885      7.3847849996509467
    50   1      15.389540530553631      1.2077786298633555      3.3064615595774569
    51   1      8.5694383332995585      16.204555126844753      10.123832612332876
    52   1      14.024209686852942      10.726674051633154      10.107569855088286
    53   1      9.9071126582456372      12.117418677948422      8.7748579732159442
    54   1      15.412705736569478      12.113588310452315      14.223244732002627
    55   1      7.2128258343203129      14.813016198146556      3.2928450168279539
    56   1      5.8635207225820523      8.0219902378156007      15.557157801547191
    57   1        8.55579404837124      7.9863454316767957      7.4024922970135094
    58   1      7.2298030743456252      3.9587972360566255      8.7670745885910719
    59   1      15.369083350554092      14.831964592982445     0.58757648792137473
    60   1      9.9100192598576768      14.830664117512356      6.0441442083911738
    61   1       15.37492867630101      6.6665356097732342      8.7704532939478668
    62   1      12.655285014233414        3.95842076982305      8.7985527141537432
    63   1      4.4896009976610571      6.6506485887048825      8.7831280627323167
    64   1      4.5099914990904608      6.6234997031521061      14.217430555368765
    65   1      9.9209623326381688      1.2468183242965978      8.7833441597041428
    66   1      14.007811625648515       5.274258349754632       10.13639835922163
    67   1      7.1964117118544664      12.095220067847094      6.0476976408040173
    68   1      7.2274883058816499      9.3782649636001452      3.3562500098632597
    69   1      5.8707609445480102      5.3264170528620411      12.836774348044514
    70   1      9.9411430642593359      9.3899215457515766       11.47758961371369
    71   1      3.1584331870569997      13.497651452017067      7.4276379052328707
    72   1      4.4980409471845633      6.6303306063043124      3.3045556232223419
    73   1      4.4937087869453194      1.2450483002824342      8.7625414192316384
    74   1      1.7683884423757092      9.3783087670403802       3.339041341662039
    75   1      14.032519686170417      5.2901959881316998      4.6662865541930501
    76   1      12.685464611145562      6.6630595634381393      11.466517077432059
    77   1      5.8308939734754404      10.736676810563267      12.877780208563195
    78   1      3.1170917435156298      16.190350157881426      4.6685302637428663
    79   1      3.1278445146835452      2.5726731426288154      1.9654080425696918
    80   1      9.9445840678422428      3.9714963400856504      6.0224371702302619
    81   1      4.4904210954032351      1.2111412739587308      14.201316729820974
    82   1      9.9294105561448305      3.9273363885176025      11.488379861158251
    83   1      3.1227530948135609      10.762981263129291      10.102586970409106
    84   1      5.8431711043635346      2.5948827035902013      15.529489601875184
    85   1      12.666757621935858       6.646080376593261     0.58920372488799444
    86   1     0.46972293652131825      7.9850532301898625      15.575822934136227
    87   1      7.2334937575378717       6.640621494530194     0.59266565678123584
    88   1       15.38000890195849      9.3909445994335101     0.58051604257471467
    89   1      11.274261831420972      13.453979422102748      15.554148018498154
    90   1      8.6018499588441273      5.2933469155992725      10.112763969690377
    91   1      4.5116389951481892        3.95288304156756     0.58007983331570756
    92   1      11.310821156050906      5.2846052090430362      1.9632832106896245
    93   1      11.316684976583701      16.185454880082716      7.3969730635438964
    94   1      11.300092233422674       13.48485111337061      4.6885333480786358
    95   1      12.698571573873664      14.830962954315737      3.3336252896294241
    96   1      7.2310018284933903      6.6994134986038603      11.489760156230545
    97   1      3.0900608838990422      5.3093672938078953      15.596965394622998
    98   1      11.311813060619784      5.3106332132306875      12.848880645515692
    99   1      8.5888753798465132      8.0322840462708314       2.000379735843552
   100   1     0.42937583107328336      10.746591962612911      12.845145672178319
   101   1      11.285509581463543      10.738907865785905      1.9394508539437538
   102   1      8.5975095246217279      16.210253467714438      15.593369618884594
   103   1      3.0979270083554695      5.3093195967285283      4.6757729192332818
   104   1      8.5574712334273499      5.3101917718940967      4.6633643780244824
   105   1     0.39904267876786648      8.0135055114420766      4.7005554456035838
   106   1      11.340984204996744      8.0103648047772253      10.117335102031348
   107   1      8.6014518342428801      13.487071461085634      12.860157597851753
   108   1      4.4654511876497054      12.093860214380243      8.7553430538863495
   109   1      12.665510684003834      1.2380477804755401      6.0529029496186126
   110   1      15.417829765667193      9.3913660858695494      11.470730968382668
   111   1      9.9709070151941432      14.845838602619551      11.497279746804224
   112   1      11.293632686102683      5.2852427924509016      7.4101929418068266
   113   1      15.409173232466969      3.9368419784010484     0.58633313943792587
   114   1      15.389393545676398      12.086268591482622       3.348484633319373
   115   1      12.663694301348755      6.6602395952967868      6.0255744699608726
   116   1      9.9421330220086475      1.1922680750285792      14.203942989415509
   117   1      0.4378349141828366      13.489016333832069      4.6926552518047515
   118   1      4.4686527324259941      12.125097907726513      14.178296561862794
   119   1      4.4992177996122109      14.818625958725988     0.61434525695388942
   120   1      1.7873711499064484      1.2270526302716576      11.469560929823501
   121   1      12.659169892677369      12.106236146361312      6.0662201688598429
   122   1      1.7780681509340894      3.9413101726574666      8.7922897956099177
   123   1      7.2177001838086881      1.1862665170114894      11.510225123508349
   124   1      13.996773158709289      8.0341753814792014       7.391694748995576
   125   1      15.402702977639365      1.2502581111172759      14.203023117170574
   126   1       9.912207485049862      9.3215492425936191      6.0284465155256157
   127   1      1.7863320349630953       1.223125286825919      6.0184851265112798
   128   1      5.8590732132835228      5.2892259852829397      1.9404686755481038
   129   1     0.41410044595826889      2.5781042825130669      10.147659737001163
   130   1      7.2030372255424595      1.2400521528949611     0.63019668772705018
   131   1     0.37988694764819897      5.3089243923566301      1.9570391519603447
   132   1      5.9025778167151657      10.704961173013544      7.4324446027413273
   133   1      9.9672781435231173      14.792646625027487     0.59701734605425116
   134   1      11.324668883623872      16.207318637218691      12.851728842540751
   135   1      7.2013697745841796      14.838563337901405      8.7611630709789097
   136   1      15.390929586313973       14.84376523978176      6.0330088871785392
   137   1      4.4845655488535954       3.955687921857276      11.452624573009075
   138   1      11.311801379702388      2.5813106943382707      10.152593951191193
   139   1      3.1594284985601178      16.187478599021574      10.094711111854849
   140   1      11.300112675028117      16.224632677028922      1.9403333715882667
   141   1      11.293907187661489      10.739187234393626      7.3961636733093314
   142   1      9.9355498516462148      1.2284081033944858      3.3341845135497579
   143   1      8.5718728311668428      10.735316957096416      10.108189917120058
   144   1      1.7694186749547924      1.1967451516492673     0.61244929804905013
   145   1      9.9533934263783976      9.3805515031804134     0.58852574497413457
   146   1      5.8588021186589572      13.452095874172642       10.11795224383377
   147   1      5.8383094092023384      16.156892116820131      12.877121210140103
   148   1      14.028785686242827      10.709800966454623      4.7257550780659017
   149   1     0.42465944774125575      10.746992034033724      1.9360778673694341
   150   1      9.9670678870099891      6.6714557095214104      8.7688695562309249
   151   1       5.889438244759333      10.708815875754226      1.9549510662995857
   152   1      12.672145445084766      12.114494554960288       11.52067175729951
   153   1      14.011948617226267      2.6047292302501432      12.839224420468327
   154   1      3.1247322802548467      5.3033141450723065      10.119934106151959
   155   1      14.042435811629844      13.451437849159333      7.4063080633628715
   156   1      3.1418365502568406       16.18806459171094      15.566585275295552
   157   1     0.41712391758237999      13.494770159059385       15.56031067583433
   158   1      7.2293801277949115      9.3581377695170431      14.217362416683955
   159   1     0.42267247502170591      5.2812133626541709      7.4297078611364213
   160   1      11.296064263740618      10.767349926235397      12.862778990397373
   161   1      7.2405373507276636      9.4046589698662046      8.7832098291540888
   162   1      1.7648583717976578      6.6828071277058712      6.0737086103204661
   163   1      5.8565024380466184      16.206107715448638      7.3937286887371556
   164   1      4.5044961141605313       3.971546470689475      6.0433323846321514
   165   1      1.7731883260156849      14.838199282642563      14.188504710257121
   166   1      12.654197715505802      3.9487377760066522      14.222105842556516
   167   1      11.327171520175966      13.454001810527757      10.107999128802589
   168   1       9.955948627058774      6.6610626132683137      3.2959287790204996
   169   1      1.7844487303854351      12.092077901067569      6.0832188239003813
   170   1      8.5689847243406803      16.210972817544075       4.682663200382251
   171   1      8.5682274115295058      2.5748173210283198      12.835029997713377
   172   1     0.42504056809035617      16.215002734045697      12.847580170045603
   173   1      7.2462162234016887      12.103917484258204     0.57748837312091439
   174   1      7.2004391948316311      1.2486421292012722      6.0423385332437078
   175   1      15.411562953484236      3.9582647809053242      6.0409689456790261
   176   1      0.3996615848755205       2.558324595722496      15.551745643153708
   177   1      8.5863094716585238      2.6023631144201147      7.4143834709226439
   178   1      15.393294972086665      12.091588275946719      8.7343222696224529
   179   1      7.2074501787936924       14.83362717689181      14.236204709853496
   180   1       4.470274433124473      9.3812533316339568      11.504070253450436
   181   1      1.7664433262768284      6.6627422318488811       11.49995467688791
   182   1       7.229424417940038      3.9480597960927923      3.2943151089527305
   183   1      7.2492878179719469      12.139627022147579      11.469139443387462
   184   1      14.019283259941176      16.173113990853835      10.114272754854028
   185   1      0.4179460534012911      5.3202047516269317      12.828625934751017
   186   1      8.5918725085683718      8.0280759957789201      12.832397897660144
   187   1      5.8660574284765516      5.2944186397703561      7.4165030707251276
   188   1      8.5896580013120456      10.742121091479589      15.558917726434856
   189   1      3.1133037193450832      13.445428017159088      1.9507588337166482
   190   1      14.029174076746244      2.5915032681760692      1.9397551661771644
   191   1      1.8084402396308263      3.9266155785732906      14.204125990454713
   192   1      1.7662486443202283      14.863682177351734      8.7792704397622856
   193   1      4.4755405800505059      14.838008494325095      11.475939684131504
   194   1      14.058586626749388      16.213982600593113      15.562463858274327
   195   1      0.4187874749015279      16.190886506671859       1.939019268381216
   196   1       12.67156918649323      1.2218481731906223      11.485210438904801
   197   1      1.7691051153284434      12.103829877377734     0.58187407089822329
   198   1      8.5821929216862145      2.5913825653629772      1.9687322369786386
   199   1      14.045677266207235      10.756211198088522      15.568807569830142
   200   1      15.363567037313828      1.2118786318693537      8.7874392946612261
   201   1      3.1307825087610865      2.5968188156485894      12.836237999254081
   202   1      5.8601176819806824      16.218439843989472      1.9531124168957206
   203   1     0.41201570639363894      13.479544083233691      10.107226241434887
   204   1      8.6169348902512866      5.2958982226405169      15.567016495829421
   205   1      15.369122286945412       6.661539584061984      14.207993347522574
   206   1      11.329033653090846       2.592871882330968      4.6863509633451486
   207   1      14.025768115915525      8.0530342226150537      12.839772450176156
   208   1      14.016074901296406      2.6079088733063145      7.3976320619669877
   209   1      12.636660764855264      14.813143714828129      8.7606578713015324
   210   1      9.9241629040046746      12.110361457021668      3.3274458409744909
   211   1      11.291058990636429      8.0463848603873771      15.560526772806156
   212   1      5.8818821513187913      13.468477387410758      4.6901399609254781
   213   1      7.2383476654208039      3.9509912196542984      14.184085429842298
   214   1      12.676224032075538      9.3842368326188534      8.7732810493674833
   215   1      5.8718039531304953      2.6002432712651853      4.6409998015551537
   216   1      12.669835543669706      9.4194061280786627      3.3125614319826298


Velocities

     1                       0                       0                       0
     2                       0                       0                       0
     3                       0                       0                       0
     4                       0                       0                       0
     5                       0                       0                       0
     6                       0                       0                       0
     7                       0                       0                       0
     8                       0                       0                       0
     9                       0                       0                       0
    10                       0                       0                       0
    11                       0                       0                       0
    12                       0                       0                       0
    13                       0                       0                       0
    14                       0                       0                       0
    15                       0                       0                       0
    16                       0                       0                       0
    17                       0                       0                       0
    18                       0                       0                       0
    19                       0                       0                       0
    20                       0                       0                       0
    21                       0                       0                       0
    22                       0                       0                       0
    23                       0                       0                       0
    24                       0                       0                       0
    25                       0                       0                       0
    26                       0                       0                       0
    27                       0                       0                       0
    28                       0                       0                       0
    29                       0                       0                       0
    30                       0                       0                       0
    31                       0                       0                       0
    32                       0                       0                       0
    33                       0                       0                       0
    34                       0                       0                       0
    35                       0                       0                       0
    36                       0                       0                       0
    37                       0                       0                       0
    38                       0                       0                       0
    39                       0                       0                       0
    40                       0                       0                       0
    41                       0                       0                       0
    42                       0                       0                       0
    43                       0                       0                       0
    44                       0                       0                       0
    45                       0                       0                       0
    46                       0                       0                       0
    47                       0                       0                       0
    48                       0                       0                       0
    49                       0                       0                       0
    50                       0                       0                       0
    51                       0                       0                       0
    52                       0                       0                       0
    53                       0                       0                       0
    54                       0                       0                       0
    55                       0                       0                       0
    56                       0                       0                       0
    57                       0                       0                       0
    58                       0                       0                       0
    59                       0                       0                       0
    60                       0                       0                       0
    61                       0                       0                       0
    62                       0                       0                       0
    63                       0                       0                       0
    64                       0                       0                       0
    65                       0                       0                       0
    66                       0                       0                       0
    67                       0                       0                       0
    68                       0                       0                       0
    69                       0                       0                       0
    70                       0                       0                       0
    71                       0                       0                       0
    72                       0                       0                       0
    73                       0                       0                       0
    74                       0                       0                       0
    75                       0                       0                       0
    76                       0                       0                       0
    77                       0                       0                       0
    78                       0                       0                       0
    79                       0                       0                       0
    80                       0                       0                       0
    81                       0                       0                       0
    82                       0                       0                       0
    83                       0                       0                       0
    84                       0                       0                       0
    85                       0                       0                       0
    86                       0                       0                       0
    87                       0                       0                       0
    88                       0                       0                       0
    89                       0                       0                       0
    90                       0                       0                       0
    91                       0                       0                       0
    92                       0                       0                       0
    93                       0                       0                       0
    94                       0                       0                       0
    95                       0                       0                       0
    96                       0                       0                       0
    97                       0                       0                       0
    98                       0                       0                       0
    99                       0                       0                       0
   100                       0                       0                       0
   101                       0                       0                       0
   102                       0                       0                       0
   103                       0                       0                       0
   104                       0                       0                       0
   105                       0                       0                       0
   106                       0                       0                       0
   107                       0                       0                       0
   108                       0                       0                       0
   109                       0                       0                       0
   110                       0                       0                       0
   111                       0                       0                       0
   112                       0                       0                       0
   113                       0                       0                       0
   114                       0                       0                       0
   115                       0                       0                       0
   116                       0                       0                       0
   117                       0                       0                       0
   118                       0                       0                       0
   119                       0                       0                       0
   120                       0                       0                       0
   121                       0                       0                       0
   122                       0                       0                       0
   123                       0                       0                       0
   124                       0                       0                       0
   125                       0                       0                       0
   126                       0                       0                       0
   127                       0                       0                       0
   128                       0                       0                       0
   129                       0                       0                       0
   130                       0                       0                       0
   131                       0                       0                       0
   132                       0                       0                       0
   133                       0                       0                       0
   134                       0                       0                       0
   135                       0                       0                       0
   136                       0                       0                       0
   137                       0                       0                       0
   138                       0                       0                       0
   139                       0                       0                       0
   140                       0                       0                       0
   141                       0                       0                       0
   142                       0                       0                       0
   143                       0                       0                       0
   144                       0                       0                       0
   145                       0                       0                       0
   146                       0                       0                       0
   147                       0                       0                       0
   148                       0                       0                       0
   149                       0                       0                       0
   150                       0                       0                       0
   151                       0                       0                       0
   152                       0                       0                       0
   153                       0                       0                       0
   154                       0                       0                       0
   155                       0                       0                       0
   156                       0                       0                       0
   157                       0                       0                       0
   158                       0                       0                       0
   159                       0                       0                       0
   160                       0                       0                       0
   161                       0                       0                       0
   162                       0                       0                       0
   163                       0                       0                       0
   164                       0                       0                       0
   165                       0                       0                       0
   166                       0                       0                       0
   167                       0                       0                       0
   168                       0                       0                       0
   169                       0                       0                       0
   170                       0                       0                       0
   171                       0                       0                       0
   172                       0                       0                       0
   173                       0                       0                       0
   174                       0                       0                       0
   175                       0                       0                       0
   176                       0                       0                       0
   177                       0                       0                       0
   178                       0                       0                       0
   179                       0                       0                       0
   180                       0                       0                       0
   181                       0                       0                       0
   182                       0                       0                       0
   183                       0                       0                       0
   184                       0                       0                       0
   185                       0                       0                       0
   186                       0                       0                       0
   187                       0                       0                       0
   188                       0                       0                       0
   189                       0                       0                       0
   190                       0                       0                       0
   191                       0                       0                       0
   192                       0                       0                       0
   193                       0                       0                       0
   194                       0                       0                       0
   195                       0                       0                       0
   196                       0                       0                       0
   197                       0                       0                       0
   198                       0                       0                       0
   199                       0                       0                       0
   200                       0                       0                       0
   201                       0                       0                       0
   202                       0                       0                       0
   203                       0                       0                       0
   204                       0                       0                       0
   205                       0                       0                       0
   206                       0                       0                       0
   207                       0                       0                       0
   208                       0                       0                       0
   209                       0                       0                       0
   210                       0                       0                       0
   211                       0                       0                       0
   212                       0                       0                       0
   213                       0                       0                       0
   214                       0                       0                       0
   215                       0                       0                       0
   216                       0                       0                       0
