ITEM: TIMESTEP
10000
ITEM: NUMBER OF ATOMS
64
ITEM: BOX BOUNDS pp pp pp
0.0000000000000000e+00 1.1085848640000000e+01
0.0000000000000000e+00 1.1085848640000000e+01
0.0000000000000000e+00 1.1085848640000000e+01
ITEM: ATOMS id type xu yu zu vx vy vz fx fy fz element
3 1 2.74459 0.0362328 2.79215 -7.94683 4.42607 -1.11806 -0.219389 -1.62795 0.345331 C
7 2 4.16275 1.23634 1.35121 2.99459 -0.279037 -2.26078 0.00160634 2.32319 0.157053 C
34 1 5.59004 2.69055 2.71362 1.50519 3.01168 6.19285 -0.0474434 0.611388 0.306744 C
2 1 -0.0550062 2.76356 2.78456 4.64196 1.52997 -2.3059 2.17857 0.951738 0.146857 C
36 1 8.30155 2.73086 0.012404 0.54871 2.41914 -0.27264 0.208472 -0.0699331 -0.997952 C
39 2 9.72885 1.43189 1.45468 0.124922 -0.502113 3.57159 -1.14122 -1.56945 -1.76452 C
6 2 1.3635 4.13192 1.36268 0.315106 -0.506923 1.92682 -0.146734 0.0329169 1.28847 C
19 1 2.7176 5.5464 2.82336 -4.31158 -5.49526 2.28678 1.10814 -0.431525 -0.469921 C
23 2 4.20372 6.90434 1.45036 1.836 -2.17009 1.37596 -0.948236 0.33983 -0.147648 C
38 2 7.02239 4.16242 1.38335 0.660518 0.500094 1.88762 -1.54638 0.0369875 0.000483174 C
49 1 5.50931 5.53234 0.00569893 -0.98489 -4.64577 -2.55362 1.01356 -0.589764 0.00791139 C
17 1 -0.0477863 5.49126 0.0144437 -0.568488 -0.351211 3.43101 0.988469 -0.0141376 -1.5971 C
51 1 8.47209 5.52484 2.73631 2.47909 3.54954 -2.58647 -1.30588 0.42845 0.121144 C
55 2 9.76001 6.94636 1.30103 -1.16775 -0.919675 0.130333 -0.873481 0.204817 1.13506 C
20 1 2.74176 8.24565 0.0185384 -5.65323 -4.44462 3.32416 0.422836 0.512591 -0.256817 C
22 2 1.37358 9.68303 1.41496 -0.119543 -0.67428 1.99981 0.416746 -0.117289 -0.154378 C
33 1 5.5816 -0.136132 0.0441551 1.90753 -3.8621 2.27738 -0.732575 1.10648 -1.33617 C
50 1 5.63137 8.30519 2.81931 4.33369 0.563917 2.47268 -0.0654066 0.0758163 0.525471 C
54 2 7.0428 9.71998 1.41535 -1.09649 2.44695 1.27296 -0.705262 -1.66124 0.117274 C
1 1 -0.0582116 -0.0612274 0.0650861 0.79665 0.290554 -1.1121 0.500013 1.49001 -0.461455 C
35 1 8.39391 -0.00423123 2.78524 4.2234 -1.57339 4.75552 0.281451 0.271891 0.267694 C
18 1 -0.0257999 8.31786 2.76129 0.143346 0.105013 0.110304 0.776985 0.122561 -0.153437 C
5 2 1.33125 1.40001 4.15391 -0.387282 -0.028389 0.194056 0.772801 0.489882 0.252105 C
12 1 2.78076 2.77255 5.53499 -1.71267 1.26242 -2.88456 0.282034 -0.0504245 -0.415238 C
15 2 4.12105 1.42687 6.99873 -1.55781 0.600165 -0.182835 0.165391 -1.3804 -2.27534 C
37 2 7.03108 1.37103 4.13629 1.96243 -1.30103 -1.63733 -2.24457 -0.477522 0.360014 C
9 1 -0.0428535 0.0429181 5.5315 2.10262 0.523679 -0.706888 -0.0766758 0.27266 0.878011 C
44 1 8.25511 2.82849 5.52697 -0.725151 2.84526 -2.38721 1.67845 -0.782569 0.0810735 C
47 2 9.60812 1.39144 6.95458 -2.62203 -4.49821 1.80241 0.300525 0.532758 -1.4483 C
14 2 1.45726 4.21718 6.85859 -1.61773 1.40901 0.391441 -2.11933 -0.513744 0.395729 C
21 2 1.3713 7.01538 4.17266 -1.82339 0.577683 -0.60161 0.236079 -0.57176 -0.0670076 C
8 2 4.22648 4.13779 4.16203 0.770542 1.24637 0.689839 -1.03457 -0.26355 -1.26309 C
31 2 4.21491 7.00056 6.90335 0.584941 2.25139 -0.373629 -1.40298 -1.71067 0.0570916 C
46 2 6.86961 4.14636 6.8786 -0.289687 1.56317 1.18449 -0.629008 1.30494 0.684405 C
53 2 7.08495 6.86612 4.2063 1.01565 -2.29058 -0.630399 -0.599474 1.14868 -2.19056 C
57 1 5.56097 5.60915 5.45503 2.18167 -8.43919 -1.27597 0.0442728 -1.03138 1.78089 C
25 1 -0.0142001 5.62171 5.50217 1.23122 -3.39898 0.976559 0.719951 -0.508428 1.17901 C
40 2 9.75642 4.15572 4.16779 1.4862 -0.172052 -1.16096 -0.856201 0.184399 0.388496 C
63 2 9.68795 6.97464 6.94835 1.58684 0.86683 0.503107 0.802254 -0.383557 -0.627461 C
28 1 2.7395 8.37327 5.60799 6.87764 -3.82437 6.05002 -0.383031 -0.356819 -0.164126 C
30 2 1.29635 9.75696 6.94163 -4.1525 3.24863 -2.50737 0.783045 -0.16849 0.416918 C
41 1 5.53877 -0.0250037 5.54972 1.00663 4.48944 -5.05422 0.733805 1.00542 0.53949 C
24 2 4.10558 9.69059 4.21281 0.841885 -0.420255 0.749105 1.10332 0.298395 -1.31262 C
62 2 7.03739 9.65785 6.89016 0.570878 0.9295 0.087741 -1.46293 1.22401 -0.0523147 C
56 2 9.76746 9.71424 4.164 -0.117085 1.97361 1.30514 -0.870414 -0.260684 -0.345208 C
60 1 8.40705 8.31018 5.52421 4.18867 1.22523 -1.74904 -0.103706 0.363278 -0.00108808 C
4 1 2.72459 2.72721 -0.000208594 1.5856 -2.88702 0.445719 -0.275089 -1.56786 0.633654 C
11 1 2.73 0.0499791 8.31563 -0.082004 1.51523 1.84903 -0.725389 -0.666974 0.488248 C
13 2 1.27005 1.36789 9.69356 -2.88408 -1.31816 -0.571314 0.415122 0.351623 0.185239 C
42 1 5.46262 2.77021 8.30709 -0.579588 2.74212 -2.04116 1.02757 0.710791 0.981191 C
45 2 6.83452 1.35252 9.69403 -0.611516 -0.83452 -2.28981 0.550971 0.353579 0.833181 C
10 1 -0.0549888 2.79425 8.22282 3.36056 6.06128 3.1157 1.05071 0.445286 0.77222 C
43 1 8.26872 0.0244612 8.34202 -1.30146 -1.47655 2.44128 -0.0452996 -0.403418 -0.342876 C
27 1 2.77549 5.52137 8.32104 -4.09041 -1.43401 -1.17161 0.901473 1.04407 -0.420655 C
29 2 1.32794 6.87626 9.67216 -3.35204 0.725679 -1.77608 0.121672 0.463307 0.638996 C
16 2 4.06915 4.08467 9.75889 -2.51472 -1.68745 -1.54787 1.29725 1.40776 -1.00538 C
61 2 6.92544 6.95508 9.69564 3.54384 -0.691966 -1.87328 -0.722444 -0.334168 -0.427997 C
48 2 9.65791 4.14815 9.66203 -0.086445 0.952709 -1.75878 -0.649341 0.347363 -0.312422 C
59 1 8.26566 5.61192 8.2305 -4.05759 0.245643 -4.34195 -0.0028845 -1.71899 1.32446 C
32 2 4.11249 9.70329 9.67207 -0.100833 2.42156 -0.273913 0.637702 -1.24937 0.129775 C
58 1 5.59148 8.33428 8.22934 0.0289235 -2.15681 2.56716 -0.272772 0.635889 1.91242 C
52 1 8.34303 8.32542 -0.0512979 1.75327 -0.864161 -3.57805 -0.317811 -0.124026 0.85122 C
26 1 -0.0706117 8.35418 8.34822 0.695382 -2.40285 -1.8935 0.897099 -0.209088 -0.242241 C
64 2 9.65653 9.74687 9.70225 0.956212 0.622294 -1.66168 0.107574 -0.277572 0.0699827 C
ITEM: TIMESTEP
10100
ITEM: NUMBER OF ATOMS
64
ITEM: BOX BOUNDS pp pp pp
0.0000000000000000e+00 1.1085848640000000e+01
0.0000000000000000e+00 1.1085848640000000e+01
0.0000000000000000e+00 1.1085848640000000e+01
ITEM: ATOMS id type xu yu zu vx vy vz fx fy fz element
3 1 2.85067 -0.0382169 2.75315 5.27284 4.26636 -1.09209 -1.48339 1.93554 -0.166512 C
7 2 4.1175 1.46167 1.38649 -0.172985 -2.07889 -0.96515 0.429217 -0.436244 -0.313849 C
34 1 5.48831 2.82478 2.76816 -1.55827 -1.2148 -3.75282 0.388822 -0.0779639 0.892151 C
2 1 -0.00199708 2.75165 2.74529 -8.88677 -1.80421 -0.41831 -0.123136 0.102765 -0.592089 C
36 1 8.29431 2.73427 -0.00366404 -0.57806 0.804581 4.99002 0.279285 1.12311 0.416223 C
39 2 9.68718 1.33992 1.33849 1.94299 -0.951795 3.38651 0.00190819 0.190283 0.843254 C
6 2 1.37332 4.18965 1.34995 -0.539362 -0.523649 -0.796047 0.26774 -0.0256263 0.823025 C
19 1 2.85145 5.55718 2.70478 -2.21768 3.48404 1.61269 -1.35839 -0.81702 0.723507 C
23 2 4.12567 6.93411 1.29857 -0.544995 0.520898 -0.327188 0.774274 0.433778 -0.276111 C
38 2 6.87003 4.16901 1.36187 0.848631 2.17312 2.43889 0.57955 -0.525299 -0.0154296 C
49 1 5.57275 5.57807 -0.0313181 -2.63994 4.08485 2.72621 -1.18132 -0.773915 0.245708 C
17 1 0.0178456 5.60336 0.00676587 -3.70638 0.113815 4.03311 0.342827 0.068896 1.20159 C
51 1 8.17969 5.53508 2.80233 2.39122 -3.3278 1.65663 1.44319 0.277109 -0.119955 C
55 2 9.70884 6.90003 1.45785 -0.419717 1.37015 0.563516 -0.774528 0.235443 -0.00995823 C
20 1 2.83271 8.43415 -0.04443 0.354578 0.365729 -1.04009 -1.55166 -1.8935 1.26523 C
22 2 1.42829 9.72675 1.42264 -3.11347 0.945932 0.226731 -0.566155 -0.380105 -0.922658 C
33 1 5.49559 0.115048 -0.0553323 2.15658 2.12635 1.1797 0.606913 -1.40701 1.98772 C
50 1 5.478 8.28764 2.68451 -2.90968 -1.19302 -2.6051 0.802558 0.362721 0.409696 C
54 2 6.88508 9.69554 1.31744 1.78255 4.68664 -0.477283 -1.13397 0.641173 0.326785 C
1 1 0.0446698 -0.00837845 -0.0230252 -0.405182 -1.66863 1.8242 -0.0752601 -0.239685 -0.225098 C
35 1 8.20548 -0.00298899 2.72618 -0.0549001 -1.42184 -2.65466 1.38584 0.212719 0.479705 C
18 1 0.00526002 8.33981 2.7979 -1.99855 -1.40986 2.14075 0.643103 -0.821691 0.130257 C
5 2 1.41589 1.378 4.11716 -4.01833 -0.36652 -0.664256 -0.0683815 -0.72121 0.236696 C
12 1 2.75674 2.75361 5.55952 -1.02042 -1.01495 1.14772 0.0300846 0.18865 0.340564 C
15 2 4.17102 1.38805 6.9658 2.82116 2.31716 4.19702 -0.0777711 -0.306659 -0.27911 C
37 2 6.90536 1.43112 4.17169 0.939089 -1.73607 -2.19639 -0.96261 -1.14487 -0.365699 C
9 1 0.0175138 -0.0507353 5.50308 -0.112908 -2.14961 0.137649 1.19823 -0.140893 0.511729 C
44 1 8.3145 2.72006 5.56123 -0.503222 -0.617391 1.14797 0.389427 1.47618 -0.467839 C
47 2 9.78075 1.38949 6.87788 3.03418 -4.51845 1.76912 -1.19283 -1.19509 1.17279 C
14 2 1.35728 4.11242 6.98755 4.54468 1.03862 -1.5363 -0.335867 0.651582 -0.625671 C
21 2 1.4848 6.89296 4.13896 -3.07718 0.218733 -0.953746 -2.57256 -0.028905 -0.716853 C
8 2 4.13849 4.19999 4.2284 -0.386083 0.42726 2.25389 0.227664 -0.221944 -0.795625 C
31 2 4.09454 6.84459 6.93566 2.61142 -0.231259 1.34143 -0.136876 3.62505 -0.206386 C
46 2 6.9376 4.1601 6.93529 0.4305 0.846576 0.341225 0.859111 0.302161 0.141935 C
53 2 6.81379 6.95557 4.18725 -1.78352 -2.09044 2.66233 0.126499 -0.100811 -0.527744 C
57 1 5.49077 5.59796 5.63437 -1.33401 6.02649 -4.49007 1.14434 -1.88038 -1.30274 C
25 1 -0.0383615 5.54884 5.53652 -3.27327 2.68939 -4.87873 0.82977 -0.646736 -0.268892 C
40 2 9.65909 4.13147 4.10472 0.274835 -0.202629 -2.38342 -0.146096 0.202068 1.00025 C
63 2 9.65617 6.9517 6.90892 -1.88053 -0.64569 3.0515 0.270943 0.0830885 0.540784 C
28 1 2.77424 8.30575 5.4423 -2.97174 -0.362394 -2.40119 1.70141 -0.86824 1.61305 C
30 2 1.52237 9.62281 6.93218 -1.00018 -1.49914 0.286214 -2.76455 1.17046 -0.944401 C
41 1 5.52876 -0.0344835 5.58062 -2.48102 -6.00348 0.94112 -0.244691 0.486972 -1.04043 C
24 2 4.14988 9.67361 4.07201 -3.19703 1.12489 0.134207 1.25958 0.0688484 1.61622 C
62 2 6.86644 9.69738 7.02486 2.57416 -1.37268 1.12574 0.0711194 -0.470042 -1.41783 C
56 2 9.64159 9.70136 4.1369 -0.571014 0.756963 -2.21049 -0.441131 0.128839 0.0375959 C
60 1 8.20317 8.34126 5.53914 -1.69402 -3.09221 -0.278477 0.834543 0.0152787 0.495131 C
4 1 2.77408 2.84369 -0.0170167 -0.344234 5.37434 -0.570409 1.49177 0.596362 -0.0837845 C
11 1 2.80296 -0.0670573 8.32569 4.40195 -1.28572 -2.0025 1.18474 1.26498 0.116783 C
13 2 1.54381 1.39633 9.73353 1.92424 -1.61379 0.634581 -2.68363 -1.12705 -0.678825 C
42 1 5.62535 2.76684 8.31298 0.375758 -4.02586 -0.486248 -1.01454 -0.241049 -0.341836 C
45 2 6.91881 1.36492 9.70633 -0.892153 -1.26891 -1.82151 1.22624 0.714393 -1.05392 C
10 1 -0.000458039 2.6977 8.39845 -4.28391 -4.26831 -2.94984 0.793592 1.11482 -0.010718 C
43 1 8.30494 -0.00585129 8.28481 1.66695 1.78894 -0.637058 0.803524 0.412155 0.520691 C
27 1 2.76965 5.56757 8.30835 -0.0335856 -3.76804 1.69853 -0.710858 -1.7308 0.860709 C
29 2 1.42705 6.94115 9.73902 -1.1553 -1.06133 -1.08583 0.00331522 1.15562 -0.790657 C
16 2 4.25203 4.18454 9.62724 0.573632 -1.38776 -0.0675684 -1.37342 0.00632647 1.05118 C
61 2 6.88982 6.92367 9.71587 1.65291 0.448165 -0.773188 1.37003 0.591396 -0.558495 C
48 2 9.76967 4.19838 9.81494 2.07982 1.73186 0.209487 -1.24681 -1.74449 -1.62619 C
59 1 8.35412 5.51594 8.38382 3.63959 4.03209 -1.71987 -0.518604 0.567483 -0.720179 C
32 2 4.21299 9.73919 9.73958 1.29121 4.06872 -1.61551 -0.554457 0.321025 -1.43202 C
58 1 5.45652 8.29528 8.34559 1.62579 -0.321143 -6.56551 0.746671 -0.625163 -0.200352 C
52 1 8.29495 8.26863 0.0707797 0.697994 1.32997 -1.29524 0.411865 0.117707 -1.37508 C
26 1 0.0387511 8.3274 8.30912 -0.918981 -0.641175 -0.591429 -0.31646 -0.977379 -0.167393 C
64 2 9.66402 9.64962 9.68477 1.67908 0.0733878 -0.87344 0.690236 0.724779 0.639393 C
ITEM: TIMESTEP
10200
ITEM: NUMBER OF ATOMS
64
ITEM: BOX BOUNDS pp pp pp
0.0000000000000000e+00 1.1085848640000000e+01
0.0000000000000000e+00 1.1085848640000000e+01
0.0000000000000000e+00 1.1085848640000000e+01
ITEM: ATOMS id type xu yu zu vx vy vz fx fy fz element
3 1 2.68183 -0.0266494 2.7795 -0.661092 -6.9155 -0.477505 2.25781 -0.168448 -0.0183085 C
7 2 4.16869 1.31108 1.39921 -1.08899 -0.507039 -0.57732 -0.422495 0.420637 0.265146 C
34 1 5.57173 2.72896 2.77367 -1.42578 -0.106215 -0.652697 -0.104907 0.489555 -0.630147 C
2 1 0.0434749 2.79235 2.84139 4.12927 0.0201671 1.63184 -1.3042 -0.192923 -0.194414 C
36 1 8.34671 2.7982 -0.0409319 -0.944975 -7.15649 -3.28283 -0.208572 -0.0715951 1.02415 C
39 2 9.69568 1.4601 1.43469 0.379757 -0.353027 0.0329852 0.636584 -0.47314 -0.772007 C
6 2 1.32403 4.17699 1.40309 -0.828447 0.45243 0.272656 1.60607 -0.994941 -0.668098 C
19 1 2.70243 5.54345 2.78135 3.57585 -1.21962 -2.27731 0.755773 0.507026 0.159284 C
23 2 4.1438 6.95908 1.48511 0.0346443 -1.84114 1.20418 0.269581 -0.390783 -1.16785 C
38 2 6.95431 4.16226 1.37843 -1.27784 0.533983 -0.977794 -0.23018 -0.2798 0.136308 C
49 1 5.52783 5.53981 0.0262275 3.46069 -0.761416 -5.17384 0.197651 1.03691 0.789803 C
17 1 0.0372284 5.51677 -0.0641569 1.30122 -0.590834 -4.78519 -1.37803 -0.709276 0.529558 C
51 1 8.32985 5.57181 2.76684 -4.25765 0.98728 -1.45022 0.222454 -1.04044 -0.257039 C
55 2 9.70765 6.86172 1.29272 3.81454 -4.0689 1.08226 -0.224204 1.53745 0.610838 C
20 1 2.74644 8.26428 0.00455436 3.0324 6.15884 -2.93351 0.933794 0.516641 0.0243982 C
22 2 1.4137 9.69866 1.36433 1.77445 0.681489 2.22078 -1.79067 -0.0584183 -0.762949 C
33 1 5.54852 -0.0580331 0.00712776 -4.45246 -0.0874663 -4.58897 0.0462285 0.905892 -0.639309 C
50 1 5.55308 8.38265 2.84237 2.63827 -0.702205 -0.701102 -0.737755 -1.26027 -0.405853 C
54 2 6.89311 9.69912 1.424 0.161085 -0.735507 1.03543 1.31983 0.618501 -0.019465 C
1 1 -0.0347966 0.0439458 -0.0118429 0.291357 -1.06547 -0.00909435 0.774925 0.0276882 0.311286 C
35 1 8.34055 0.0365218 2.78266 -5.83473 -1.56882 -0.27438 -0.255394 -0.940846 0.106154 C
18 1 -0.014957 8.30222 2.70127 -0.608726 4.09439 -1.84693 0.0217418 -0.0935336 0.783739 C
5 2 1.39811 1.34191 4.16965 1.7191 1.35146 -1.13238 -0.360741 1.25064 0.717421 C
12 1 2.8166 2.77595 5.53172 1.58752 -0.763071 -3.12675 -0.713085 0.0754797 -0.521454 C
15 2 4.13657 1.36961 6.90155 -1.35457 -0.524901 2.42136 0.802914 0.827859 0.419933 C
37 2 6.97738 1.39926 4.17153 1.59513 1.22898 -0.891571 -0.588021 0.0123744 -0.233634 C
9 1 -0.0341611 0.0209167 5.55173 -3.29825 0.615557 -5.57529 0.0482319 0.208893 0.392074 C
44 1 8.29934 2.79747 5.55007 -7.01575 -0.92868 -0.492915 -0.498251 -0.641957 0.109607 C
47 2 9.63755 1.44307 6.92467 0.177225 3.01105 -2.45529 1.47678 -0.704307 0.250336 C
14 2 1.41302 4.1393 6.95814 -0.123517 -0.293584 2.12211 1.41461 0.565055 -0.84069 C
21 2 1.36965 6.95579 4.18015 7.61078 -0.0292199 -0.248154 -0.388939 -0.438755 -0.107249 C
8 2 4.17498 4.1805 4.09082 2.37333 1.94149 -0.0235348 -0.451166 -1.13424 0.542595 C
31 2 4.18364 6.94722 6.85852 -0.834314 -4.6759 -2.02214 0.864492 -0.875532 1.722 C
46 2 6.89951 4.12233 6.89272 -6.16939 1.7625 2.128 -0.107967 -0.068744 1.26155 C
53 2 6.94143 6.92602 4.12582 2.06037 -1.08214 -0.338793 0.0767965 0.190824 1.23915 C
57 1 5.57542 5.45858 5.50934 -2.25544 2.043 4.35623 -0.591069 2.20807 -0.538176 C
25 1 0.0446592 5.48199 5.57783 -1.30122 1.4296 3.10416 -0.657688 0.844718 -0.605842 C
40 2 9.65568 4.13524 4.21634 2.84476 1.90292 -3.34274 1.36794 1.07567 -1.07967 C
63 2 9.74814 6.89177 6.93563 -0.072114 0.111535 0.711638 -1.01974 -0.396278 0.503929 C
28 1 2.75092 8.31843 5.5976 -2.19672 2.33754 -2.44455 -0.380495 0.351185 -0.958129 C
30 2 1.35419 9.73135 6.93341 3.28813 -0.0899759 3.43331 -0.133475 -0.353036 0.438215 C
41 1 5.55871 0.0404288 5.52176 2.30852 2.43313 3.38665 -0.0670131 -1.19457 0.22076 C
24 2 4.10227 9.68931 4.19033 0.952691 -1.89557 -1.38086 0.341233 1.09279 0.123079 C
62 2 7.00225 9.71083 6.88915 -1.78903 1.77735 4.89046 -1.1428 0.185235 0.679853 C
56 2 9.72178 9.69294 4.18555 2.54798 1.80526 -1.39889 -0.234501 -0.0543862 -1.20847 C
60 1 8.35974 8.29032 5.55831 -0.114625 2.71362 -3.59468 -0.0982334 -0.446722 -0.596688 C
4 1 2.7943 2.73439 0.0136078 -3.60554 -2.76864 0.510214 -1.221 0.471688 0.285109 C
11 1 2.73436 0.0637166 8.27965 -5.66915 -2.30747 1.67523 0.657077 -1.72362 0.510698 C
13 2 1.35169 1.42397 9.61912 3.82845 2.00673 0.909043 0.357815 -0.0373265 1.75577 C
42 1 5.48465 2.79272 8.32793 -0.309585 4.18365 0.480877 0.856727 -0.743214 -0.0251351 C
45 2 6.97067 1.39951 9.70735 -6.55497 -3.35579 1.24461 -1.4577 -0.476248 -0.178972 C
10 1 0.0286663 2.82113 8.25888 0.593475 0.634356 2.06418 -1.50378 -0.981258 0.418871 C
43 1 8.33792 -0.00452286 8.32672 -5.60517 -2.29551 -0.854607 -0.35029 0.678042 -0.56547 C
27 1 2.80863 5.55531 8.32803 1.53358 6.0115 -3.35593 -0.0586147 0.00215333 -0.560957 C
29 2 1.38503 6.87359 9.714 1.52315 -1.09298 -0.189352 0.432801 1.23617 -0.976123 C
16 2 4.14528 4.18216 9.7594 2.90161 -0.769873 -1.02042 0.0141681 -0.49085 -0.685318 C
61 2 6.93471 6.93465 9.71881 -4.28233 -2.568 -1.07702 -0.332168 -0.334239 0.0463924 C
48 2 9.70573 4.14304 9.65237 0.308201 3.87261 0.872533 0.293846 0.532299 -0.0020585 C
59 1 8.25252 5.49837 8.31365 -4.84512 -1.22256 0.280505 1.0935 0.807499 -0.523718 C
32 2 4.14941 9.67067 9.68027 1.27784 -0.453497 2.11022 -0.644654 0.571527 -0.0165002 C
58 1 5.60282 8.33277 8.32631 -4.5173 -0.144972 1.56751 -0.674866 -0.285731 -1.32039 C
52 1 8.28762 8.36453 -0.00874599 -0.922424 -4.09486 5.40428 0.540798 -0.943341 0.366311 C
26 1 -0.010137 8.30185 8.33886 0.428594 4.31871 3.76045 0.567467 0.0634275 -0.0768232 C
64 2 9.69756 9.72101 9.6923 -3.27882 0.62834 -2.00681 0.0830148 -0.313147 0.41259 C
ITEM: TIMESTEP
10300
ITEM: NUMBER OF ATOMS
64
ITEM: BOX BOUNDS pp pp pp
0.0000000000000000e+00 1.1085848640000000e+01
0.0000000000000000e+00 1.1085848640000000e+01
0.0000000000000000e+00 1.1085848640000000e+01
ITEM: ATOMS id type xu yu zu vx vy vz fx fy fz element
3 1 2.84166 0.0420125 2.80889 -4.57481 2.44128 0.278491 -1.40937 -1.09742 -0.402899 C
7 2 4.1901 1.34931 1.41936 2.76607 -1.51662 0.132962 0.239143 1.58368 -0.688328 C
34 1 5.5801 2.7805 2.79606 0.583573 -2.10286 0.685013 -0.415888 -0.418355 0.156758 C
2 1 -0.0151825 2.78278 2.69441 -0.933446 -0.67996 -0.207742 0.621612 -0.406262 0.898014 C
36 1 8.28827 2.82179 -0.00186809 -0.326126 3.67403 -2.10386 0.450123 -1.75771 -0.36755 C
39 2 9.66434 1.35953 1.37578 0.925297 0.202048 6.07391 0.445552 0.780183 -0.528155 C
6 2 1.41714 4.19304 1.35379 -3.75235 1.94299 0.708764 -0.266855 -0.549807 0.662898 C
19 1 2.8265 5.54274 2.77478 -4.63958 1.14818 -0.771484 -0.415912 0.155766 -0.0550718 C
23 2 4.23505 6.88783 1.3553 -0.372778 -0.0567537 2.78074 -1.55933 -0.0628187 1.0569 C
38 2 6.96602 4.13952 1.41113 1.36275 2.65799 2.14146 -0.696235 0.749776 0.0526214 C
49 1 5.53216 5.49637 0.0294361 -1.61608 -1.47308 -0.128756 1.01051 -0.338693 -2.03412 C
17 1 -0.0569203 5.52914 0.0459192 1.74238 2.50762 1.08222 0.720435 0.495964 -0.802384 C
51 1 8.38463 5.52311 2.75752 -0.454034 1.5742 1.79514 -1.16321 0.779399 0.361016 C
55 2 9.70232 6.98484 1.3631 0.140694 -2.06026 0.181706 0.331789 -0.777982 1.16491 C
20 1 2.75031 8.22014 0.0597638 -2.51474 -3.23705 -0.732343 0.171015 1.42812 -1.23165 C
22 2 1.43384 9.68665 1.43812 1.64299 0.537885 1.59093 -0.315397 0.266575 0.13554 C
33 1 5.57496 -0.000574212 0.0238851 1.35242 -0.486289 0.52003 -0.357901 -0.308678 -0.615305 C
50 1 5.53832 8.25724 2.75705 -2.35276 4.69708 0.0937487 1.14559 0.961272 -0.140899 C
54 2 6.96012 9.67231 1.37019 -2.05921 2.7806 0.708464 0.136899 -0.0163554 0.734215 C
1 1 0.00221331 -0.0206736 0.0237187 -3.81288 0.522728 -0.445893 -0.67211 -1.08959 0.343148 C
35 1 8.37111 -0.0149527 2.8017 2.79619 4.55465 -1.66915 -1.64658 0.0167222 -0.641483 C
18 1 0.0193036 8.30167 2.83358 -2.05954 -1.86706 -1.5 -0.61979 1.20284 -0.887237 C
5 2 1.36939 1.38062 4.14325 -2.13058 -2.70617 -2.093 -0.0807382 1.00088 0.062987 C
12 1 2.69295 2.81184 5.56252 -0.878734 1.25234 3.7969 0.847702 -0.731522 -0.173465 C
15 2 4.11856 1.38531 6.93182 0.190976 0.578366 0.115501 0.192636 -0.186407 -0.497664 C
37 2 6.96404 1.3822 4.17254 2.92061 -1.78465 -0.0965577 0.152777 0.0172985 -0.100917 C
9 1 0.0164103 0.0689747 5.62647 -0.15261 -1.79482 2.10964 -0.941973 -0.739272 -2.09269 C
44 1 8.40986 2.75103 5.54023 7.32908 0.736508 0.710645 -1.40526 -0.497382 -0.0920385 C
47 2 9.66635 1.35149 6.97454 -1.05089 -1.91669 2.44781 0.809339 1.26119 -0.488604 C
14 2 1.3097 4.18449 6.92016 -2.54725 -1.06375 1.98616 -0.493911 -0.293016 0.25259 C
21 2 1.40024 6.94494 4.15638 -2.45218 0.97736 0.209773 1.30928 -0.28672 0.321893 C
8 2 4.16145 4.14971 4.20175 0.156138 3.51704 1.53996 0.187007 0.126566 -0.339125 C
31 2 4.14415 6.96857 6.96816 1.48581 1.0264 -1.28828 0.304355 -1.35968 -0.137487 C
46 2 7.03393 4.15262 6.87433 3.50252 -0.932736 -1.90093 -1.06705 0.180965 1.16321 C
53 2 6.93829 6.91754 4.16859 -3.99345 -1.89717 -1.22045 0.722838 -0.0848609 -0.740679 C
57 1 5.56927 5.56718 5.54734 1.79875 -5.18512 0.808644 -0.409805 -0.418681 0.830659 C
25 1 -0.0138006 5.59411 5.49496 0.964257 -2.84561 -1.98134 -0.475169 -0.478812 0.686782 C
40 2 9.70872 4.11915 4.15098 -3.28895 -3.38436 0.0792896 1.13136 0.863162 -0.551272 C
63 2 9.69384 6.99988 6.91465 2.05181 -0.693797 0.105429 0.534529 -1.17386 -0.738817 C
28 1 2.83149 8.3318 5.56196 -0.483305 -0.466713 1.73872 -1.25327 0.480541 -1.01043 C
30 2 1.35748 9.73418 6.87483 0.436284 0.681224 -2.34854 1.86678 -0.629924 1.43472 C
41 1 5.51503 -0.00839098 5.4941 -3.02419 -0.298936 -2.81957 0.531432 0.54845 0.936019 C
24 2 4.19082 9.70121 4.10816 -2.41851 -0.8277 -1.00614 -0.212311 -0.725776 0.687463 C
62 2 6.91952 9.7043 6.89863 2.86398 -0.398475 -1.30956 -0.358514 0.607117 0.785539 C
56 2 9.69408 9.73961 4.2039 -1.26795 1.26029 1.04701 1.36888 -0.540381 0.5061 C
60 1 8.30381 8.33134 5.55273 -2.65959 -0.851112 4.84695 -0.212476 0.159793 -0.544249 C
4 1 2.74374 2.72883 -0.000869672 3.70571 0.033448 -3.13341 -0.0731359 -0.365232 -0.518968 C
11 1 2.7771 -0.0200913 8.35394 -1.33087 6.2932 -4.80207 -1.65735 0.683781 -1.19151 C
13 2 1.27159 1.33153 9.68584 -0.856982 -1.55849 -4.26224 1.98492 1.00735 0.234173 C
42 1 5.57928 2.72292 8.28531 -1.86063 -1.48208 -0.27794 -0.630268 1.67807 -0.417941 C
45 2 6.93985 1.37402 9.6724 4.31041 1.55144 -2.37269 -0.110357 0.494791 1.2065 C
10 1 -0.0836028 2.75917 8.3296 0.0918414 -1.05241 -3.49498 1.06376 0.127366 -0.441745 C
43 1 8.3174 0.0367369 8.31293 3.35422 0.522339 0.862144 -0.60585 -2.10632 0.228303 C
27 1 2.68682 5.53889 8.306 -0.766582 -0.811711 2.62 -0.0419295 1.16516 -0.0124088 C
29 2 1.26937 6.94133 9.71512 -3.88838 -2.56369 2.34001 1.3688 -0.731151 -0.0937616 C
16 2 4.06333 4.14812 9.63409 0.234624 0.338663 -1.37996 1.88217 -0.72824 1.0602 C
61 2 6.98441 6.94282 9.7136 3.0727 -0.367058 -0.680892 -1.3718 -1.10375 -0.66217 C
48 2 9.71122 4.14932 9.71883 1.96086 0.953998 -0.236082 -0.552035 0.44148 0.117166 C
59 1 8.41488 5.56485 8.30098 1.8256 -2.63814 1.41035 -1.43729 -0.140022 0.19117 C
32 2 4.10128 9.7307 9.72967 1.13043 1.13091 0.0610941 1.03355 -1.53863 1.09161 C
58 1 5.52068 8.34185 8.33189 3.55576 2.71574 2.8789 0.626091 0.129936 0.538126 C
52 1 8.34869 8.30996 -0.0426364 -2.73825 6.13558 -3.05442 -0.497252 0.469752 0.846835 C
26 1 0.00543734 8.32352 8.23999 -2.92442 -1.94328 -4.59445 -0.363247 0.843253 1.13791 C
64 2 9.69921 9.67244 9.68801 3.17935 -0.118176 -1.93664 0.598697 0.976094 -0.644956 C
ITEM: TIMESTEP
10400
ITEM: NUMBER OF ATOMS
64
ITEM: BOX BOUNDS pp pp pp
0.0000000000000000e+00 1.1085848640000000e+01
0.0000000000000000e+00 1.1085848640000000e+01
0.0000000000000000e+00 1.1085848640000000e+01
ITEM: ATOMS id type xu yu zu vx vy vz fx fy fz element
3 1 2.75912 -0.00515259 2.72823 2.80656 0.551429 1.03738 -0.391785 0.380406 0.36042 C
7 2 4.09279 1.42228 1.37259 -0.722983 -5.59251 1.11521 1.19814 -0.207601 0.452695 C
34 1 5.47786 2.81042 2.7625 0.485597 1.79338 0.0332766 0.099321 -0.780418 -0.80454 C
2 1 0.00626836 2.77357 2.82498 -0.504201 2.8231 -3.62704 -0.543656 -0.237826 -0.810397 C
36 1 8.35537 2.75237 0.0588455 -0.102812 4.68092 -0.320148 -1.60298 1.25634 -1.69796 C
39 2 9.6915 1.39147 1.32475 -2.38213 -0.797064 0.968548 1.05503 -1.30628 2.62237 C
6 2 1.38304 4.17054 1.39685 -1.0987 2.79417 -0.103084 -0.304705 0.0898022 0.528222 C
19 1 2.75991 5.54518 2.78046 3.01449 -1.32914 -0.277534 -0.0913854 0.116618 -1.05303 C
23 2 4.07864 7.00035 1.3755 3.37687 1.86405 0.130154 1.17536 -0.363976 0.00516764 C
38 2 6.85467 4.15788 1.37477 0.494132 -0.0492723 1.06017 1.32628 0.33492 0.316963 C
49 1 5.55621 5.62162 0.00367405 -2.34905 1.90664 5.71074 -0.960342 -0.193563 1.36254 C
17 1 0.041138 5.55198 -0.0169276 -3.61359 -3.40703 -1.13253 0.0383523 0.419045 0.0760642 C
51 1 8.24176 5.55732 2.7968 3.65421 -0.908499 -2.60344 0.159769 -0.29174 -0.428194 C
55 2 9.64589 6.88836 1.35635 1.19315 -1.63268 -4.3935 1.37126 0.183145 1.07467 C
20 1 2.78981 8.42792 -0.0602249 -1.99516 -2.84845 3.06979 -0.119888 -1.02647 0.306288 C
22 2 1.35835 9.74095 1.34643 2.53884 -0.210132 1.18528 0.49493 -0.605117 0.217265 C
33 1 5.53546 0.0401084 0.0272885 -0.798852 0.346905 1.24678 -0.535522 -0.131753 -0.409023 C
50 1 5.53901 8.34568 2.76096 -1.53882 -3.89254 1.97343 -1.46804 0.0603058 0.0984324 C
54 2 6.87124 9.70088 1.3574 -1.13568 -0.532232 1.22046 0.585408 -0.223197 0.241601 C
1 1 0.0532115 0.0218617 -0.0481909 2.9313 4.56371 -1.77745 -0.807867 0.705091 -0.483137 C
35 1 8.21906 -0.0324559 2.74799 2.9059 -1.97732 2.83605 1.43296 1.23386 0.0706804 C
18 1 0.0135227 8.31146 2.73839 1.94417 -1.8796 1.08332 -0.633527 -0.898116 -0.218595 C
5 2 1.42527 1.35328 4.17569 -0.127512 -1.66323 -0.271549 -0.314763 0.0358461 -0.797832 C
12 1 2.86105 2.70379 5.50462 -2.07979 -0.257797 -3.07871 -0.780875 0.741858 0.908498 C
15 2 4.21328 1.3637 6.95665 0.653625 -1.90288 3.72437 0.092988 0.510334 -0.0295323 C
37 2 6.84844 1.4377 4.13183 1.14184 -0.000348767 -1.24656 0.376188 -1.3552 -0.0372009 C
9 1 0.0417026 -0.0746001 5.48243 1.88999 4.65881 6.52706 -0.287937 0.0208288 1.16758 C
44 1 8.18647 2.75901 5.55596 0.109245 0.772104 -0.450427 2.03933 0.681559 0.126512 C
47 2 9.77659 1.39192 6.85702 -1.10095 -0.483085 0.335024 -0.861929 -0.168038 1.22201 C
14 2 1.49876 4.13728 6.93986 1.38716 -0.119082 0.431915 -0.564324 -0.562449 -0.489031 C
21 2 1.38708 6.869 4.1426 1.01981 0.515137 -0.341954 -1.27724 0.655452 0.504847 C
8 2 4.12549 4.15056 4.097 0.656809 0.414053 -1.9282 0.31781 0.426939 1.18463 C
31 2 4.12555 6.86377 6.90008 -0.56372 1.13747 -2.19754 0.360609 1.05961 -0.135881 C
46 2 6.83053 4.17407 6.95006 -1.29777 0.987966 -0.687158 1.24913 0.463653 -0.5998 C
53 2 6.86754 6.97318 4.16426 -0.404289 -0.122444 -0.527226 0.461619 -0.73451 -0.201433 C
57 1 5.499 5.53931 5.50395 0.596483 1.87567 -2.39766 -0.111146 -0.307859 -0.03708 C
25 1 -0.000159289 5.49643 5.61471 1.08919 1.91919 0.574284 0.253452 0.422345 -0.557636 C
40 2 9.65566 4.18175 4.19002 -0.468059 -1.39981 0.696652 -0.334862 -0.809628 0.245438 C
63 2 9.66071 6.89405 6.97527 -0.615427 1.74292 4.64476 1.01836 0.652968 0.238154 C
28 1 2.74571 8.27441 5.4981 2.81038 -1.44167 3.00431 0.112244 0.0570729 1.02724 C
30 2 1.39868 9.63309 6.99199 -3.02647 0.588347 0.38637 -0.205829 0.338839 -1.15585 C
41 1 5.58726 -0.00404254 5.58793 0.769119 1.46736 -2.26133 -1.03077 -0.363975 -1.0627 C
24 2 4.10114 9.72001 4.1479 0.0547632 -0.470334 -2.33097 1.4398 -0.0637364 0.390547 C
62 2 6.94109 9.6869 6.97512 1.72231 1.11684 0.177255 0.586639 -0.916148 -1.41 C
56 2 9.67126 9.65552 4.12238 -0.314054 2.66605 -1.08031 0.263985 0.635129 -0.437308 C
60 1 8.32882 8.28096 5.50728 2.0709 0.707955 -2.2432 -0.638698 0.424742 1.4522 C
4 1 2.81524 2.86807 0.0355254 -3.31165 -1.24714 4.19086 0.140149 -0.355781 -0.452256 C
11 1 2.82775 -0.0358372 8.29598 4.68529 -5.55838 6.10107 -0.0833699 0.733927 0.14684 C
13 2 1.55398 1.43862 9.71499 -2.91265 -0.391489 -2.05249 -1.55568 -0.908224 -0.216843 C
42 1 5.56001 2.8247 8.35105 3.33077 -2.2973 1.08143 -0.286977 -1.79431 0.54173 C
45 2 6.93409 1.35774 9.73912 -2.19241 -4.01968 -1.34293 0.931882 0.965544 -0.760981 C
10 1 0.11468 2.78723 8.34763 -2.43196 2.30442 3.06887 -0.876259 -0.531245 -0.757174 C
43 1 8.34328 -0.0415539 8.30647 -0.0639321 5.11482 -2.28864 0.191549 1.55046 -0.0687838 C
27 1 2.83776 5.50198 8.33687 0.966497 -0.983677 -1.98728 0.432862 -0.071054 -0.314696 C
29 2 1.50654 6.90932 9.65944 -3.61406 -0.0373335 0.381515 -1.06188 0.137881 1.83538 C
16 2 4.2524 4.20495 9.75932 -0.889835 1.56988 -0.653836 -1.11554 -0.165605 -0.541546 C
61 2 6.89049 6.95393 9.73999 0.257408 0.67738 1.44015 1.14836 0.161773 -0.590814 C
48 2 9.74466 4.1524 9.729 3.57748 0.44623 -1.62218 -0.799902 0.0126556 -0.711225 C
59 1 8.23329 5.55102 8.34497 1.08345 -0.913625 0.00933408 0.922899 -0.832188 0.418462 C
32 2 4.2374 9.7396 9.65746 -0.879915 3.3984 -1.39325 -0.0716312 -0.668976 0.152931 C
58 1 5.55542 8.24471 8.27459 -4.56895 -0.279534 -2.07564 -0.64623 0.920059 0.384781 C
52 1 8.30968 8.29729 0.0450938 2.04675 -3.67351 -0.883394 -0.794177 0.723976 -1.00386 C
26 1 0.0435958 8.27561 8.43574 3.22631 -1.61095 0.11727 -1.29291 -0.221846 -2.19852 C
64 2 9.67038 9.68165 9.71191 -1.69696 -0.87433 -1.23955 1.17595 -0.0161619 0.791695 C
ITEM: TIMESTEP
10500
ITEM: NUMBER OF ATOMS
64
ITEM: BOX BOUNDS pp pp pp
0.0000000000000000e+00 1.1085848640000000e+01
0.0000000000000000e+00 1.1085848640000000e+01
0.0000000000000000e+00 1.1085848640000000e+01
ITEM: ATOMS id type xu yu zu vx vy vz fx fy fz element
3 1 2.7973 0.00142688 2.80464 2.90642 0.559971 0.435444 -0.154948 0.428982 -0.553744 C
7 2 4.19253 1.3926 1.39072 -0.566425 0.520714 0.452383 -0.437684 -1.24387 -0.431941 C
34 1 5.60262 2.72043 2.75183 -0.217278 2.43533 2.31815 -0.294104 1.39464 0.902785 C
2 1 0.0336158 2.74812 2.79362 2.68377 0.41146 3.65768 0.0842259 1.08588 -0.971203 C
36 1 8.26048 2.70516 -0.0434576 3.20049 -4.93722 5.75412 1.32382 0.844513 1.24062 C
39 2 9.75025 1.39534 1.43038 -0.406383 0.187604 -0.920071 -1.30029 -0.0564927 -1.10372 C
6 2 1.42051 4.1034 1.35557 -0.642882 1.67162 -1.72539 -0.29034 0.350527 0.512355 C
19 1 2.78488 5.50369 2.78554 0.696098 -0.383389 2.7952 -0.256387 -0.780962 0.872867 C
23 2 4.18383 6.78601 1.43941 -0.852343 -1.72756 0.402402 1.08798 1.81157 -1.27548 C
38 2 6.97333 4.13166 1.35757 -3.74445 -0.289196 -0.32427 -0.39328 -0.426787 0.191488 C
49 1 5.57056 5.45569 -0.0532046 2.58971 -1.57584 -5.6934 -0.798794 0.30559 -0.297081 C
17 1 0.0146298 5.55891 0.0294201 3.01745 0.0926463 2.00607 -0.839309 -0.648582 -0.49887 C
51 1 8.36541 5.51122 2.74437 -1.55704 0.587 2.20986 -0.0360303 0.465278 -0.199281 C
55 2 9.73073 6.9793 1.42318 -0.692657 -2.72523 -1.07221 -0.39738 -0.943367 -0.784832 C
20 1 2.81424 8.24514 0.0423247 2.24423 2.14049 -0.933139 -1.66775 -0.260859 0.485714 C
22 2 1.36266 9.70871 1.43425 0.994889 2.39728 2.0324 1.30153 -1.16998 -0.251224 C
33 1 5.53789 -0.054088 -0.0216051 2.99267 0.13773 3.58546 0.0310895 0.365938 0.867822 C
50 1 5.60589 8.27869 2.7721 4.08918 0.19513 -2.42161 0.160951 -0.361022 0.199312 C
54 2 7.02917 9.68759 1.36618 -2.86045 1.06415 -1.11123 -1.61575 0.530675 0.708128 C
1 1 -0.0625674 -0.0862924 0.0690194 1.94538 -5.96664 0.929505 0.79843 1.43142 -0.740665 C
35 1 8.36804 0.0321257 2.79228 -7.00904 -2.93873 -1.74143 -0.0957684 -0.840286 0.155927 C
18 1 -0.018758 8.33106 2.80769 3.72167 1.74137 1.83124 0.999903 0.122434 0.352346 C
5 2 1.38118 1.41234 4.1444 1.51275 -1.27271 -1.00924 0.786541 -0.27001 1.15657 C
12 1 2.72957 2.86721 5.5762 3.34662 -0.389219 0.664425 -0.268809 -0.681677 -1.27996 C
15 2 4.05675 1.44667 6.88643 -2.44789 0.719006 1.27461 1.03252 -1.44347 0.516978 C
37 2 6.97673 1.38659 4.18009 -0.419742 2.72961 -1.37215 -0.341101 -0.274328 0.161877 C
9 1 -0.0396891 0.0235353 5.50754 3.38616 -1.31904 -5.1306 0.822941 1.20625 1.09147 C
44 1 8.37238 2.80302 5.53428 -5.13235 -0.617096 -0.197512 -0.760433 0.145415 -0.655705 C
47 2 9.63182 1.39285 6.93019 2.14045 -0.129767 -1.48576 0.482077 -1.03048 -0.165643 C
14 2 1.33067 4.22506 6.92149 -2.03461 0.585457 3.08532 -0.283777 -0.613928 0.477744 C
21 2 1.41823 6.95848 4.16396 6.15045 -1.85934 -2.08731 0.268584 0.196947 -0.411644 C
8 2 4.22275 4.15842 4.21693 1.70978 1.45992 0.585942 -0.416544 -0.231819 -1.2489 C
31 2 4.1828 6.91099 6.98484 -0.751504 -3.57928 0.00151507 -0.381054 1.67313 -0.983181 C
46 2 6.94431 4.13284 6.90624 -2.43701 -0.223237 -0.382314 -0.196527 0.35705 0.8326 C
53 2 7.03819 6.87188 4.18841 -3.88409 0.376118 0.431075 -1.28232 0.981441 -0.358711 C
57 1 5.5697 5.57047 5.58417 0.269213 0.043422 -0.246634 0.504881 -0.41775 -0.326446 C
25 1 0.0157671 5.58687 5.4862 -0.475019 -2.41708 0.568169 0.189832 -0.181911 0.00555211 C
40 2 9.75676 4.18555 4.11226 -0.0327838 0.267633 -2.57734 -0.168171 -0.667598 0.64112 C
63 2 9.74529 6.9696 6.82187 -0.891191 0.837418 -0.10082 -0.485136 -0.387627 1.59002 C
28 1 2.77405 8.38826 5.56997 2.38078 1.78297 -4.72035 0.68918 -1.16238 0.221878 C
30 2 1.3754 9.79844 6.90854 1.1369 -0.470508 2.31283 -0.842364 -0.870527 -0.213317 C
41 1 5.52933 -0.0157479 5.55538 1.45191 -0.218167 3.36761 0.187961 1.2519 0.179647 C
24 2 4.19689 9.7095 4.16098 -1.18783 -0.737665 -3.52304 -0.0575183 -0.71701 -0.348576 C
62 2 6.92098 9.67829 6.92566 -2.48713 0.95401 4.8483 -0.0879599 0.929774 0.694859 C
56 2 9.7397 9.71695 4.20281 -1.25936 1.37954 0.669215 -1.46822 -0.381098 -0.874702 C
60 1 8.33044 8.33676 5.58064 0.541725 -1.23956 -1.90423 0.0718099 0.0695828 -1.411 C
4 1 2.75856 2.68813 -0.0402131 3.59967 4.49531 -1.15942 -0.2562 0.417256 0.740092 C
11 1 2.67485 0.0721568 8.3055 -1.01285 0.941842 -2.51775 1.70411 -1.09399 0.853266 C
13 2 1.3018 1.34499 9.7373 3.81037 1.05709 -1.64418 -0.873952 0.224087 -0.291138 C
42 1 5.47498 2.73886 8.28839 -1.729 5.32331 -1.90563 0.318872 1.00372 -0.599723 C
45 2 6.84107 1.41994 9.69943 -3.985 -2.28694 -0.300939 0.0902363 -1.59736 -0.428511 C
10 1 -0.081016 2.7433 8.27966 3.73575 1.91766 2.20837 0.497999 1.46816 1.39137 C
43 1 8.25729 0.00807037 8.36322 0.215784 -4.50463 1.96225 -0.140588 0.23896 -0.782455 C
27 1 2.74784 5.57413 8.29179 -4.88091 -1.9141 3.51019 -0.505362 -0.773303 0.348221 C
29 2 1.34365 6.91535 9.66205 -0.1969 -0.977825 -2.75222 0.135974 1.5087 0.255932 C
16 2 4.04645 4.08789 9.64126 2.18897 -0.732953 -1.52968 1.57556 0.978244 0.538704 C
61 2 6.95336 6.9277 9.64899 -0.802732 -1.36805 0.183117 -0.099938 -0.268035 0.788531 C
48 2 9.58569 4.20314 9.70845 2.36251 2.94236 3.2404 2.29917 -1.00624 -0.0341781 C
59 1 8.36434 5.58194 8.2452 -2.82736 5.42409 -2.48894 -1.0547 0.105238 -0.422575 C
32 2 4.10028 9.65001 9.73256 0.534698 2.81582 0.93072 0.100335 1.45374 -1.20377 C
58 1 5.55806 8.34841 8.34215 3.7543 -5.30488 0.367611 -0.622619 -0.792195 -0.19437 C
52 1 8.32962 8.31023 -0.00826959 1.46645 -1.39954 3.02917 0.285716 -0.835432 -0.275207 C
26 1 -0.065352 8.39273 8.23599 3.07585 1.3095 7.19907 1.40908 -0.708337 1.06417 C
64 2 9.66118 9.70892 9.71355 -2.51427 -1.42511 -3.2368 -0.0701816 -0.208347 -0.422223 C
ITEM: TIMESTEP
10600
ITEM: NUMBER OF ATOMS
64
ITEM: BOX BOUNDS pp pp pp
0.0000000000000000e+00 1.1085848640000000e+01
0.0000000000000000e+00 1.1085848640000000e+01
0.0000000000000000e+00 1.1085848640000000e+01
ITEM: ATOMS id type xu yu zu vx vy vz fx fy fz element
3 1 2.68255 0.00798032 2.71903 0.558155 -0.231664 0.283782 1.29559 0.0855388 0.944013 C
7 2 4.1348 1.3959 1.34585 1.45643 -1.67445 0.368732 -0.079722 -0.356058 0.743808 C
34 1 5.49951 2.75881 2.78141 1.95954 -5.94537 -4.51376 0.744768 0.260634 -0.0997315 C
2 1 -0.0555864 2.76662 2.72859 -1.38156 -4.259 3.0536 0.265935 -0.108979 1.68233 C
36 1 8.35822 2.83486 0.0125322 -2.40177 0.952365 -4.68165 -0.30397 -1.02525 0.733077 C
39 2 9.68375 1.3714 1.36474 3.09549 0.56839 6.36386 -0.0192562 0.974162 0.0135792 C
6 2 1.37783 4.1522 1.44191 -3.02631 -0.444395 -0.364452 -0.659988 0.292735 -1.77018 C
19 1 2.71512 5.57935 2.76316 -0.345367 2.15768 -1.19792 0.123744 0.922354 0.204961 C
23 2 4.1334 7.02192 1.36383 -2.18421 -2.00966 6.20924 -0.715548 -0.614861 0.346453 C
38 2 6.97029 4.18143 1.44678 0.95655 2.41901 1.27895 -1.41649 -0.0232594 -0.830815 C
49 1 5.54294 5.59719 0.0307309 4.07691 3.30624 5.82614 0.552634 -0.214111 0.0464866 C
17 1 -0.0426514 5.55366 -0.00201889 0.907377 1.41879 0.805736 0.534825 -0.43373 1.05059 C
51 1 8.29199 5.58725 2.80992 1.11324 -1.79407 0.714936 0.565994 -0.577593 0.242941 C
55 2 9.65075 6.96846 1.42138 0.0494115 1.39528 -1.76285 0.0655633 -0.513272 -1.26419 C
20 1 2.70876 8.37719 -0.0551589 7.37486 1.05445 -2.47429 1.64503 -0.048487 0.180106 C
22 2 1.35161 9.70237 1.36842 -4.11042 3.25759 1.64835 -0.857888 0.727295 -0.757521 C
33 1 5.53371 0.0549699 -0.0526505 -0.543003 -0.436038 -5.10398 1.31533 -0.134595 0.223521 C
50 1 5.50142 8.38156 2.78976 0.597584 1.01757 1.42282 0.428648 -0.294739 -0.290934 C
54 2 6.92622 9.72468 1.35985 3.44773 2.25574 -0.829368 -0.502288 0.536414 0.320843 C
1 1 0.00620317 0.108161 -0.0281267 -2.31186 0.24332 3.22967 0.380628 -2.22491 0.90823 C
35 1 8.36599 -0.0190057 2.76497 5.90894 3.22952 1.58183 -1.14105 -0.0815801 0.0703681 C
18 1 -0.0350665 8.32645 2.74109 -6.85906 -0.824424 -1.8807 0.0473434 0.0776254 0.264128 C
5 2 1.31919 1.35313 4.16741 -4.47122 -1.30533 -1.78994 -0.270058 0.161478 -0.711543 C
12 1 2.76505 2.6888 5.50883 0.804387 2.24186 1.23258 0.686517 0.666276 0.877739 C
15 2 4.25728 1.3543 6.96521 -0.282035 3.83195 1.51548 -1.5234 0.93526 -0.650352 C
37 2 6.93723 1.35144 4.16517 2.01357 -0.139989 -1.9292 0.0914012 0.67134 -0.670223 C
9 1 -0.0248369 -0.0391239 5.58736 -4.85313 -4.28317 -0.84981 0.455779 -0.597166 -1.47102 C
44 1 8.3412 2.737 5.55043 4.23614 -2.29233 4.30512 -0.812715 -0.175557 0.442573 C
47 2 9.71273 1.31523 6.91388 -0.377385 -1.57277 -0.348538 0.238007 1.51189 0.657397 C
14 2 1.45165 4.16806 6.89941 4.13334 0.819854 -0.941055 -0.535753 -0.546809 0.485452 C
21 2 1.23654 6.92371 4.16158 -6.39804 0.364455 1.17032 1.84588 -0.373358 -0.365007 C
8 2 4.0743 4.17161 4.12432 0.512951 1.79453 0.714874 0.94235 -0.497756 0.67927 C
31 2 4.16202 6.94706 6.94037 2.57715 -3.17383 0.132503 0.697459 -0.499495 -0.265889 C
46 2 6.96803 4.17219 6.93941 -2.10954 -1.02638 -1.78046 -0.51101 -1.13784 -0.440878 C
53 2 6.90005 6.93841 4.14904 0.814944 -2.97481 1.33395 -0.9883 0.106384 0.341291 C
57 1 5.5314 5.5036 5.55812 -1.61856 2.84318 1.56095 -0.271621 0.74304 -0.506178 C
25 1 -0.03821 5.52505 5.57005 0.563583 2.17319 0.653477 -0.198889 -0.510033 0.118824 C
40 2 9.65875 4.14072 4.19421 -0.951092 -0.549633 -0.0716879 0.588224 0.355157 -1.0232 C
63 2 9.65337 6.88535 6.95198 2.24591 -0.102535 -0.301185 -0.380691 0.0191375 -0.0416005 C
28 1 2.71331 8.21132 5.55715 -5.98726 1.93292 2.9352 0.260265 1.49418 -1.00273 C
30 2 1.38651 9.65985 6.8985 -2.47203 2.42256 0.878241 0.296832 -0.00936277 1.11528 C
41 1 5.54269 0.014553 5.53478 1.48606 -5.37729 -1.0438 0.519025 -1.22156 0.0650919 C
24 2 4.08647 9.72506 4.18337 -4.6756 2.15276 -1.13611 -0.437061 -0.23128 -0.163599 C
62 2 6.97269 9.68414 6.8883 6.19369 -2.48377 -2.0263 -1.13546 0.521583 0.399302 C
56 2 9.70634 9.65749 4.15155 0.946288 0.442718 0.649332 -0.160039 0.670324 0.358225 C
60 1 8.28676 8.3002 5.51204 1.12806 -2.11168 3.68655 0.825732 -0.679413 0.375862 C
4 1 2.76003 2.77011 0.0108191 -1.38884 -4.18144 0.478937 0.321358 1.14818 -0.304007 C
11 1 2.83647 -0.0345388 8.29755 -2.6617 1.56512 -2.31062 -1.18903 0.549174 -0.527695 C
13 2 1.43754 1.36854 9.71367 1.19029 -1.39993 -1.5492 0.227516 0.541282 -1.33586 C
42 1 5.61118 2.77427 8.32913 1.93203 -5.06685 3.31753 0.0534772 0.266181 0.366226 C
45 2 7.06919 1.41505 9.69695 -0.613715 1.61856 -0.0983144 -1.69862 -0.380226 -0.131836 C
10 1 0.0413166 2.74305 8.30043 -3.80207 -7.36918 -4.85245 0.319387 -0.244035 -0.464498 C
43 1 8.36246 -0.0393489 8.28125 3.21232 0.933444 1.54215 0.182697 -0.2623 0.985521 C
27 1 2.84498 5.55948 8.31248 7.21635 4.73026 -3.42359 -1.33258 -0.164709 0.236688 C
29 2 1.39479 6.90222 9.72779 -4.27837 -5.50104 -2.0158 -0.267621 0.00922436 -1.20177 C
16 2 4.18163 4.19021 9.70107 -1.82493 -1.32658 -1.14686 0.418377 -0.87414 0.583809 C
61 2 6.95341 6.98099 9.70948 1.27522 2.99816 -1.06793 -0.895144 -0.828443 -0.272497 C
48 2 9.73751 4.09414 9.69755 -1.08019 3.12265 -1.67958 0.203516 1.12322 -0.102751 C
59 1 8.29022 5.46838 8.38331 6.98703 -5.08649 3.60625 0.816243 1.43967 -0.418901 C
32 2 4.21173 9.73445 9.63522 2.19214 0.860039 -1.3244 -1.0894 -0.487719 1.58623 C
58 1 5.54018 8.35636 8.30596 1.56799 5.13916 -0.933805 1.18846 -0.787523 -0.674927 C
52 1 8.30339 8.35849 -0.0212014 -0.173233 3.33092 1.2964 0.664341 -0.138754 0.82106 C
26 1 -0.00100119 8.25991 8.28853 -4.51305 1.08553 -6.60184 0.216624 0.503498 0.841225 C
64 2 9.77286 9.70546 9.74722 0.808226 -0.809587 -0.744593 -0.631913 -0.0143276 -1.55216 C
ITEM: TIMESTEP
10700
ITEM: NUMBER OF ATOMS
64
ITEM: BOX BOUNDS pp pp pp
0.0000000000000000e+00 1.1085848640000000e+01
0.0000000000000000e+00 1.1085848640000000e+01
0.0000000000000000e+00 1.1085848640000000e+01
ITEM: ATOMS id type xu yu zu vx vy vz fx fy fz element
3 1 2.80063 -0.0284606 2.80107 -5.55731 -1.9454 -1.66605 0.394883 -0.698081 -0.476642 C
7 2 4.11948 1.38861 1.40008 -0.455827 -1.05558 -1.77899 0.782378 0.511897 0.105866 C
34 1 5.53929 2.82682 2.7619 -3.21647 0.400873 4.20118 -0.105574 -1.58078 -0.385478 C
2 1 0.0237241 2.82215 2.74657 1.34535 0.714197 -6.84946 -0.195451 -1.6059 0.0424913 C
36 1 8.25388 2.74847 -0.0121338 0.481808 -3.04559 -0.0697381 0.486924 -0.0248172 -1.00406 C
39 2 9.6657 1.3914 1.29737 -2.23091 -1.76678 -1.25114 0.693042 -0.509463 1.8877 C
6 2 1.43596 4.18215 1.38299 0.349334 1.0216 2.97738 -0.891463 -0.020146 -0.209858 C
19 1 2.79802 5.53585 2.74744 1.35052 -4.45887 -1.46394 1.31515 -0.0446932 -0.307347 C
23 2 4.17724 6.9372 1.34917 4.42137 -1.21727 -2.03551 -0.665683 -1.35627 0.810694 C
38 2 6.92139 4.12582 1.33978 1.41531 -1.36103 2.52518 -0.49022 0.967958 0.435904 C
49 1 5.47596 5.49683 -0.0216008 -2.73982 -5.94082 -9.44274 1.57395 0.743284 0.366152 C
17 1 0.0209549 5.51162 -0.018669 0.474331 2.39515 -1.19705 0.598417 0.890361 -0.29959 C
51 1 8.31165 5.52345 2.72114 -0.224314 3.59102 -0.904189 -0.162082 -0.0473564 0.60413 C
55 2 9.72544 6.86881 1.38802 2.10548 -0.350885 2.20038 0.260033 1.05144 -0.407935 C
20 1 2.77854 8.29045 0.0624439 -10.2451 -0.497295 1.48183 0.940953 0.648006 -0.995372 C
22 2 1.42014 9.65485 1.37299 3.26528 -0.242674 4.77373 -0.697288 1.12052 0.803951 C
33 1 5.53541 -0.0255154 0.0643771 -1.80949 -0.488706 1.92735 -0.818876 -0.144237 -0.817278 C
50 1 5.50218 8.24945 2.76562 2.55631 1.22222 0.53902 1.16408 0.362958 0.23634 C
54 2 6.86319 9.62615 1.41593 -1.34113 -1.40194 -1.75498 1.02828 0.0956239 -0.622926 C
1 1 0.0226798 -0.0290901 -0.0463066 -2.18894 3.03587 -4.12244 -0.35813 0.394998 1.29422 C
35 1 8.22151 -0.00383161 2.75143 0.708013 -3.49306 -1.61696 1.4466 0.3582 0.177278 C
18 1 0.0739131 8.27011 2.78631 3.23447 1.34708 -0.0926306 -0.796659 0.0520847 -0.246974 C
5 2 1.474 1.38099 4.15219 -0.0399465 -0.641816 -1.29642 -1.33442 1.14514 -0.457477 C
12 1 2.79016 2.77369 5.5624 -2.46375 -4.70736 -1.67523 0.37491 0.0956829 0.195866 C
15 2 4.14793 1.31033 6.93237 0.336103 -2.1931 5.88785 -0.501818 1.56382 0.425196 C
37 2 6.88139 1.43172 4.18372 2.4516 0.608276 -0.359482 0.322632 -0.181424 -1.16544 C
9 1 0.0740181 0.0669319 5.53954 1.09889 2.73773 2.26338 -1.30211 -0.77366 0.143508 C
44 1 8.24801 2.84812 5.50265 1.62979 2.62784 -4.97716 1.22098 -0.663569 1.11625 C
47 2 9.68903 1.45057 6.92201 -1.80044 -2.49446 -2.4292 0.169547 0.310695 0.109685 C
14 2 1.37492 4.16284 6.96889 -1.94593 3.47455 1.32145 0.18091 -0.505092 -1.39471 C
21 2 1.52618 6.90424 4.13535 2.80854 0.149482 -1.59675 -1.91223 0.353185 1.14801 C
8 2 4.18702 4.15287 4.13378 0.848584 2.96863 0.0561203 -0.989719 0.318552 0.493129 C
31 2 4.12735 6.94035 6.92632 -0.831303 -1.08937 0.732045 -0.156704 -1.7934 -0.300596 C
46 2 6.89628 4.17856 6.96139 -2.05081 3.54782 0.331097 -0.589511 0.0439266 -1.00859 C
53 2 6.94805 6.93808 4.12883 1.41637 -1.08647 0.0149912 0.0827362 -0.421117 0.165201 C
57 1 5.54095 5.54155 5.49883 3.10391 -4.98581 3.45351 0.0660608 0.572189 1.01577 C
25 1 0.0281859 5.51194 5.53405 -0.647968 1.22984 0.62221 0.249251 1.37188 0.104334 C
40 2 9.70378 4.18567 4.14839 1.83556 -0.35637 -2.45859 -0.172387 -0.268645 -0.482611 C
63 2 9.69925 6.92112 6.94683 -0.974415 4.00795 -0.327067 0.864894 1.19567 -0.678629 C
28 1 2.86914 8.35395 5.5056 3.26343 -4.35149 1.57231 -1.26006 -0.462509 0.811303 C
30 2 1.42628 9.71006 6.91817 0.135544 1.16377 -1.65142 -0.274129 -0.208256 0.245874 C
41 1 5.5299 0.0299057 5.52448 -1.81871 7.71344 1.79835 0.252655 -0.39194 0.475036 C
24 2 4.26323 9.67219 4.16884 1.76253 -1.93057 -2.40312 -1.366 0.912987 -0.905425 C
62 2 6.81475 9.7423 6.96759 -1.8908 -0.679079 3.36158 1.69698 -0.941899 -0.693382 C
56 2 9.73473 9.72415 4.13244 3.16976 1.94726 0.745586 0.0161898 0.341064 0.15556 C
60 1 8.31384 8.35883 5.53823 -1.61858 5.18877 -2.25604 -0.290555 0.0748626 0.635898 C
4 1 2.79068 2.83602 -0.0033029 1.02999 -2.42653 -0.997978 -0.221322 -1.47266 0.49329 C
11 1 2.75781 -0.0123743 8.36976 1.87487 -1.28756 2.18014 0.155794 0.0287929 -0.394582 C
13 2 1.39746 1.41268 9.74256 -0.327432 -1.35627 2.31922 0.162751 0.218132 -0.61248 C
42 1 5.48658 2.77864 8.31912 -1.73454 2.57159 -1.62751 0.425382 -0.669982 0.0287647 C
45 2 6.87047 1.35178 9.71022 -2.5518 -1.88442 -0.477884 -0.474326 1.00933 0.263543 C
10 1 0.045835 2.84856 8.36445 4.03395 3.29928 2.28779 -1.43677 -1.88578 -0.447242 C
43 1 8.23919 0.0581834 8.31345 -3.78311 -3.47998 -1.06092 1.04844 -0.802729 -0.349309 C
27 1 2.7003 5.49216 8.33164 -0.62802 -0.968761 1.55735 2.25915 1.68291 -0.417617 C
29 2 1.50311 6.9791 9.71071 -1.93054 0.0283444 0.978716 -2.78529 -1.46511 0.531435 C
16 2 4.13691 4.17442 9.70581 -0.86977 -0.0430121 -4.68905 -0.50649 -0.542929 -0.935939 C
61 2 6.87736 6.88545 9.68827 -0.130649 0.420455 -0.723748 -0.279739 0.568496 0.388769 C
48 2 9.66738 4.14129 9.7113 1.19975 0.477265 2.62041 -0.75237 1.33852 -0.682259 C
59 1 8.24139 5.62298 8.2619 -6.99656 -0.0218399 -0.598784 1.42466 -2.14467 1.47766 C
32 2 4.12843 9.66998 9.74007 1.47907 3.72734 -1.21322 0.552358 0.020017 0.149699 C
58 1 5.48431 8.25067 8.31364 -2.57001 -0.056611 4.74548 0.222992 1.38632 0.730436 C
52 1 8.29594 8.25568 -0.0183911 -0.786659 -0.458135 -2.83466 -0.147385 0.410533 0.765106 C
26 1 0.0391103 8.33374 8.38518 -0.231354 -0.25432 0.281957 -0.65052 0.137438 -1.25006 C
64 2 9.64574 9.73637 9.7211 -0.705674 -0.538188 1.22391 0.151332 -0.670354 -0.884238 C
ITEM: TIMESTEP
10800
ITEM: NUMBER OF ATOMS
64
ITEM: BOX BOUNDS pp pp pp
0.0000000000000000e+00 1.1085848640000000e+01
0.0000000000000000e+00 1.1085848640000000e+01
0.0000000000000000e+00 1.1085848640000000e+01
ITEM: ATOMS id type xu yu zu vx vy vz fx fy fz element
3 1 2.84083 0.0336248 2.78324 0.181578 4.00354 -0.196288 -2.09182 -0.390595 0.0199584 C
7 2 4.20356 1.39146 1.41596 -0.507089 -2.38506 0.0214439 -0.474457 0.0606035 -1.36942 C
34 1 5.59416 2.74556 2.76273 -0.409357 4.30213 -4.00631 -0.103562 0.560445 0.725425 C
2 1 -0.0165185 2.76155 2.82996 -1.44144 3.99707 1.50328 0.968889 1.05741 -0.752033 C
36 1 8.37279 2.80528 0.0200096 -2.55883 4.52386 1.43462 -0.581533 -0.739495 0.113266 C
39 2 9.76577 1.40666 1.42423 2.03091 2.22568 1.36954 -1.08725 -0.0220954 -0.242668 C
6 2 1.39731 4.13139 1.33357 -1.00395 1.45686 0.245981 -0.928218 0.451622 1.9328 C
19 1 2.766 5.54537 2.80742 -5.8062 2.84007 0.722245 -0.81543 -0.810627 -0.215485 C
23 2 4.11295 6.90882 1.44662 -1.84641 3.67144 2.85408 1.27644 0.746205 -0.702661 C
38 2 6.97229 4.16648 1.38784 1.13799 0.635948 0.0581756 -0.253691 -0.373583 0.391155 C
49 1 5.59016 5.59698 0.079289 -5.06917 1.95711 7.21399 -1.14686 -1.18439 -1.38957 C
17 1 -0.0508544 5.52786 0.0037463 -2.70215 -5.4931 0.399174 0.323997 0.180265 -0.279562 C
51 1 8.31856 5.51756 2.79519 -1.4551 -1.80508 -1.91086 -0.189626 0.862569 -0.432705 C
55 2 9.67262 6.95754 1.40605 -0.289701 -3.34582 -1.20875 0.473792 -0.929349 0.226046 C
20 1 2.82373 8.28397 -0.0233605 3.63147 0.257697 -0.370623 -2.22204 -0.592396 0.837705 C
22 2 1.38409 9.70347 1.34575 -1.04839 0.450044 -1.3031 1.62613 -0.605271 1.68644 C
33 1 5.54626 0.00377088 -0.0332898 0.805819 1.29554 0.466418 0.450065 -0.167469 0.294589 C
50 1 5.54845 8.32254 2.75796 -7.79207 -2.24593 -1.32665 -0.427089 0.605095 0.111679 C
54 2 6.97719 9.72986 1.40295 -3.47698 1.10948 1.06139 -0.76917 0.152853 -0.299155 C
1 1 0.00870564 -0.019483 0.0732904 3.45878 0.427719 -3.74759 -0.605858 0.573765 -2.30589 C
35 1 8.35666 0.0483957 2.7976 -3.2664 1.44917 -0.675564 -0.489867 -0.719188 -0.0688491 C
18 1 -0.0299067 8.33908 2.78423 0.401064 -3.18174 0.335779 0.604206 0.0341557 -0.404072 C
5 2 1.34567 1.38408 4.20964 0.0402622 -4.54355 -0.670372 1.19154 0.0578615 -0.500717 C
12 1 2.74358 2.86572 5.54391 0.703078 1.0611 -0.146763 -0.638962 -1.53366 -0.583393 C
15 2 4.13005 1.42252 6.80154 2.73396 -0.946668 1.68371 0.454311 -0.503362 2.16662 C
37 2 6.90712 1.33033 4.20433 -1.0611 1.41794 0.381007 0.728192 0.71865 -0.41335 C
9 1 -0.0572897 -0.0111493 5.55398 3.88827 0.288821 0.331733 0.810718 0.0719596 0.417239 C
44 1 8.35039 2.69172 5.59008 -3.74701 0.927105 1.65248 0.0961155 0.306101 -1.6406 C
47 2 9.7176 1.37763 6.97242 1.68724 -0.841028 -0.681919 -0.818807 -1.00359 -1.74128 C
14 2 1.31554 4.15515 6.92459 4.15627 0.559889 3.40544 -0.0850828 0.698536 0.578493 C
21 2 1.35437 6.95665 4.17563 0.209796 -1.19041 -1.89175 0.665665 0.276448 -0.942161 C
8 2 4.16951 4.12865 4.1587 1.52708 2.38005 -1.58108 0.50164 1.18809 -0.31776 C
31 2 4.15206 6.95083 6.96825 1.56807 -0.323351 -0.297254 -0.205864 0.681161 -1.13965 C
46 2 7.05687 4.09741 6.89659 -2.16039 -1.2342 0.591226 -2.41743 1.95222 0.49356 C
53 2 6.90564 6.93348 4.11328 -4.65073 -0.293861 -0.303476 0.297821 -0.244571 0.508588 C
57 1 5.53431 5.60364 5.5373 -2.89827 0.931952 -5.59679 0.765042 -1.90398 0.511822 C
25 1 -0.00308662 5.58014 5.48186 0.928552 -5.45914 -2.71498 -0.0744844 -1.33436 0.984271 C
40 2 9.67349 4.16619 4.17858 -2.96458 -0.966393 0.993196 0.275362 -0.851467 0.261916 C
63 2 9.7329 6.87115 6.8996 -0.267632 -3.76166 3.50839 -0.24887 1.18037 0.288254 C
28 1 2.71686 8.35823 5.55176 1.28611 0.487729 -1.17984 1.17684 -0.481254 0.188907 C
30 2 1.36154 9.72705 6.93714 -0.760867 0.395511 0.229006 -0.211073 -0.00348972 -0.346793 C
41 1 5.53214 -0.0610522 5.54683 -0.892535 -4.25695 -2.05619 -0.139009 1.4418 -0.293938 C
24 2 4.16301 9.72811 4.16967 -0.47848 0.383691 0.0199009 -0.221142 -1.40581 -0.388044 C
62 2 6.95728 9.74814 6.89104 -0.737226 0.36018 1.26125 0.390137 -1.20703 0.974392 C
56 2 9.6746 9.69061 4.17918 0.0649246 -0.376271 -1.16723 -0.274038 -0.159072 -0.0360769 C
60 1 8.29282 8.24924 5.54391 -1.12043 -2.55294 -0.750673 0.297658 0.870976 -0.0874762 C
4 1 2.72173 2.71995 -0.00432688 1.1373 6.7975 -0.231126 0.836046 -0.228995 -0.491443 C
11 1 2.753 0.0324324 8.27543 0.884738 -1.79137 0.60007 0.356944 -0.134664 0.261005 C
13 2 1.29257 1.37554 9.64542 4.48349 0.382799 -1.3225 0.666921 -0.142412 0.9796 C
42 1 5.5628 2.7682 8.25957 1.13399 -2.12677 1.48447 -0.252466 0.172392 0.504746 C
45 2 6.99845 1.42254 9.69393 -0.0352136 -0.799027 -1.04251 -0.921291 -0.378047 -0.0624814 C
10 1 -0.146521 2.73616 8.30059 0.107768 2.31774 0.529984 2.89928 1.63604 0.58627 C
43 1 8.36941 0.0337653 8.29357 -1.2891 7.69088 -0.938062 -1.15865 -0.644196 0.515871 C
27 1 2.75623 5.57429 8.30398 -3.15237 -4.63832 0.524889 -0.373004 -1.35047 0.35711 C
29 2 1.3542 6.90461 9.69008 4.91483 -1.83015 -1.13963 0.279395 0.609067 0.422325 C
16 2 4.12407 4.14828 9.73041 1.9447 1.62548 0.628963 1.16842 0.528079 -0.30099 C
61 2 6.98842 6.90573 9.69683 0.387618 0.65122 -0.255573 -0.243283 0.366019 -0.301193 C
48 2 9.64708 4.15841 9.66888 2.18668 -0.151003 1.4064 1.84165 -0.608869 1.60534 C
59 1 8.42337 5.49094 8.31291 -0.523555 2.71491 -1.96433 -2.50099 1.25156 -0.927747 C
32 2 4.11276 9.64661 9.70349 2.47249 1.9135 -1.6269 1.50342 1.81389 -1.28435 C
58 1 5.58537 8.33831 8.29008 -3.0192 -3.71185 -5.48032 -0.011123 -0.278749 0.768839 C
52 1 8.32643 8.32119 0.0247803 -1.4051 -0.72594 -2.02445 0.107369 0.492507 -1.00694 C
26 1 0.00231522 8.30975 8.28112 2.60633 -1.86952 2.10208 -0.194041 -0.237773 0.350291 C
64 2 9.71332 9.716 9.66461 0.335072 0.115539 0.966192 0.142064 -0.428445 1.20392 C
ITEM: TIMESTEP
10900
ITEM: NUMBER OF ATOMS
64
ITEM: BOX BOUNDS pp pp pp
0.0000000000000000e+00 1.1085848640000000e+01
0.0000000000000000e+00 1.1085848640000000e+01
0.0000000000000000e+00 1.1085848640000000e+01
ITEM: ATOMS id type xu yu zu vx vy vz fx fy fz element
3 1 2.71136 -0.0544231 2.77374 5.64469 -0.848838 1.25417 1.05804 1.67624 -0.251001 C
7 2 4.1331 1.42922 1.38198 2.52771 -2.40255 2.49448 0.48384 -1.91015 0.697087 C
34 1 5.53293 2.7566 2.8085 1.28687 -2.55651 1.62734 -0.53267 0.56543 -1.17608 C
2 1 0.00311602 2.75615 2.77828 -1.74551 -2.25078 1.46671 -1.23991 0.0538431 -0.590145 C
36 1 8.31874 2.75435 -0.0137028 3.32663 -1.20991 0.114926 -0.113076 1.67691 0.251485 C
39 2 9.62887 1.35293 1.31547 0.878291 1.37239 0.256684 1.31652 0.304106 2.10408 C
6 2 1.38216 4.15773 1.41701 -0.291799 0.624375 -3.20034 0.182029 0.322615 -0.827987 C
19 1 2.7896 5.57118 2.73772 3.83053 -1.0899 0.341631 -0.936592 0.0861159 0.687529 C
23 2 4.1525 6.98693 1.35006 0.222729 -2.6697 4.87329 0.969941 -0.137749 0.527213 C
38 2 6.88093 4.17991 1.40508 2.93583 -0.3643 0.667659 1.1013 -0.431309 -0.37589 C
49 1 5.57885 5.58126 -0.0529919 3.49309 3.3046 -1.65611 -1.09668 0.0725617 1.74767 C
17 1 0.0480516 5.60827 -0.00249729 -1.10049 2.89279 0.263993 -1.31243 -1.51651 0.0546934 C
51 1 8.30863 5.56734 2.79348 2.38031 -1.62431 1.37599 0.181666 -0.987994 -0.653603 C
55 2 9.65306 6.93702 1.38887 0.454132 0.294046 -0.0959879 0.888258 0.0123578 -0.458376 C
20 1 2.73154 8.35163 0.00316639 1.1118 -1.41168 -0.691409 0.665495 -0.26231 -0.466002 C
22 2 1.35637 9.70116 1.37178 0.279506 0.55689 1.65311 -0.730024 0.299781 -0.349526 C
33 1 5.57519 0.00913952 -0.00369669 -1.54915 -0.106681 -0.769682 -0.758696 0.0827068 0.456296 C
50 1 5.58237 8.3773 2.80436 4.76501 -1.28539 -0.583804 -1.22841 -1.47596 -0.394582 C
54 2 6.92363 9.68414 1.39417 0.815401 -0.740529 0.793576 0.248547 0.893398 -0.273776 C
1 1 -0.0338532 0.0130683 -0.0366593 -0.823757 -2.45865 8.41294 0.905269 -0.0159343 0.663364 C
35 1 8.27877 -0.0274852 2.78361 1.13691 1.80352 1.2002 0.348973 0.478186 -0.575427 C
18 1 -0.0380676 8.3312 2.72578 -2.47297 3.12734 -0.340679 0.1049 -0.611564 0.875506 C
5 2 1.37835 1.40011 4.15953 -4.68178 -1.2318 1.08174 -0.423097 -1.59861 -0.215857 C
12 1 2.7911 2.66909 5.53479 -0.999984 4.52682 0.535851 0.186709 1.34773 0.0392459 C
15 2 4.21257 1.32421 6.90842 -1.09255 -0.681132 -2.21285 -0.138929 1.4713 1.13492 C
37 2 6.90127 1.38105 4.13359 0.933543 -1.38317 2.47397 1.03401 0.225875 0.307808 C
9 1 -0.00998543 -0.0329708 5.52833 -4.92523 1.88515 -2.23678 0.467757 0.497552 0.295601 C
44 1 8.3168 2.76448 5.50883 -0.63836 -1.50654 1.78224 -0.582343 0.413328 1.10249 C
47 2 9.70877 1.37494 6.92238 1.2553 -0.283058 1.28017 0.323472 -0.25404 0.590929 C
14 2 1.43101 4.11105 6.89823 -4.20483 0.593316 1.30005 1.39233 0.630515 0.759221 C
21 2 1.2977 6.90043 4.17073 1.92058 0.95643 0.356402 0.701617 0.0274703 -0.357197 C
8 2 4.09397 4.11655 4.12045 2.14919 0.760231 0.884652 1.2111 0.606769 1.35461 C
31 2 4.12355 6.93822 6.90872 0.453958 -0.861482 2.30106 1.6759 0.716996 0.315347 C
46 2 6.92573 4.20885 6.9704 6.19604 -2.61977 -0.826889 0.371837 -2.04308 -0.386455 C
53 2 6.97079 6.92855 4.13851 0.0824503 -1.04606 -2.28275 -1.05192 0.393666 1.65699 C
57 1 5.54994 5.50113 5.58605 -1.03026 5.06204 1.71505 -0.905634 1.04981 -1.88255 C
25 1 -0.0251617 5.50899 5.67529 -2.42212 5.16791 -1.55521 0.137591 0.264283 -2.07512 C
40 2 9.70839 4.18116 4.18176 0.74656 0.0538655 -1.74771 0.13428 -0.333059 -0.19596 C
63 2 9.67325 6.91318 6.97762 2.5661 -0.438649 -0.816412 -0.161853 0.209052 0.427573 C
28 1 2.73471 8.30346 5.50887 -3.22671 2.53008 -0.922215 -0.0226208 -0.265274 0.298228 C
30 2 1.38949 9.66581 6.93861 -1.18025 3.51085 -0.076662 -0.466945 0.531304 -0.237758 C
41 1 5.58356 0.0261354 5.51994 -0.437724 -0.447529 0.256281 -0.565351 -1.19988 0.00269923 C
24 2 4.13379 9.71353 4.17559 2.07197 -0.303106 -2.58123 0.44942 0.0598021 -0.1321 C
62 2 6.95462 9.71586 6.89261 0.322256 3.75647 0.497169 0.0166112 -0.53943 0.364713 C
56 2 9.69689 9.69662 4.14445 2.5534 2.92836 2.68304 0.0554472 0.0406485 -0.153629 C
60 1 8.36863 8.32387 5.55545 -0.305623 -2.03616 -1.69032 -0.829012 -0.610543 -0.39171 C
4 1 2.77739 2.77123 0.017313 -5.88827 -2.59697 0.0160057 -0.239429 1.10434 0.00717943 C
11 1 2.77805 0.0083628 8.2955 -2.09205 1.70384 -0.881044 0.241429 -0.689183 0.617223 C
13 2 1.41456 1.39321 9.73891 -5.82779 -1.38476 -2.4976 0.398737 -0.635001 -0.657766 C
42 1 5.55576 2.79828 8.37652 -0.772257 3.2299 -4.69731 0.265848 -1.01654 -0.74867 C
45 2 7.01398 1.36063 9.73021 -0.00376457 -0.50614 0.0366589 -1.34441 -0.187224 -1.19256 C
10 1 0.146042 2.75229 8.29205 -7.56652 -3.46505 -0.1344 -2.65388 -0.302415 0.138703 C
43 1 8.3469 -0.10651 8.33979 2.56505 -1.88654 -0.709497 -0.114207 2.52074 -0.952764 C
27 1 2.8209 5.56788 8.30696 -0.677432 5.14417 -1.31894 -1.28573 -0.758282 0.110132 C
29 2 1.3978 6.95803 9.68508 -4.57725 -2.02373 -1.05145 0.259545 0.00730986 -0.244189 C
16 2 4.16623 4.19755 9.7407 -3.57184 -1.81823 -2.58568 -0.183045 -0.545592 -0.536901 C
61 2 6.92382 6.94476 9.69755 2.40354 -0.459981 -1.14017 1.07164 0.966639 0.510363 C
48 2 9.7416 4.12929 9.64903 -1.602 1.8704 -1.35042 0.459734 0.510077 0.990929 C
59 1 8.26724 5.54447 8.36274 4.95622 -3.17405 -0.737269 1.28734 0.0944344 -0.404997 C
32 2 4.16919 9.68371 9.70388 -2.31871 -1.20681 2.19369 -0.129966 0.973326 -0.0149017 C
58 1 5.60016 8.35229 8.33566 0.281762 1.16781 -0.943614 -1.39102 -0.753215 -1.40864 C
52 1 8.33909 8.36257 0.0137773 0.801238 -2.52675 3.70169 -0.678418 -0.927603 -0.57859 C
26 1 -0.0329125 8.31652 8.33115 -0.416559 1.95744 -1.14405 0.812845 -0.279735 -0.311671 C
64 2 9.73306 9.70841 9.70113 -1.05833 0.8856 -4.54169 -0.293687 -0.899026 0.382547 C
ITEM: TIMESTEP
11000
ITEM: NUMBER OF ATOMS
64
ITEM: BOX BOUNDS pp pp pp
0.0000000000000000e+00 1.1085848640000000e+01
0.0000000000000000e+00 1.1085848640000000e+01
0.0000000000000000e+00 1.1085848640000000e+01
ITEM: ATOMS id type xu yu zu vx vy vz fx fy fz element
3 1 2.80442 0.0294076 2.76106 -4.43955 -3.74453 1.86771 0.395703 -0.940252 0.228963 C
7 2 4.14119 1.42665 1.37528 -1.0304 1.57218 -1.47037 0.669079 -1.20858 0.228682 C
34 1 5.51483 2.77302 2.73909 0.462522 -0.224478 0.766134 0.301889 -0.262833 0.884221 C
2 1 0.0400055 2.75476 2.71584 4.09411 0.492001 3.20332 -0.0697723 -0.0800661 1.07903 C
36 1 8.25188 2.77354 -0.00706679 -1.49464 -2.09578 -1.8565 0.399607 -1.31884 0.232753 C
39 2 9.71116 1.32228 1.38633 -1.79211 -1.58158 -2.94332 -0.0842521 1.56056 -1.09654 C
6 2 1.47511 4.11461 1.40153 -0.81841 1.19552 2.39111 -0.875288 0.581405 -0.806822 C
19 1 2.83155 5.50808 2.78101 1.36798 4.28315 -3.49999 0.455316 0.255266 -0.722177 C
23 2 4.22125 6.83968 1.26723 -0.034588 3.84466 -0.276399 -1.2451 0.708621 2.63543 C
38 2 6.89219 4.12899 1.37962 -2.60606 0.285173 2.78164 0.778392 -0.0405253 0.487886 C
49 1 5.52609 5.41185 -0.000197389 2.89202 -1.93455 -1.23126 0.603007 1.03842 -1.62269 C
17 1 0.0174793 5.48914 0.0032252 4.61426 2.38524 -0.982295 0.244906 1.23674 0.467048 C
51 1 8.3056 5.54969 2.72119 -3.80159 2.86448 1.89665 0.0751654 -0.0327783 0.591436 C
55 2 9.73356 6.95544 1.43774 -0.847997 -2.19582 -0.811898 0.1631 -0.461454 -1.42763 C
20 1 2.80434 8.29134 0.0166626 0.345326 1.7338 0.390735 -0.125105 0.237122 -0.0874326 C
22 2 1.40253 9.68281 1.38149 1.43656 1.01811 0.136989 0.434411 0.25805 0.468282 C
33 1 5.49344 -0.0334293 0.0446203 3.08843 -0.740698 -1.11209 0.357109 0.626726 -0.814257 C
50 1 5.52352 8.25012 2.75404 1.69364 4.99773 1.31075 0.848753 0.668748 -0.124929 C
54 2 6.93437 9.67719 1.36224 -3.75301 -2.03393 0.192938 -0.370902 -0.431564 0.618626 C
1 1 0.0260073 -0.00873398 -0.0248231 -2.37359 -0.151518 -5.25783 -0.499875 -0.504404 1.1412 C
35 1 8.34292 -0.0222886 2.74187 -3.63199 -2.64464 0.400153 -1.09556 -0.0936526 0.410649 C
18 1 0.0986396 8.28091 2.83996 2.1478 -0.54727 -2.23843 -1.1707 0.863726 -1.22094 C
5 2 1.50793 1.44151 4.1454 0.457044 -0.870011 -0.256809 -2.20487 -0.500466 0.487669 C
12 1 2.77817 2.83521 5.57414 0.285427 -5.35163 0.450935 -0.309378 -0.137105 -0.103064 C
15 2 4.0774 1.42009 6.9309 2.18669 -3.04995 0.728802 0.661569 -1.27672 0.488231 C
37 2 6.89688 1.37688 4.12413 -2.05548 0.523908 -1.44721 1.16777 0.401654 0.579422 C
9 1 0.0731562 0.0354938 5.59336 -0.0565538 -2.19001 1.27854 -1.18485 0.230779 -1.66126 C
44 1 8.35464 2.82251 5.52938 2.55605 -0.903567 -2.94433 -1.43924 0.101802 -0.529144 C
47 2 9.63772 1.40208 6.95188 0.304977 -0.647633 -2.4162 1.53879 0.335997 -0.292475 C
14 2 1.3698 4.22642 6.90884 1.18217 0.0583084 0.872166 -0.709967 -1.01433 0.612524 C
21 2 1.47976 6.91415 4.14529 -0.277978 -2.02823 -1.79195 0.999505 0.541109 0.636859 C
8 2 4.17421 4.12139 4.18809 -1.12742 0.0198728 -3.46413 0.280075 0.660172 -0.777796 C
31 2 4.16116 6.89419 6.97729 -2.06492 -3.45866 -0.58691 0.326877 -0.640652 -0.190536 C
46 2 6.87147 4.20996 6.93393 -4.07032 4.52676 0.234423 1.27484 -1.23614 -0.121483 C
53 2 6.96765 6.92568 4.16519 -1.32054 -0.518204 -3.92117 -0.411972 0.363772 -0.416008 C
57 1 5.55012 5.54496 5.49729 2.20598 -4.23065 2.28371 -0.392055 0.458704 0.999008 C
25 1 0.0625556 5.59785 5.46266 0.0406701 -1.85118 7.65056 -1.28008 0.040285 1.10298 C
40 2 9.74582 4.21914 4.09577 -0.541391 0.56244 0.0920836 -0.0194505 -1.02 0.0631769 C
63 2 9.69293 6.98503 6.87894 -1.88147 -0.922092 4.5818 0.58433 -0.382352 0.137856 C
28 1 2.87189 8.29576 5.59715 -0.729799 1.03536 -2.80699 -1.0462 0.404418 -1.14045 C
30 2 1.41288 9.67895 6.91105 -1.13893 -1.18287 1.14148 0.555281 0.215947 0.836094 C
41 1 5.52354 0.0282338 5.58564 1.86626 1.41429 -0.147475 0.0655982 0.567816 -0.134101 C
24 2 4.2315 9.73129 4.19943 -0.287878 0.393025 -0.532177 -1.20928 -0.844706 -1.14448 C
62 2 6.8235 9.67308 6.96131 -1.29076 1.09375 0.495532 0.918596 1.06216 0.606858 C
56 2 9.71387 9.70053 4.11944 2.60872 1.9165 -0.0445528 0.989998 0.52098 1.68802 C
60 1 8.26963 8.40174 5.56912 1.27049 3.45744 1.92802 0.529465 -0.909706 -0.855811 C
4 1 2.83768 2.76552 -0.00853282 4.06427 -0.810136 1.17674 -1.49361 0.0537986 -0.0126835 C
11 1 2.75943 -0.0279221 8.36954 -2.02921 0.873652 -2.33983 -0.610939 0.864838 -0.893053 C
13 2 1.38343 1.40506 9.75619 2.63318 2.17826 0.595637 0.0379623 0.276029 -1.34002 C
42 1 5.50862 2.71288 8.29657 0.25146 1.02127 6.1764 -0.682129 2.08159 -0.366651 C
45 2 6.82471 1.38508 9.67866 1.79526 -1.64774 1.38489 0.892234 -0.379 1.4445 C
10 1 -0.05225 2.81979 8.35304 8.16239 1.46047 -2.05229 0.510247 -0.358725 -0.528729 C
43 1 8.23297 0.0642926 8.30973 -0.156285 -6.38049 2.42131 0.283869 -2.07712 0.59289 C
27 1 2.73755 5.51542 8.34768 1.6352 1.56458 0.464531 0.414418 0.986078 -0.574849 C
29 2 1.43357 6.97108 9.71019 0.371531 -1.69997 -0.803347 -1.45863 -1.19047 0.0499271 C
16 2 4.11533 4.13775 9.6769 0.408289 1.79143 0.148493 1.03912 -0.81576 -0.29407 C
61 2 6.87985 6.86536 9.70491 -0.582114 -0.678983 -1.06166 0.0498993 0.274062 0.279895 C
48 2 9.60798 4.18219 9.71937 1.97486 0.417406 -1.3741 0.978004 0.0236716 -0.153611 C
59 1 8.31305 5.59724 8.2961 -4.39452 0.21406 4.74947 -0.467984 -0.421393 -0.392735 C
32 2 4.12773 9.68847 9.72018 1.92019 0.274182 -0.362754 0.250739 -0.0596687 0.580791 C
58 1 5.48176 8.28611 8.37982 4.66529 3.08189 4.47549 0.508191 -0.198909 -0.466924 C
52 1 8.27885 8.27506 -0.0371115 1.27557 4.91178 1.35295 0.520746 -0.22153 1.16931 C
26 1 0.0224694 8.32869 8.29552 -1.88552 0.595276 1.62269 -0.754291 0.198544 0.701583 C
64 2 9.66544 9.70304 9.75277 0.964971 -0.155526 0.286223 0.106919 0.360103 -2.21845 C
ITEM: TIMESTEP
11100
ITEM: NUMBER OF ATOMS
64
ITEM: BOX BOUNDS pp pp pp
0.0000000000000000e+00 1.1085848640000000e+01
0.0000000000000000e+00 1.1085848640000000e+01
0.0000000000000000e+00 1.1085848640000000e+01
ITEM: ATOMS id type xu yu zu vx vy vz fx fy fz element
3 1 2.72596 0.0276034 2.7343 1.24346 4.11587 -2.92322 -0.762271 -0.576874 0.325558 C
7 2 4.16113 1.38233 1.38254 0.76818 1.81671 -0.121088 -0.191109 1.06636 -0.455994 C
34 1 5.57387 2.79022 2.77321 -1.61112 -0.33111 -1.22545 -0.105745 0.131342 -0.491359 C
2 1 -0.0439576 2.8173 2.82875 -1.08665 -1.63155 -5.3665 0.690214 -0.162488 0.0190313 C
36 1 8.38183 2.77543 0.0693896 -0.912851 5.46459 -0.20572 -0.629321 0.258268 -1.2715 C
39 2 9.76116 1.44322 1.44575 1.92667 -1.16527 4.01572 -0.585659 -0.844166 -0.22434 C
6 2 1.33939 4.12059 1.38091 1.97327 -0.90731 0.433572 -0.572101 0.963225 0.402168 C
19 1 2.63989 5.51604 2.82991 0.513429 -5.07036 3.28121 0.305533 1.06847 -0.127212 C
23 2 4.04994 6.95564 1.45127 1.38744 -3.05005 -0.69016 0.223587 0.184636 -0.16659 C
38 2 6.98628 4.23061 1.35856 -0.762481 0.954055 0.483403 -1.25303 -0.542481 0.593653 C
49 1 5.50583 5.66791 0.0317343 -3.3966 0.00412346 5.22864 0.970278 -0.831614 0.565316 C
17 1 -0.0555588 5.55183 0.0210695 -0.910409 -2.46334 0.0810326 0.838994 0.00459892 -0.824076 C
51 1 8.36303 5.52438 2.79869 3.06486 0.557837 -2.41264 -1.42961 0.852384 0.333967 C
55 2 9.64349 6.9506 1.41165 -1.27721 0.265199 1.82285 0.482506 -0.738793 -0.873897 C
20 1 2.72367 8.34027 -0.0229249 0.321643 -0.301026 0.30765 0.842067 0.381612 0.0103309 C
22 2 1.28324 9.7002 1.34085 -2.28374 -0.637297 0.556785 1.62517 0.179007 0.9874 C
33 1 5.58947 0.0557368 -0.0251068 -2.49562 -0.433463 3.97396 -0.0423138 -0.720255 -0.234214 C
50 1 5.51686 8.34242 2.79318 -3.43718 -2.78626 1.01966 0.534116 0.638643 0.139425 C
54 2 7.02065 9.81124 1.4101 -1.0883 0.807422 -1.46311 -1.62087 -1.81896 -0.507835 C
1 1 0.0145642 0.0507103 0.0292295 3.27426 2.81298 -1.2166 -0.800509 -0.0752217 -0.756281 C
35 1 8.3675 0.0554927 2.81231 6.58607 2.34671 -0.491345 -0.116843 -0.275258 -0.353346 C
18 1 -0.117562 8.35076 2.72293 -0.0596528 -1.00565 3.80133 1.0996 -0.670437 0.511355 C
5 2 1.31009 1.38304 4.16792 1.57262 -0.416484 -0.788451 1.0879 0.136484 -0.967125 C
12 1 2.77429 2.73836 5.49367 1.2577 2.9003 0.299682 0.0678058 -0.194649 0.181531 C
15 2 4.21144 1.40665 6.86652 -1.40979 2.39658 -0.547385 -0.304712 0.0200721 0.78973 C
37 2 6.92397 1.34044 4.16302 -3.44527 -0.165516 -1.98175 -0.385546 0.979374 -0.191152 C
9 1 -0.0411083 -0.0379587 5.46479 4.60756 -0.407446 4.0717 -0.330589 -0.856234 1.4122 C
44 1 8.24352 2.72163 5.57553 2.86191 0.58481 4.76046 2.08545 -0.612508 0.0624079 C
47 2 9.7521 1.33608 6.96628 -0.468235 -3.57735 1.54051 -0.610416 0.788854 -1.40805 C
14 2 1.44391 4.12092 6.87964 2.35652 2.60393 0.0180243 -0.482318 -0.0830723 0.915394 C
21 2 1.18751 6.96806 4.21177 -2.48609 -1.52171 -0.424518 1.60641 -0.835828 -1.12582 C
8 2 4.12616 4.15571 4.14991 0.108936 0.234641 0.926881 0.317136 0.18 -0.0869051 C
31 2 4.1714 7.00367 6.89737 0.66452 -0.821309 1.8736 -1.03905 -2.15469 -0.074302 C
46 2 6.98042 4.09684 6.96944 -0.757143 1.54557 1.19527 -1.86687 1.7227 -1.26365 C
53 2 6.93023 6.90483 4.20185 -2.40527 -2.67292 -0.08426 -0.725774 -0.537652 -1.46131 C
57 1 5.51298 5.54023 5.57056 0.288398 0.125669 -0.973805 0.80315 -0.778739 0.0936138 C
25 1 -0.0505499 5.45114 5.55949 3.89758 -0.0767017 -4.94557 1.10652 0.3187 0.0466842 C
40 2 9.64886 4.14863 4.2164 -1.05274 1.29571 -2.44195 -0.342744 -1.07323 -0.249122 C
63 2 9.7358 6.82024 6.89395 2.21958 -0.442935 0.331714 -0.10319 1.24315 1.25459 C
28 1 2.68889 8.29319 5.55344 6.24626 -1.99892 6.78304 -0.0870689 0.627571 -0.258852 C
30 2 1.35441 9.70268 6.94119 -2.68911 1.12369 -3.00159 0.104406 0.119968 -0.0937208 C
41 1 5.55737 -0.0230761 5.53199 -0.390303 -0.735663 -0.943052 0.109349 -0.426068 -0.00927889 C
24 2 4.05891 9.72999 4.1916 2.603 1.90139 -0.703222 0.839249 -0.528461 -0.706023 C
62 2 7.05282 9.70566 6.87652 -1.27629 -1.06048 0.162102 -0.948071 -0.886661 0.0132598 C
56 2 9.61054 9.60771 4.12636 -0.725618 0.777574 -1.73474 0.998351 1.61946 0.557704 C
60 1 8.37154 8.17348 5.52215 -1.13498 0.499175 3.52764 -0.698157 1.57782 0.808689 C
4 1 2.72081 2.80128 -0.0199811 3.22341 0.345249 0.193472 1.35713 -0.980149 0.334668 C
11 1 2.84721 0.0137371 8.27564 3.94709 -3.15907 4.69261 -1.02138 -0.180709 -0.364519 C
13 2 1.40075 1.33067 9.68482 1.29874 -0.896283 2.10314 0.874836 0.853226 0.0551126 C
42 1 5.5604 2.80668 8.30038 2.62247 -6.9376 -2.63981 0.271071 -1.00478 1.23019 C
45 2 7.02908 1.41162 9.68164 -3.41225 0.066705 -2.60738 -1.00886 0.36073 0.305802 C
10 1 0.0639834 2.73471 8.31294 -3.09914 -1.04059 3.76671 -0.205897 0.261425 -0.372606 C
43 1 8.38297 -0.0151346 8.32829 0.36863 8.53045 -1.74925 -0.384277 0.192369 -0.344843 C
27 1 2.84193 5.49083 8.29426 1.86843 -2.59817 1.64036 -0.118178 1.19577 0.0920096 C
29 2 1.42874 6.92435 9.67551 1.28879 0.341935 -1.54803 -0.767769 -1.3229 0.429103 C
16 2 4.22814 4.19099 9.78066 -3.2754 0.100614 -1.97418 -0.974258 -0.472761 -1.24994 C
61 2 6.93615 6.9685 9.69397 0.978557 -0.227805 -1.22177 0.111151 -0.442052 -0.875642 C
48 2 9.70411 4.10423 9.6678 -2.7519 2.10626 -0.480607 0.315056 0.964223 0.316795 C
59 1 8.32061 5.52833 8.25806 4.64101 1.26173 -0.476691 0.0701342 -0.26131 1.94485 C
32 2 4.19811 9.69835 9.62962 1.5667 1.91903 -0.13082 0.487307 -0.265274 0.96759 C
58 1 5.58727 8.29402 8.19812 -4.08847 -1.35793 -0.142631 0.742595 1.66943 1.65211 C
52 1 8.34462 8.3242 -0.0143707 -2.15466 -0.77385 -4.24848 -0.425611 1.28318 0.153745 C
26 1 -0.00583338 8.26105 8.3365 2.9534 -1.06764 -3.81893 0.0430972 0.515601 -0.942045 C
64 2 9.75254 9.74533 9.69376 -0.364421 -0.905178 1.20339 -0.0700515 -1.20438 0.825565 C
ITEM: TIMESTEP
11200
ITEM: NUMBER OF ATOMS
64
ITEM: BOX BOUNDS pp pp pp
0.0000000000000000e+00 1.1085848640000000e+01
0.0000000000000000e+00 1.1085848640000000e+01
0.0000000000000000e+00 1.1085848640000000e+01
ITEM: ATOMS id type xu yu zu vx vy vz fx fy fz element
3 1 2.81052 -0.0440183 2.83555 0.805389 1.055 1.73644 0.0398547 0.975232 -0.491483 C
7 2 4.1178 1.38317 1.41483 -0.398933 -2.84039 -0.656137 0.818297 -0.370436 -0.36046 C
34 1 5.53493 2.7856 2.79021 2.72335 -0.191667 1.65531 0.0903833 -1.15787 0.434093 C
2 1 0.00323481 2.74463 2.7361 0.490731 2.47564 3.61518 -0.29179 -0.273568 -1.18165 C
36 1 8.27357 2.72565 -0.0574401 3.06093 -6.05713 6.1144 0.568235 0.734904 0.826994 C
39 2 9.62582 1.29881 1.2808 1.82973 1.13566 0.786695 0.446312 1.12576 2.44542 C
6 2 1.40387 4.16756 1.37649 -0.703825 -3.51315 -0.622328 0.0956141 0.0893319 0.198218 C
19 1 2.85581 5.59297 2.7095 -2.9183 -2.79455 2.36871 0.323473 -1.92476 0.428462 C
23 2 4.2309 6.89738 1.26302 -0.466794 -0.664211 2.34431 0.837348 -0.466322 1.04592 C
38 2 6.89991 4.11218 1.36294 4.29344 0.122717 1.77048 0.725431 -0.27011 0.037123 C
49 1 5.6074 5.42845 -0.103649 -1.79325 -0.912185 -5.91933 -1.46864 1.06005 1.42512 C
17 1 0.0167596 5.55395 0.000858538 -2.31895 0.177543 2.57289 -0.278548 0.173641 0.637195 C
51 1 8.25425 5.51276 2.77303 4.17661 -2.38509 0.530489 2.34668 0.0695516 -0.625296 C
55 2 9.75493 6.93757 1.45829 0.506748 1.24587 3.3486 -0.742908 -0.760141 -0.615432 C
20 1 2.7905 8.29295 0.0383872 -4.92689 -2.74585 1.16299 -0.992718 -0.107145 0.1317 C
22 2 1.44874 9.70825 1.42355 -3.4603 0.644237 -0.0688795 -0.592837 -0.689636 -0.0607527 C
33 1 5.50926 -0.0282197 -0.0298655 2.8133 1.95 0.806495 -0.106716 -0.0965477 1.35943 C
50 1 5.60964 8.25534 2.73058 3.57873 -0.258682 -0.689549 -1.02926 0.1005 0.576102 C
54 2 6.93033 9.64662 1.39323 4.36946 4.12085 0.881767 -0.849239 0.585918 -1.20753 C
1 1 -0.0413332 -0.0881459 0.0370698 -0.703069 -2.2976 1.98717 1.04918 0.88278 -0.760596 C
35 1 8.23506 -0.051259 2.7456 -1.65525 -2.38634 0.769411 1.86632 0.673401 0.423314 C
18 1 0.1045 8.29414 2.80814 0.392811 2.75548 -0.664335 -0.611497 0.669828 0.0791036 C
5 2 1.4225 1.42822 4.13222 -5.14966 -0.19402 1.58452 -0.766542 -1.16994 0.930327 C
12 1 2.7434 2.77916 5.59277 -0.865711 -1.3946 -0.770515 0.114868 0.0207378 0.0584584 C
15 2 4.14393 1.33872 6.95251 0.230011 0.142463 -0.613087 -0.451525 1.23243 0.198338 C
37 2 6.96873 1.36374 4.1963 1.82901 -3.06522 0.121811 -1.06996 0.532451 -0.82856 C
9 1 -0.0218338 0.0284601 5.56237 -0.287081 3.724 -4.71829 1.5907 0.340686 0.498375 C
44 1 8.38417 2.81898 5.46598 -5.06256 1.20254 -4.52086 -0.699062 0.316051 0.881073 C
47 2 9.65138 1.45803 6.93889 0.292137 -3.32372 -0.17104 -0.115597 -1.67795 -0.402022 C
14 2 1.25891 4.15935 6.92645 -1.70817 2.8733 -1.21472 1.36681 0.72728 -0.204476 C
21 2 1.53739 6.92457 4.12865 -2.04696 3.42068 0.385226 -2.19322 -0.171627 0.0147073 C
8 2 4.16921 4.13775 4.22201 2.22292 0.324345 -0.231393 -0.345468 0.974973 -1.194 C
31 2 4.14038 6.92071 6.96399 1.13098 1.6453 0.437744 -0.0899442 1.02115 -0.967834 C
46 2 6.94914 4.17505 6.90633 1.53481 -0.160356 2.02026 0.0667568 -0.325909 -0.0627052 C
53 2 7.03715 6.96635 4.14766 3.63989 -1.22903 0.6982 -2.29546 -0.539095 0.402713 C
57 1 5.5648 5.57223 5.53191 0.208177 1.42365 0.081434 0.353709 0.394082 0.34573 C
25 1 0.00624995 5.63385 5.51508 -3.00843 -0.678656 1.25624 0.286652 -0.0523442 -0.0874774 C
40 2 9.80538 4.20554 4.10999 1.86786 2.5943 -1.48148 -1.53848 -0.148727 -0.130321 C
63 2 9.63996 7.01265 6.88751 -0.541513 -2.00627 -1.55156 0.421964 -0.28167 0.58586 C
28 1 2.77589 8.34416 5.46254 -2.99679 -1.15775 -1.87535 2.01768 -0.62355 2.31052 C
30 2 1.49788 9.68168 6.95936 -3.65587 1.57627 1.63291 -3.24407 0.501264 -1.83776 C
41 1 5.53216 -0.0104014 5.57233 0.362896 2.92614 4.52704 -0.081403 0.737082 -0.434507 C
24 2 4.22737 9.67323 4.17001 -0.739685 -0.138647 1.18817 0.216541 -0.268644 -0.877928 C
62 2 6.82274 9.74385 6.97842 1.47769 3.10185 2.13044 1.08062 -1.15613 -0.525755 C
56 2 9.74601 9.73643 4.14583 2.05895 -0.966047 -0.648537 -0.537687 -0.285166 -0.523118 C
60 1 8.26552 8.44537 5.51582 4.75951 -3.68293 -4.83419 0.682974 -0.505187 0.886351 C
4 1 2.7393 2.74935 -0.00591909 -3.38644 1.322 -1.7978 0.394859 0.305391 -0.230926 C
11 1 2.6817 0.018695 8.3205 2.65232 2.21395 -1.12823 1.98957 -0.104987 1.54171 C
13 2 1.30009 1.37991 9.72718 -4.20439 -2.07322 0.318906 -0.231365 -0.067754 -0.231812 C
42 1 5.51951 2.80925 8.31637 -3.06016 7.12693 -1.72236 0.852704 -1.45551 -0.837099 C
45 2 6.91539 1.36088 9.70296 -0.287518 -2.43749 -0.922464 -1.18693 0.153343 -1.06455 C
10 1 -0.0726526 2.79326 8.30809 4.34662 3.10947 -0.881854 0.421571 -0.319261 0.985422 C
43 1 8.24545 -0.0230945 8.29252 0.200223 -5.1042 2.07552 0.963944 1.36588 0.317048 C
27 1 2.64689 5.59978 8.29575 -1.43793 -5.89189 1.1926 1.3761 -1.41365 0.530806 C
29 2 1.36466 6.98704 9.73826 -1.43403 0.605853 -3.07654 -0.541742 -0.0813707 -0.539994 C
16 2 4.15326 4.14739 9.66043 0.241821 -0.707137 0.497345 -2.08054 0.307176 -0.182003 C
61 2 6.90031 6.86414 9.69784 0.546567 0.295299 -1.74179 1.25947 1.50562 0.194387 C
48 2 9.70514 4.16482 9.73277 -2.14277 0.136192 -1.13005 -0.686893 0.0647221 -0.355226 C
59 1 8.30862 5.5431 8.33845 -3.40357 3.11497 -7.45119 0.598086 0.290526 -1.04068 C
32 2 4.05659 9.65064 9.76079 -0.0988305 0.731621 -3.16666 0.99043 1.74168 -1.55598 C
58 1 5.52178 8.33379 8.3922 2.33579 -4.22108 -4.35976 -0.88443 -0.865709 -0.568473 C
52 1 8.3191 8.27412 0.0464249 4.18021 -3.37712 0.153756 0.294364 -0.139371 -1.10157 C
26 1 -0.00538852 8.37199 8.29719 -1.16126 -0.0259392 6.67838 -0.0673314 -0.508185 0.24798 C
64 2 9.66821 9.73101 9.68977 -0.298824 2.8502 -2.05835 -0.475691 -1.39517 0.109982 C
ITEM: TIMESTEP
11300
ITEM: NUMBER OF ATOMS
64
ITEM: BOX BOUNDS pp pp pp
0.0000000000000000e+00 1.1085848640000000e+01
0.0000000000000000e+00 1.1085848640000000e+01
0.0000000000000000e+00 1.1085848640000000e+01
ITEM: ATOMS id type xu yu zu vx vy vz fx fy fz element
3 1 2.75874 -0.0250466 2.71657 0.565989 -1.95353 -0.389644 0.880238 0.406079 0.531765 C
7 2 4.18317 1.37468 1.39422 -0.821915 2.38619 -0.756098 -0.872523 -0.659466 -1.02993 C
34 1 5.52591 2.73293 2.72974 -2.70269 4.47027 -2.52174 0.374834 1.55096 0.234271 C
2 1 -0.00951496 2.75774 2.78876 -0.862539 -0.775157 0.961354 0.847797 1.06573 1.05431 C
36 1 8.30583 2.84481 -0.0233243 -2.39415 2.19293 -5.49097 0.63587 -0.889821 1.08512 C
39 2 9.72492 1.41696 1.40416 -0.713318 -3.5837 -2.86003 -0.517724 0.340348 -1.36401 C
6 2 1.40025 4.2132 1.42087 -0.338404 1.02432 1.04047 -0.623227 -1.57967 -0.884936 C
19 1 2.7768 5.57511 2.73138 -0.664141 7.42935 -3.53222 -0.653528 0.509016 1.05043 C
23 2 4.14029 6.97985 1.39727 -0.933449 2.30011 -2.70502 -0.893691 1.01469 0.92823 C
38 2 6.88699 4.20864 1.35518 -3.28739 2.8098 0.276174 0.512751 -0.596733 1.1794 C
49 1 5.49171 5.64412 0.121396 5.18679 0.0922383 1.80986 0.793098 -1.41237 -1.73407 C
17 1 0.0359943 5.52378 -0.044834 2.09689 -1.35867 -0.559905 -0.431437 -0.809519 0.141597 C
51 1 8.30598 5.57048 2.75525 -8.63138 -1.17953 1.18907 -0.447365 -0.752648 0.431613 C
55 2 9.69251 6.86075 1.30296 -0.731605 -0.623138 3.0852 -0.542852 1.40164 0.15304 C
20 1 2.80628 8.33196 -0.0305596 7.57631 5.24444 -2.32212 0.114978 -0.486213 0.285265 C
22 2 1.43932 9.68293 1.32196 -1.35905 1.30161 0.558862 -1.9582 0.356651 0.284021 C
33 1 5.53086 -0.0337045 -0.00934195 -1.82689 0.169245 -6.29775 0.89321 0.825169 -0.047329 C
50 1 5.43404 8.37694 2.82353 -1.13268 -2.21589 -0.861605 1.09795 -0.842526 -0.397003 C
54 2 6.87312 9.67838 1.44271 -2.35403 -0.362556 1.481 0.870863 1.15192 -0.313988 C
1 1 0.0389399 0.0739893 -0.0394871 0.736968 -0.730364 3.03191 0.38412 -0.628339 0.650826 C
35 1 8.34513 0.058623 2.77719 -4.30658 0.446389 -0.94246 -1.44002 -1.07926 -0.0889748 C
18 1 -0.0574197 8.29017 2.69326 -0.126221 -4.51264 -1.31211 1.08513 -0.0238669 0.640209 C
5 2 1.49991 1.38033 4.14743 -0.41974 -0.190096 -3.10277 -2.85808 -0.434328 0.278942 C
12 1 2.81617 2.77956 5.5294 2.21856 0.452147 0.0870292 0.379417 -0.448607 -0.16525 C
15 2 4.17607 1.35833 6.9007 4.58286 -2.98095 1.72486 -0.00218639 0.0199893 0.155056 C
37 2 6.87312 1.39988 4.14268 -1.02342 -0.317925 0.0282147 1.43246 0.175655 0.04091 C
9 1 -0.0217839 -0.0289308 5.56137 -3.30865 -4.52225 -1.21904 0.468122 0.99888 -0.38196 C
44 1 8.24757 2.76263 5.61455 2.65594 -0.317003 1.06898 0.0725352 -0.0763385 -0.968965 C
47 2 9.67649 1.44643 6.99992 1.35662 0.405377 1.3053 0.464266 -1.70367 -1.89986 C
14 2 1.46751 4.11177 6.93039 1.57459 -1.64218 0.952258 -0.811081 1.09372 0.504413 C
21 2 1.33266 6.88891 4.18215 -0.554462 -2.10996 -1.49313 0.908199 1.33743 -0.847376 C
8 2 4.11048 4.14784 4.06887 -1.38856 0.0123163 2.03952 1.15384 0.149899 0.958072 C
31 2 4.16147 6.9497 6.89087 0.123068 -2.64514 1.92846 0.931988 -0.154286 0.691882 C
46 2 6.86874 4.14728 6.93436 -3.24291 1.75046 1.80355 0.00489864 0.11254 0.702524 C
53 2 6.85428 6.93798 4.12615 0.13477 -0.709128 -1.92666 0.638654 0.0757807 0.580354 C
57 1 5.50075 5.53035 5.52447 -3.88252 -0.431921 -1.60749 -0.0929934 -0.254907 -0.700865 C
25 1 0.00901426 5.51299 5.57695 -0.263201 -0.27466 0.395045 0.00285108 -0.88429 0.326061 C
40 2 9.63664 4.1477 4.23371 1.32261 1.49537 -1.32228 0.614523 -0.0844247 -1.11536 C
63 2 9.72756 6.85616 6.98395 -1.15234 -1.18969 3.2311 -1.41492 0.0871589 -0.5042 C
28 1 2.79343 8.30992 5.5815 -4.55801 0.807351 -5.15429 -1.23474 -0.0471386 -1.57536 C
30 2 1.41176 9.6716 6.93326 5.38007 -2.17804 1.20882 -0.818157 0.369248 0.495572 C
41 1 5.53251 0.00115824 5.46598 0.483763 -6.41151 -3.15062 0.424827 -0.213907 1.55366 C
24 2 4.11075 9.75364 4.18503 -0.339505 1.27366 0.833318 -0.713532 -0.724389 -0.433895 C
62 2 6.95797 9.67622 6.85422 -3.4857 1.94591 1.62138 -0.82721 1.30687 1.551 C
56 2 9.65062 9.66835 4.13559 1.58995 1.21665 -2.3839 0.566956 -0.021927 0.568945 C
60 1 8.29514 8.24983 5.58505 -3.64536 2.54856 -1.02384 0.771593 -0.48759 -1.36926 C
4 1 2.79818 2.78733 0.0207486 -0.57514 1.3973 2.65613 -0.202325 0.463931 0.319755 C
11 1 2.79097 0.00495755 8.31908 -5.63414 -1.74151 -2.15534 0.099381 -0.432 -0.627009 C
13 2 1.44382 1.44023 9.64823 5.24838 0.449132 1.94541 -0.296289 -0.552369 0.98534 C
42 1 5.54012 2.70394 8.3336 2.92177 -0.405729 5.15143 -0.368795 1.73235 0.314975 C
45 2 6.98384 1.42955 9.71106 2.03583 -0.997297 0.071843 -1.11329 -1.54298 0.317387 C
10 1 0.0121446 2.74249 8.30099 -2.53727 -3.63884 -1.33552 1.01115 1.0782 -0.137059 C
43 1 8.33217 0.0287957 8.31618 -1.7595 0.36172 -1.5112 -0.410948 -0.909338 0.0696353 C
27 1 2.88048 5.56953 8.30578 -1.05811 7.52726 -4.61036 -1.32343 -0.959363 0.530897 C
29 2 1.46764 6.89027 9.75177 3.38343 -0.0929997 -0.0144977 -0.981959 0.877527 -2.13396 C
16 2 4.20368 4.21258 9.79209 2.99976 0.728837 -0.561317 0.190242 -0.87128 -1.21116 C
61 2 6.86179 6.9014 9.75444 -1.9125 -1.52782 -1.17071 0.759343 0.915238 -1.0761 C
48 2 9.71843 4.10121 9.64784 2.59412 1.18456 -0.0461917 0.518984 1.00489 1.05268 C
59 1 8.29192 5.4783 8.36922 0.97 -5.46727 6.84801 -0.532016 0.823935 -0.664181 C
32 2 4.16989 9.67426 9.67598 0.753743 -1.03978 2.24879 -0.118221 0.915216 -0.0246411 C
58 1 5.53271 8.33477 8.29243 -1.88152 2.33579 1.69017 0.834256 -0.760812 -0.304303 C
52 1 8.26138 8.35341 -0.0156362 -2.50906 -0.527188 4.52231 0.605649 -0.854927 0.533317 C
26 1 -0.0227907 8.27327 8.29609 1.99784 0.0915809 -4.63658 1.5617 0.381632 1.70739 C
64 2 9.72619 9.73331 9.72789 1.36056 2.25298 -0.835066 -0.405934 -0.362991 -0.887879 C
ITEM: TIMESTEP
11400
ITEM: NUMBER OF ATOMS
64
ITEM: BOX BOUNDS pp pp pp
0.0000000000000000e+00 1.1085848640000000e+01
0.0000000000000000e+00 1.1085848640000000e+01
0.0000000000000000e+00 1.1085848640000000e+01
ITEM: ATOMS id type xu yu zu vx vy vz fx fy fz element
3 1 2.75119 0.0183436 2.79344 -2.32337 -2.67838 -1.42087 0.200222 -0.543384 0.0396241 C
7 2 4.1393 1.40234 1.47169 2.06167 -1.22114 1.44465 0.573734 0.548552 -1.21091 C
34 1 5.57871 2.7922 2.83054 0.261524 -7.72974 0.571555 -0.283823 -0.398487 -0.490459 C
2 1 0.0103829 2.80047 2.75378 -2.22005 -2.95016 -2.36434 -0.338635 -0.909365 0.286937 C
36 1 8.34571 2.75983 0.0521058 -1.29895 -0.0892742 -0.738102 -0.661781 0.366912 -1.44491 C
39 2 9.68196 1.38952 1.3979 2.14789 0.843119 2.96969 0.828833 -0.70019 0.450306 C
6 2 1.36429 4.1525 1.35613 1.40784 1.2729 1.12298 0.372378 0.271703 -0.32643 C
19 1 2.74627 5.47405 2.83783 3.57882 -4.25913 -2.23919 0.317314 0.930739 -1.10631 C
23 2 4.1575 6.84169 1.37884 2.86312 -3.566 0.442957 -0.495289 0.807889 0.480221 C
38 2 6.9506 4.15272 1.38718 1.14911 1.51446 0.151614 -0.330583 0.514318 0.200847 C
49 1 5.53459 5.50886 -0.0619875 -4.68573 1.53872 -0.450182 1.01071 0.353184 0.931019 C
17 1 -0.073136 5.57211 -0.0024793 0.403688 4.1329 -0.803702 0.892941 -0.104261 0.511662 C
51 1 8.34811 5.56876 2.77845 4.46982 2.86454 -1.12243 -0.859715 -0.251226 0.176673 C
55 2 9.69094 6.9874 1.40725 2.70929 -3.02006 1.22723 0.464401 0.138893 0.137603 C
20 1 2.67277 8.25956 0.0481267 -5.29662 -3.20493 0.0824422 2.02265 0.669631 -0.613235 C
22 2 1.3729 9.703 1.41254 4.37091 -1.65784 0.92601 -0.524751 0.662599 -0.0738668 C
33 1 5.57857 0.0583764 0.058224 -2.56046 -3.21975 3.13683 -0.733356 -0.458446 -1.1643 C
50 1 5.58309 8.3111 2.7345 -1.76195 3.96968 0.882691 -0.243699 -0.3755 -0.148992 C
54 2 6.99598 9.73758 1.37102 -1.85405 -1.00599 2.05465 -1.04162 -1.04446 -0.333759 C
1 1 -0.047291 -0.0240512 -0.0234326 -3.5848 0.308595 -1.6143 0.0642407 -0.226951 1.4225 C
35 1 8.30414 -0.0233545 2.77904 4.33445 2.44835 -0.578445 0.313419 0.867128 0.139539 C
18 1 0.000728815 8.38417 2.84785 -2.17341 2.40637 -2.51182 -0.636701 -1.01639 -0.730668 C
5 2 1.38458 1.39886 4.16961 4.17101 0.76627 0.27133 -0.756767 0.0271619 -0.754298 C
12 1 2.68729 2.7677 5.54457 -3.37843 1.13908 1.47823 0.573438 1.07742 0.148315 C
15 2 4.09188 1.4095 6.85951 -1.56234 -1.00255 -1.02798 0.9636 0.0596994 1.48512 C
37 2 6.94666 1.35193 4.17659 -1.73835 -1.95302 0.915276 -0.290207 0.260072 -0.162956 C
9 1 0.0130081 0.0453155 5.56326 -1.71827 0.978497 0.50224 -0.891316 -1.33727 -0.885655 C
44 1 8.38939 2.68745 5.50768 -1.69995 0.833508 -0.213524 -0.267185 0.586869 0.577721 C
47 2 9.73061 1.35832 6.9503 -2.13085 1.75167 5.36133 0.136952 0.820852 0.29966 C
14 2 1.2599 4.15234 6.92815 -2.88996 1.20212 0.93596 2.14784 -0.266079 0.0247705 C
21 2 1.37544 6.93863 4.1839 1.96615 0.11989 1.12311 0.357334 -0.268912 -0.243844 C
8 2 4.16884 4.13735 4.20472 1.36685 1.03549 -2.4895 0.0205464 0.0840954 0.665942 C
31 2 4.144 6.96308 6.94874 0.034393 1.0207 0.252752 0.187607 -1.54168 0.655991 C
46 2 7.11147 4.1345 6.91836 2.69318 0.57586 -0.50807 -1.94772 0.0719387 -0.152796 C
53 2 6.93397 6.93572 4.19461 -1.58564 -2.24042 -3.19883 -0.00232096 -0.367549 -0.969016 C
57 1 5.61781 5.51486 5.59816 3.04402 1.20159 3.07263 -0.935598 0.238083 0.0013332 C
25 1 -0.00745405 5.5004 5.50214 -0.674459 3.26433 -2.91069 -0.293578 0.851824 -0.142326 C
40 2 9.69361 4.13321 4.15828 -0.212988 1.18094 -1.06228 0.341951 0.150467 -0.820693 C
63 2 9.74475 6.9405 6.81636 4.35636 -1.35158 -0.236097 0.375547 0.662444 1.76116 C
28 1 2.79109 8.33665 5.5277 4.98778 -0.155947 4.19311 -0.291897 0.115375 0.119754 C
30 2 1.36788 9.72521 6.91438 0.816096 1.22089 -1.04779 1.10786 -0.275327 0.198396 C
41 1 5.53831 0.0322372 5.58547 -3.40131 5.29592 -1.67958 0.0189007 -0.989914 -1.23358 C
24 2 4.18903 9.70131 4.11182 3.12524 0.656893 0.965088 -0.00753818 0.370178 0.836538 C
62 2 6.97504 9.71382 6.91358 -0.521438 1.40627 -0.571161 -0.842572 -0.182144 0.321285 C
56 2 9.60174 9.68948 4.19652 1.4093 1.85871 -0.782092 2.3405 1.26075 0.0262542 C
60 1 8.3086 8.30195 5.53902 -2.76043 -0.75873 3.83306 -0.443068 0.0977938 0.223401 C
4 1 2.76705 2.7312 -0.0494833 0.497565 -2.61955 -3.20971 -0.508202 -0.0521302 0.485323 C
11 1 2.81135 -0.0141016 8.3019 0.409867 4.4997 -0.312452 -1.59097 0.495123 -0.138766 C
13 2 1.27346 1.30995 9.67244 -4.74061 0.859642 -2.72082 2.72162 1.06685 -0.000153349 C
42 1 5.55835 2.79333 8.23485 -4.23444 -2.62462 -5.43172 0.268758 -0.0956573 0.442983 C
45 2 6.9772 1.40548 9.6611 -0.337247 1.85357 -1.78049 -0.821744 0.112191 0.657263 C
10 1 -0.00301363 2.80498 8.34869 -2.49859 0.442181 0.243813 -1.23855 -1.39425 -0.491584 C
43 1 8.33688 -0.0165598 8.29637 0.0522324 -1.02179 0.0481046 0.327986 0.0462897 0.429821 C
27 1 2.67051 5.47378 8.3621 4.11063 -0.28957 1.75388 0.651945 2.1748 -1.3541 C
29 2 1.29914 6.96605 9.70233 -0.164233 -1.41117 3.17139 0.781095 -1.49719 0.324136 C
16 2 4.15829 4.17356 9.66525 -1.60892 0.575962 1.16813 -0.269329 -1.54812 -0.222558 C
61 2 6.97933 6.92361 9.69472 -2.00616 -4.23726 0.533588 -0.656946 0.210621 -0.199766 C
48 2 9.70391 4.14656 9.71106 -2.78877 -1.29198 -3.32469 -0.95361 1.01641 -0.205159 C
59 1 8.37678 5.63941 8.26012 -1.10984 -0.290703 -2.21674 0.655773 -1.70123 0.858841 C
32 2 4.13638 9.70456 9.71203 -1.47287 -1.7515 0.242966 0.839179 -0.578618 1.32955 C
58 1 5.60453 8.33051 8.32721 0.322867 1.86205 1.09628 -0.940468 0.132149 0.00180323 C
52 1 8.34565 8.33718 -0.0486445 -1.3331 2.26456 -3.631 -0.322485 -0.181402 1.03438 C
26 1 0.0198635 8.33963 8.31929 -6.36952 0.169934 -1.7763 -0.877163 -0.305922 -1.64818 C
64 2 9.72284 9.67931 9.68171 0.0292644 3.00676 -0.989603 -0.580104 0.491029 -0.417401 C
ITEM: TIMESTEP
11500
ITEM: NUMBER OF ATOMS
64
ITEM: BOX BOUNDS pp pp pp
0.0000000000000000e+00 1.1085848640000000e+01
0.0000000000000000e+00 1.1085848640000000e+01
0.0000000000000000e+00 1.1085848640000000e+01
ITEM: ATOMS id type xu yu zu vx vy vz fx fy fz element
3 1 2.81299 0.0142669 2.80462 -2.64937 1.05479 1.22078 -1.47824 -0.603591 -0.665152 C
7 2 4.12978 1.34219 1.39487 -2.03005 -0.884077 4.02162 0.919622 0.649684 -0.596439 C
34 1 5.52903 2.77279 2.72511 2.23279 5.65408 -0.084665 -0.301148 -1.11996 0.254704 C
2 1 0.0148931 2.76967 2.79603 1.62502 5.31945 -0.0864801 -0.639463 -0.278851 -0.611963 C
36 1 8.3044 2.75299 -0.0335395 0.916876 1.52646 1.63517 -0.282635 -0.515243 0.344441 C
39 2 9.6742 1.32622 1.34538 -0.153572 -0.310268 0.635236 0.765488 1.53458 1.13246 C
6 2 1.41325 4.15177 1.41009 -2.77453 0.0497571 0.977089 -0.344035 0.111742 0.68026 C
19 1 2.79509 5.59166 2.74257 -4.94983 0.84622 3.89313 0.269471 -1.10511 -0.0894995 C
23 2 4.18585 6.95979 1.33574 0.169495 1.10571 0.218353 0.434645 -0.680904 1.19805 C
38 2 6.88042 4.10522 1.34792 0.0165666 1.51335 0.992942 1.81479 0.29101 0.800509 C
49 1 5.58788 5.52707 0.0485226 -0.347477 0.660013 2.84742 -1.25858 0.750501 -1.07823 C
17 1 0.0467986 5.4696 0.00804599 -6.01586 -4.33326 -3.72628 -0.347585 1.80788 -0.718758 C
51 1 8.31371 5.48863 2.75247 -1.11873 1.1722 -1.43855 0.531755 0.904666 -0.0604168 C
55 2 9.71486 6.92304 1.35713 -0.803595 -0.587374 0.793293 0.60203 -1.62977 0.750817 C
20 1 2.86359 8.35728 -0.0153911 -3.05624 0.682579 0.713396 -2.52859 -0.430354 -0.126269 C
22 2 1.37112 9.74686 1.35322 -1.61016 0.533724 -0.469416 2.12428 -1.38983 1.29376 C
33 1 5.51741 -0.0572639 -0.0186311 3.83336 3.21093 -0.644601 -0.124851 -0.186056 0.894883 C
50 1 5.5684 8.26427 2.7908 -1.40964 0.579042 0.200333 0.0388695 1.55683 0.121482 C
54 2 6.96846 9.67331 1.38346 2.77524 2.35592 2.47076 -1.18965 -0.0330132 0.483822 C
1 1 0.0439326 9.74129e-05 0.0208144 1.071 2.22535 -6.36048 -1.53048 0.248083 -1.47094 C
35 1 8.31588 -0.0142717 2.7802 -3.55517 -2.98507 1.30576 0.415655 -0.322893 -0.468039 C
18 1 0.0601597 8.26248 2.74213 1.5568 1.69662 3.30334 -0.708705 0.859901 -0.26251 C
5 2 1.41692 1.38862 4.15323 0.0743026 -1.22144 -0.455723 0.370224 0.312306 0.708235 C
12 1 2.86322 2.78179 5.5368 -1.82029 -3.12386 -3.81241 -1.45167 -0.933782 -0.000788954 C
15 2 4.1591 1.37307 6.97211 1.43754 -1.4291 -3.15887 0.683356 -0.366084 0.0615296 C
37 2 6.93341 1.39822 4.10349 -0.105563 -2.3153 -0.234209 -0.230135 0.147447 1.06507 C
9 1 0.0339648 -0.00686807 5.53548 1.24229 2.21111 4.65415 -0.614111 0.0939063 0.348734 C
44 1 8.24712 2.86968 5.53304 2.27822 -5.62618 -0.376351 0.302178 -0.604552 -0.266751 C
47 2 9.66306 1.44467 6.87085 1.8047 -1.16482 0.80386 0.281789 -0.674113 0.51679 C
14 2 1.45579 4.16733 6.87922 -2.78598 -1.30361 1.03267 -0.963475 -0.287695 0.836056 C
21 2 1.41047 6.89974 4.13941 -4.25216 0.00553598 0.0972421 0.0144203 0.877207 0.856654 C
8 2 4.14658 4.11282 4.10907 -0.090181 -0.930996 -1.48116 0.421641 1.55569 -0.61068 C
31 2 4.15188 6.90423 6.91265 -1.38675 1.85724 -1.88638 -0.649765 0.430588 -1.0704 C
46 2 6.7661 4.17726 6.93255 2.77036 0.758086 2.23776 1.89589 0.535075 -0.0826319 C
53 2 7.05744 6.98856 4.18444 0.292352 -0.144885 -0.0138038 -1.76373 -1.55062 -0.815842 C
57 1 5.48667 5.57958 5.4418 1.0788 -2.42577 -1.34929 0.980082 -0.0460154 0.776252 C
25 1 0.0238417 5.60299 5.60708 0.494099 -5.34075 2.6613 -0.270949 0.0342124 -0.371277 C
40 2 9.76633 4.22478 4.20197 -1.10632 0.394599 2.39262 -0.980774 -0.878335 -0.440514 C
63 2 9.61114 6.97382 6.96491 -0.411633 -3.84446 0.782474 1.77047 -0.791856 0.223754 C
28 1 2.74398 8.33471 5.5655 -2.55734 2.42699 -2.42818 0.141514 -0.375031 0.0696018 C
30 2 1.36088 9.67955 7.01826 -3.34839 -0.177733 2.01785 -0.175921 0.403343 -1.42705 C
41 1 5.58788 -0.0404557 5.54786 2.1227 -0.962563 1.62191 -0.813002 1.48697 0.00942934 C
24 2 4.14082 9.72538 4.18706 0.194419 1.12751 -1.47132 0.97595 -1.3292 -0.295004 C
62 2 6.91346 9.67424 6.93909 2.41442 3.08294 -0.584506 0.75146 0.140983 0.402201 C
56 2 9.74642 9.67091 4.11652 -4.10903 -1.85568 -1.63091 0.626171 0.780213 0.139427 C
60 1 8.38286 8.38277 5.5398 3.11938 0.765399 -2.37649 -0.883619 -0.15578 0.544913 C
4 1 2.75654 2.79161 0.0589251 -1.15534 -0.80381 0.0430515 0.881872 -0.478485 -1.02011 C
11 1 2.71842 -0.0092489 8.36163 1.85349 -6.26895 1.00941 0.911593 0.487314 -0.7393 C
13 2 1.40465 1.40851 9.71819 -2.81331 -1.71459 -1.09672 -0.751627 0.294978 0.203487 C
42 1 5.54424 2.77651 8.40931 4.15277 -2.25237 1.95851 -1.1943 -0.599168 -0.915238 C
45 2 6.87746 1.3239 9.73843 4.52184 -2.8714 -2.56323 0.984812 1.04423 -0.381792 C
10 1 0.00838127 2.77935 8.28582 2.24276 3.15963 1.12304 0.208695 0.396316 -0.0602003 C
43 1 8.30514 0.034973 8.3311 -1.4039 3.77559 -3.18024 -0.201958 -0.677342 -0.609544 C
27 1 2.77353 5.56381 8.27486 -5.49773 -4.78749 0.759433 0.737173 -0.828768 0.818645 C
29 2 1.42949 6.93799 9.66237 -1.09315 2.04082 -1.99486 -0.328403 -0.247696 1.57062 C
16 2 4.17031 4.1943 9.74903 3.00862 4.72364 1.33582 -0.791162 -0.187759 -0.121746 C
61 2 6.87924 6.94934 9.73338 1.06475 -0.49665 -0.535498 0.773706 -0.7709 -0.422569 C
48 2 9.68956 4.16374 9.69952 4.49279 -1.05622 -2.07274 0.335098 -0.621228 -0.365106 C
59 1 8.26665 5.52408 8.3367 -0.860523 4.92434 0.226781 -0.949471 0.496637 -0.352593 C
32 2 4.1322 9.68745 9.65129 0.858281 0.76793 -2.34926 0.910145 0.245226 0.055964 C
58 1 5.48338 8.25854 8.2835 1.72568 1.27311 -1.62357 0.989722 0.98277 0.494345 C
52 1 8.31519 8.26138 0.04597 1.35447 0.559245 -1.53464 -0.2941 0.882245 -1.11255 C
26 1 -0.0193149 8.30371 8.35968 4.95415 0.929139 3.09063 -0.882492 0.0905782 0.0456753 C
64 2 9.65018 9.693 9.7436 2.41523 -0.228581 -0.0658904 1.06006 0.266879 -0.0726581 C
ITEM: TIMESTEP
11600
ITEM: NUMBER OF ATOMS
64
ITEM: BOX BOUNDS pp pp pp
0.0000000000000000e+00 1.1085848640000000e+01
0.0000000000000000e+00 1.1085848640000000e+01
0.0000000000000000e+00 1.1085848640000000e+01
ITEM: ATOMS id type xu yu zu vx vy vz fx fy fz element
3 1 2.78106 0.0326082 2.69466 7.36965 3.7443 0.295576 0.0204662 0.697377 0.471201 C
7 2 4.21931 1.47148 1.34492 0.607735 -0.150591 2.512 -1.19055 -1.08504 0.737821 C
34 1 5.50181 2.79217 2.80995 -2.60693 -1.06209 0.699158 0.453063 1.28307 -0.368995 C
2 1 -0.0194935 2.72481 2.76701 -1.0404 -3.16663 -0.646091 0.588211 1.4406 -0.661415 C
36 1 8.31933 2.78672 0.0551975 1.70008 1.60226 0.26727 -0.274826 0.730651 -0.199022 C
39 2 9.70888 1.38605 1.37214 -1.47331 -5.20919 -1.45501 -0.256784 -0.124984 0.46332 C
6 2 1.41727 4.17681 1.39865 2.51587 0.583878 0.0403026 -0.594938 -0.771066 -0.145682 C
19 1 2.77839 5.51077 2.78892 2.91031 1.21514 -1.41772 -1.16517 0.664453 0.43402 C
23 2 4.09299 6.86505 1.37521 2.34156 -2.60324 -4.38997 1.37681 1.56845 -0.173872 C
38 2 6.87447 4.20789 1.37189 -5.71975 0.36958 -1.11158 0.263752 -0.446522 0.545712 C
49 1 5.5148 5.57163 -0.0868753 1.67588 -1.36776 -2.01862 -0.124965 -0.601369 1.36925 C
17 1 0.0637702 5.67377 0.0762881 4.03659 -0.595137 3.83633 -1.72791 -2.47186 -0.698401 C
51 1 8.27894 5.54207 2.81851 -0.441784 -4.13384 1.22423 -0.484138 0.251959 -0.704821 C
55 2 9.62583 6.97693 1.40646 -0.999262 1.13221 1.53054 0.210986 -0.590096 -0.0196931 C
20 1 2.75043 8.31451 -0.00389026 4.95712 0.592099 0.526936 0.496229 0.48394 0.209857 C
22 2 1.37142 9.69843 1.41532 -1.27653 2.714 0.280704 -0.068565 -0.546313 -0.356003 C
33 1 5.54686 0.0552902 0.00661118 -3.44161 -0.599087 1.87972 0.338492 0.225136 -0.938861 C
50 1 5.52858 8.34308 2.75062 0.378799 -4.79727 -1.35722 -1.02266 -0.688999 0.0496062 C
54 2 6.89737 9.74453 1.35558 -0.876361 -0.00400059 -0.267481 0.710096 -0.046516 0.680623 C
1 1 0.00296962 -0.0160448 0.0608126 4.0431 -2.35867 7.48343 0.832859 0.43663 -1.51182 C
35 1 8.31899 0.0424318 2.75869 -0.702617 3.26144 -1.5555 -1.03471 -0.512331 0.183478 C
18 1 -0.0826091 8.32282 2.75685 2.568 -2.85033 -1.21726 0.853795 0.0703212 1.05676 C
5 2 1.39015 1.40329 4.11464 1.65907 -0.178899 -2.13931 0.200969 -0.793516 0.638797 C
12 1 2.76064 2.76554 5.58617 5.594 2.92775 4.53421 -0.137118 -0.231327 -1.0612 C
15 2 4.16929 1.40396 6.93663 -0.612853 -0.802335 1.15767 0.545448 0.57642 -1.07074 C
37 2 6.8896 1.41794 4.15239 -2.35454 -0.637854 -3.16773 0.762275 -0.489971 0.311667 C
9 1 -0.00649474 -0.0597393 5.45704 4.11497 0.215541 -2.89873 0.703272 0.678578 1.61677 C
44 1 8.32992 2.74937 5.56323 -3.54229 6.66953 0.8175 0.0796308 -0.646962 -0.076795 C
47 2 9.72593 1.32865 6.9823 -0.118298 0.6919 2.86283 0.0640978 -0.374327 -1.16001 C
14 2 1.41314 4.16411 6.92084 -0.382906 0.602614 -0.897152 -0.370784 0.240966 0.91941 C
21 2 1.31881 6.8886 4.16066 2.10194 -3.00291 -1.44903 0.64194 0.427663 -1.09365 C
8 2 4.09807 4.18132 4.20362 -1.00876 -2.00635 0.508457 1.1426 -0.667727 0.432073 C
31 2 4.19225 6.92784 7.01307 1.40372 -1.82342 3.7414 0.261807 0.436921 -0.791235 C
46 2 6.96396 4.13095 6.92503 -2.35498 -0.0275439 0.38382 -0.251657 0.359707 0.400691 C
53 2 6.83538 6.89931 4.19916 1.86532 2.03521 -0.296355 0.401119 -0.0456727 -0.750133 C
57 1 5.52324 5.52268 5.6307 -2.94385 2.56941 -2.64822 -0.223151 -0.153573 -0.788551 C
25 1 -0.0214773 5.51122 5.51462 0.626387 3.25052 -0.543767 0.281013 -0.833627 0.0394593 C
40 2 9.67747 4.11535 4.1311 3.78543 3.88678 -2.09473 0.188025 0.150063 0.507553 C
63 2 9.73756 6.91799 6.84813 -1.26817 2.41086 -0.260519 -0.981689 -0.783507 1.64959 C
28 1 2.79209 8.21361 5.5177 3.02014 -1.01138 1.40776 0.226062 0.82905 0.0856118 C
30 2 1.512 9.69156 6.87364 2.90384 -1.96465 2.37808 -1.99625 -0.0736697 0.188983 C
41 1 5.50965 0.0169003 5.53246 0.107888 -2.92152 -0.42265 0.34376 -0.790691 0.0775238 C
24 2 4.0824 9.73003 4.1312 -0.0233772 2.85227 -0.454295 1.08353 -0.658038 0.0774116 C
62 2 6.90706 9.6203 6.90682 -4.22286 0.31492 2.10443 0.350906 1.67502 0.376221 C
56 2 9.60991 9.67379 4.17135 0.29993 -0.0909898 -2.25144 0.0420302 -0.364197 -0.477987 C
60 1 8.24468 8.21706 5.55651 -0.729777 1.1491 0.747653 0.652143 1.11939 -0.709378 C
4 1 2.84398 2.81892 -0.0266184 0.164707 3.84461 1.05595 -1.21067 -0.369128 0.325414 C
11 1 2.85077 0.0621375 8.2536 -0.772435 3.5273 1.41333 -0.679832 -2.00869 1.32898 C
13 2 1.48008 1.33997 9.72003 -0.0251979 -0.251605 -0.590286 -0.885262 0.504695 0.403166 C
42 1 5.51041 2.80776 8.27525 -1.48454 3.95889 -0.842767 1.56879 -0.709403 0.371143 C
45 2 6.94266 1.48889 9.71906 -2.45789 -2.32934 -0.493829 0.0173915 -2.10209 -0.955643 C
10 1 0.066335 2.7122 8.33146 -1.6589 -2.3259 0.533756 -0.523176 0.938325 0.592741 C
43 1 8.34303 -0.102148 8.35814 3.54735 -0.712839 3.11621 -1.48741 2.06748 -0.746556 C
27 1 2.85532 5.53962 8.34115 -0.459203 2.16558 -0.306668 -1.8933 -0.354098 -0.401081 C
29 2 1.43 6.90857 9.71045 0.759269 0.879064 -1.9847 -0.313909 0.987074 -1.10637 C
16 2 4.18105 4.13461 9.65342 1.12839 1.33137 0.1981 0.200704 0.86729 0.477288 C
61 2 6.91946 6.93505 9.69311 -2.42232 -1.9266 1.87561 1.57711 -0.284236 -0.153024 C
48 2 9.70227 4.14503 9.75268 -0.310482 1.88538 -0.0496162 2.0155 0.504999 0.122763 C
59 1 8.36104 5.50076 8.31657 3.66437 -1.77017 -0.739263 -0.326872 1.1034 -0.24878 C
32 2 4.18222 9.72586 9.70229 -2.01332 -0.175263 -0.0637142 -0.255529 0.185099 0.0785955 C
58 1 5.59781 8.32964 8.3668 -3.16503 -5.22033 0.272005 -1.36962 -0.155261 -0.588165 C
52 1 8.29514 8.35248 -0.00848123 -1.03237 -2.03428 1.79006 0.00239795 -0.00719336 -0.371664 C
26 1 0.0130459 8.28855 8.25663 0.282789 -1.36509 0.682478 1.35199 0.589321 0.39944 C
64 2 9.75786 9.70708 9.69396 -1.79105 0.566254 -2.33219 0.00216567 -1.31205 0.706605 C
ITEM: TIMESTEP
11700
ITEM: NUMBER OF ATOMS
64
ITEM: BOX BOUNDS pp pp pp
0.0000000000000000e+00 1.1085848640000000e+01
0.0000000000000000e+00 1.1085848640000000e+01
0.0000000000000000e+00 1.1085848640000000e+01
ITEM: ATOMS id type xu yu zu vx vy vz fx fy fz element
3 1 2.67838 -0.0947554 2.84931 -2.08801 -2.67409 -0.440779 1.95328 0.987833 -0.286752 C
7 2 4.08883 1.29619 1.40936 1.67469 -0.4153 -0.417791 1.14177 -0.297941 0.0200052 C
34 1 5.62808 2.71997 2.73182 1.71312 -1.23957 -0.108823 -0.831218 -0.646368 0.525106 C
2 1 0.0296766 2.82448 2.78816 3.58263 0.0889762 5.54276 -0.854512 -1.29832 0.760313 C
36 1 8.28941 2.71012 -0.0446332 -1.70402 -3.54551 0.79775 0.967606 0.331097 0.576245 C
39 2 9.71515 1.42529 1.41066 2.76211 0.100121 1.25229 -0.21108 -0.731312 -0.284175 C
6 2 1.33944 4.14093 1.40359 -0.480253 -0.359394 2.12629 1.03301 0.21991 -1.31605 C
19 1 2.75037 5.53849 2.78507 2.40771 -2.29896 0.471675 0.527905 -0.0629845 -0.229706 C
23 2 4.17123 6.91188 1.43254 -1.5845 -4.32154 1.53355 0.208157 0.363864 -0.259867 C
38 2 7.04625 4.09459 1.39086 -0.9945 3.06547 0.177977 -1.20864 0.898361 -0.0974391 C
49 1 5.57334 5.48495 0.0734824 1.76423 0.779915 -1.9272 -0.189273 0.392087 -1.25531 C
17 1 -0.0867527 5.42422 -0.0755687 3.95879 5.95218 2.36447 1.67602 1.63839 1.38237 C
51 1 8.3815 5.58773 2.72402 1.48836 -0.362334 0.249598 0.599781 -1.12045 0.790844 C
55 2 9.81603 6.93374 1.38547 0.255358 0.914139 -0.488377 -0.916299 -0.00499072 -0.476517 C
20 1 2.76313 8.2921 0.00432425 0.0120346 -2.74765 0.0861774 0.161772 -0.426678 0.0822469 C
22 2 1.36968 9.69282 1.36831 -1.49594 1.55744 0.8364 -0.66893 0.321922 -0.586357 C
33 1 5.56271 -0.0639044 -0.0475717 2.15401 -0.568882 -1.06551 -0.561488 0.374643 1.23368 C
50 1 5.60293 8.32758 2.80994 4.16871 3.46805 1.58594 0.173135 -0.623979 -0.22066 C
54 2 7.02558 9.68305 1.3953 3.02527 2.51721 2.04797 -1.42004 -0.156956 -0.350943 C
1 1 -0.0670804 0.0309069 -0.0655541 -2.46931 -0.191753 2.14262 0.66823 -0.494947 2.95336 C
35 1 8.37531 -0.0564331 2.79991 3.76177 -1.32881 3.01226 0.197795 1.26902 -0.422187 C
18 1 0.064042 8.33872 2.8255 -3.78008 0.965758 -1.96066 -0.572668 -0.215389 -1.20834 C
5 2 1.384 1.39892 4.19766 1.00177 2.20382 -2.54494 -1.48979 -0.786847 -0.617338 C
12 1 2.71942 2.79885 5.47517 -1.61481 1.02192 -1.0986 1.59697 0.796508 1.6383 C
15 2 4.09345 1.39771 6.94435 -0.78354 -0.297685 0.307479 -0.0800488 -0.455896 0.0688218 C
37 2 7.01322 1.34142 4.19274 -1.16982 -1.15468 -1.80649 -1.06921 0.0898919 -1.17046 C
9 1 -0.0516648 0.0391398 5.62486 -4.25112 -0.858279 -4.51133 0.423565 0.437006 -1.90453 C
44 1 8.36028 2.75041 5.49262 1.60192 -2.11169 -1.21874 -1.42358 1.86535 0.440644 C
47 2 9.63669 1.44883 6.86294 -2.04853 0.168823 3.47055 0.870404 -0.483844 2.33685 C
14 2 1.3388 4.21726 6.90875 0.764319 2.11272 -1.9035 0.774105 -0.890618 -0.254029 C
21 2 1.41845 6.97615 4.16223 -4.92379 -0.102374 1.90544 0.236602 -0.550994 0.549602 C
8 2 4.22927 4.15274 4.10413 0.349535 -0.476356 -2.68984 -0.455457 -0.225596 0.408586 C
31 2 4.13558 6.94718 6.88935 0.765564 0.4067 2.28733 0.607559 0.0224708 0.337205 C
46 2 6.94215 4.16155 6.91596 -3.05393 0.676202 0.571384 0.371423 -1.07655 0.0151388 C
53 2 7.06118 6.93477 4.16614 2.05584 -2.49653 1.03839 -1.40044 0.384347 -0.187539 C
57 1 5.61793 5.5393 5.53264 -0.230007 -0.864399 2.55868 -0.949589 0.695417 -0.496209 C
25 1 0.0218097 5.5706 5.51052 0.536706 0.78403 2.54417 -0.42185 0.696287 0.269489 C
40 2 9.72253 4.17417 4.18919 0.870565 0.76198 0.487953 0.040973 0.486134 -1.42051 C
63 2 9.69928 6.943 6.88879 2.63124 -1.18054 -2.36733 0.151465 0.288808 0.699395 C
28 1 2.73182 8.39186 5.5789 -4.06375 -2.33825 -0.767647 0.205479 -0.466195 0.160388 C
30 2 1.28977 9.77067 6.96881 0.896908 1.25252 2.43269 0.945607 -1.40786 -0.352868 C
41 1 5.57749 0.0337044 5.5915 1.02428 3.77282 1.22282 -0.358474 -0.237971 -0.19871 C
24 2 4.21926 9.68515 4.22743 -3.22292 3.63717 0.541944 -0.800993 0.608287 -0.55389 C
62 2 6.99578 9.70829 6.90041 1.93627 -2.25369 -1.72768 -1.43574 0.277574 0.300095 C
56 2 9.75149 9.70244 4.17304 -1.5545 -0.944428 -1.36248 0.652259 0.618918 0.15102 C
60 1 8.38696 8.38434 5.51866 2.11627 -4.74917 0.388003 -0.364593 -1.27267 0.386937 C
4 1 2.6894 2.65376 0.00573496 2.51139 -1.86194 0.97642 0.384457 1.5797 -0.152699 C
11 1 2.68164 -0.0647002 8.35931 0.877699 3.71945 -3.95088 0.748296 2.06151 -0.605207 C
13 2 1.25253 1.36003 9.67151 -1.47635 -2.2149 -1.03845 1.27114 0.814417 -0.748524 C
42 1 5.58147 2.71797 8.32019 -3.25884 1.46392 2.72344 -1.76632 1.79374 -0.634471 C
45 2 6.90083 1.38866 9.68528 -1.22036 2.84444 0.0544938 -0.278513 -0.855636 0.51572 C
10 1 -0.0593382 2.84566 8.2847 5.24695 0.69165 -3.20039 -0.0167199 -1.26282 -0.605644 C
43 1 8.22661 0.082979 8.26709 -0.334818 -5.81026 2.15909 2.39756 -1.24015 0.988456 C
27 1 2.73641 5.56325 8.28775 6.92094 0.613573 -0.992495 0.522184 -0.0565465 0.479053 C
29 2 1.33442 6.90575 9.71071 0.170785 -2.95722 -1.43311 -0.052207 0.132907 -0.404692 C
16 2 4.12426 4.13483 9.70132 1.14633 0.11652 0.42863 0.187764 -0.62827 0.438711 C
61 2 6.90708 6.93979 9.671 -5.22122 -0.744183 -1.16916 -0.604401 0.22116 1.2274 C
48 2 9.61669 4.1232 9.66093 -2.80843 -1.65432 -3.31363 -0.790467 0.373184 -0.444996 C
59 1 8.2606 5.59303 8.29863 -1.36571 -2.11873 1.48979 0.996734 -0.748568 -0.497357 C
32 2 4.12906 9.66869 9.66048 0.326299 -0.604683 -3.69848 -0.0449955 0.0807197 0.966594 C
58 1 5.5337 8.37468 8.28099 6.13478 3.51108 2.0243 0.348153 -1.33475 -0.493402 C
52 1 8.35683 8.28451 -0.000231795 1.55496 -1.41114 1.86756 -0.229353 -0.472324 0.435476 C
26 1 -0.0382484 8.36109 8.31835 -3.06871 -0.879497 -1.28086 -0.465483 -0.755128 0.731503 C
64 2 9.66439 9.73148 9.7725 1.61944 4.14542 -0.0573882 -1.10878 0.168069 -3.13218 C
ITEM: TIMESTEP
11800
ITEM: NUMBER OF ATOMS
64
ITEM: BOX BOUNDS pp pp pp
0.0000000000000000e+00 1.1085848640000000e+01
0.0000000000000000e+00 1.1085848640000000e+01
0.0000000000000000e+00 1.1085848640000000e+01
ITEM: ATOMS id type xu yu zu vx vy vz fx fy fz element
3 1 2.81861 0.0437242 2.70634 -6.02468 -2.93273 -0.148071 -0.951737 -1.24673 0.942555 C
7 2 4.1799 1.45006 1.41516 -3.7747 2.11257 3.83733 -0.776174 0.604498 -1.36371 C
34 1 5.47767 2.80983 2.80362 2.30214 1.20045 -0.639427 0.865696 0.797038 0.00589286 C
2 1 -0.0935039 2.73905 2.69493 -2.81557 0.899945 -5.56417 1.90733 0.703438 1.44876 C
36 1 8.35715 2.82882 0.0123383 1.57196 0.446638 0.409285 -0.784446 -0.713315 -0.699172 C
39 2 9.65091 1.36864 1.31437 -0.337107 -2.58691 0.609694 0.688977 -0.379962 0.300683 C
6 2 1.4102 4.23382 1.38236 -3.5232 1.03702 2.93103 -1.1782 -1.67687 -0.122684 C
19 1 2.74255 5.58545 2.73144 -3.87531 1.78215 1.77137 0.970452 0.167229 0.0212198 C
23 2 4.13496 7.01233 1.35959 0.184188 -2.7674 -3.04376 -1.36064 -1.26263 -0.330454 C
38 2 6.89013 4.14781 1.34358 -0.441318 -0.134599 0.0520419 -0.443804 0.9658 0.997193 C
49 1 5.48569 5.61874 -0.0133848 2.1293 -2.1821 3.44133 1.70842 -0.252856 0.554528 C
17 1 0.0433936 5.60569 0.0267756 -5.01173 -6.77048 -4.42222 -0.0433737 -0.194242 -0.282852 C
51 1 8.26587 5.52827 2.80528 -2.2771 4.166 1.07479 -0.991832 0.252289 -0.121304 C
55 2 9.64474 6.86858 1.39627 1.87791 0.899878 6.34662 0.0184716 1.56965 -0.402623 C
20 1 2.74832 8.38922 -0.0161632 -0.974348 5.87641 -1.02585 1.47387 -0.256878 0.298837 C
22 2 1.405 9.69584 1.36323 -3.13862 2.05193 1.91924 -0.415669 0.627728 0.967536 C
33 1 5.52646 0.046666 0.0557129 1.41334 0.182507 -1.64343 0.605587 0.110018 -1.31828 C
50 1 5.45603 8.29388 2.74128 -0.447481 -0.214438 -0.396602 1.09686 0.726383 0.113216 C
54 2 6.81376 9.66994 1.3766 2.35753 2.33343 -1.07763 1.48789 0.665482 0.284699 C
1 1 0.0678162 -0.00226824 -0.00359643 -2.53002 1.73278 -7.71599 -0.776091 0.190433 -0.716562 C
35 1 8.23557 0.0478899 2.71045 0.657386 -1.24457 -1.50223 0.294527 -1.21266 1.11339 C
18 1 -0.0223937 8.29397 2.72953 3.20605 0.253864 5.99525 0.0755175 -0.196963 0.76312 C
5 2 1.38529 1.32328 4.14804 1.38545 0.138528 -2.12344 0.321501 1.79797 -0.969044 C
12 1 2.82508 2.69098 5.59533 -3.76711 -2.91577 -2.90117 -1.09938 0.530598 -0.905421 C
15 2 4.2333 1.3127 6.93862 0.701625 -0.472809 1.65529 -0.538706 0.373449 -0.555463 C
37 2 6.88827 1.44056 4.17126 0.866234 -2.01236 0.266572 -0.127421 -0.667999 -0.265272 C
9 1 0.0622724 -0.0296662 5.52348 0.459772 -4.73629 6.85772 -1.08811 -0.710977 0.274757 C
44 1 8.24713 2.80233 5.59883 5.71148 -4.25289 -0.0173172 1.97585 -1.52618 -0.69606 C
47 2 9.77599 1.382 6.91663 1.31967 -0.529152 -1.01687 -1.12324 -0.151135 -0.596605 C
14 2 1.40792 4.07391 6.98265 -4.82169 1.02427 0.867012 -0.795988 0.225918 -0.602845 C
21 2 1.39059 6.86403 4.12926 -3.42039 -1.76525 -1.63021 -1.10911 1.43821 0.872905 C
8 2 4.05955 4.2125 4.15684 -1.18628 0.723127 0.419095 0.91879 -0.958152 0.340305 C
31 2 4.12514 6.93658 6.89664 -1.81347 -0.58016 1.79719 -0.411006 -1.70337 0.605919 C
46 2 6.96048 4.12839 6.97573 2.66954 0.621766 2.19581 -1.70944 1.66581 -0.476618 C
53 2 6.81445 6.99046 4.15169 1.8582 0.396462 1.20311 1.49107 -1.25684 0.00905356 C
57 1 5.5092 5.54946 5.52577 5.64445 -2.6599 3.55495 0.306577 -0.582682 0.87657 C
25 1 -0.0319277 5.4836 5.56131 -0.449999 -3.26641 -4.41324 0.662599 0.224577 0.41456 C
40 2 9.6426 4.13916 4.17858 0.591736 1.61249 -0.151778 0.15001 -0.434862 -0.386471 C
63 2 9.64429 6.89174 6.97429 0.310112 -0.186493 -4.27827 1.12024 0.774714 -1.11838 C
28 1 2.82378 8.29459 5.50022 1.5258 1.16866 -0.843398 -1.24699 -0.175741 -0.706426 C
30 2 1.46048 9.66505 6.89325 0.509293 0.964375 0.836543 -0.507989 0.0911281 1.08008 C
41 1 5.51266 -0.0534402 5.47496 1.60855 -1.63847 0.999377 0.780561 0.688607 0.475019 C
24 2 4.16212 9.66988 4.09033 1.65317 1.27582 -0.0102325 -0.975842 0.83162 0.180507 C
62 2 6.84693 9.71769 6.95311 0.813088 0.0646807 1.31538 0.952777 -0.235737 0.0844319 C
56 2 9.66333 9.68418 4.1595 -3.62486 -1.69201 -2.15605 -0.269896 0.560502 -0.510183 C
60 1 8.22705 8.32325 5.58415 -1.98963 5.06644 0.608653 0.632166 -0.195917 -0.308444 C
4 1 2.82405 2.89777 -0.0351013 0.234305 -2.83484 -0.670131 0.0285045 -1.32219 1.06059 C
11 1 2.85778 -0.0122034 8.32389 -1.81375 -7.63125 2.98495 -0.826821 -0.405667 -0.523025 C
13 2 1.51137 1.38923 9.70663 -1.19059 -3.88545 -0.379935 -0.910776 -0.0965684 0.357886 C
42 1 5.54644 2.74355 8.28585 8.09363 -5.86384 -1.74 0.978757 0.144711 1.61724 C
45 2 7.01933 1.36958 9.71269 3.15272 0.327553 -3.78059 -1.07714 0.573877 -0.12424 C
10 1 0.0133541 2.68598 8.3684 -2.60821 -0.447859 4.89427 0.901095 1.09117 0.0652377 C
43 1 8.39731 -0.00594269 8.29078 -3.99739 3.94469 -5.34184 -0.953376 -0.521278 0.0819621 C
27 1 2.73416 5.51303 8.34923 -2.94336 1.81454 0.399518 0.966047 1.16278 -0.946024 C
29 2 1.46356 6.98139 9.74253 -0.687329 0.952379 -0.612363 -1.49204 -1.06643 -0.636955 C
16 2 4.206 4.23715 9.68422 3.44194 3.54685 -3.24847 -0.193562 -1.1301 -0.801988 C
61 2 6.96801 6.94546 9.72753 -0.620035 -0.381641 -2.01792 -1.37332 -0.50024 -1.33077 C
48 2 9.79085 4.15646 9.76626 3.02752 -0.591199 1.60572 -0.57162 0.460539 -1.21214 C
59 1 8.33853 5.52467 8.33866 0.418707 3.24976 1.57684 -0.0788043 -0.711974 1.37008 C
32 2 4.18669 9.72922 9.72928 1.60654 1.04077 -2.18832 0.193326 -0.582469 -0.333502 C
58 1 5.47669 8.24459 8.28728 -1.88897 2.25995 0.185928 1.31151 1.44806 1.38678 C
52 1 8.27225 8.3483 -0.0179392 0.948264 3.47479 -2.03709 0.851395 -0.419907 1.19367 C
26 1 0.0309369 8.2668 8.33895 1.69432 1.41856 -3.01006 0.182258 0.466333 -1.03932 C
64 2 9.73575 9.66027 9.69546 2.49406 0.581175 3.44584 0.283923 0.818972 0.243649 C
ITEM: TIMESTEP
11900
ITEM: NUMBER OF ATOMS
64
ITEM: BOX BOUNDS pp pp pp
0.0000000000000000e+00 1.1085848640000000e+01
0.0000000000000000e+00 1.1085848640000000e+01
0.0000000000000000e+00 1.1085848640000000e+01
ITEM: ATOMS id type xu yu zu vx vy vz fx fy fz element
3 1 2.83316 0.0252764 2.81888 4.67434 2.28324 -2.27568 -1.08869 -0.287584 -0.753859 C
7 2 4.21711 1.33537 1.35602 2.29002 -4.72647 3.99136 -1.03202 0.886247 0.577777 C
34 1 5.55284 2.78163 2.76292 -1.95578 -4.32908 -0.0819384 0.308225 -1.22388 -0.0790334 C
2 1 0.0916034 2.7986 2.83417 -3.87697 -2.72007 -2.33627 -1.3553 -0.213563 -1.69048 C
36 1 8.26986 2.79595 -0.0319444 -1.2154 -0.576263 -0.436286 0.682103 -0.196716 0.998859 C
39 2 9.70389 1.42177 1.37937 0.160186 0.202748 -1.27772 -0.158272 -0.00528984 1.21589 C
6 2 1.44385 4.16043 1.35682 3.13445 3.60239 1.61653 -1.04879 0.238311 1.16466 C
19 1 2.8345 5.52079 2.77209 1.61011 -1.77855 -2.57385 -0.611645 -0.527242 0.470478 C
23 2 4.1564 6.91086 1.46124 3.3752 0.394762 0.840622 1.42564 -0.540514 -1.39217 C
38 2 6.92923 4.15134 1.41206 -0.644014 -0.993316 -2.59969 -0.490302 -0.190268 -1.22196 C
49 1 5.53847 5.52779 0.00626745 -6.99754 2.32403 -2.07193 -0.551467 -0.258454 0.175244 C
17 1 -0.0209867 5.53366 0.00812303 1.02815 3.56449 2.48124 -0.0521129 -0.739357 -0.643103 C
51 1 8.30402 5.50148 2.72407 6.28942 -2.40007 -3.40234 1.04486 1.10425 0.721524 C
55 2 9.67316 6.94949 1.29579 2.24326 -4.9015 -0.798591 0.59109 -0.905904 2.37766 C
20 1 2.82315 8.19636 0.0340978 -2.77293 -3.48037 0.798384 -1.53382 1.23295 -0.580343 C
22 2 1.45739 9.67551 1.3844 2.24257 0.279178 -1.49891 -0.0921707 0.168562 0.554742 C
33 1 5.52854 -0.0249348 -0.0640977 -2.76938 -2.01255 3.01349 0.150939 -0.825276 1.42358 C
50 1 5.52924 8.32123 2.7664 -3.36414 -1.144 0.112837 -0.155634 -0.0914241 0.619303 C
54 2 6.90608 9.67712 1.42882 -3.2215 -1.88811 3.63579 0.23046 0.705245 -1.32558 C
1 1 0.0142184 -0.00964753 0.0593155 3.57503 -1.38639 2.10106 -0.475437 -0.16148 -1.32188 C
35 1 8.28426 -0.00569662 2.81712 -0.198515 1.9852 -1.72122 0.888248 0.314101 -0.730877 C
18 1 -0.00475795 8.31645 2.7436 -0.753403 0.935014 -6.09585 0.621505 -0.12474 0.36144 C
5 2 1.38604 1.40231 4.21385 2.73223 -2.68066 -0.780179 1.13957 0.078635 -0.679504 C
12 1 2.75807 2.84434 5.53546 4.39869 -1.47459 4.36999 0.30148 -1.0063 0.0613695 C
15 2 4.12672 1.42077 6.89158 1.0924 -3.5326 1.98918 0.2888 0.653592 0.937458 C
37 2 6.90735 1.37803 4.18194 -1.43661 0.579301 -0.950293 -0.280116 0.0506262 -0.608057 C
9 1 -0.0278129 0.0693024 5.5393 2.98683 4.85275 -3.39112 0.672336 -1.03364 1.40346 C
44 1 8.32159 2.73653 5.49676 -9.97242 6.7538 0.330117 0.0581272 0.348233 0.800706 C
47 2 9.66105 1.39034 6.95461 -1.50579 4.45697 4.08357 0.0524327 0.316324 -0.212643 C
14 2 1.4022 4.20598 6.91685 1.59196 1.36715 1.82259 -0.536501 0.0662934 -0.280219 C
21 2 1.48378 6.94343 4.14473 3.1103 -2.17856 -1.24654 -1.89865 -0.287105 -0.505463 C
8 2 4.20305 4.1193 4.14739 -0.0489087 1.90574 -5.29602 -0.986972 0.836957 -0.0756944 C
31 2 4.2236 6.92709 6.9896 2.26365 2.68181 -0.0779131 -1.13751 0.72049 -0.77911 C
46 2 6.9609 4.1525 6.86276 -2.16205 -2.0726 1.28663 -1.10853 0.243267 0.379268 C
53 2 6.91091 6.92353 4.10057 0.75786 2.22319 -1.18156 0.326946 -0.474241 0.32179 C
57 1 5.49879 5.5586 5.50774 -3.67274 4.1807 -5.50249 1.63553 -0.219882 0.41539 C
25 1 0.0369564 5.60349 5.54749 -0.560184 1.2714 2.31827 -0.11904 -0.720718 -0.705014 C
40 2 9.72275 4.13983 4.16898 1.8399 3.85199 1.30457 0.217876 1.02193 -0.209605 C
63 2 9.71852 6.92244 6.94262 -1.34577 -2.01173 1.22907 -0.105239 0.400691 -0.220369 C
28 1 2.75437 8.30997 5.5649 4.583 -0.385758 3.8662 1.7161 0.42412 0.616173 C
30 2 1.393 9.72916 6.9383 2.17201 1.20774 2.32292 -0.840747 0.160419 -0.78391 C
41 1 5.51493 0.0118836 5.55861 -2.81423 0.428905 -1.31628 0.130098 -0.175535 -0.284179 C
24 2 4.16106 9.69936 4.15993 1.57757 0.707463 -0.00637189 0.0609747 -0.316972 0.789979 C
62 2 6.92547 9.70193 6.89202 -4.16123 0.733128 0.33436 0.622851 -0.308331 0.521493 C
56 2 9.74252 9.73507 4.19667 2.70139 -1.61454 -2.12163 -0.677008 -0.705694 -1.27052 C
60 1 8.3452 8.26952 5.48155 0.733397 1.22021 1.41399 -0.474287 0.749568 1.08803 C
4 1 2.69952 2.68889 0.0279293 -1.32833 2.97644 -3.50579 1.30629 0.102461 -0.699857 C
11 1 2.72506 0.0624792 8.28319 4.05826 3.664 2.28847 0.483702 -0.647656 0.899201 C
13 2 1.29336 1.40885 9.67102 -2.8884 0.166654 -1.89643 0.334688 -0.214829 0.175437 C
42 1 5.50269 2.85579 8.32967 -7.76034 -0.0230859 -1.55043 0.609605 -1.66519 -1.13499 C
45 2 6.86471 1.42952 9.74134 -1.28049 -0.955082 0.291947 0.38749 -0.311923 -1.62791 C
10 1 -0.0313546 2.85108 8.26104 -0.662035 -0.967406 -3.1698 -0.213572 -0.785975 0.623131 C
43 1 8.27799 0.00341151 8.36046 1.38308 1.27538 2.42569 -0.478516 0.609627 -0.854695 C
27 1 2.76619 5.54292 8.29248 -0.439309 -6.73121 1.47789 0.434071 -0.188733 1.02931 C
29 2 1.36192 6.86761 9.70997 4.09552 0.118215 1.41243 0.599494 0.909514 -0.15685 C
16 2 4.08036 4.09312 9.72249 0.333197 3.63999 2.3684 0.124328 1.5548 0.488435 C
61 2 6.96711 6.89094 9.70004 -4.05854 -1.90361 2.40397 -0.517022 0.051466 0.124941 C
48 2 9.64238 4.17463 9.67041 -0.61655 -1.75474 -0.918384 1.18485 -0.346678 0.695652 C
59 1 8.32561 5.50014 8.28589 -2.47193 1.96393 -5.71945 -0.495771 1.13188 -0.443877 C
32 2 4.08217 9.67174 9.71182 -2.77513 -1.05883 -2.82858 0.643493 0.461697 -0.719098 C
58 1 5.59478 8.34376 8.37415 -4.02452 -4.39949 -3.76019 -0.534639 -0.34756 -0.632149 C
52 1 8.29554 8.29421 0.0153426 -2.44254 -2.13336 -2.89437 -0.142734 1.29375 -1.19248 C
26 1 0.0264313 8.32803 8.31906 -3.49784 -1.59437 5.70228 -0.333377 -0.26459 0.121845 C
64 2 9.69164 9.71661 9.66889 -0.652459 3.3253 -0.0673313 0.251685 -0.522763 1.66124 C
ITEM: TIMESTEP
12000
ITEM: NUMBER OF ATOMS
64
ITEM: BOX BOUNDS pp pp pp
0.0000000000000000e+00 1.1085848640000000e+01
0.0000000000000000e+00 1.1085848640000000e+01
0.0000000000000000e+00 1.1085848640000000e+01
ITEM: ATOMS id type xu yu zu vx vy vz fx fy fz element
3 1 2.6979 -0.0436174 2.79402 2.59772 1.12091 1.93556 1.28377 1.2748 -0.389301 C
7 2 4.12585 1.41691 1.37425 2.82246 0.729612 2.41187 0.548664 -1.63125 1.20982 C
34 1 5.56438 2.75877 2.76266 -0.341425 8.13547 -0.182189 -0.277703 0.0793793 0.182451 C
2 1 -0.0261595 2.78365 2.77983 4.19596 3.5436 3.73638 -0.0801968 -0.631335 -0.0143038 C
36 1 8.35908 2.74619 0.0118586 0.452407 4.20076 -2.1792 -0.635666 0.38357 -0.400372 C
39 2 9.69519 1.36991 1.39227 0.752672 -1.74323 -2.61775 0.554877 0.483598 0.0784242 C
6 2 1.33681 4.14494 1.39033 0.106556 2.52584 0.0721836 1.03472 0.41095 0.0872632 C
19 1 2.72799 5.55895 2.79528 -2.36702 4.40327 0.968851 0.183474 -0.508902 -0.148885 C
23 2 4.13395 6.94594 1.41644 -2.46954 -1.0706 2.21492 0.928546 0.0487345 -0.614032 C
38 2 6.98168 4.13596 1.40945 -1.70403 2.98035 2.54358 0.0397105 0.38315 0.0505048 C
49 1 5.61194 5.52507 0.0121316 3.15987 -0.549503 0.304439 -1.22666 0.674263 -0.42685 C
17 1 0.0214936 5.51393 -0.0472352 -2.53989 -1.97766 -1.517 -0.956764 0.886704 0.751554 C
51 1 8.32854 5.57438 2.82754 -10.1517 -2.46573 1.71746 0.669793 -0.914708 -1.41649 C
55 2 9.72561 6.95485 1.39714 -2.60834 3.0891 -0.780018 0.0977698 -1.07005 -0.128985 C
20 1 2.75894 8.37729 -0.0192323 5.03606 -2.529 0.526118 -0.356222 -1.2812 0.262946 C
22 2 1.31651 9.70479 1.39051 -0.554352 1.02741 1.5026 0.329462 -0.142468 -0.303126 C
33 1 5.57954 -0.0125377 0.0398712 0.151584 3.74165 -7.41696 -0.258297 0.649501 -0.338738 C
50 1 5.62986 8.31586 2.79892 -0.952285 -0.784403 -1.96808 -0.840722 -0.17987 -0.753844 C
54 2 7.01026 9.69049 1.35547 1.03203 0.414894 3.74748 -0.914299 0.366336 1.36842 C
1 1 -0.0597825 0.00168202 -0.0210278 1.15235 1.54753 3.53546 0.998394 -0.122949 0.236173 C
35 1 8.35002 0.0105871 2.76889 -5.60348 0.281559 1.50773 -0.486783 -0.30094 0.0897519 C
18 1 -0.00586647 8.31215 2.81671 0.449768 -1.09077 2.47651 -0.786679 0.725845 -0.550229 C
5 2 1.34084 1.39344 4.1841 -1.01716 -0.271722 -0.824186 0.0549246 -0.591438 -0.498159 C
12 1 2.75109 2.77943 5.50239 -2.70059 2.54759 -2.83063 0.239444 -0.473146 0.618198 C
15 2 4.1203 1.38295 6.91025 1.35669 -1.09466 -3.05011 0.744917 -0.0649075 0.116109 C
37 2 6.96673 1.38519 4.14933 -1.64896 -1.38182 1.80885 0.00952844 0.386297 0.1182 C
9 1 -0.0256256 -0.033798 5.56177 -3.65249 1.39769 0.808315 0.253488 1.36066 -1.29896 C
44 1 8.36646 2.77047 5.55934 5.82322 -6.5042 -0.469771 -1.49159 0.186336 -0.0731592 C
47 2 9.73015 1.34922 6.85646 2.11972 -1.91086 3.13891 -0.158882 0.754626 2.19863 C
14 2 1.3697 4.12344 6.8967 -3.44639 0.0899991 1.25195 0.395352 0.982563 0.932562 C
21 2 1.31252 6.9257 4.16925 -1.66049 -1.91463 -1.00516 1.03152 -0.0436948 0.31643 C
8 2 4.16058 4.13541 4.15854 0.0241786 -1.99647 1.02406 0.378996 0.784665 -0.208818 C
31 2 4.07743 6.91667 6.88873 1.39103 -0.593808 5.91902 1.70625 1.62994 -0.199036 C
46 2 6.9406 4.19221 6.96196 5.68141 -0.729846 -0.33611 0.896229 -1.36426 0.0187829 C
53 2 6.98735 6.91288 4.17778 -2.05208 0.218459 -1.91611 -1.0333 0.345373 0.991259 C
57 1 5.58618 5.51179 5.58738 -3.73762 -2.823 1.01246 -1.32475 0.880111 -1.19201 C
25 1 -0.0373452 5.52378 5.55302 0.238279 -0.576308 -1.46355 -0.00202205 0.246683 0.407263 C
40 2 9.6878 4.13988 4.17249 -0.354591 -2.38708 2.11506 0.224906 0.590744 -0.17568 C
63 2 9.69774 6.94527 6.97266 1.18918 -2.98977 -1.54 -0.355978 -0.987864 -0.837728 C
28 1 2.70331 8.38755 5.49324 -8.17501 -1.16032 -6.37236 0.195768 -1.14098 0.835987 C
30 2 1.26947 9.7252 6.91272 2.45934 0.878062 1.39736 2.06197 -0.833728 0.659156 C
41 1 5.59373 0.0107176 5.53584 -0.835799 -2.7499 -0.0343182 -0.569236 -0.15827 0.307903 C
24 2 4.19691 9.69745 4.1541 -0.179658 3.40649 -3.81989 -0.301763 0.409233 -0.215128 C
62 2 7.00852 9.70032 6.91036 -0.185287 1.23503 -1.85071 -1.5478 0.171562 0.0755231 C
56 2 9.69847 9.74633 4.19103 -3.41276 0.142756 1.82377 -0.206553 -1.48398 -0.574168 C
60 1 8.33805 8.30846 5.56875 -2.29558 -4.65797 -5.57238 0.512073 0.0366349 -0.595632 C
4 1 2.78322 2.78654 0.0347171 -5.07786 -3.00575 2.997 -0.775509 0.117307 -0.912415 C
11 1 2.72164 -0.0197627 8.30329 -3.46385 -0.708725 -4.93385 1.05724 -0.290326 0.00799948 C
13 2 1.42305 1.36296 9.71857 -2.25249 -2.88927 -2.41418 -0.818592 0.371172 0.377136 C
42 1 5.58369 2.75022 8.31413 2.04881 6.29077 2.04051 -0.919029 -0.0718915 -0.0787891 C
45 2 6.96408 1.35372 9.706 3.68151 2.48874 0.37081 0.0311004 0.17538 -0.0501977 C
10 1 0.0227717 2.73508 8.32764 -1.89977 1.52369 0.160737 -0.476559 0.0283929 -0.624647 C
43 1 8.34654 -0.013784 8.27723 0.044552 -1.27051 -1.31708 0.257426 0.245104 0.672243 C
27 1 2.7582 5.60712 8.30279 -4.72973 3.86519 -3.72416 -0.63908 -2.17212 -0.108175 C
29 2 1.33435 6.94382 9.64628 -1.26756 -2.50657 -0.687171 1.11755 0.629472 1.03973 C
16 2 4.14735 4.13707 9.68061 3.18087 0.757048 -2.6277 0.676878 0.934492 0.34257 C
61 2 6.96696 6.97564 9.65727 1.47636 -1.34053 -1.40465 -0.69368 -0.304393 1.55818 C
48 2 9.68653 4.16285 9.6771 2.47708 -0.369531 -0.836249 0.554059 -0.764013 0.344922 C
59 1 8.30642 5.56368 8.35188 3.01282 -6.3508 5.0045 0.454177 -0.0136663 -0.864438 C
32 2 4.21193 9.71659 9.72097 -0.399398 0.173813 -0.100813 -0.858328 0.270641 -0.872374 C
58 1 5.56858 8.34435 8.28515 2.55344 3.25021 3.49166 -0.697364 -0.566994 -0.540963 C
52 1 8.35265 8.32917 0.0151511 -0.74521 -0.187721 3.41763 -0.300278 -1.00519 -0.562433 C
26 1 -0.0410148 8.31804 8.29477 6.91439 1.44574 -4.34226 0.0576054 0.341574 0.594768 C
64 2 9.67635 9.66578 9.71317 3.75183 1.97669 -2.17422 0.409704 0.868752 -0.882794 C
ITEM: TIMESTEP
12100
ITEM: NUMBER OF ATOMS
64
ITEM: BOX BOUNDS pp pp pp
0.0000000000000000e+00 1.1085848640000000e+01
0.0000000000000000e+00 1.1085848640000000e+01
0.0000000000000000e+00 1.1085848640000000e+01
ITEM: ATOMS id type xu yu zu vx vy vz fx fy fz element
3 1 2.76802 0.0466047 2.7183 -5.84647 -5.00842 1.46682 0.142711 -0.977616 0.669827 C
7 2 4.13961 1.45154 1.33699 -1.91566 -0.848632 2.9618 0.249381 -0.46832 1.1664 C
34 1 5.49416 2.75249 2.79855 0.632143 -6.73938 0.418702 -0.220834 1.28419 -0.422866 C
2 1 -0.00856425 2.70902 2.73934 -2.88663 -0.993758 0.563265 0.461477 1.17542 0.81641 C
36 1 8.27909 2.75904 0.0418563 0.0616851 -3.90374 0.641858 0.337929 0.0732558 -0.764794 C
39 2 9.68405 1.37348 1.40936 -0.455984 -2.18722 -0.951943 0.219023 -0.897599 -1.33054 C
6 2 1.42659 4.11409 1.38979 -1.57185 1.41393 2.29614 -0.576641 0.620654 -0.274562 C
19 1 2.81573 5.50154 2.74955 2.95822 -1.20657 -2.17055 -1.29642 1.46325 -0.399486 C
23 2 4.14604 6.93677 1.3243 1.6314 -1.08005 1.19884 -0.645525 0.381973 0.978254 C
38 2 6.88813 4.12792 1.38503 -0.0175644 -2.451 -0.494328 -0.0756321 1.11779 0.540649 C
49 1 5.51614 5.57884 -0.0111932 0.969873 -0.410517 1.05657 0.894781 -1.10809 -0.440927 C
17 1 0.0280866 5.62383 0.0785315 3.65507 0.542349 -1.11855 0.167399 -1.47073 -0.955207 C
51 1 8.32875 5.57615 2.74267 5.05676 3.55683 1.90205 -2.57604 -0.639635 0.836379 C
55 2 9.67096 6.91689 1.43226 3.4327 -0.860223 1.62385 0.43509 1.72801 -1.11098 C
20 1 2.74757 8.36037 -0.0190052 -2.09717 4.11387 -0.096675 1.25739 0.0284309 0.00847681 C
22 2 1.37565 9.70619 1.35252 -1.51229 2.50955 -0.683457 -0.305759 0.467403 0.577231 C
33 1 5.51715 0.0601679 0.0379019 0.227818 -3.44163 6.0322 -0.253609 -0.033551 -1.7397 C
50 1 5.49164 8.34094 2.73081 2.09362 0.948586 1.8974 0.252863 -0.34186 0.0751363 C
54 2 6.8427 9.73974 1.30864 0.756596 -1.68935 -0.999747 1.84385 -0.973622 1.65371 C
1 1 0.0227193 0.00339681 -0.0533853 -4.58937 -1.44434 -1.91332 -0.330829 0.376258 1.04676 C
35 1 8.32275 -0.0469991 2.75816 3.70847 1.44384 0.0248827 -1.27533 0.658051 -0.345793 C
18 1 -0.0295731 8.33561 2.76341 -0.968746 -0.361875 -2.10235 1.02648 -0.823256 -0.144503 C
5 2 1.39336 1.36883 4.16557 1.61206 -1.18217 1.3212 0.279995 0.30802 -0.428589 C
12 1 2.78399 2.72964 5.59153 -0.695605 3.0231 0.753812 -0.152255 0.851264 -0.905778 C
15 2 4.17307 1.40292 6.97309 -1.73093 -2.68228 1.6788 0.148403 -0.900266 -0.858693 C
37 2 6.89831 1.39562 4.11661 -1.09232 -1.11197 -1.72301 0.706648 -0.769302 0.972539 C
9 1 0.0673292 -0.0637809 5.49347 -0.429539 -3.40886 -0.61104 -0.986182 0.140164 0.393935 C
44 1 8.26642 2.7916 5.5515 -0.941664 4.01211 -1.54907 0.94243 -0.222568 -0.817553 C
47 2 9.72552 1.32943 6.87525 0.526177 1.77002 -2.16145 0.0936976 0.766067 0.839369 C
14 2 1.45744 4.16169 6.94958 -1.76212 -0.420469 -1.07214 -1.38068 -0.539497 0.139389 C
21 2 1.39997 6.9132 4.13897 -0.621206 -2.36972 -0.499061 0.550833 0.34882 0.24657 C
8 2 4.10052 4.20641 4.1759 0.312681 -1.39757 -4.95567 1.44927 -1.86474 0.679366 C
31 2 4.18514 6.87676 6.92977 -2.93573 -1.77602 0.180448 0.270897 -0.546721 1.69304 C
46 2 6.90396 4.18122 6.9544 -0.993602 1.85115 1.88118 0.43792 -0.101237 -0.154271 C
53 2 6.83224 6.94087 4.17643 4.65695 2.09192 -1.87746 2.23033 0.737359 -0.972773 C
57 1 5.54016 5.55827 5.54535 4.10068 -0.711754 1.35869 -0.502136 -1.00947 0.113901 C
25 1 0.021953 5.536 5.54605 -1.44914 0.554178 1.43852 -0.450605 -0.289613 -0.393792 C
40 2 9.67158 4.17721 4.07213 1.45577 3.47611 0.652655 0.844699 -0.816611 1.79331 C
63 2 9.68501 6.94637 6.91389 0.970492 1.53187 1.63117 0.869079 0.14169 -0.220367 C
28 1 2.87037 8.23568 5.61614 3.862 4.25479 1.45528 -2.14332 0.754173 -2.07046 C
30 2 1.43275 9.65518 6.90285 -4.72825 1.96453 2.37562 0.418463 0.290962 1.4526 C
41 1 5.53214 0.0252226 5.56576 2.05615 3.3774 -2.17876 -0.00153047 -0.716903 -0.256606 C
24 2 4.13944 9.67426 4.17167 3.73446 0.748246 1.36621 -0.0372094 1.16151 -0.254685 C
62 2 6.86446 9.66814 6.99919 2.17045 0.0235911 0.352867 0.932536 1.10221 -0.697986 C
56 2 9.69935 9.67874 4.1224 2.65834 2.05379 -0.546878 -0.286964 0.162048 1.17249 C
60 1 8.28628 8.35279 5.58372 1.41849 1.48589 5.12084 -0.492341 -0.629014 -1.02528 C
4 1 2.86268 2.84492 -0.0411803 2.91477 3.02773 0.305778 -1.64567 -0.712754 1.09754 C
11 1 2.88064 -0.0190577 8.34672 -3.53188 5.03049 1.77266 -2.2095 0.352629 -0.926537 C
13 2 1.51012 1.40997 9.75306 -2.411 -1.70533 -2.19318 -1.0747 -0.556885 -1.34788 C
42 1 5.55632 2.71672 8.30451 -1.05973 -2.03465 -1.95343 -0.16148 1.94484 0.710945 C
45 2 6.90611 1.37872 9.69849 0.686772 -1.92774 -0.294093 0.857212 -0.11863 0.565342 C
10 1 0.0409358 2.75627 8.3503 3.12675 -0.0682487 -1.14332 -0.455028 0.2486 -0.198911 C
43 1 8.32883 -0.0170869 8.34671 1.24104 -1.39577 0.291913 -0.216728 -0.374658 -0.448334 C
27 1 2.82936 5.47728 8.36256 3.25851 3.69171 1.17654 -1.21453 2.25257 -1.06254 C
29 2 1.43476 6.96902 9.71544 -0.762978 -0.660205 -2.39051 -0.786184 -1.13985 -0.526962 C
16 2 4.15092 4.16259 9.6815 -0.227583 1.55671 1.04206 2.64571 -0.339901 0.0423783 C
61 2 6.94869 6.93804 9.7044 -1.67701 0.0308714 -1.0791 -0.497694 -0.278678 -0.163036 C
48 2 9.67475 4.20494 9.76057 -2.84052 -0.26153 -3.44378 0.937134 -0.288651 -0.508509 C
59 1 8.3342 5.60712 8.2895 -1.78248 3.10313 -1.36981 -0.540011 -1.35873 0.842737 C
32 2 4.20024 9.73037 9.70084 0.784825 -1.1964 -1.0267 0.0665299 -0.946095 1.03234 C
58 1 5.51908 8.26643 8.34088 0.986133 -1.17143 -2.17529 0.111877 0.260307 0.154605 C
52 1 8.29921 8.31122 -0.0144233 2.47606 1.38332 0.356049 -0.150064 -0.0173516 1.07576 C
26 1 -0.0149427 8.3064 8.33114 -8.74127 -2.10152 1.56973 0.926147 -0.204314 -0.764973 C
64 2 9.70833 9.64171 9.72253 -1.91664 1.24864 1.49051 -0.066752 1.27879 -0.453529 C
ITEM: TIMESTEP
12200
ITEM: NUMBER OF ATOMS
64
ITEM: BOX BOUNDS pp pp pp
0.0000000000000000e+00 1.1085848640000000e+01
0.0000000000000000e+00 1.1085848640000000e+01
0.0000000000000000e+00 1.1085848640000000e+01
ITEM: ATOMS id type xu yu zu vx vy vz fx fy fz element
3 1 2.83342 0.00707524 2.79654 1.90701 5.23479 -4.0404 -1.57129 -0.188296 -0.437364 C
7 2 4.19653 1.31711 1.31512 1.80535 2.80995 -0.0870907 0.363009 0.658867 1.24458 C
34 1 5.60094 2.8108 2.72668 0.407167 2.67271 -0.17543 -0.46537 -1.49934 0.287415 C
2 1 0.0502901 2.83858 2.77706 1.73124 -2.1138 -2.79388 -0.862657 -0.905154 -0.0928594 C
36 1 8.32333 2.76206 -0.0263067 -1.21422 2.20261 2.46824 -0.672266 -0.207517 0.290008 C
39 2 9.71358 1.45373 1.43133 0.922481 -1.03088 0.780591 0.135188 -0.698695 -0.385928 C
6 2 1.41537 4.11879 1.36816 3.64804 -0.826877 1.41759 -0.423576 1.04649 0.362248 C
19 1 2.7204 5.55866 2.82411 2.31961 -2.14553 4.1054 1.51318 -0.943519 -0.501603 C
23 2 4.16124 6.91043 1.45891 0.52385 -3.37113 -1.59137 0.938731 -0.886918 -0.532057 C
38 2 6.99713 4.17831 1.3817 -3.09367 -0.625776 -0.221115 -0.874033 -0.845154 -1.00937 C
49 1 5.53452 5.47819 -0.00948949 -0.946915 2.85142 1.11128 -0.403895 0.958118 0.334321 C
17 1 -0.0318558 5.4438 -0.0403248 -1.51437 3.68766 1.40932 0.772857 1.67634 0.53544 C
51 1 8.34193 5.48722 2.75221 1.45175 -0.00558294 -3.21605 1.44709 1.01864 0.0286544 C
55 2 9.70233 6.93607 1.32236 -1.9159 -0.378045 2.27206 0.59182 -0.837469 1.14851 C
20 1 2.80909 8.2209 0.0274283 -0.999584 -1.15537 -0.657795 -0.921041 0.880034 -0.300558 C
22 2 1.41145 9.63306 1.4112 -0.843738 0.773904 -0.657604 1.0568 1.34679 -0.325807 C
33 1 5.55402 -0.0799284 -0.0800853 0.0266045 1.90419 2.03768 -0.309593 -0.211724 2.11225 C
50 1 5.59973 8.27733 2.83668 -0.5815 1.27526 -1.0327 -0.323462 0.366244 -0.372822 C
54 2 6.9892 9.70401 1.44498 -2.3519 2.2261 -0.854717 -1.34456 -0.542565 -1.24684 C
1 1 0.0132727 0.0130093 0.0723444 2.32137 0.589589 -3.24937 -0.848031 -0.637518 -0.485368 C
35 1 8.33658 0.0140263 2.7852 2.1967 -4.26762 -0.00829061 1.11574 0.0915116 0.2884 C
18 1 0.0655321 8.29629 2.77722 -1.12951 1.84823 4.35252 -1.863 0.183733 -0.527196 C
5 2 1.34383 1.43542 4.15906 1.71889 -0.0631827 -1.63447 1.57072 -0.722169 -0.151238 C
12 1 2.82102 2.77152 5.49033 0.94882 -3.40753 0.0614139 -0.907547 0.569829 0.697848 C
15 2 4.14005 1.42575 6.91626 0.192156 0.734638 -0.123118 0.252971 -1.11053 0.925907 C
37 2 6.97965 1.37801 4.16119 -3.46135 0.744889 -2.65653 -1.39488 0.209145 -0.00903633 C
9 1 -0.0215228 0.106941 5.6098 2.30714 0.353729 1.5118 -0.215362 -1.19279 -1.22878 C
44 1 8.32028 2.7867 5.53441 0.239053 -3.08054 4.73581 -0.591393 0.296931 0.218898 C
47 2 9.61317 1.39648 6.94553 0.199614 -2.71485 0.412312 0.557198 0.847028 0.594046 C
14 2 1.45251 4.21257 6.893 3.08144 2.56572 1.23861 -1.2628 -1.48772 -0.0906275 C
21 2 1.41069 6.99702 4.15859 -2.69527 -2.78454 -1.44556 -0.725868 -1.42602 0.763495 C
8 2 4.21991 4.15519 4.17736 -2.78856 1.82732 -1.29115 -1.10658 0.283199 -1.59305 C
31 2 4.21339 6.9712 6.91743 1.24083 -1.22499 2.39289 -1.59623 -0.238831 -0.149549 C
46 2 6.84619 4.16542 6.89488 -1.71247 0.698361 2.89842 1.08046 -0.337212 0.342386 C
53 2 7.01052 6.84239 4.1519 -4.04881 -1.14074 1.59571 -0.703408 0.997186 0.0167721 C
57 1 5.5335 5.55599 5.5143 -0.56469 2.67744 -1.36543 0.560736 0.392187 0.455601 C
25 1 0.0268902 5.5662 5.53402 4.01408 1.63598 -0.524861 -0.161636 0.390126 0.0897457 C
40 2 9.74718 4.14131 4.1672 -0.293321 1.89056 -2.83781 -0.353677 0.731591 0.00114138 C
63 2 9.67669 6.90445 6.95921 -0.638009 -1.7786 -1.50495 1.13922 0.974209 -0.321291 C
28 1 2.71222 8.34716 5.56474 1.74686 -4.67501 3.29332 1.4217 0.205241 0.382028 C
30 2 1.3534 9.76828 6.92232 1.42895 1.02202 -0.726278 0.225534 -0.473543 -0.188199 C
41 1 5.54004 -0.0279962 5.56836 -0.676707 1.65189 2.74003 -0.227425 1.34904 -0.938336 C
24 2 4.14006 9.68391 4.18435 0.722416 1.05562 -2.271 0.849203 -0.244406 0.150784 C
62 2 6.93161 9.71371 6.88342 -4.48109 -2.02523 1.47449 0.591314 -0.983111 0.523468 C
56 2 9.76887 9.71693 4.16495 -1.55229 -1.9391 -2.20161 0.108839 0.522251 -0.303639 C
60 1 8.37386 8.30516 5.47041 -0.821444 1.65763 1.53588 -0.589934 -0.0320626 1.52073 C
4 1 2.68773 2.6467 0.0350653 5.31015 -1.18652 -0.884992 1.73258 1.40833 -0.504565 C
11 1 2.7161 -0.0207675 8.31343 8.16078 -5.62501 2.2714 0.664362 1.60818 0.344792 C
13 2 1.31867 1.39722 9.72496 2.66169 -1.88628 3.10163 -0.27333 -0.92238 -1.24676 C
42 1 5.49688 2.83329 8.35471 1.10827 -5.21011 0.682607 -0.290407 -1.32899 -1.12085 C
45 2 6.81327 1.3889 9.7207 -2.51866 1.04104 -1.07383 1.79967 0.772917 -0.61055 C
10 1 -0.0501171 2.81382 8.2935 -0.908337 0.28239 2.87451 0.838653 -0.109722 -0.320973 C
43 1 8.22156 0.0417551 8.32666 -1.37794 2.09938 -0.364526 0.566707 -0.581331 0.0506896 C
27 1 2.76037 5.5684 8.2848 2.11168 -5.94388 2.52434 1.40511 -0.097173 0.560736 C
29 2 1.37844 6.88925 9.69092 2.55536 1.13419 -0.690618 0.125967 0.0249107 0.609094 C
16 2 4.07184 4.08393 9.72289 -1.91362 2.45054 -2.94712 -0.404787 1.21138 0.425423 C
61 2 6.91712 6.91239 9.66519 -1.13462 -0.78904 -1.21746 -0.700662 0.0944209 0.731335 C
48 2 9.64932 4.16973 9.6748 -0.714784 1.49284 1.11069 -0.214221 -0.728829 -0.475974 C
59 1 8.24885 5.51619 8.29164 1.8656 3.20084 1.15385 0.328381 0.232161 -0.22775 C
32 2 4.09996 9.67453 9.69515 0.715354 1.28538 -2.54897 0.331336 -0.553884 -0.316648 C
58 1 5.54679 8.34766 8.30961 -0.493624 2.14775 3.42275 0.225044 -0.0679487 -0.0979219 C
52 1 8.29232 8.30698 -0.0184951 -2.26618 -1.04383 -2.85279 0.3049 0.243286 -0.152389 C
26 1 0.0857559 8.35998 8.32578 2.93297 3.01906 -0.278726 -2.4563 -0.784772 -0.0858149 C
64 2 9.67745 9.72767 9.69162 3.29116 -1.61161 1.82619 0.444216 0.236993 0.314978 C
ITEM: TIMESTEP
12300
ITEM: NUMBER OF ATOMS
64
ITEM: BOX BOUNDS pp pp pp
0.0000000000000000e+00 1.1085848640000000e+01
0.0000000000000000e+00 1.1085848640000000e+01
0.0000000000000000e+00 1.1085848640000000e+01
ITEM: ATOMS id type xu yu zu vx vy vz fx fy fz element
3 1 2.72537 -0.00240259 2.7798 2.77938 -0.268065 3.10768 0.50713 0.498851 -0.12946 C
7 2 4.11874 1.43389 1.3681 -0.00383299 -1.3858 -1.17035 -0.29215 -0.0350741 0.523947 C
34 1 5.49487 2.75195 2.83775 3.61128 1.68499 1.6731 0.967307 0.85862 -0.296835 C
2 1 -0.0762493 2.7249 2.77759 1.24051 3.08218 1.38497 0.711973 0.529729 -0.682501 C
36 1 8.35567 2.78633 0.00708375 3.26445 -1.64725 0.848645 0.135304 0.399648 0.514176 C
39 2 9.67255 1.35419 1.36578 0.0400551 0.788427 0.396229 0.37889 0.235934 0.062434 C
6 2 1.29614 4.19056 1.37402 -0.621588 -0.593847 1.44211 1.02049 -0.829914 0.798868 C
19 1 2.75046 5.5549 2.70595 -5.56749 2.73731 0.203765 0.0487994 -0.0123147 1.29485 C
23 2 4.09727 7.01717 1.35164 -2.08883 -0.135098 2.12716 0.671617 -1.59029 -0.90422 C
38 2 6.96954 4.17697 1.42766 1.04502 1.39398 1.86887 -1.47404 -0.504941 -0.247282 C
49 1 5.56918 5.56984 -0.0302557 1.09841 -4.23617 -1.97664 0.225555 0.527547 1.00302 C
17 1 0.0098973 5.62111 0.0593102 -0.322799 -6.18022 1.50176 -1.10523 -0.808873 -0.733768 C
51 1 8.27705 5.57081 2.84755 -1.21062 -1.64015 3.23232 0.0615394 -0.160938 -0.592739 C
55 2 9.68952 6.92441 1.46256 -1.11766 1.84133 0.830385 -0.764293 -0.0788725 -0.79062 C
20 1 2.74482 8.41366 -0.0259673 1.65896 -0.880974 2.09659 -0.152671 -0.738611 0.141523 C
22 2 1.35481 9.7057 1.40622 -4.26979 -0.91069 0.938861 -0.218965 -0.107041 -0.0955462 C
33 1 5.56406 0.0773821 0.00943853 2.96873 0.361351 -6.79325 0.512299 0.0208578 -0.408971 C
50 1 5.5074 8.31953 2.71065 0.730676 -0.74475 3.15029 0.0199166 0.593102 0.675237 C
54 2 6.90104 9.71452 1.35748 2.59326 1.90686 2.5591 0.505623 0.377503 0.553375 C
1 1 0.000662437 -0.0272187 0.00688795 2.40148 1.43792 3.01599 0.404366 0.833527 -1.31654 C
35 1 8.28037 0.0425343 2.76235 -2.36607 3.53464 0.919127 -0.118965 -1.00221 0.0246583 C
18 1 -0.074785 8.31941 2.75402 4.38259 0.312885 -2.04829 1.3017 0.590128 1.54697 C
5 2 1.29483 1.34806 4.17051 -4.99994 0.840048 0.76798 1.62719 0.810131 -0.404175 C
12 1 2.71059 2.76477 5.60415 3.28911 -1.81093 -0.424613 0.478423 -0.994661 -0.851659 C
15 2 4.20639 1.35135 6.93608 0.827917 1.18496 -0.252421 -0.305913 1.31047 -1.00242 C
37 2 6.95534 1.36827 4.21266 0.890847 -2.20394 -0.849888 -1.02499 0.582757 -1.04759 C
9 1 -0.00603581 -0.0955085 5.45411 1.08779 1.08767 0.29208 0.67611 0.794475 2.50858 C
44 1 8.33987 2.74764 5.54288 -0.418502 2.24291 -4.42221 0.841387 -0.988182 0.570463 C
47 2 9.80194 1.33987 6.90916 0.00515835 -2.74671 -0.453737 -1.07603 -0.29162 -0.696507 C
14 2 1.27565 4.07913 6.94646 0.795785 3.93927 -2.19108 1.28654 1.97822 -0.0944073 C
21 2 1.3755 6.92534 4.1453 -2.14668 0.413817 -2.63718 -1.14905 -0.519532 -0.536421 C
8 2 4.12093 4.18865 4.23835 0.509528 -1.26613 -0.00428958 -0.531661 -0.632835 -1.16206 C
31 2 4.09259 6.91205 6.89235 2.97469 0.739495 3.40841 0.857904 0.147759 0.718926 C
46 2 7.07242 4.16298 6.90887 -0.371103 0.951833 -0.308202 -1.99516 -0.129373 0.409307 C
53 2 6.83427 6.95892 4.15539 3.07258 -1.96742 -1.74143 0.400013 -0.585098 0.639461 C
57 1 5.53912 5.51073 5.61006 0.335938 -2.72069 2.00613 0.419714 0.657253 -0.640728 C
25 1 -0.0827015 5.50254 5.53362 -2.7012 -3.76284 1.76988 0.844464 0.224306 -0.178699 C
40 2 9.63625 4.09732 4.13441 2.09601 0.228993 0.577379 0.46454 0.959279 0.400634 C
63 2 9.68066 6.92823 6.9521 -1.65103 -2.80898 -0.168668 -0.676166 -1.08395 -1.27953 C
28 1 2.78043 8.29636 5.47119 -0.552087 1.24339 0.614811 -0.223605 -0.306536 0.704125 C
30 2 1.41129 9.62576 6.88575 -2.03787 2.09895 1.18959 -0.772398 0.667159 0.42715 C
41 1 5.55034 -0.0232505 5.50951 1.96299 -4.66456 1.93272 0.0629935 -0.329518 0.887464 C
24 2 4.14547 9.67684 4.13871 -1.77148 1.84143 1.282 0.214871 0.702866 -0.667042 C
62 2 6.95654 9.73081 6.95556 0.128416 0.784353 -1.7997 -0.772719 -0.832112 -0.448019 C
56 2 9.65061 9.74376 4.16864 1.47284 -0.812317 0.275922 -1.06914 -1.97417 -1.23747 C
60 1 8.25846 8.29828 5.56025 4.30908 -0.292881 -3.9375 0.541346 0.532744 -0.292821 C
4 1 2.76638 2.89097 -0.0270504 -6.04808 -3.60046 0.842653 0.0368521 -1.3658 0.145687 C
11 1 2.77527 0.0515914 8.25946 -3.78196 -0.62857 0.178215 0.706035 -2.28427 0.699946 C
13 2 1.46291 1.39943 9.662 -2.21954 -1.28924 -0.271817 -1.07777 -0.269611 1.67875 C
42 1 5.61732 2.78917 8.25711 1.95042 7.04087 3.29056 1.00667 -0.924129 0.885874 C
45 2 7.08555 1.37794 9.6946 -1.06141 0.653648 0.338939 -2.00559 0.182958 -0.8403 C
10 1 0.0279001 2.69541 8.32758 3.07908 0.241004 -0.535183 -0.776435 0.661005 0.715365 C
43 1 8.43269 -0.0531357 8.2907 -1.10029 -1.00189 3.63704 -1.37144 1.60314 -0.504397 C
27 1 2.71293 5.55726 8.29967 -2.54346 0.81787 -1.75419 0.113668 -1.12797 0.414878 C
29 2 1.34939 6.9547 9.73296 -0.365579 -2.32605 -2.95503 0.771899 0.192607 -0.546356 C
16 2 4.23798 4.15564 9.66639 1.27619 -1.12063 -0.251557 -1.09549 1.09162 -0.641801 C
61 2 7.02985 6.94744 9.69832 0.656704 -0.931569 -2.74763 -0.759323 -0.447743 -0.0208604 C
48 2 9.76751 4.14913 9.74146 -1.43606 0.0288085 -0.600167 0.463827 -0.131976 -0.0765295 C
59 1 8.39792 5.48604 8.33798 -2.14718 0.170998 -2.78158 -0.232284 1.06581 0.33945 C
32 2 4.20385 9.75726 9.74191 -0.37282 1.04043 -2.83849 -0.517356 -0.0787718 -1.95194 C
58 1 5.5486 8.27063 8.29258 0.495076 -1.9543 -2.42314 -0.0158163 0.956328 0.644688 C
52 1 8.37713 8.34322 0.0507762 2.21155 3.06269 -0.056281 -0.655985 -0.0809419 -0.857005 C
26 1 -0.052413 8.2359 8.29073 4.54341 -0.436226 1.58477 1.64308 1.71174 0.265004 C
64 2 9.70649 9.69232 9.63509 0.94194 2.688 -0.678509 1.30061 -1.0502 1.98241 C
ITEM: TIMESTEP
12400
ITEM: NUMBER OF ATOMS
64
ITEM: BOX BOUNDS pp pp pp
0.0000000000000000e+00 1.1085848640000000e+01
0.0000000000000000e+00 1.1085848640000000e+01
0.0000000000000000e+00 1.1085848640000000e+01
ITEM: ATOMS id type xu yu zu vx vy vz fx fy fz element
3 1 2.78521 -0.0739208 2.78021 -0.36645 -1.01102 -0.45609 1.16602 0.37783 0.397743 C
7 2 4.14659 1.30555 1.37995 -0.0995686 -0.497399 0.427012 -0.310098 0.502154 0.569412 C
34 1 5.53715 2.7514 2.68197 -5.01154 -2.76847 -0.671672 0.431318 -0.270812 1.01235 C
2 1 0.0469559 2.795 2.78458 -2.86919 -4.22067 2.08086 0.0959574 -0.28291 0.37547 C
36 1 8.24409 2.76139 -0.0697512 -1.3795 -0.683347 -3.32499 1.16556 -0.37666 0.358939 C
39 2 9.69565 1.42772 1.42475 0.173268 -2.6906 -1.82505 -0.370304 -0.476514 -1.32098 C
6 2 1.42414 4.16054 1.3563 -1.84609 2.08927 0.216484 -0.375179 0.23835 0.395964 C
19 1 2.84844 5.53576 2.76501 3.64272 -1.65783 -1.78649 -1.07886 0.53898 -0.29555 C
23 2 4.20622 6.94785 1.43555 0.0146457 1.68444 0.459836 -0.86456 -0.0496637 0.0355687 C
38 2 6.93053 4.1309 1.33784 3.41112 -0.590568 -0.387191 -0.35449 0.428016 0.0898641 C
49 1 5.51233 5.583 0.0826646 0.634502 0.183659 -2.25223 0.166076 -1.54876 -1.54839 C
17 1 0.0130982 5.4948 -0.110485 3.49271 5.88075 0.928039 0.693566 -0.15292 1.16249 C
51 1 8.32775 5.53218 2.66948 1.36714 -1.11562 -0.557755 0.10157 0.0610987 1.12549 C
55 2 9.76907 6.85408 1.2775 4.04062 -1.70476 3.50086 -0.626808 1.14382 1.37798 C
20 1 2.81214 8.23459 0.00825182 0.789416 1.95411 -1.97909 0.196192 0.531465 0.613803 C
22 2 1.49865 9.67142 1.33774 -1.76784 0.469665 0.0748354 -2.96885 0.157105 0.0600278 C
33 1 5.47949 -0.0854748 0.046991 -3.66387 -1.01634 4.89475 0.593058 0.361308 -0.643133 C
50 1 5.53281 8.32756 2.7992 2.95969 -2.92105 -3.45418 0.744773 -0.705884 0.0842733 C
54 2 6.8728 9.6533 1.40193 -1.16711 -1.75609 0.843783 1.16968 -0.0511347 -0.130416 C
1 1 -0.039172 0.0278468 -0.0541461 -1.38206 -3.08756 5.39578 0.885871 -0.481129 1.4527 C
35 1 8.32379 -0.0610367 2.75256 4.13459 0.711176 -0.375535 -0.465247 1.28921 0.179017 C
18 1 0.0456651 8.2814 2.77302 -3.49992 -2.33011 -1.15825 0.520835 0.170667 -1.11412 C
5 2 1.49903 1.37521 4.17076 -2.3878 -1.52862 -0.705411 -2.50253 -0.0760297 -0.154004 C
12 1 2.7984 2.8238 5.48404 -0.658087 3.78252 4.41555 1.18206 -0.439273 1.08988 C
15 2 4.10621 1.35913 6.93323 0.628382 -4.91555 2.12272 -0.448519 0.157461 -0.396434 C
37 2 6.92493 1.39839 4.14129 0.212405 -1.26569 1.43369 0.179417 -0.28449 -0.587896 C
9 1 -0.0163544 0.062241 5.62773 -1.91307 -0.80452 -6.72201 0.547467 0.179811 -1.4687 C
44 1 8.28075 2.78761 5.56276 -0.497015 2.53287 2.34068 -0.932417 1.55444 -0.93671 C
47 2 9.62335 1.48613 6.92658 1.85601 1.5336 0.555332 1.01796 -1.06875 0.592473 C
14 2 1.47437 4.13041 6.9858 -3.29397 -2.00973 1.00212 -1.22786 1.44717 -1.28732 C
21 2 1.50329 6.96324 4.18256 1.72243 -0.729332 -0.240004 -1.07122 -0.506703 -1.13338 C
8 2 4.22509 4.18645 4.08765 1.13925 2.04814 -0.249661 -0.398627 -1.0337 0.249559 C
31 2 4.1674 6.9045 6.83652 -2.59167 -0.527597 -0.887193 0.25646 1.39897 1.74392 C
46 2 6.80637 4.17981 6.94273 1.93669 1.52408 1.89464 0.989517 -0.576028 -0.243877 C
53 2 6.93605 6.92978 4.12426 0.860544 1.67232 -0.776428 1.13549 0.310736 -0.62785 C
57 1 5.54467 5.58978 5.44292 -2.22518 1.02356 -1.15841 0.176758 -0.991669 1.06064 C
25 1 0.0968009 5.60846 5.53461 0.947825 4.03392 -0.94598 -0.873282 -1.32487 1.11659 C
40 2 9.69243 4.18864 4.15107 0.299462 1.2014 -2.27472 0.69837 0.205959 0.34634 C
63 2 9.74045 6.94564 7.0084 0.115389 1.05232 2.57792 -0.603809 -0.217481 -1.26587 C
28 1 2.76017 8.3556 5.57149 -2.16832 -0.430148 -2.2151 0.858726 0.149223 0.154519 C
30 2 1.37081 9.72815 6.969 0.145171 0.260497 0.552162 -0.134185 0.0341111 -0.338053 C
41 1 5.51287 0.0455308 5.52169 -0.119065 3.12243 -0.589836 0.843309 -0.801807 0.674642 C
24 2 4.21384 9.65747 4.18487 4.75087 -0.309633 -0.0509392 -1.44827 1.06123 0.0641997 C
62 2 6.9301 9.73678 6.948 -2.35327 1.71284 1.62487 -0.881264 -0.159573 -1.00084 C
56 2 9.76191 9.73362 4.13125 2.31967 4.3665 -1.09804 -0.503046 -0.96566 1.28817 C
60 1 8.31473 8.30691 5.55834 -1.56844 0.549171 2.18556 0.865503 0.533274 -0.182047 C
4 1 2.78381 2.72814 0.0400554 2.26984 5.46077 0.417069 -0.533739 0.140466 -0.19464 C
11 1 2.74242 -0.0416002 8.36386 0.536653 5.50475 -1.80232 0.24668 1.03946 0.0276624 C
13 2 1.37608 1.45705 9.69134 0.324555 -1.22977 -0.611982 -0.73766 -0.930486 -0.307221 C
42 1 5.46225 2.69361 8.34114 -5.73046 -1.24391 -3.50874 -0.412427 1.81643 0.118228 C
45 2 6.80723 1.32267 9.71463 1.47032 -1.55657 0.643429 0.665174 0.412003 0.337144 C
10 1 -0.0619361 2.84246 8.30023 -2.85204 -2.79303 -2.2682 1.1751 -0.827107 -0.155299 C
43 1 8.23324 0.0916995 8.27674 5.69457 -1.23714 -2.3693 1.16803 -1.41698 1.33658 C
27 1 2.84507 5.56607 8.32922 0.160464 1.67685 -0.82927 -1.09825 0.0295275 -0.0340824 C
29 2 1.41611 6.93629 9.73919 0.207468 1.53588 0.807376 -0.325606 -0.0991438 -1.964 C
16 2 4.085 4.15334 9.7682 0.305097 -0.440567 -1.3665 2.10677 -0.0561168 -0.259252 C
61 2 6.86852 6.90874 9.72861 -1.05349 -0.183158 -2.23323 -0.529123 0.208724 -0.555271 C
48 2 9.66049 4.19256 9.63335 -2.73612 0.760723 -1.41176 -0.855442 -0.746073 0.904059 C
59 1 8.23967 5.55444 8.33528 2.9117 -4.9929 2.56256 0.19822 0.235225 -0.929286 C
32 2 4.12332 9.65188 9.75582 -0.204786 -0.552732 1.85699 -0.105083 0.293339 -0.804133 C
58 1 5.51421 8.35634 8.33584 -0.607238 -1.64282 -0.73512 0.142818 -1.23631 -0.864987 C
52 1 8.24059 8.22442 0.00887366 1.13162 -4.9312 3.63659 1.04971 1.15595 0.224794 C
26 1 0.00462253 8.38405 8.34712 -5.24103 -3.39053 -0.33522 0.110303 -1.19078 0.835051 C
64 2 9.61977 9.67548 9.72055 -2.14754 2.84331 -2.36224 -0.507559 1.18191 -0.71179 C
ITEM: TIMESTEP
12500
ITEM: NUMBER OF ATOMS
64
ITEM: BOX BOUNDS pp pp pp
0.0000000000000000e+00 1.1085848640000000e+01
0.0000000000000000e+00 1.1085848640000000e+01
0.0000000000000000e+00 1.1085848640000000e+01
ITEM: ATOMS id type xu yu zu vx vy vz fx fy fz element
3 1 2.77432 0.081309 2.74838 -3.32397 -3.858 -0.125194 0.145032 -0.406686 0.012114 C
7 2 4.22081 1.43962 1.36209 2.15357 0.860063 -0.916251 -0.122644 -0.199793 0.455548 C
34 1 5.57555 2.80139 2.85441 2.1606 2.84233 -1.98094 -1.16185 0.318591 -0.802656 C
2 1 0.00806362 2.80027 2.7134 2.40908 5.34673 -1.01171 0.111803 -0.49865 1.30461 C
36 1 8.35843 2.81021 0.0790766 -2.93796 1.31251 0.816599 -0.99729 0.226065 -1.07465 C
39 2 9.67913 1.41817 1.44751 0.608969 1.29111 2.16835 0.583711 -1.59894 -1.23687 C
6 2 1.40912 4.13812 1.35942 2.07817 0.649005 0.295014 -0.122995 0.377165 -0.133908 C
19 1 2.70938 5.54746 2.79615 0.24053 1.46065 -1.83535 1.37894 -0.512748 -0.185311 C
23 2 4.16215 6.87859 1.3774 -0.56509 0.691879 2.17227 -0.64949 0.464787 -0.310094 C
38 2 6.89389 4.20459 1.44212 -2.38966 1.32271 0.98783 0.878004 -0.496278 -0.357663 C
49 1 5.53666 5.48894 -0.0573155 -1.76729 4.42761 6.72062 0.396167 1.07821 0.755192 C
17 1 -0.0417889 5.54419 0.0649461 -2.94604 -4.14588 -3.98938 0.587177 0.771281 0.0982926 C
51 1 8.28888 5.58254 2.84022 -4.76899 0.717503 -1.09888 0.0118201 -1.10754 -0.700225 C
55 2 9.60291 6.96779 1.39412 -0.993567 -1.4516 -0.833548 1.18093 0.692705 0.228652 C
20 1 2.71035 8.30438 0.0184147 0.422786 -2.19313 -0.142287 1.52498 -0.33322 -0.728838 C
22 2 1.43852 9.68131 1.44813 4.87734 -1.09997 -1.66714 -1.55449 1.38822 -1.16433 C
33 1 5.61092 0.0611369 -0.0393613 0.957102 0.891433 -3.07947 -0.948664 0.122626 0.402668 C
50 1 5.52315 8.31674 2.75788 -8.41258 4.13014 0.775885 0.111696 -0.0810526 -0.619889 C
54 2 6.93653 9.76312 1.35126 -5.11219 2.5171 1.37937 -0.709137 -0.803446 0.458772 C
1 1 0.00533924 -0.0124712 -0.0323124 -1.41688 3.88841 -8.39366 0.207216 -0.00389267 1.42294 C
35 1 8.24706 0.0146621 2.78684 -3.64526 -2.78193 -1.02914 1.77106 -0.303142 -0.0148782 C
18 1 -0.0210146 8.3645 2.79116 0.402304 -0.28966 2.18727 -0.715011 -0.844046 0.175167 C
5 2 1.34992 1.40819 4.1498 4.05372 -0.504525 1.24765 -0.0633839 -0.269087 -0.442664 C
12 1 2.72556 2.73452 5.54121 -4.83916 0.157488 -6.1918 -0.481132 1.54954 0.148636 C
15 2 4.14692 1.47045 6.88583 1.94155 -0.3463 -1.3372 1.05975 -1.89901 0.96747 C
37 2 6.9574 1.39064 4.14625 -3.59456 -1.76735 0.571007 -1.38096 -0.563119 0.96121 C
9 1 0.0101918 0.00196505 5.5673 -0.746043 -3.12379 7.31933 -0.361241 -0.497707 -1.12618 C
44 1 8.34227 2.705 5.51578 2.14098 -6.9458 -0.614582 0.662743 -0.318664 1.15857 C
47 2 9.72509 1.28431 6.9736 0.796326 -0.969288 0.890897 -0.530219 1.82162 0.222056 C
14 2 1.33382 4.15874 6.92488 1.97881 -1.56154 4.02206 0.590633 -0.88173 -0.0325767 C
21 2 1.35588 6.93505 4.15924 -0.111779 -0.277646 -1.35317 -0.609601 -0.240601 0.908507 C
8 2 4.11848 4.16515 4.24701 -1.0072 2.18472 -1.62572 0.198884 -0.0669645 -1.00994 C
31 2 4.17402 6.936 6.95023 1.77244 -2.60376 0.520643 -0.385425 -0.759556 0.589012 C
46 2 7.02026 4.15165 6.88322 -0.438086 1.79287 2.64559 0.147672 -0.182406 0.857665 C
53 2 6.832 6.85587 4.17243 -7.43025 -0.79505 -3.20614 0.777034 1.68246 0.463601 C
57 1 5.57089 5.48254 5.63316 0.892676 0.00314931 0.874791 -1.3083 0.767247 -0.934476 C
25 1 -0.078901 5.44937 5.53991 0.889744 -1.35322 -3.33344 1.1306 1.76845 -0.467565 C
40 2 9.68793 4.08214 4.14983 -2.17461 0.00879873 -0.812599 -0.329814 0.865991 -0.72839 C
63 2 9.69639 6.91594 6.90286 1.89469 -3.65965 2.44994 0.332468 0.756207 -0.581675 C
28 1 2.8357 8.31386 5.52305 0.904797 0.0147239 -2.65344 -1.60675 -0.739722 -0.0698118 C
30 2 1.40307 9.69448 6.85404 1.61144 1.25706 0.68274 0.763994 -0.270675 1.32491 C
41 1 5.52625 -0.0275961 5.52268 -3.85398 0.474142 -4.83727 -0.259632 0.750522 -0.326968 C
24 2 4.07717 9.68838 4.09472 1.65188 -0.965084 -0.455017 1.86263 0.944745 0.407973 C
62 2 6.95228 9.70712 6.91887 -0.844139 2.74202 1.61866 -1.08632 -0.642773 0.0397009 C
56 2 9.63832 9.70119 4.22005 -0.203726 0.0906064 -2.17996 0.674678 0.701236 -1.22323 C
60 1 8.27028 8.2922 5.52256 -4.11821 -6.35769 -0.14901 -0.244057 -0.773855 0.41525 C
4 1 2.78034 2.73282 -0.0497549 -0.613749 -1.63644 -0.538705 0.374677 0.792293 0.665411 C
11 1 2.79383 -0.00564876 8.28921 -1.71443 -4.36384 0.265965 -0.187671 0.684396 -0.654106 C
13 2 1.4067 1.37748 9.67824 2.18891 1.11276 -1.84086 0.0568423 -0.817077 0.121962 C
42 1 5.61362 2.83361 8.26798 5.41975 -3.82558 0.783756 -0.706291 -0.840303 0.178946 C
45 2 6.98183 1.4177 9.6702 0.52334 0.59632 -0.654657 0.290031 0.739518 0.57095 C
10 1 0.0403803 2.75949 8.35077 0.518474 3.86274 3.42027 -1.01699 -0.29679 -0.660318 C
43 1 8.29729 -0.0682642 8.35167 -7.48818 3.01159 -1.63315 1.22536 0.446842 -0.431712 C
27 1 2.68257 5.5334 8.33049 3.49864 1.33219 -0.181333 1.29505 0.427621 -0.533733 C
29 2 1.29406 6.90703 9.69769 1.69527 -1.10567 2.46116 1.07818 0.163213 0.90477 C
16 2 4.14099 4.13603 9.65984 -0.389463 2.03928 0.689075 -0.0423506 0.118902 -0.367693 C
61 2 7.02939 6.91167 9.72024 0.919084 -2.67824 -0.566806 -1.86476 0.805564 -0.508967 C
48 2 9.78693 4.1707 9.75655 2.33512 1.82042 -1.56018 -2.04764 -0.0740355 -1.27091 C
59 1 8.35105 5.5937 8.2651 -2.13385 -0.144802 1.29961 0.792757 -1.96482 1.51079 C
32 2 4.16535 9.76619 9.72488 1.22783 -0.123362 0.662392 -0.00165376 -1.56039 -0.0705738 C
58 1 5.56483 8.31659 8.32876 -0.110088 3.87636 3.0741 0.27431 0.157841 0.629611 C
52 1 8.33089 8.44292 -0.0581152 -2.26846 0.0712397 -1.05541 -0.199341 -2.30268 1.26075 C
26 1 0.0405517 8.293 8.27202 3.01473 3.16613 -3.22648 -0.394761 -0.200291 -0.986087 C
64 2 9.77461 9.62748 9.64893 3.79658 -1.05504 1.10911 -0.386954 1.96783 0.135186 C
ITEM: TIMESTEP
12600
ITEM: NUMBER OF ATOMS
64
ITEM: BOX BOUNDS pp pp pp
0.0000000000000000e+00 1.1085848640000000e+01
0.0000000000000000e+00 1.1085848640000000e+01
0.0000000000000000e+00 1.1085848640000000e+01
ITEM: ATOMS id type xu yu zu vx vy vz fx fy fz element
3 1 2.76443 0.0263581 2.79477 -1.16442 3.83598 -1.2038 -1.86267 -1.1909 0.00672643 C
7 2 4.06801 1.32344 1.37814 1.69185 -2.47562 1.03446 1.32666 1.42117 -6.87991e-05 C
34 1 5.48597 2.73226 2.73544 0.95262 -3.91231 2.05731 1.18153 -0.00111418 -0.171839 C
2 1 -0.0468873 2.70898 2.83098 -2.69516 -2.48556 -4.43917 -0.145311 1.30354 -1.23557 C
36 1 8.31431 2.75379 -0.055251 3.36841 0.798172 1.17 0.0914876 -0.492557 1.1766 C
39 2 9.69659 1.34869 1.40523 -1.71974 2.08673 2.22835 -0.044636 1.33457 -0.819149 C
6 2 1.29751 4.14528 1.40359 0.022948 0.53419 1.17019 1.02616 0.0811365 0.878832 C
19 1 2.76852 5.52604 2.78005 -3.17377 -0.37747 2.93341 -0.347571 0.415907 -0.373083 C
23 2 4.14202 6.99515 1.36318 3.72734 -1.49256 2.88698 0.529672 -0.889742 0.629682 C
38 2 6.96795 4.14103 1.39381 1.09023 0.180356 1.17906 -0.862059 -0.110518 -0.495782 C
49 1 5.58652 5.58907 0.00559439 -1.16673 -4.73049 -4.77273 -0.543171 -0.449994 0.482707 C
17 1 0.0243096 5.58181 0.00309109 -2.67211 0.103498 -1.25665 -0.285612 -1.23185 -1.2356 C
51 1 8.38158 5.51304 2.74679 5.05639 4.00332 0.331638 -0.606934 0.70825 0.428369 C
55 2 9.73721 6.89858 1.34378 0.827851 -1.88956 0.308721 -0.719959 0.213099 0.843706 C
20 1 2.78415 8.38227 -0.0469139 -8.18761 0.426157 1.75827 -1.12083 -0.0637933 0.349134 C
22 2 1.29113 9.73835 1.39023 0.933307 -2.21489 2.34751 2.56106 -1.15294 0.542207 C
33 1 5.5171 -0.0175687 0.0388447 0.75253 -3.27876 2.99502 0.560073 -0.585438 -0.051604 C
50 1 5.61626 8.31121 2.78639 3.94863 -1.62613 2.41485 -1.05435 0.423851 0.725914 C
54 2 6.99177 9.68419 1.38729 1.65827 0.0566581 2.012 -0.66223 0.520696 0.4319 C
1 1 0.00544104 0.0135401 0.0455873 -1.6344 -2.7449 0.644761 -1.08533 0.249855 -2.30469 C
35 1 8.3838 -0.000445327 2.77378 -1.78613 0.364513 0.539371 -1.40698 -0.311386 -0.274473 C
18 1 -0.0419374 8.28332 2.74741 -0.372785 1.99012 -2.17829 0.887497 0.242411 0.450438 C
5 2 1.31159 1.36486 4.15473 -2.65974 0.933835 1.49127 2.85405 0.722427 0.811749 C
12 1 2.85005 2.74227 5.57803 3.61451 -3.74265 1.44537 -1.25953 -0.493718 -1.28529 C
15 2 4.17396 1.36763 7.01287 -1.71367 0.159094 -1.05467 0.583355 -0.0952832 -1.2644 C
37 2 6.98168 1.4042 4.10997 2.48442 -0.678816 -1.958 -1.03119 -0.200997 1.10336 C
9 1 0.000340314 -0.0209464 5.47334 -1.22719 5.44359 0.0105445 -0.172023 -0.389767 1.84815 C
44 1 8.27487 2.84709 5.56948 -3.51508 4.03255 -1.17918 0.431335 -0.972216 -1.14496 C
47 2 9.71027 1.39971 6.84598 0.387217 -1.23781 2.34656 -0.0730524 -0.140014 0.0170631 C
14 2 1.45153 4.15524 6.87568 -2.45791 1.35741 -1.20904 -1.23979 -0.317023 0.815643 C
21 2 1.37257 6.93133 4.18786 1.29962 -0.484597 -1.03789 -0.184112 0.117929 -0.903607 C
8 2 4.18281 4.13571 4.14505 1.33899 0.0228694 -0.0603882 -0.880753 -0.19669 -0.557379 C
31 2 4.13985 6.90688 6.84312 0.793537 2.19506 -1.80829 -0.207068 0.0914462 1.5222 C
46 2 6.84255 4.18055 6.89361 1.4567 1.44624 -0.730212 0.174817 0.481482 1.26573 C
53 2 7.04617 6.94345 4.211 2.50183 -3.68273 -1.56689 -0.670244 -0.120046 -1.43486 C
57 1 5.49457 5.58045 5.44292 3.41471 -1.71368 -2.39311 1.50773 -0.310419 1.02131 C
25 1 0.00568053 5.61872 5.60473 -2.1476 -2.85677 2.69113 -0.481234 -1.35677 -0.655148 C
40 2 9.70729 4.16974 4.16693 3.12121 0.513906 0.736648 0.441559 0.310118 1.06378 C
63 2 9.66422 6.98153 6.98288 -0.0366826 -1.72161 4.11078 0.459382 -1.22553 -0.318321 C
28 1 2.67485 8.30324 5.61301 3.01037 3.3661 2.36485 1.17698 0.484876 -1.27454 C
30 2 1.3041 9.64518 6.98515 -4.10767 2.54484 -0.604603 0.398896 1.70633 -0.398846 C
41 1 5.60735 -0.0114794 5.60342 1.38209 -1.0335 2.32125 -0.481964 0.287506 -0.958102 C
24 2 4.09927 9.71852 4.19741 1.76723 -1.10044 -0.0560732 1.42459 -0.782615 0.335495 C
62 2 7.02296 9.65551 6.93635 1.32341 2.75744 -1.6049 -0.506293 1.26158 0.467603 C
56 2 9.73153 9.72127 4.117 2.98342 2.30559 1.79754 0.158792 -0.607613 0.0441024 C
60 1 8.42227 8.38099 5.5481 1.57968 6.53724 -1.68114 -0.914343 -0.921226 -0.16496 C
4 1 2.75477 2.81689 0.0553129 -0.0908113 -3.46818 -1.60032 -0.0543606 -0.47039 -0.513503 C
11 1 2.77223 0.00583141 8.31319 0.877418 0.816703 1.20378 -0.933977 -0.464537 0.320592 C
13 2 1.42708 1.42487 9.7208 -4.7095 0.457445 -1.24145 -1.06413 -0.521043 -0.261623 C
42 1 5.51929 2.75873 8.37483 -3.27537 2.26188 -2.90671 1.01323 -0.188302 -0.462684 C
45 2 6.90863 1.30122 9.72286 -0.45322 -2.44605 -0.846175 0.577338 1.28696 -0.673731 C
10 1 -0.0088252 2.73076 8.23411 -1.66857 -0.368816 -3.13594 1.04049 1.30774 1.03058 C
43 1 8.41702 0.0385417 8.30165 0.375572 -1.30568 -0.412925 -2.54784 -0.295444 -0.621943 C
27 1 2.79898 5.49349 8.29465 -6.46616 -2.01822 1.81098 0.326561 0.758945 0.289653 C
29 2 1.38676 6.9325 9.65726 -3.64613 -0.0667275 -2.02676 0.692262 0.00830579 0.543807 C
16 2 4.1909 4.14038 9.74635 -2.48434 -0.422506 1.25155 -0.544825 0.905038 0.144314 C
61 2 6.93658 6.99102 9.72123 2.82267 -2.71294 -0.771139 -0.0171371 -1.4999 -0.805774 C
48 2 9.6988 4.15967 9.67803 0.886106 -0.0922434 -2.37617 1.05865 -0.439862 0.0782426 C
59 1 8.31158 5.52245 8.34472 -1.67664 6.33479 -4.96985 -1.28905 0.868644 -0.8499 C
32 2 4.19029 9.74637 9.65749 -1.94993 1.87491 0.562496 -0.0399429 -1.0239 -0.0162228 C
58 1 5.54671 8.27931 8.25781 -0.427264 -0.117198 -3.21325 0.0133109 0.709483 0.313099 C
52 1 8.32412 8.26893 0.0331705 -1.29171 6.33468 -3.892 0.217046 1.17696 -0.741751 C
26 1 -0.0701312 8.29997 8.35814 -2.18119 -1.69047 4.024 0.35044 0.382566 0.222043 C
64 2 9.61913 9.7104 9.678 -0.0306351 -0.256669 -3.21748 2.27553 -0.269282 2.06469 C
ITEM: TIMESTEP
12700
ITEM: NUMBER OF ATOMS
64
ITEM: BOX BOUNDS pp pp pp
0.0000000000000000e+00 1.1085848640000000e+01
0.0000000000000000e+00 1.1085848640000000e+01
0.0000000000000000e+00 1.1085848640000000e+01
ITEM: ATOMS id type xu yu zu vx vy vz fx fy fz element
3 1 2.82737 -0.040144 2.76688 6.72589 2.77111 1.84946 0.177346 1.50733 -0.75473 C
7 2 4.18201 1.41561 1.34586 -1.37862 0.600261 -0.9346 0.0146466 -0.506997 1.34244 C
34 1 5.56787 2.82369 2.76254 -2.69757 3.43233 0.0931266 -0.667317 -0.828794 0.459125 C
2 1 0.0796766 2.82415 2.76353 0.824824 -2.43345 4.51338 -0.818097 -1.51952 -0.865378 C
36 1 8.27657 2.71416 0.0236204 -2.73532 1.49944 -4.30625 0.118782 0.80356 -0.481714 C
39 2 9.72694 1.37325 1.40868 1.45485 -5.20746 1.98117 0.254757 0.566329 -0.0873219 C
6 2 1.43396 4.13957 1.33253 -1.27563 -0.688923 -0.026218 0.356823 0.473793 0.931226 C
19 1 2.81312 5.51934 2.75638 1.90412 -0.0818659 -2.09188 -0.474815 -0.264809 0.52441 C
23 2 4.15855 6.83539 1.36708 -2.22389 1.49573 -3.51136 1.08425 1.02753 0.147711 C
38 2 6.89426 4.16549 1.35011 -0.701589 1.05408 2.35906 0.792145 -0.417881 0.2943 C
49 1 5.52063 5.47831 -0.0435789 2.23723 4.64235 1.84871 -0.260646 0.437925 -0.32107 C
17 1 0.0621864 5.53569 0.014966 0.622953 3.70121 4.72468 -1.31775 0.789626 0.388675 C
51 1 8.24532 5.52239 2.78529 -2.79542 -4.76999 -1.63167 1.00193 0.729548 -0.910409 C
55 2 9.71056 6.94805 1.39531 0.164646 0.334232 1.4359 0.740925 -1.18621 1.19038 C
20 1 2.82836 8.26129 0.0283967 7.87419 0.342328 -1.60556 -1.14927 0.490371 0.0416021 C
22 2 1.45139 9.70134 1.4157 -4.58718 1.6775 0.249101 -0.698568 -0.682156 -0.812449 C
33 1 5.51783 -0.00335017 -0.0137039 -0.988273 5.0486 -3.39156 -0.249446 0.0882245 0.149209 C
50 1 5.54903 8.2947 2.73859 -1.567 0.392643 -4.20695 -0.102759 -0.211635 -0.351668 C
54 2 6.92285 9.71412 1.31992 0.284882 1.18664 -0.45062 0.320589 -0.592161 1.09577 C
1 1 -0.00218775 -0.0290865 0.00908729 3.4709 1.76567 2.71525 0.33884 -0.201187 0.241118 C
35 1 8.30292 0.0111165 2.74854 1.28678 1.08394 -0.0574592 -0.157322 -0.314567 0.279003 C
18 1 0.0742622 8.32163 2.81983 -2.37006 -0.378784 1.29708 -1.37082 0.475255 -0.779432 C
5 2 1.45817 1.38778 4.09971 -3.41157 -1.18082 -1.42995 -1.12152 -0.133917 1.01509 C
12 1 2.71416 2.84281 5.52081 0.602409 0.604748 3.50552 1.22804 -0.858118 0.686372 C
15 2 4.09362 1.41885 6.94862 0.562379 -0.494488 1.47947 0.17036 0.0301649 -0.997461 C
37 2 6.92972 1.397 4.16088 -0.737924 -1.25756 -2.51832 0.0178037 0.124823 -0.384826 C
9 1 0.0387171 -0.00393837 5.55558 2.72183 -1.94668 -4.21514 -0.428484 0.68812 -0.700044 C
44 1 8.35607 2.77204 5.51519 0.0128892 0.559866 3.29484 -1.27667 0.507675 0.439903 C
47 2 9.65607 1.38027 6.93338 3.57329 -2.86076 -0.781406 1.29316 -0.051038 1.27862 C
14 2 1.38292 4.18622 6.97928 0.778847 -0.357485 0.081704 -0.362354 0.65346 -0.425112 C
21 2 1.47201 6.96352 4.14552 -0.910508 -1.31522 -0.255684 -0.516669 -1.32847 -0.249873 C
8 2 4.2048 4.19896 4.21268 0.0653904 0.35857 2.01976 -0.425394 -0.2633 -0.618783 C
31 2 4.15681 6.89811 6.9704 0.109123 -3.61801 -0.589669 0.4417 1.80572 -0.466577 C
46 2 6.87363 4.15242 6.9389 -0.0684689 2.23621 -0.016596 2.11483 -0.561897 -0.304215 C
53 2 6.88239 6.9096 4.18329 -2.12079 0.752153 2.00473 0.0365766 -0.134122 -0.345554 C
57 1 5.55823 5.56219 5.63769 -6.50521 3.40275 -0.986016 -0.594456 -0.0845689 -1.32954 C
25 1 0.0332356 5.55718 5.47122 -0.424007 6.09793 1.0303 -0.272666 -0.11251 0.584537 C
40 2 9.69976 4.13883 4.07817 -0.421033 -0.19592 -3.29731 0.430471 0.781331 1.18566 C
63 2 9.73441 6.99229 6.84822 -0.950479 1.33345 1.74489 -0.0742503 -1.6486 1.65005 C
28 1 2.83262 8.30061 5.50281 -5.37678 -2.8076 1.90668 0.162588 0.20061 1.24646 C
30 2 1.48055 9.72676 6.89658 -0.331966 -3.80862 1.94202 -0.954713 -0.70342 0.0497864 C
41 1 5.50726 0.0274468 5.535 0.203141 -2.19998 0.818187 -0.00160807 -0.567238 0.607353 C
24 2 4.16268 9.67638 4.11521 -0.606169 2.71346 -2.03177 1.10267 0.167485 0.603255 C
62 2 6.86061 9.67263 6.99717 -0.54069 -0.9843 2.443 0.160248 0.2796 -1.57509 C
56 2 9.66502 9.71056 4.16727 -1.44246 1.1353 -2.68137 0.480408 -0.612518 0.301683 C
60 1 8.24539 8.26112 5.55412 1.66762 0.03857 1.25904 0.372137 2.0974 -0.24333 C
4 1 2.80356 2.76534 -0.018697 -2.69631 2.75479 1.5971 -0.131449 -0.237062 -0.380007 C
11 1 2.75521 0.000562323 8.33499 0.514597 -1.85649 -1.73216 1.23094 -0.302215 0.136961 C
13 2 1.43412 1.34819 9.73348 5.28049 0.765529 0.694052 -1.29458 0.576692 0.154857 C
42 1 5.50673 2.79657 8.28815 2.29096 -1.20549 3.65297 -0.368872 -0.785323 -0.262464 C
45 2 6.7965 1.40118 9.68964 -0.382553 -3.21367 0.548529 1.90548 -0.129862 0.143302 C
10 1 0.021498 2.80483 8.41683 -2.41415 -4.47477 -0.110591 -1.11008 -0.650007 -1.02753 C
43 1 8.21703 -0.0189727 8.35372 6.87525 2.11784 2.87137 0.864326 0.538984 -0.165711 C
27 1 2.80813 5.60085 8.33508 0.115432 -2.4968 -3.01013 -1.3808 -1.45476 0.0978699 C
29 2 1.3898 6.92835 9.72269 -0.638409 1.31773 -1.0735 0.570472 0.641141 -0.393801 C
16 2 4.13817 4.11545 9.63293 2.96013 -0.16154 -1.55455 -0.0349935 0.996975 1.03333 C
61 2 6.86846 6.92642 9.6911 1.70326 0.814991 0.227854 1.28084 -0.686635 0.572109 C
48 2 9.66482 4.22717 9.78009 0.0406342 2.79374 0.563597 0.122449 -1.49488 -0.680293 C
59 1 8.28743 5.53821 8.29955 5.30572 -3.76044 4.09746 0.616404 1.13045 -0.321834 C
32 2 4.15233 9.68205 9.74531 2.29282 3.12278 -0.379808 -0.52076 0.358674 -0.61509 C
58 1 5.51169 8.3135 8.37713 -1.87744 -2.12717 0.557653 -0.613247 -0.27098 -0.758598 C
52 1 8.32631 8.25478 0.0193501 -0.0797514 -4.74099 2.65121 -1.06006 0.669143 -0.748397 C
26 1 0.064966 8.35909 8.29281 -0.309117 2.21402 -3.50005 -0.892791 -0.24291 0.0682283 C
64 2 9.65021 9.66579 9.72087 -1.34359 -1.12772 -3.43862 0.900268 0.402348 -0.582089 C
ITEM: TIMESTEP
12800
ITEM: NUMBER OF ATOMS
64
ITEM: BOX BOUNDS pp pp pp
0.0000000000000000e+00 1.1085848640000000e+01
0.0000000000000000e+00 1.1085848640000000e+01
0.0000000000000000e+00 1.1085848640000000e+01
ITEM: ATOMS id type xu yu zu vx vy vz fx fy fz element
3 1 2.6527 0.0134957 2.74576 -3.98855 -5.0716 -0.768276 2.17857 -0.347843 0.82613 C
7 2 4.14893 1.34607 1.38317 1.15748 -0.696035 -2.84501 -0.178912 0.36451 0.0609057 C
34 1 5.53654 2.72249 2.78618 0.86979 0.454801 -1.77635 0.111661 1.12901 -0.264841 C
2 1 -0.0472998 2.77336 2.7687 3.48321 5.44741 2.1846 0.532406 0.711535 1.40106 C
36 1 8.36209 2.82749 0.0414949 1.90032 -4.53656 4.64237 -0.304602 -0.0744344 -0.865203 C
39 2 9.67798 1.46471 1.42446 -0.0257251 2.26755 3.3892 0.236447 -2.35382 -0.662578 C
6 2 1.32179 4.18248 1.40011 -0.421366 -1.75802 -0.619639 1.08408 -0.732096 -0.210317 C
19 1 2.70185 5.57004 2.80043 -0.5902 -0.828119 1.67856 -0.0390704 0.456626 -0.57041 C
23 2 4.13334 6.98431 1.45243 -0.913174 -3.17324 3.39426 -0.719533 -0.089676 -1.15536 C
38 2 6.95576 4.17961 1.41866 -1.79089 1.9432 -1.58687 -0.279807 0.247831 0.529429 C
49 1 5.54706 5.58673 0.0539035 -0.752518 -4.96293 -2.90277 0.00668476 0.109961 -0.147779 C
17 1 -0.0410961 5.51554 -0.00253196 6.00236 -3.17555 -3.33231 0.528877 0.0832228 0.00838843 C
51 1 8.37543 5.61217 2.7998 -1.92727 1.67286 3.96062 -1.72943 -1.78837 0.231346 C
55 2 9.66332 6.89783 1.34253 -0.341925 0.251601 -1.71445 0.339565 1.50613 -0.226062 C
20 1 2.70639 8.36262 -0.0335509 -0.668965 -0.356262 -0.174596 1.82699 -1.04499 -0.0622543 C
22 2 1.3965 9.7191 1.36316 2.02676 -0.109538 1.12275 -2.26117 -0.190327 -0.21219 C
33 1 5.58965 0.0155264 -0.00724116 -0.0485215 -3.07813 2.46958 -0.363681 0.720524 -1.01698 C
50 1 5.51796 8.35513 2.82128 4.45879 0.658211 3.40527 -0.11092 0.171974 -0.3484 C
54 2 6.90834 9.75048 1.39271 -0.480497 3.01203 -1.07028 0.504043 -0.841651 0.729849 C
1 1 0.00168655 0.0473885 -0.0176195 -2.20455 -0.927952 0.985525 0.248419 0.518537 0.872372 C
35 1 8.3423 -0.0313365 2.8094 1.0089 1.67929 -0.761048 -0.394689 1.16071 -0.636856 C
18 1 -0.0712384 8.31446 2.7185 5.4535 -0.548294 -0.68621 1.04875 0.0375222 0.284404 C
5 2 1.33001 1.35675 4.16609 1.30196 0.862322 -2.07399 -0.396018 0.564678 0.0450214 C
12 1 2.79505 2.73303 5.50937 -1.13671 3.87169 -3.71821 -0.146689 0.3125 0.509897 C
15 2 4.23227 1.40705 6.95583 -1.17295 0.265743 1.92522 -0.816351 -0.429779 -1.08515 C
37 2 6.97281 1.39035 4.17615 -0.223202 -1.81474 -1.6541 -1.01202 -0.923722 -0.576902 C
9 1 -0.0573534 -0.042028 5.55553 0.254164 -1.16555 1.35476 0.683822 0.607602 -0.240298 C
44 1 8.29843 2.72253 5.56092 1.45981 0.669815 -3.47291 0.271605 0.436584 0.118424 C
47 2 9.68059 1.37352 6.91769 -2.83953 -0.967088 -0.420328 0.765569 0.0223035 0.249809 C
14 2 1.42651 4.14088 6.92177 3.03626 0.424648 0.215468 0.802611 -0.172149 -0.240525 C
21 2 1.29188 6.93893 4.17736 0.455948 2.57433 -0.689342 0.358155 -0.261625 0.0818273 C
8 2 4.10943 4.19182 4.11732 2.797 1.89611 -0.584776 0.680364 -1.37113 0.279183 C
31 2 4.1795 6.96127 6.88329 1.83117 -1.56353 -0.0795328 0.562264 -1.3823 0.82813 C
46 2 6.94553 4.10566 6.90439 -6.76112 2.33631 1.90071 -0.10862 0.814559 0.609275 C
53 2 6.88111 6.90264 4.1522 -0.339193 -3.3139 -0.939878 0.986401 0.761958 0.113132 C
57 1 5.55858 5.47772 5.5137 3.94868 -3.01537 4.49894 -0.761912 0.800197 0.480927 C
25 1 -0.0136107 5.44474 5.57449 1.75911 -4.05339 -0.438691 -0.196082 1.38128 -0.166981 C
40 2 9.64142 4.12336 4.22125 1.06917 -0.223851 -2.72077 0.866387 0.171954 -1.22972 C
63 2 9.67515 6.85951 6.94302 2.27473 0.551876 -0.308395 0.440603 0.423426 -0.556203 C
28 1 2.76025 8.29033 5.56106 1.7451 0.738437 -3.64596 -1.43494 -0.0482955 -0.3709 C
30 2 1.37021 9.70139 6.90319 0.425082 3.12915 1.20911 0.195399 -0.662978 1.27371 C
41 1 5.55426 0.00539486 5.53017 0.959839 3.74946 1.0433 -0.112841 -0.560309 -0.06349 C
24 2 4.04456 9.67979 4.19224 -2.52839 -1.281 0.98909 1.27104 1.53388 -0.860838 C
62 2 7.01585 9.70175 6.86839 0.622695 0.447004 2.10161 -1.39551 0.0412458 0.528597 C
56 2 9.69248 9.67236 4.17547 0.394958 0.830225 -1.11253 -0.0215348 -0.340808 -0.552461 C
60 1 8.33072 8.27958 5.52309 -0.988901 -6.62617 -0.355844 -0.165828 -0.791047 0.0214589 C
4 1 2.79694 2.78824 -0.00083584 3.97127 0.568822 1.27314 -1.06613 -0.108826 0.257027 C
11 1 2.8222 0.0161369 8.28672 -1.78324 4.64827 0.231782 -0.916728 -0.0763766 -0.374909 C
13 2 1.39298 1.39632 9.64536 1.6254 -1.49247 -0.956887 0.827536 0.12304 0.688717 C
42 1 5.59853 2.75245 8.31395 -4.56667 4.74415 -0.567674 -0.26878 1.05715 0.948317 C
45 2 7.04606 1.43362 9.68086 -6.25172 -0.567538 -0.19709 -1.23745 -0.827492 0.864775 C
10 1 0.0516181 2.77045 8.24935 7.19687 4.96856 2.46181 -0.673268 -0.665201 0.379121 C
43 1 8.34059 -0.0147933 8.28997 -5.59202 -4.72694 0.148928 0.772641 -0.0380378 0.645927 C
27 1 2.81294 5.53907 8.32084 5.45698 6.06102 3.22535 -0.1989 0.269587 -0.519887 C
29 2 1.36585 6.85006 9.71744 -0.0905073 -1.88613 -1.62632 0.426723 0.936346 -0.226806 C
16 2 4.17555 4.18264 9.72729 0.0279288 -1.84485 1.10805 0.998993 -0.430758 -0.352393 C
61 2 6.95657 6.96201 9.71972 -4.03187 -0.583139 -2.3909 -0.382799 -0.0573153 -0.145817 C
48 2 9.78362 4.10652 9.68155 -1.52675 3.06105 -0.932258 -1.51282 0.839978 -0.362581 C
59 1 8.30566 5.53156 8.32501 -6.72293 -0.498265 -1.16598 0.139864 -1.07726 0.477046 C
32 2 4.1861 9.72803 9.6466 0.804465 -0.717588 0.549867 0.143294 -0.567643 0.884824 C
58 1 5.59747 8.33261 8.26709 3.56096 0.492978 1.26421 -0.101354 0.0800133 0.129212 C
52 1 8.32282 8.39937 -0.00417239 3.02349 0.143902 1.71618 -0.0946032 -0.971032 0.311161 C
26 1 -0.0101032 8.22761 8.32406 3.76087 -2.30377 4.03301 0.450918 1.1203 -0.289616 C
64 2 9.76819 9.71797 9.71943 -1.44325 0.190943 0.117398 -0.887672 -0.289383 -1.0747 C
ITEM: TIMESTEP
12900
ITEM: NUMBER OF ATOMS
64
ITEM: BOX BOUNDS pp pp pp
0.0000000000000000e+00 1.1085848640000000e+01
0.0000000000000000e+00 1.1085848640000000e+01
0.0000000000000000e+00 1.1085848640000000e+01
ITEM: ATOMS id type xu yu zu vx vy vz fx fy fz element
3 1 2.87173 -0.0154334 2.82682 -4.29291 4.18794 -0.229495 -2.23484 -0.54452 -0.257903 C
7 2 4.13308 1.33613 1.44207 -0.172245 -1.58009 -0.0503488 0.942729 1.49433 -1.47535 C
34 1 5.57678 2.76245 2.776 0.175517 -3.18632 2.22773 -0.513394 -0.0810194 0.200434 C
2 1 -0.033614 2.72013 2.71808 -2.23687 -4.59371 -5.22885 0.712092 0.646704 0.341358 C
36 1 8.27801 2.75013 -0.100955 -1.51604 3.28143 -0.046172 0.385714 -0.536958 1.37434 C
39 2 9.66209 1.31428 1.30192 -0.79419 0.358926 3.45097 -0.338557 1.31345 0.489104 C
6 2 1.38542 4.22357 1.37776 -3.36174 0.699325 0.902466 -0.480008 -1.48698 -0.0326698 C
19 1 2.84033 5.54992 2.72818 2.50099 -1.40485 0.634774 0.348583 -0.378014 0.425679 C
23 2 4.22914 6.92798 1.34062 2.78034 -0.908255 -1.03215 -0.720596 -0.706855 0.882076 C
38 2 6.97122 4.10442 1.37583 1.84456 -0.386268 2.06022 -1.02595 0.247801 -0.856827 C
49 1 5.55301 5.52779 -0.00874513 2.2384 1.17257 3.6492 0.256865 -1.05554 -0.681727 C
17 1 -0.0228067 5.55907 -0.0217443 -5.26506 0.560205 4.602 1.05219 -0.400433 0.0424624 C
51 1 8.34392 5.46675 2.727 8.20437 2.42889 -2.35496 0.507387 1.67151 0.735881 C
55 2 9.76957 6.89582 1.36255 1.42544 -1.87988 2.48214 -1.56813 0.894856 0.936043 C
20 1 2.77957 8.26427 0.0565944 -2.25659 2.62605 0.463675 -0.531394 1.24964 -0.44322 C
22 2 1.39506 9.69877 1.44509 0.985624 0.965625 2.12414 0.581506 0.00405037 -0.297863 C
33 1 5.52341 -0.0360548 0.0202511 2.2557 0.127853 1.57787 0.259199 -0.413143 0.822456 C
50 1 5.55637 8.25914 2.76428 -1.6263 -2.17811 -1.23055 1.12419 -0.056699 0.165421 C
54 2 6.94409 9.59582 1.40867 0.0717579 2.75556 -0.62942 -0.696967 1.39406 -0.879709 C
1 1 -0.0198562 -0.0388809 -0.0092437 0.133935 0.476684 -2.35588 -0.000415545 -0.69679 0.0393444 C
35 1 8.2782 -0.0073925 2.73125 4.49784 -5.05527 3.44974 0.849276 -0.243975 0.933545 C
18 1 0.0400888 8.29518 2.83257 -5.885 -0.797172 3.266 -0.0225478 -0.018727 -0.329606 C
5 2 1.40204 1.3637 4.15954 -3.05841 -0.471021 -1.63247 0.439806 0.780635 -0.456109 C
12 1 2.7705 2.72121 5.60259 -1.61512 -1.03766 -0.040163 -0.713514 1.57709 -0.701488 C
15 2 4.10984 1.33173 6.96018 1.75573 0.887242 3.51889 0.789347 -0.627503 0.0648701 C
37 2 6.98635 1.43846 4.18324 4.05758 -0.132533 0.0668396 -1.00798 -1.34108 -0.238817 C
9 1 0.0255421 0.0970354 5.58257 -0.744119 -1.10513 0.900052 -0.303133 -1.22856 -0.346233 C
44 1 8.34571 2.82283 5.54836 1.20596 -1.32716 3.11261 0.266072 -0.339198 -0.417512 C
47 2 9.69678 1.45252 6.91927 -0.824301 -1.14593 0.449215 -0.91676 -0.999534 -0.316485 C
14 2 1.28709 4.16241 6.95375 -3.71385 0.609173 0.710539 -0.22088 -0.792861 -1.17718 C
21 2 1.52156 6.91106 4.15815 -1.56679 -0.282823 -0.172555 -1.42537 0.854922 -0.315836 C
8 2 4.18386 4.1548 4.18334 -1.05582 3.51362 2.44369 -0.204037 -0.215077 -0.283595 C
31 2 4.10661 6.93583 6.90667 -0.10033 -0.0232927 -1.85879 0.0462797 -0.252331 0.617003 C
46 2 6.96527 4.14991 6.89132 1.59409 -0.266853 -1.81332 -1.18545 1.17181 0.727285 C
53 2 7.03273 6.97818 4.16471 -1.8262 -2.14656 1.81498 -0.571262 -0.707563 -0.876431 C
57 1 5.55879 5.63693 5.49462 1.77338 -0.0212802 -1.44208 0.513169 -1.33931 1.01192 C
25 1 -0.00229474 5.66108 5.50153 0.583833 0.761836 -1.55569 0.251533 -1.51476 0.785861 C
40 2 9.73056 4.16627 4.16487 0.266786 -0.693507 -1.65939 0.333265 -0.040097 -0.6414 C
63 2 9.68666 7.00641 6.93263 -2.12991 0.425995 0.825065 0.386987 0.163699 -0.254085 C
28 1 2.78126 8.35884 5.54643 3.79203 -0.894112 4.09866 0.887791 0.110707 -0.729539 C
30 2 1.3664 9.70468 6.91056 -0.885077 -0.0412396 -2.179 0.071018 0.78247 -0.126903 C
41 1 5.53492 -0.040214 5.52632 -0.392071 1.37454 -1.48613 0.717884 1.76696 0.382009 C
24 2 4.26056 9.68516 4.10654 -0.15888 -1.30664 0.0603495 -1.43872 -0.772306 1.32798 C
62 2 6.88607 9.72118 6.95902 0.46657 0.413254 0.058672 0.356563 0.215238 0.253872 C
56 2 9.74925 9.76919 4.18654 0.440669 2.71213 -0.823583 -0.419802 0.0871161 -0.522962 C
60 1 8.3242 8.43002 5.56472 1.7473 5.13004 1.11208 0.203952 -0.78371 0.00281729 C
4 1 2.69709 2.73151 -0.00233917 1.47121 0.750275 -0.645824 1.25092 0.849883 0.432266 C
11 1 2.70909 -0.0674702 8.35196 2.66166 -2.46507 1.50198 -0.1679 1.68518 0.097289 C
13 2 1.29396 1.4055 9.71816 -1.47342 -0.947827 -1.21414 0.394678 -1.19458 -0.861427 C
42 1 5.55223 2.72782 8.30104 5.82124 -7.15805 -2.5152 -0.653758 0.684206 -0.495934 C
45 2 6.87808 1.32288 9.68614 2.25249 0.353054 -3.38377 0.278401 0.759316 0.0150777 C
10 1 -0.130464 2.74303 8.3302 -4.7606 -2.04516 -1.71738 2.31919 1.44976 0.361 C
43 1 8.32691 0.0673077 8.29577 0.951442 3.45535 -1.52816 -0.920483 -1.13359 -0.248472 C
27 1 2.66665 5.5108 8.28213 -0.135324 -1.9966 -1.30672 0.810128 1.52374 0.580666 C
29 2 1.34418 6.97268 9.73147 -4.82943 -1.05725 1.30367 0.039759 -0.1261 -1.28782 C
16 2 4.0955 4.15211 9.63315 -2.65242 -0.0986891 -4.02489 0.587756 -0.598428 1.21304 C
61 2 6.95922 6.91687 9.7198 2.16227 -0.359853 -0.732019 -1.40355 -0.419942 -1.58502 C
48 2 9.70177 4.1683 9.71978 3.38648 0.258916 0.340628 -0.762412 -0.0334527 -0.609552 C
59 1 8.36686 5.54558 8.30232 5.96951 1.38523 0.012991 -0.881086 0.191349 -0.00885414 C
32 2 4.1019 9.71309 9.75037 -1.1899 3.14559 -1.35632 0.164895 -1.06912 -0.091148 C
58 1 5.46436 8.32232 8.3304 -1.37047 -0.0860885 0.836119 1.02633 -0.386663 0.477498 C
52 1 8.29039 8.26331 -0.0246343 0.232233 0.416722 -0.610145 1.37886 0.26793 1.02865 C
26 1 -0.0292126 8.42862 8.29793 -3.11404 -0.658437 -4.56171 0.0909336 -1.98812 0.689774 C
64 2 9.61984 9.69874 9.68095 2.04666 -0.324907 -1.05199 0.703657 0.68516 0.390661 C
ITEM: TIMESTEP
13000
ITEM: NUMBER OF ATOMS
64
ITEM: BOX BOUNDS pp pp pp
0.0000000000000000e+00 1.1085848640000000e+01
0.0000000000000000e+00 1.1085848640000000e+01
0.0000000000000000e+00 1.1085848640000000e+01
ITEM: ATOMS id type xu yu zu vx vy vz fx fy fz element
3 1 2.77918 0.000254125 2.71389 6.42035 -2.64876 -0.0438588 0.0956722 0.808872 0.176516 C
7 2 4.19317 1.41312 1.36794 -1.5308 -3.88339 0.779048 -0.801225 -0.345197 -0.0584026 C
34 1 5.50368 2.81375 2.75904 2.6724 0.654329 -1.01765 0.687516 -0.571451 -0.2965 C
2 1 0.0770488 2.84363 2.86566 -3.32406 -0.43699 0.113288 -0.957462 -1.04514 -1.28564 C
36 1 8.34342 2.77751 0.0518261 2.90849 -1.54521 -2.52522 -0.506038 0.778248 -0.0208213 C
39 2 9.76298 1.42295 1.3952 0.369711 -0.586676 0.342814 0.0406964 -0.276673 1.22838 C
6 2 1.42975 4.18185 1.34868 -2.00691 4.16565 0.910906 -0.840707 -0.539338 0.700722 C
19 1 2.72415 5.54097 2.76882 -4.18491 3.0555 -1.24261 0.559613 0.00905315 0.334965 C
23 2 4.05952 6.95916 1.46227 -1.1931 4.3425 1.04909 1.29109 -0.100987 -2.18139 C
38 2 6.86516 4.21023 1.38007 0.33206 1.97016 0.574388 0.564394 -0.781503 -0.102115 C
49 1 5.49928 5.58481 -0.00167286 -2.17302 2.73613 -0.605152 0.558362 1.35443 1.93384 C
17 1 0.0411527 5.54637 -0.0219482 0.371469 1.22599 -4.08948 -0.909178 0.247438 0.581658 C
51 1 8.15952 5.59108 2.80887 -4.52035 -4.30892 1.13142 2.27891 -0.769325 -0.823765 C
55 2 9.6197 6.92545 1.33376 1.81974 -4.20948 -4.17995 1.06314 -0.517731 1.19387 C
20 1 2.80019 8.33225 -0.0577228 -1.08891 -2.90837 0.271152 -0.0287639 -0.430023 0.509606 C
22 2 1.44937 9.72142 1.32753 0.0523954 -0.438863 0.987471 -0.825599 -0.482513 0.0391509 C
33 1 5.53339 0.03552 -0.0482706 -0.204924 -0.131469 -2.18337 0.39033 -0.127807 0.906985 C
50 1 5.482 8.3739 2.72909 -1.64572 3.31521 2.66668 -0.686561 -0.185692 0.534627 C
54 2 6.86795 9.72382 1.35968 -1.67843 -1.48453 3.50307 0.551619 0.733072 0.115813 C
1 1 0.0586037 0.00379411 -0.00628888 0.172129 2.10029 -0.290917 -0.333319 0.654358 -0.761253 C
35 1 8.23087 0.0589446 2.76464 -6.3958 2.58984 -5.13351 1.38906 -1.06144 0.0636058 C
18 1 -0.0055465 8.34261 2.6698 3.71697 0.682469 -2.27348 -0.301697 -0.696917 1.4261 C
5 2 1.43788 1.3298 4.18336 -1.04718 -3.03069 -0.177461 -0.61364 0.883132 -0.498089 C
12 1 2.78654 2.82028 5.50714 4.74738 -7.93056 1.64277 0.244563 -1.11415 0.194084 C
15 2 4.17494 1.42225 6.88165 0.126635 -1.54207 2.46392 0.134464 0.675293 0.540331 C
37 2 6.83336 1.38912 4.15722 1.04302 1.46375 -1.29243 0.321011 0.0944319 -0.301915 C
9 1 -0.00642683 -0.0694826 5.49926 1.05782 2.85608 2.37107 0.403906 0.105491 1.20691 C
44 1 8.25456 2.70505 5.52482 -1.61571 1.02466 -0.921658 0.754227 -0.057209 1.22545 C
47 2 9.7524 1.34805 6.93622 2.6512 0.975554 0.0952517 -0.540105 0.402618 0.136461 C
14 2 1.4562 4.15458 6.95829 1.32614 -0.377075 3.20656 -0.150981 0.26204 -0.296192 C
21 2 1.3901 6.91868 4.1476 2.5822 -0.911754 -0.523352 -2.01855 -0.265497 0.0642374 C
8 2 4.15293 4.1635 4.09766 0.679454 2.20967 -1.56489 -0.870136 0.413243 0.900701 C
31 2 4.15981 6.91874 6.97008 -0.0269166 -0.322631 -3.41259 -0.312684 0.301918 -1.10001 C
46 2 6.93045 4.12885 6.93499 -2.4098 0.00757489 0.457534 -0.461821 0.0984046 -0.319629 C
53 2 6.77627 6.94617 4.1028 -2.25872 0.916136 -0.909425 -0.0375286 -0.455668 1.73292 C
57 1 5.47857 5.47252 5.58531 -0.0213498 3.54491 -3.27894 0.668021 1.22105 -0.944024 C
25 1 -0.0133989 5.4469 5.59855 -1.58287 1.11283 -0.8104 0.691971 1.17829 -1.225 C
40 2 9.6084 4.13844 4.20644 -1.90405 -0.802223 1.47522 0.327761 0.66262 -0.868399 C
63 2 9.73855 6.86694 6.93275 0.475998 -1.33997 3.97175 -1.28078 0.258211 0.610709 C
28 1 2.75943 8.30446 5.50142 -3.11411 -0.685572 -0.835179 0.371697 -0.379901 1.22204 C
30 2 1.43567 9.687 6.95004 -0.38114 -1.15804 1.50219 -1.08668 -0.360879 -0.319883 C
41 1 5.52777 -0.0250683 5.55473 -0.555514 -7.34879 -0.460445 -0.472319 -0.411142 -0.493289 C
24 2 4.06506 9.71119 4.11696 -0.80598 0.376252 -2.84329 1.7742 0.190823 0.631204 C
62 2 6.95937 9.67879 6.93429 0.731616 1.40801 1.43786 -0.303452 -0.522477 -0.614243 C
56 2 9.62711 9.63726 4.18729 0.297025 0.634303 -0.560015 0.201606 0.682339 -2.02016 C
60 1 8.25703 8.19789 5.50563 -1.63421 -0.387692 -1.28732 0.397202 0.738391 0.998074 C
4 1 2.80458 2.78423 -0.0072676 -3.41906 -2.19639 -0.554349 0.477883 0.000134291 -0.0746485 C
11 1 2.81295 0.0579116 8.26345 0.518749 -4.77425 -1.0304 0.89474 -1.55429 0.460984 C
13 2 1.47468 1.39046 9.65225 1.86893 3.28395 -1.78837 -0.798955 0.145156 1.20873 C
42 1 5.50944 2.85624 8.33411 0.781675 1.75884 3.83256 1.42461 -2.22882 -0.137492 C
45 2 6.94485 1.42094 9.74537 -1.51847 -3.17455 -0.343637 0.00413943 0.103141 -1.48541 C
10 1 0.105851 2.80223 8.33041 -1.5365 -2.61194 -0.0440662 -1.86212 -0.737709 -0.0958037 C
43 1 8.31697 -0.0519734 8.34951 2.37157 0.506919 0.445483 0.412451 1.36625 -0.28688 C
27 1 2.80541 5.55025 8.34811 -1.39873 -4.14543 0.573455 1.13179 -1.25905 -0.00586251 C
29 2 1.45311 6.86819 9.68482 0.952363 -0.423848 1.45889 -0.535642 1.04625 1.00492 C
16 2 4.25638 4.18325 9.77852 3.58881 1.56443 0.50994 -2.92487 0.0603526 -1.49697 C
61 2 6.92074 6.94968 9.74219 0.870635 -0.231899 2.30178 0.214364 -0.114757 -0.299998 C
48 2 9.71243 4.16065 9.74028 3.31456 0.812809 0.442481 0.0479261 -0.144147 -1.12924 C
59 1 8.24206 5.52738 8.32799 -1.88343 -1.23489 -0.498134 1.81726 0.150029 0.409056 C
32 2 4.23149 9.69436 9.68336 1.96782 3.32243 -0.676704 -1.10515 0.557289 -1.18608 C
58 1 5.58926 8.28106 8.30267 -0.837472 1.58119 -2.91765 -0.296829 0.604566 0.261989 C
52 1 8.30248 8.36201 0.028462 -3.38995 1.70571 -2.49593 -0.519973 -0.227995 -0.807135 C
26 1 0.053396 8.23101 8.37166 2.4518 4.59104 3.65846 -0.515153 1.21722 -1.23501 C
64 2 9.71763 9.68238 9.71599 -1.97199 -0.344046 -2.30212 0.711731 -0.238727 0.216624 C
ITEM: TIMESTEP
13100
ITEM: NUMBER OF ATOMS
64
ITEM: BOX BOUNDS pp pp pp
0.0000000000000000e+00 1.1085848640000000e+01
0.0000000000000000e+00 1.1085848640000000e+01
0.0000000000000000e+00 1.1085848640000000e+01
ITEM: ATOMS id type xu yu zu vx vy vz fx fy fz element
3 1 2.70834 0.0333511 2.81193 0.705555 -0.140285 0.539331 1.40511 -0.752504 -0.258278 C
7 2 4.14954 1.3804 1.42643 3.19127 -1.15723 1.52108 -0.545635 -0.249992 -0.368625 C
34 1 5.52987 2.7453 2.7556 -3.5075 1.1392 0.582245 0.872348 0.133018 0.986522 C
2 1 -0.0282687 2.75463 2.74244 7.77468 2.61331 3.50464 0.314077 0.0121415 0.148517 C
36 1 8.26309 2.80544 -0.0298388 -2.21294 -0.577067 -2.59096 1.23972 -0.946995 -0.169694 C
39 2 9.6511 1.37767 1.37757 0.576141 1.48326 1.78256 0.245382 0.811155 -0.395077 C
6 2 1.38281 4.12762 1.38951 1.27082 1.80651 -3.40157 0.147381 0.781005 0.363196 C
19 1 2.80699 5.5177 2.80385 2.81537 -2.53497 -0.784888 -1.03491 0.0489117 -0.239222 C
23 2 4.228 6.84605 1.40385 0.770157 -3.51065 6.23444 -0.88097 1.41581 0.0975533 C
38 2 6.95887 4.10724 1.40839 -1.3149 1.43554 0.203938 -0.376535 1.29652 0.00532309 C
49 1 5.58615 5.51654 0.010077 -1.26769 -4.65373 -4.56433 -0.416988 -0.805719 -1.55892 C
17 1 -0.0206035 5.5262 0.0179355 -0.146125 -2.36054 -0.479023 0.136863 0.175102 -0.477331 C
51 1 8.43401 5.51891 2.73154 -4.95849 4.10201 -2.71812 -1.86872 -0.106783 0.622262 C
55 2 9.70522 6.96091 1.39545 0.132737 -0.250576 -1.34164 0.673225 -0.705628 -0.506356 C
20 1 2.77824 8.29758 0.0276483 3.55357 -0.215787 -0.882114 -0.798134 -0.578502 0.369529 C
22 2 1.34176 9.74696 1.41348 5.64315 1.21859 2.3017 0.0165156 -1.63653 0.247691 C
33 1 5.53624 -0.0100089 0.0610481 -2.52109 -0.813426 -2.40362 0.0994091 -0.0405539 -1.29496 C
50 1 5.61965 8.25695 2.78883 1.36055 -3.34221 -6.19346 0.182487 0.589686 0.290494 C
54 2 6.99697 9.68894 1.35342 -1.59072 -0.344704 -0.659253 -0.331061 -0.254981 1.42448 C
1 1 -0.0741239 -0.00777755 0.0198901 1.70898 -5.26296 2.76714 0.610166 -0.100399 0.359624 C
35 1 8.41942 -0.0348108 2.80329 -2.86601 0.645637 2.56227 -2.4323 0.717048 -0.58816 C
18 1 -0.0406366 8.27713 2.84778 -2.78559 1.5624 -3.31832 0.967801 1.44118 -1.26441 C
5 2 1.35759 1.40974 4.1515 1.22449 -1.60807 -0.839187 -0.438122 0.336524 0.507934 C
12 1 2.72484 2.81456 5.5258 -3.15915 9.20931 -1.12475 1.08958 -1.33011 0.169347 C
15 2 4.14158 1.39755 6.93568 -2.20768 1.44727 0.281601 -1.19441 -0.0828825 -0.680705 C
37 2 6.98063 1.4038 4.16606 0.0297138 -0.62316 0.616961 0.188239 0.111642 -0.513237 C
9 1 -0.0129599 0.0401391 5.56086 -1.9951 0.393247 -5.19087 -0.0435131 0.56009 -0.614808 C
44 1 8.36381 2.80983 5.5723 -2.28292 -1.30999 -1.89625 -0.969033 0.250462 -1.65833 C
47 2 9.64 1.39603 6.88515 -0.0232507 -0.303294 2.08866 1.34188 -0.101373 0.992614 C
14 2 1.39452 4.16896 6.88663 -2.85385 0.892436 2.21986 -0.987864 0.718001 0.95689 C
21 2 1.34895 6.91953 4.18987 7.86687 0.894234 -0.717929 1.94992 0.498039 -0.899413 C
8 2 4.16583 4.12255 4.16816 4.88814 1.89216 0.615124 0.416171 0.582771 -0.084567 C
31 2 4.16366 6.92442 6.93543 1.03192 -0.663858 2.08273 0.28769 0.880023 -0.609141 C
46 2 6.94516 4.14467 6.92407 1.61235 -0.416981 -1.39031 -0.369083 0.425317 0.611498 C
53 2 7.0829 6.88924 4.20651 -2.67324 -1.49774 -2.82798 -1.35578 0.151892 -1.19768 C
57 1 5.56747 5.55456 5.52681 -3.30458 -5.40894 3.81169 0.206587 -0.476838 0.306584 C
25 1 0.0150858 5.59597 5.51197 0.038944 -2.98566 2.80531 -0.71428 -1.22459 1.13357 C
40 2 9.75146 4.17502 4.14095 0.510109 -1.62936 -1.13347 0.101707 -0.419553 0.461128 C
63 2 9.69064 6.9686 6.89245 3.76826 0.662967 -0.409648 0.356848 -1.40025 0.450731 C
28 1 2.73404 8.34012 5.56787 0.715709 3.49095 -2.02737 0.43913 -0.162297 -0.105476 C
30 2 1.32341 9.75821 6.91224 2.47981 2.74269 0.737346 0.889448 -0.704102 0.477981 C
41 1 5.54948 0.0799825 5.53536 0.0871929 3.65843 1.83812 0.46953 -1.64891 0.37632 C
24 2 4.17893 9.70719 4.17938 -0.189399 -2.04458 -4.34416 -0.266797 -0.0508307 -0.595237 C
62 2 6.96613 9.67472 6.89994 -0.321552 1.63044 2.07449 -1.32268 1.45318 0.572307 C
56 2 9.74425 9.74383 4.19042 -0.720748 2.75509 3.38884 -0.091261 -1.336 0.64384 C
60 1 8.36177 8.33603 5.5773 -0.962579 0.120934 -3.56136 0.0686651 0.418296 -1.22555 C
4 1 2.77691 2.77645 0.0274359 -1.04718 -2.13371 -0.0258354 -0.989434 -1.19043 -0.428627 C
11 1 2.72176 0.0162222 8.32868 -3.09184 5.93734 -0.710165 0.420342 -0.43179 0.13985 C
13 2 1.32106 1.33465 9.75647 -1.92004 -1.5333 -3.53271 0.348645 1.74016 -0.839806 C
42 1 5.51786 2.71743 8.28514 -5.89678 3.93971 -4.34503 0.184263 1.57841 0.683008 C
45 2 6.92166 1.3875 9.68926 -4.30047 0.156087 0.724959 -0.662176 -0.556956 0.298009 C
10 1 -0.0561364 2.76776 8.27618 1.27444 2.69689 0.332015 1.20551 -0.31828 0.294776 C
43 1 8.3181 0.0260807 8.28524 -2.89687 -1.47854 1.19526 -0.261778 -0.927639 0.73566 C
27 1 2.78246 5.57848 8.28353 -4.85512 5.12954 -1.67051 -1.43551 -0.572995 0.103019 C
29 2 1.32455 6.92181 9.66772 -3.21846 -2.70768 -0.817222 0.746296 0.59504 0.267518 C
16 2 4.05075 4.1303 9.65 1.45335 -2.14332 -0.315759 2.7993 0.463849 0.849315 C
61 2 6.94089 6.96845 9.65516 -0.0406324 -1.11779 -0.211816 -0.0106309 -1.34806 0.888842 C
48 2 9.68618 4.17169 9.65129 0.324875 3.05636 1.82997 0.293792 -0.46562 1.40048 C
59 1 8.36068 5.54662 8.31844 -2.86519 0.0123319 -1.49779 -1.28792 0.767265 -1.18214 C
32 2 4.12346 9.67759 9.71932 -0.6946 -0.629427 3.90649 0.415019 0.946036 0.00733853 C
58 1 5.53817 8.33681 8.32252 -1.31633 -3.29315 1.39638 -0.0516819 -0.00118836 -0.650809 C
52 1 8.33869 8.28018 -0.0184219 0.956423 -1.41815 3.71568 -0.199144 0.694931 -0.156018 C
26 1 -0.0580907 8.33021 8.23644 0.195061 -4.74387 -0.0430056 0.90082 0.382171 1.59006 C
64 2 9.70271 9.6975 9.71885 -2.03963 -0.656885 -2.55632 -0.693529 -0.0463958 -1.27123 C
ITEM: TIMESTEP
13200
ITEM: NUMBER OF ATOMS
64
ITEM: BOX BOUNDS pp pp pp
0.0000000000000000e+00 1.1085848640000000e+01
0.0000000000000000e+00 1.1085848640000000e+01
0.0000000000000000e+00 1.1085848640000000e+01
ITEM: ATOMS id type xu yu zu vx vy vz fx fy fz element
3 1 2.75804 4.2707e-05 2.74315 -5.65269 0.716075 0.608139 0.146971 -0.039759 0.289835 C
7 2 4.12062 1.40784 1.33962 0.178808 -1.85291 1.2704 1.25704 -0.0612047 1.04179 C
34 1 5.56641 2.76535 2.81463 -2.90707 -0.401538 -3.80067 -1.62448 0.154843 -1.22023 C
2 1 -0.0395864 2.733 2.73124 -7.67148 -0.324396 -0.427552 0.662784 0.14827 1.07994 C
36 1 8.34733 2.70261 0.0668725 -1.83007 3.16026 2.1718 -1.05938 0.834229 -1.37177 C
39 2 9.71813 1.31792 1.3355 -0.647837 -2.51753 3.18043 -0.148649 0.0935391 1.40783 C
6 2 1.39745 4.13714 1.43874 -3.74936 0.785088 2.38699 -0.438617 0.279265 -1.23525 C
19 1 2.76472 5.55575 2.74854 -0.661634 1.49714 -0.344657 0.40368 0.30972 -0.177186 C
23 2 4.15314 6.95333 1.26694 1.54185 1.1266 0.76046 -0.0103614 0.342108 2.54619 C
38 2 6.94611 4.12472 1.41981 0.525439 -1.11917 3.82921 0.181032 0.557619 0.0081805 C
49 1 5.57146 5.52804 -0.0133749 0.980306 6.11909 6.47034 -0.21108 -0.424323 -0.326131 C
17 1 0.0259791 5.58049 0.0513011 0.334525 0.353455 0.250525 -0.304072 -0.935911 -0.46958 C
51 1 8.32728 5.55057 2.82193 5.62718 -3.717 2.05158 -0.716932 0.22312 -0.941127 C
55 2 9.69455 6.9289 1.42632 -1.16451 -1.02277 -1.90568 0.407993 0.706347 -0.12331 C
20 1 2.69029 8.35478 -0.0113686 -0.0456394 1.16062 -3.99952 2.01637 0.558676 -0.931846 C
22 2 1.33161 9.71513 1.37805 -2.61385 4.6727 1.17212 0.849723 0.609337 -0.157054 C
33 1 5.56381 0.0146218 -0.00352531 0.891884 2.56294 4.05635 -0.676852 -0.00109092 -0.540742 C
50 1 5.52491 8.3753 2.82092 -2.49761 2.50709 2.76279 0.0713703 -1.09879 -1.74284 C
54 2 6.93792 9.70201 1.35105 0.23512 1.57104 -0.886758 -0.370252 -0.301668 0.692694 C
1 1 0.0179011 0.0243448 -0.0455745 -4.46516 5.15349 -3.31 -0.0353878 -0.683286 0.812075 C
35 1 8.30514 -0.0312262 2.75359 7.27883 -0.735563 -2.01987 0.8051 0.190337 0.042597 C
18 1 0.0454632 8.34625 2.77988 -1.21805 -5.69751 4.31461 -1.20975 -1.09429 -0.254765 C
5 2 1.39903 1.37069 4.16005 -2.45737 -3.03815 -0.318887 -0.659232 -0.0672241 -0.53553 C
12 1 2.77889 2.6887 5.57524 -3.78917 -0.119772 -1.0554 -0.4336 1.76455 -0.0240748 C
15 2 4.16755 1.36356 6.97819 4.16632 -0.12107 4.35792 0.867602 -0.146477 -0.0900183 C
37 2 6.95043 1.40513 4.12696 2.56247 0.961588 -1.34574 0.0373913 -0.968605 0.820745 C
9 1 0.0306221 -0.0257615 5.54079 0.70369 -1.99329 5.17021 -0.306716 -0.136109 -0.529574 C
44 1 8.31595 2.81597 5.49094 4.05412 0.333152 5.36789 -0.0111644 -0.578204 1.1369 C
47 2 9.69864 1.34381 6.882 0.418177 -1.88696 -4.21013 -0.106332 0.959933 1.20312 C
14 2 1.38878 4.20481 6.91804 3.40495 -2.93007 -0.348937 -0.136579 -1.44446 0.0175442 C
21 2 1.35717 6.90791 4.13894 -7.02921 -2.12667 1.41422 0.986497 0.337804 0.785337 C
8 2 4.09264 4.14651 4.15673 -2.23288 0.360425 -2.00458 1.52535 0.210521 0.642207 C
31 2 4.14118 6.89729 6.96873 0.633743 -3.35313 -2.47291 1.19943 -0.102574 0.0685662 C
46 2 6.90549 4.18363 6.9356 -1.27927 -0.325455 0.323063 1.04643 -0.0463062 -0.682749 C
53 2 6.94939 6.97248 4.17635 0.98566 0.0864103 2.88557 -0.21263 0.145522 -0.278972 C
57 1 5.56975 5.58788 5.53321 -0.685338 4.33798 -3.98095 -1.37834 -0.9511 0.0714982 C
25 1 -0.0506819 5.55886 5.55424 -1.17592 4.25137 -4.32273 0.476861 0.379517 -0.164868 C
40 2 9.706 4.18649 4.1395 -1.0048 -0.094851 0.563105 0.32832 -0.834259 0.0337534 C
63 2 9.63631 6.9791 6.90833 -2.44004 1.49008 2.86075 1.61538 0.110354 0.853163 C
28 1 2.83865 8.24445 5.56673 -5.28615 -1.37801 -1.62812 -1.82229 0.759901 -0.814197 C
30 2 1.37694 9.64446 6.89942 -5.38257 0.179592 0.358642 0.926382 0.348784 0.818975 C
41 1 5.5651 -0.0104422 5.54524 -3.05613 2.62239 -5.15926 -0.040646 0.855868 0.500706 C
24 2 4.14899 9.73455 4.20398 -2.66136 1.55447 -0.196502 -0.36632 -0.325233 -0.60605 C
62 2 6.88181 9.66366 6.96808 5.91388 -2.41738 0.0899617 0.953446 0.758127 -0.822572 C
56 2 9.73488 9.67181 4.14684 1.66401 2.74675 -1.04291 -0.486059 1.08601 0.118381 C
60 1 8.31725 8.36829 5.54832 -1.2381 -6.00236 5.51839 -0.56076 -0.26828 -0.124774 C
4 1 2.77465 2.80757 -0.0219372 2.51122 6.79878 1.47865 0.119892 0.273249 0.523552 C
11 1 2.78082 -0.0498548 8.33277 -2.39768 -0.231274 -3.04029 -0.973665 1.10102 -0.976752 C
13 2 1.43225 1.39429 9.75077 2.9526 -1.24792 -0.8627 -0.231751 -0.185681 -1.6518 C
42 1 5.62117 2.77329 8.34608 2.13863 -5.16064 0.624014 -1.71699 -0.0881484 -0.755244 C
45 2 6.95012 1.36343 9.68549 4.0274 -1.42021 -1.33053 0.548181 0.270033 1.15911 C
10 1 0.0383797 2.77963 8.34355 -3.67032 -1.37519 -3.13513 -0.881196 -0.341051 -0.569019 C
43 1 8.29114 -0.0507945 8.3379 4.68041 1.74069 -3.40266 0.765949 0.395392 -0.733048 C
27 1 2.77063 5.5108 8.33467 6.11396 -0.856119 0.719675 -0.419084 1.11932 -0.534053 C
29 2 1.40555 6.94762 9.69743 -4.06662 -2.23468 -0.648915 -0.856145 -0.556828 0.0568761 C
16 2 4.14843 4.1645 9.6483 -1.588 0.499585 -2.18917 1.2117 -0.513331 1.27929 C
61 2 6.93357 6.93682 9.70417 2.84346 4.11561 0.118655 0.102223 0.214049 -0.0689288 C
48 2 9.67576 4.14295 9.75537 4.98978 1.58308 -2.99894 0.584355 0.816495 -0.644409 C
59 1 8.30067 5.59556 8.28466 3.37551 -4.32316 4.03946 0.137031 -1.25024 1.03059 C
32 2 4.18817 9.73597 9.63094 3.03082 3.1776 -2.6516 -0.582018 -1.07545 2.53686 C
58 1 5.53803 8.31647 8.32966 1.70788 1.01292 -1.34673 -0.335636 -1.02509 -0.117626 C
52 1 8.34163 8.32086 -0.01615 0.169793 -1.01335 -1.94357 -0.497495 -0.663615 0.92624 C
26 1 -0.00670769 8.35535 8.3663 -4.2266 1.01874 -4.53485 -0.409471 -1.15943 -1.20924 C
64 2 9.70639 9.70322 9.75215 2.8474 -1.84847 0.557792 -0.00454178 0.454159 -1.07921 C
ITEM: TIMESTEP
13300
ITEM: NUMBER OF ATOMS
64
ITEM: BOX BOUNDS pp pp pp
0.0000000000000000e+00 1.1085848640000000e+01
0.0000000000000000e+00 1.1085848640000000e+01
0.0000000000000000e+00 1.1085848640000000e+01
ITEM: ATOMS id type xu yu zu vx vy vz fx fy fz element
3 1 2.82574 0.0188157 2.73905 -1.89919 2.87124 -2.99746 -1.74262 -0.535584 -0.0649443 C
7 2 4.16749 1.40089 1.36051 -0.638753 -0.756069 -1.63964 0.894288 -0.490528 0.384668 C
34 1 5.54305 2.81437 2.73386 3.41708 0.265681 5.64691 0.22416 -0.200577 -0.180619 C
2 1 0.0722944 2.80942 2.80622 3.31745 -0.871554 -4.68013 -1.56089 0.691049 -0.801297 C
36 1 8.32705 2.80969 -0.0118306 1.91282 -3.57556 2.36478 -0.810253 -0.484331 0.691778 C
39 2 9.75221 1.47043 1.37787 0.809342 -0.832636 -1.10548 -0.651198 -1.1487 1.05126 C
6 2 1.41925 4.16769 1.33293 1.10996 0.406967 1.1695 -0.397634 -0.0725114 1.19756 C
19 1 2.71369 5.542 2.84019 0.298648 -2.43128 1.22146 0.47763 -0.447556 -0.970315 C
23 2 4.05716 6.93361 1.47874 1.3855 -3.34483 -1.21587 1.93265 -0.67902 -1.3436 C
38 2 6.92147 4.22711 1.32114 -1.20499 -0.593139 0.254263 -0.0745638 -1.12443 0.716411 C
49 1 5.50781 5.56909 0.00268749 0.0179955 -4.93935 -4.85342 -0.475204 1.13745 0.964482 C
17 1 -0.00634633 5.53345 -0.0294914 0.794772 2.97916 1.6901 0.477312 0.439282 -0.118223 C
51 1 8.24583 5.57888 2.73615 1.05338 4.76422 0.188363 1.16812 -0.974555 0.49053 C
55 2 9.669 6.92011 1.36828 0.865634 -1.64028 -0.897996 -0.0920102 0.233201 -0.555221 C
20 1 2.84805 8.32559 0.0193868 -7.75889 -0.250853 4.57341 -1.4459 -0.766549 -0.419089 C
22 2 1.38834 9.66138 1.33703 0.462693 -0.333639 3.00257 0.864346 0.568495 1.59954 C
33 1 5.53783 -0.00842984 -0.0320324 0.000755556 -2.20601 1.23667 0.0322826 0.188281 0.907418 C
50 1 5.54087 8.28641 2.74311 4.07544 0.420622 2.89464 -0.764417 0.681322 0.914445 C
54 2 6.91464 9.72562 1.40438 -0.117788 0.169608 -1.94503 -0.36553 0.176322 -0.201792 C
1 1 0.0483629 -0.00165935 0.0601863 1.2362 -2.01054 -1.99647 -1.07058 0.577458 -1.40362 C
35 1 8.27206 0.0443509 2.79053 -5.34129 -3.45827 2.8578 0.813951 0.137366 -0.473751 C
18 1 -0.047005 8.30985 2.7221 2.04916 6.11306 -0.0309352 0.488281 -0.171916 0.539386 C
5 2 1.38633 1.39512 4.13565 1.30796 -1.23146 -1.75844 1.22442 -0.454978 0.455359 C
12 1 2.86418 2.76534 5.50321 1.22691 -3.9548 -1.4597 -2.03056 0.477494 -0.128764 C
15 2 4.1665 1.40679 6.86292 -3.52776 0.134668 4.38946 0.826244 -0.705925 1.82708 C
37 2 6.8382 1.38024 4.17785 1.29985 2.26233 -3.145 0.727164 -0.032236 -0.102965 C
9 1 -0.018187 -0.00810733 5.50069 -0.15193 0.331895 -1.84114 0.0152522 -0.502792 0.749694 C
44 1 8.25886 2.71751 5.57616 -2.93944 2.15578 -6.43594 0.525037 0.273138 -0.0124344 C
47 2 9.72286 1.38057 6.98224 -0.100052 -2.60997 -1.45142 -0.0270063 0.0361784 -0.904706 C
14 2 1.4878 4.18972 6.93944 -0.434642 5.33472 1.64045 -0.239161 -1.90821 -0.0311249 C
21 2 1.3668 6.9516 4.14663 4.24636 -0.297784 -2.64416 -0.947645 -0.105965 0.806084 C
8 2 4.18615 4.17008 4.1396 0.991191 1.76566 0.0521568 -0.585342 -0.170724 -0.158173 C
31 2 4.15715 6.98516 6.96386 0.0816309 -0.580709 2.42764 -0.0929507 -1.17343 -1.31591 C
46 2 6.89787 4.12512 6.94577 -4.05118 1.48906 0.620659 0.226409 0.246446 0.467266 C
53 2 6.8598 6.86721 4.12638 -0.15368 -1.65116 -0.223063 0.362008 0.848802 1.16283 C
57 1 5.50485 5.48126 5.58136 4.80761 -1.55259 2.453 0.269276 1.57675 -0.133138 C
25 1 0.0624736 5.45922 5.55909 -0.0354792 -3.6516 3.85776 -0.754141 0.823258 -1.06929 C
40 2 9.62281 4.14766 4.1806 1.07888 0.0991268 -3.23677 0.88559 -0.0515207 -0.463892 C
63 2 9.75832 6.81699 6.91611 0.581198 3.10713 -1.06368 -0.418897 2.16464 0.489056 C
28 1 2.73793 8.33801 5.55283 8.5748 -2.13287 3.6019 0.806669 -0.612724 -0.525795 C
30 2 1.45468 9.72487 6.93173 -0.262796 1.00114 -1.70118 -1.50838 0.27633 0.232032 C
41 1 5.54539 -0.058983 5.60038 3.74496 -0.174477 2.05588 -1.28993 1.03486 -2.21301 C
24 2 4.12297 9.68992 4.14141 0.777436 -1.3602 -1.28535 1.19804 -0.172008 0.396833 C
62 2 6.91717 9.70288 6.88442 -3.75638 -2.00364 4.00228 1.59432 -0.891962 1.70106 C
56 2 9.621 9.63382 4.13921 1.16847 0.633203 2.07236 1.30067 1.75231 -0.539397 C
60 1 8.31293 8.27771 5.50466 4.82518 6.81607 -3.9426 -0.663042 -1.51071 1.06132 C
4 1 2.80035 2.72871 0.0209238 -0.955599 -3.58692 -1.16516 -0.231894 1.2137 -0.707245 C
11 1 2.86746 -0.000352002 8.31115 2.76533 -3.25096 5.44353 -1.04025 0.269271 0.157437 C
13 2 1.42605 1.36093 9.72958 0.392874 -0.863444 2.72278 0.364501 -0.327559 -0.450215 C
42 1 5.48477 2.79496 8.33747 2.08998 3.67263 0.505729 0.669779 -0.45589 -0.287105 C
45 2 6.88681 1.43351 9.73377 -7.48176 -2.04411 -1.81762 0.718791 -0.444729 -0.819856 C
10 1 0.065101 2.76744 8.34172 4.85635 4.20185 4.1121 -0.394532 0.592381 -0.0912215 C
43 1 8.30761 0.0220087 8.3464 -7.7093 -2.98711 2.94358 -0.771443 0.0225463 -0.485644 C
27 1 2.84067 5.54303 8.32079 -3.31332 -0.460404 0.889939 0.732456 -0.262616 0.0815084 C
29 2 1.52575 6.88149 9.68393 -0.53636 -0.294771 -1.88989 -1.79959 0.839356 1.35805 C
16 2 4.18889 4.17741 9.76678 -1.12593 -1.46451 -4.43158 -1.17628 -0.686785 -0.938304 C
61 2 6.85897 6.92983 9.67477 -0.998439 -0.949797 -1.69562 1.25579 0.513576 0.884967 C
48 2 9.65798 4.14052 9.71826 -0.810195 1.92783 3.75107 1.31716 0.645253 -1.31532 C
59 1 8.27915 5.55402 8.32669 -3.36532 7.75887 -5.41154 0.207748 -0.865639 -0.238013 C
32 2 4.18866 9.6551 9.70729 1.68893 3.17077 -1.88326 0.480996 0.842394 -0.517353 C
58 1 5.55275 8.31137 8.29565 -0.778074 2.17584 2.7901 0.0793204 0.745178 -0.0307336 C
52 1 8.26226 8.35767 0.0194362 1.96683 1.446 -0.915977 0.556281 -0.772529 -0.990299 C
26 1 0.0966312 8.27778 8.34915 2.97335 2.63027 5.1209 -1.1601 0.404716 -0.67912 C
64 2 9.69776 9.74718 9.71124 -1.46041 -1.39864 0.91448 0.86498 -1.22361 0.393433 C
ITEM: TIMESTEP
13400
ITEM: NUMBER OF ATOMS
64
ITEM: BOX BOUNDS pp pp pp
0.0000000000000000e+00 1.1085848640000000e+01
0.0000000000000000e+00 1.1085848640000000e+01
0.0000000000000000e+00 1.1085848640000000e+01
ITEM: ATOMS id type xu yu zu vx vy vz fx fy fz element
3 1 2.80982 -0.063376 2.87157 8.6222 0.574531 2.5262 -0.87278 1.57293 -1.05824 C
7 2 4.14428 1.37292 1.43142 -0.0498148 -1.33539 -1.05434 -0.425486 -0.213658 -0.812206 C
34 1 5.57189 2.71759 2.78513 -0.145247 -0.170644 -3.36722 0.0661839 0.442123 0.873548 C
2 1 -0.0463718 2.76097 2.77816 1.39896 -0.576939 3.60386 0.945691 -0.547524 -0.858348 C
36 1 8.29175 2.73717 -0.03717 0.457386 1.49125 -0.59647 1.13032 0.63939 0.572373 C
39 2 9.65011 1.33702 1.34643 3.66192 1.72011 3.35762 1.08758 1.75305 0.305249 C
6 2 1.37397 4.1504 1.37661 -0.713934 0.759087 -2.23208 0.0395026 -0.236981 0.41097 C
19 1 2.84927 5.51989 2.70512 -2.3541 2.23459 2.3692 -0.905771 0.245717 1.18891 C
23 2 4.23138 6.90835 1.33556 -4.14329 0.368771 5.30453 -0.589381 -0.0841708 0.771233 C
38 2 6.98537 4.09362 1.40668 1.04478 1.8081 1.29548 -1.15333 0.309513 -0.4575 C
49 1 5.56816 5.50678 0.0034338 0.992976 1.02406 1.49282 0.530292 -0.715607 -0.732845 C
17 1 -0.00743124 5.52783 0.0162844 -1.52761 -2.0477 1.98016 -0.833659 0.13517 0.00576491 C
51 1 8.37048 5.45399 2.78225 -1.84827 -1.2994 -0.920302 -0.433571 1.93676 -0.316655 C
55 2 9.74372 6.94237 1.4713 0.706047 -1.34287 0.0935104 -0.0765788 -1.0838 -0.931551 C
20 1 2.78829 8.25265 0.0136676 8.3775 2.08863 -0.199884 -1.5055 0.617462 0.63952 C
22 2 1.38596 9.71537 1.41372 -1.71198 1.33521 -1.89766 0.842229 -0.884265 -0.0854687 C
33 1 5.54025 0.000842639 -0.0031262 1.20571 1.74307 -3.3917 0.0322574 -0.487266 0.127959 C
50 1 5.55123 8.28968 2.76361 -0.654787 -0.990716 -2.8338 0.948113 -0.00412609 0.199561 C
54 2 6.94136 9.65695 1.3955 0.202513 1.84458 -0.0258796 0.489134 0.784169 -0.391858 C
1 1 -0.0413252 -0.0222114 0.023373 2.05882 1.29712 5.68454 0.284607 -0.141827 -0.582253 C
35 1 8.37552 0.0263789 2.75757 2.20864 2.52944 -1.41846 -1.69791 -1.45676 0.826035 C
18 1 0.0562377 8.31011 2.82745 -0.871058 -2.25084 -0.894351 -0.0826551 0.589785 -0.370059 C
5 2 1.36158 1.40289 4.21005 -4.17179 -1.22004 -1.07367 0.771052 0.157479 -0.71684 C
12 1 2.68549 2.84885 5.61382 6.68326 -0.594073 1.20373 1.21831 -1.4783 -1.2563 C
15 2 4.14248 1.36889 6.87893 0.982033 4.0731 0.125101 -0.935584 0.95229 0.982254 C
37 2 6.97273 1.35642 4.2263 -1.12514 -0.169463 -0.507389 0.48007 1.03123 -1.73012 C
9 1 0.0167503 0.0441053 5.58332 1.49391 0.894655 0.0450505 -0.681529 0.0155828 -0.101505 C
44 1 8.39515 2.80869 5.52186 0.707758 -1.17828 4.03592 -0.756748 -0.165633 -0.722847 C
47 2 9.65512 1.432 6.90816 0.853956 -1.10497 -0.46187 0.937582 -1.11837 -0.18144 C
14 2 1.24185 4.13547 6.91973 3.56898 3.42411 1.03816 0.489494 2.06384 0.410631 C
21 2 1.44802 6.93957 4.17118 -0.599227 -0.184155 -1.04311 0.69792 -0.218741 -1.22768 C
8 2 4.16183 4.134 4.19012 2.48811 2.11585 -1.11313 0.463712 0.557286 -0.311104 C
31 2 4.12031 6.90691 6.92195 0.685499 -0.334694 1.69905 0.112477 0.823565 0.124042 C
46 2 7.04648 4.15036 6.89254 -2.70507 -1.89365 -1.28242 -2.46927 0.354679 0.120844 C
53 2 7.0398 6.96848 4.13533 -3.02692 -2.39063 -0.592586 -1.73695 -1.15881 -0.155114 C
57 1 5.56772 5.61613 5.54151 -1.93026 -0.859952 0.214047 0.889019 -1.45877 -0.345047 C
25 1 -0.0251036 5.65559 5.4795 2.67451 1.33737 -1.77832 0.468472 -1.49628 1.11114 C
40 2 9.7636 4.19658 4.1395 -2.99497 -0.588772 -0.120671 -0.343253 -0.712078 0.553869 C
63 2 9.65657 6.96074 6.88114 0.147365 -3.99602 0.639341 0.239974 -0.743022 0.92041 C
28 1 2.78571 8.35368 5.52691 -5.02253 2.83824 2.60073 0.339482 -0.0942293 0.790917 C
30 2 1.36136 9.72185 6.92735 0.121947 0.777512 1.08686 0.0879992 -0.383376 -0.0997449 C
41 1 5.52187 0.0358175 5.4981 -0.386714 -4.54901 4.94113 0.948921 -0.595382 1.50451 C
24 2 4.24704 9.69917 4.17899 -2.85956 0.560667 -2.22593 -1.12287 -0.998456 -0.327458 C
62 2 6.9065 9.76669 6.94001 -0.210158 -1.17537 -1.788 -0.487077 -0.662759 0.0891287 C
56 2 9.77727 9.75645 4.15856 -1.66687 -1.48106 -1.02773 -1.2763 -1.07428 0.910576 C
60 1 8.27912 8.33254 5.5916 -0.642474 0.650224 -0.324004 1.13501 1.90907 -1.41727 C
4 1 2.71723 2.77238 -0.0270416 1.20062 -1.92897 1.72941 0.135203 -0.939467 0.228997 C
11 1 2.67084 0.0567413 8.3114 3.89777 -1.06559 -2.82844 1.40561 -1.0622 0.431312 C
13 2 1.24423 1.39558 9.67359 1.47641 -0.679805 -0.709359 1.23003 0.143311 0.840369 C
42 1 5.5651 2.74815 8.26753 -1.236 -0.738362 2.42339 0.129427 0.524386 0.305171 C
45 2 6.99756 1.37987 9.69282 -3.19086 1.82745 0.538452 -2.19184 -0.455609 -0.653686 C
10 1 -0.10501 2.74811 8.29017 -3.01476 -5.40302 -1.64901 0.404945 0.70602 0.299038 C
43 1 8.35326 0.036324 8.28882 6.24513 3.493 2.13237 -1.03125 -0.23429 0.0296319 C
27 1 2.69804 5.54721 8.29321 3.26204 -1.14755 0.620224 -0.741479 -0.219224 0.134369 C
29 2 1.30576 6.94767 9.72575 0.904596 -5.61378 -2.27052 0.601732 -0.022804 -1.08534 C
16 2 4.09367 4.15793 9.66409 1.14127 0.0207236 -0.666718 1.2278 -0.253678 0.0145879 C
61 2 6.98359 6.89892 9.70383 -1.79348 1.62372 -1.69632 -0.6901 -0.504231 -0.625345 C
48 2 9.67047 4.14745 9.66827 -1.24071 1.55834 1.23345 0.853946 -0.544756 1.59536 C
59 1 8.37765 5.47667 8.30409 2.59501 -0.225894 3.66526 -0.933937 2.12981 -0.490391 C
32 2 4.06964 9.65921 9.74582 1.7617 0.249988 -2.03495 1.10686 1.41675 -1.57709 C
58 1 5.51954 8.29423 8.31418 0.412682 -2.73317 -1.90767 0.171148 0.415733 0.516189 C
52 1 8.36227 8.24986 0.00995111 -3.57328 2.8449 2.15528 -0.268347 1.24836 0.16533 C
26 1 -0.0830207 8.33779 8.25911 2.26969 -0.585606 -0.536428 1.0673 -0.0329689 0.945683 C
64 2 9.66921 9.73243 9.67128 -0.519571 0.721217 -0.621509 0.233744 -0.991761 0.675841 C
ITEM: TIMESTEP
13500
ITEM: NUMBER OF ATOMS
64
ITEM: BOX BOUNDS pp pp pp
0.0000000000000000e+00 1.1085848640000000e+01
0.0000000000000000e+00 1.1085848640000000e+01
0.0000000000000000e+00 1.1085848640000000e+01
ITEM: ATOMS id type xu yu zu vx vy vz fx fy fz element
3 1 2.65262 0.018422 2.67001 -1.95729 -4.63649 1.54793 3.16015 -0.671321 1.29965 C
7 2 4.17191 1.406 1.37806 0.456988 -0.586606 1.55682 -0.527397 -0.250474 0.0849577 C
34 1 5.5013 2.82065 2.77379 0.840595 -1.6756 1.94125 0.639767 -0.68545 -0.55103 C
2 1 -0.00150074 2.77482 2.77894 -2.26832 1.15713 2.5042 -0.566178 -0.400874 0.764938 C
36 1 8.36163 2.83245 0.0229134 0.721939 -3.06981 -1.45193 -0.630005 -0.433256 -0.663228 C
39 2 9.68096 1.39171 1.32917 -3.67762 -2.26298 -2.4394 0.544279 -0.836775 1.59481 C
6 2 1.38274 4.1761 1.43608 -3.60401 2.46094 1.10186 -0.244517 0.377606 -1.23578 C
19 1 2.72883 5.60671 2.77662 3.46432 -2.67783 -3.60283 0.191495 0.211462 -0.43682 C
23 2 4.13781 7.04297 1.36438 1.88682 1.19171 0.776527 -0.74235 -0.840801 0.558733 C
38 2 6.89528 4.2072 1.3736 2.30966 -1.16838 1.87573 0.510342 -0.10115 0.714387 C
49 1 5.52887 5.61101 0.0337612 -0.936272 0.969172 -0.840244 0.0805296 0.313237 0.378368 C
17 1 0.0150841 5.54134 -0.0630455 3.935 1.94197 -1.01695 0.266563 0.262739 1.11138 C
51 1 8.26452 5.61786 2.78509 1.12566 -3.88566 2.2386 0.35604 -1.69846 0.00212459 C
55 2 9.63044 6.90837 1.33839 -0.527084 -1.04112 1.06913 1.24409 0.116306 -0.0751374 C
20 1 2.71571 8.37806 -0.0513945 -0.138772 -1.51186 -2.29719 2.49234 -0.161691 0.567775 C
22 2 1.38115 9.67047 1.32919 -2.48784 2.55135 3.27384 -2.09968 0.819085 -0.0365034 C
33 1 5.5568 -0.015824 0.0262439 0.753966 0.577767 0.905526 0.371749 0.989507 -0.782804 C
50 1 5.5053 8.37097 2.80675 1.56335 0.892889 1.55834 -0.642486 -0.14457 -0.29512 C
54 2 6.87236 9.69231 1.41782 -2.91391 -1.74674 0.969981 0.896832 -0.342039 -0.56728 C
1 1 0.0299567 0.0305379 -0.0873858 -0.341066 -1.57857 0.591518 0.27052 0.235473 1.74968 C
35 1 8.25252 -0.0518786 2.78683 2.37467 2.84845 0.084734 1.11751 1.39239 -0.534684 C
18 1 -0.0467142 8.29108 2.71597 0.131892 1.81525 0.986576 -0.105323 0.110958 0.104043 C
5 2 1.44597 1.34987 4.15559 -4.41769 -2.58972 0.178258 -3.17586 -0.0466363 -0.31437 C
12 1 2.7829 2.70843 5.48239 -4.65014 2.30888 4.40032 1.1256 -0.0856883 1.61999 C
15 2 4.22198 1.28315 6.90019 2.40399 -3.90012 1.61827 -0.974601 2.37827 0.474399 C
37 2 6.88628 1.39385 4.14484 1.99089 0.222729 2.28952 0.418622 0.331026 -0.452093 C
9 1 -0.0397143 -0.0457584 5.54841 0.49278 -1.48087 -1.94368 1.11506 0.635221 -0.272854 C
44 1 8.26629 2.72993 5.57329 1.83683 0.619022 0.267031 0.374626 0.521799 0.601389 C
47 2 9.72768 1.3774 6.96866 -0.19838 0.448436 -2.44689 -0.166379 0.205458 -0.475109 C
14 2 1.46182 4.09325 6.93158 -3.64984 -3.20593 1.39432 0.452732 0.730425 -0.015642 C
21 2 1.26579 6.90186 4.16444 -0.197685 -0.734683 0.329466 0.461589 -0.523092 0.147955 C
8 2 4.06839 4.13719 4.09753 -1.77807 1.86222 0.0602118 0.783736 0.745816 0.782599 C
31 2 4.14637 6.94926 6.89643 -1.19994 -1.46747 -1.67966 0.859328 -0.48976 0.147169 C
46 2 6.91774 4.18868 6.98313 3.29739 -0.525649 1.27566 -0.461183 -1.20238 -1.14602 C
53 2 6.86612 6.95782 4.12429 2.549 1.64988 -1.51269 0.159925 -0.376676 1.14325 C
57 1 5.51863 5.47569 5.50284 -0.742198 3.55425 2.76458 -0.410165 1.13045 0.300861 C
25 1 -0.0104546 5.4293 5.64786 -2.49258 2.11141 0.212887 -0.148242 1.52835 -0.834645 C
40 2 9.64631 4.15835 4.23032 0.972321 0.0196663 -1.48915 0.049033 -0.342093 -1.33325 C
63 2 9.70527 6.87891 7.01615 -0.552376 1.59503 -0.123762 -0.322853 0.123993 -0.835726 C
28 1 2.73656 8.25446 5.4752 1.20942 -2.25024 -2.954 -0.334725 0.785697 0.946219 C
30 2 1.38442 9.65528 6.91086 -1.7268 1.55732 -1.45468 0.0257124 -0.0612224 0.162015 C
41 1 5.57338 0.00633785 5.5036 1.86564 3.75511 -4.67233 -0.151908 -1.07264 0.259758 C
24 2 4.10595 9.72978 4.19109 1.18788 -1.05125 -1.56169 -0.580806 0.466033 -1.65814 C
62 2 6.96631 9.7294 6.89858 0.218901 2.44227 2.68671 -0.658332 -1.45372 -0.711289 C
56 2 9.68119 9.66179 4.15302 4.03796 4.33306 0.14014 -0.0258896 0.105787 -0.496562 C
60 1 8.33327 8.26477 5.51977 -1.93308 -3.9571 3.38523 -0.324993 -0.0510517 1.0178 C
4 1 2.81238 2.8336 0.031074 -0.463916 3.11562 -0.604923 -0.374087 -0.386011 0.128561 C
11 1 2.79428 -0.0270811 8.29746 -3.78759 4.10525 1.16304 0.0263358 -0.0927859 -0.170448 C
13 2 1.46821 1.41725 9.69938 -2.48691 -0.426327 -1.65796 -0.0526787 0.168306 -0.393564 C
42 1 5.55134 2.76728 8.34254 2.29703 -0.167329 -1.36847 0.255043 -0.586276 0.586527 C
45 2 7.06025 1.35188 9.71553 3.17778 -1.11404 -0.577831 -2.29095 0.729645 0.199024 C
10 1 0.0904851 2.80939 8.31321 3.61522 1.21485 1.02241 -0.520551 -2.01 -0.138769 C
43 1 8.30817 -0.0529725 8.2713 0.422825 -2.26679 -1.99527 1.99554 0.742406 1.24024 C
27 1 2.79908 5.56405 8.32172 -0.0666963 1.86693 -0.7396 0.44219 -0.350274 -0.0597068 C
29 2 1.46638 6.97843 9.70702 -2.94518 0.324729 0.255728 -1.52521 -1.73109 -0.480428 C
16 2 4.19712 4.22727 9.78213 -1.49963 0.159703 -3.64678 -0.35133 -0.799774 -1.68422 C
61 2 6.91901 6.92362 9.73291 2.97288 1.27289 -1.1312 -0.0758706 1.01137 -0.294913 C
48 2 9.76642 4.10465 9.66045 2.38582 1.22921 -1.21885 -1.10369 1.62264 0.395117 C
59 1 8.25407 5.5337 8.36813 0.695149 -7.73736 -0.612535 1.66163 -0.304314 0.202268 C
32 2 4.19354 9.71092 9.69105 -0.0224837 0.596405 1.80401 -0.533825 0.160398 0.147821 C
58 1 5.5777 8.34999 8.31811 -0.511451 0.297396 -1.46058 -0.2044 -0.713973 -0.732592 C
52 1 8.30974 8.33978 -0.00744911 4.8501 -4.51103 1.15313 -0.474193 0.241303 0.230082 C
26 1 0.0395205 8.27163 8.35796 -2.03931 -0.243667 0.174161 -0.412906 0.85575 -0.533821 C
64 2 9.75587 9.71528 9.72428 0.221461 1.18984 -2.23417 -1.13535 -0.80259 -1.45134 C
ITEM: TIMESTEP
13600
ITEM: NUMBER OF ATOMS
64
ITEM: BOX BOUNDS pp pp pp
0.0000000000000000e+00 1.1085848640000000e+01
0.0000000000000000e+00 1.1085848640000000e+01
0.0000000000000000e+00 1.1085848640000000e+01
ITEM: ATOMS id type xu yu zu vx vy vz fx fy fz element
3 1 2.87618 0.0166948 2.8166 -5.4353 2.49054 -2.6734 -1.71339 -0.33891 -0.48154 C
7 2 4.14988 1.40776 1.40562 1.83047 -2.54532 -0.27085 0.428072 -0.345603 -0.682077 C
34 1 5.56622 2.76259 2.74799 -2.40263 2.62069 -1.28968 -0.409136 0.0483761 0.530211 C
2 1 0.0343316 2.77067 2.70376 4.65554 1.44578 -2.63879 1.04308 0.790606 1.23282 C
36 1 8.22145 2.76765 -0.000461225 -0.349146 2.97303 1.64183 0.986372 -0.574936 0.220104 C
39 2 9.74101 1.39907 1.41343 1.21709 1.30822 -0.568568 -1.93073 -0.259607 -1.10035 C
6 2 1.50029 4.10837 1.32958 1.48197 1.07331 0.596187 -2.25808 0.92654 0.639244 C
19 1 2.81494 5.50275 2.78119 0.763946 2.63496 1.05687 0.639669 -0.860333 0.342498 C
23 2 4.18458 6.78371 1.34336 1.89944 2.0836 2.31995 -0.147297 1.44738 1.40991 C
38 2 6.89579 4.16069 1.36766 -0.780269 0.466904 0.56049 0.649158 -0.20979 0.412655 C
49 1 5.53051 5.47764 -0.013964 0.874631 -2.18237 1.13082 0.0727228 -0.434625 -0.843291 C
17 1 -0.0483132 5.53353 0.046481 -1.58485 -4.41672 -3.15649 1.15876 -0.165241 -0.892711 C
51 1 8.34291 5.53085 2.71208 -0.688081 6.16813 -2.18021 -0.579276 0.473422 0.625669 C
55 2 9.73531 6.9939 1.42729 -0.0349147 -1.20553 -1.84419 -1.10532 -0.419415 -1.19154 C
20 1 2.81057 8.22248 0.0920772 -3.22734 -0.646266 0.64696 -0.636159 0.44248 -1.64835 C
22 2 1.44399 9.66415 1.39206 5.27272 -1.22189 -0.917769 -0.287972 1.03466 1.07821 C
33 1 5.50245 0.0189697 -0.00236391 -0.491081 -4.00625 1.24867 0.00148582 -0.8717 0.587894 C
50 1 5.51687 8.24352 2.71989 -1.99942 -0.806564 -0.715406 1.56757 0.384267 0.2392 C
54 2 6.97728 9.70561 1.35316 -3.58282 -0.439191 0.936043 -2.06624 -0.0999863 0.343892 C
1 1 -0.0298865 -0.0251689 0.0301702 0.33837 -0.246229 -6.12319 0.556202 -0.631788 0.10418 C
35 1 8.3014 0.00353866 2.76506 -3.13719 -6.58061 1.09094 0.371367 0.13121 0.313238 C
18 1 0.0379212 8.31497 2.8093 2.65127 -4.5014 -0.124136 0.288723 0.657932 0.0846427 C
5 2 1.46957 1.46806 4.16573 4.75576 -2.01389 0.208762 -1.43008 -1.38421 -0.565585 C
12 1 2.76609 2.83534 5.54126 -1.09238 1.98568 -5.41601 -0.701917 1.04225 0.0646503 C
15 2 4.04467 1.46716 6.86857 0.645737 -2.08724 1.06241 1.52953 -2.16304 1.77274 C
37 2 6.86107 1.3495 4.1569 -1.22752 -0.334138 -0.269206 1.02595 0.156866 0.275239 C
9 1 0.0207877 0.0652926 5.57382 -2.30724 -0.245008 5.56687 -0.0637891 -0.732914 -0.650524 C
44 1 8.32603 2.7759 5.49063 0.880238 -2.07991 -0.311889 0.218584 -0.487632 0.437563 C
47 2 9.67588 1.37945 7.00832 -0.863122 -0.497504 1.31798 -0.81661 0.189799 -1.94538 C
14 2 1.35669 4.24164 6.90788 0.1578 2.26831 2.32662 -1.02542 -1.75421 0.0188822 C
21 2 1.48748 6.95678 4.15047 2.76764 0.557969 -1.98881 0.0423348 0.49677 0.174217 C
8 2 4.23924 4.10825 4.21223 1.04869 0.373762 -2.74016 -0.849291 1.15848 -1.23234 C
31 2 4.1803 6.92609 7.01865 0.30549 -0.539846 2.44733 -0.545143 -0.44398 -1.50548 C
46 2 6.97649 4.17556 6.89493 -1.15818 2.07353 0.154132 -0.304262 0.100349 0.637821 C
53 2 6.93152 6.86556 4.16532 -3.87723 0.021071 -4.44473 0.417856 1.32952 -0.98919 C
57 1 5.5616 5.55876 5.55512 1.35677 -5.53086 -2.70958 -0.239927 -0.379708 0.848749 C
25 1 0.0321783 5.59301 5.42677 2.60303 -3.98072 1.48212 0.126837 -0.196279 1.10429 C
40 2 9.73384 4.18971 4.09583 -1.1582 0.380311 0.488647 -0.0477663 -0.969829 -0.221131 C
63 2 9.75679 6.9463 6.84857 1.30096 -0.0850699 4.07548 -0.26707 1.07845 -0.189674 C
28 1 2.855 8.37993 5.60967 1.08606 1.04174 -2.28926 -0.0566075 -1.00887 -1.03056 C
30 2 1.43039 9.7273 6.94611 -0.772092 1.15374 -0.584547 -0.851888 0.321519 -0.578927 C
41 1 5.4648 -0.0255682 5.5739 -2.48417 2.06409 0.360649 1.11808 1.82613 0.227824 C
24 2 4.25791 9.72154 4.15443 1.81883 -0.707034 0.45434 -1.55453 -1.58794 -0.28367 C
62 2 6.86422 9.6972 6.92653 -1.07544 2.23001 0.974314 0.711582 0.367977 1.20268 C
56 2 9.66239 9.68664 4.16369 1.46482 1.95526 1.33844 1.32099 1.22298 0.242132 C
60 1 8.28354 8.34697 5.54179 1.5916 0.964104 -4.12298 -0.144017 -1.02626 -0.0696438 C
4 1 2.74771 2.68678 -0.0459713 1.26296 -0.0539689 1.02487 1.00712 0.711714 0.367825 C
11 1 2.76744 -0.0217509 8.33751 -0.734355 -1.61759 -0.615885 -0.265329 1.21996 0.269869 C
13 2 1.32726 1.3563 9.73578 -1.50775 0.427304 -0.530204 -0.321427 -0.239705 -1.44957 C
42 1 5.49623 2.77815 8.26987 -2.28514 0.409856 -1.05532 0.0103859 0.807818 -0.373641 C
45 2 6.8109 1.40976 9.69556 -1.47602 -1.79117 -0.616358 0.902158 -0.0150843 0.0498164 C
10 1 -0.102581 2.76857 8.32872 -2.20747 5.10806 -0.785741 1.91453 1.35802 0.551963 C
43 1 8.26124 0.043369 8.37999 -5.65338 0.709453 -2.54475 -0.578201 -1.07514 -0.930096 C
27 1 2.7397 5.51806 8.31631 -0.965573 1.55254 0.866875 0.397896 0.867703 0.552096 C
29 2 1.39454 6.93259 9.70779 0.383736 -0.713878 0.577017 -1.09841 -0.0639708 0.154939 C
16 2 4.10925 4.13362 9.69805 -1.51211 0.254405 0.349557 0.27149 -0.516024 -0.436922 C
61 2 6.8946 6.86268 9.70617 -0.890472 -1.98357 -0.398837 0.446618 1.18936 -0.541965 C
48 2 9.58238 4.17886 9.70728 0.682253 -0.210999 -0.821137 1.23311 0.160806 0.0764691 C
59 1 8.37539 5.64869 8.25008 -3.97586 3.40931 1.37007 -1.38549 -1.73417 0.461736 C
32 2 4.10629 9.65641 9.75052 0.304652 0.104916 0.146756 0.667139 0.19675 -0.0300914 C
58 1 5.51312 8.29645 8.3542 0.708252 0.15456 5.25538 0.616292 0.372128 0.573253 C
52 1 8.26389 8.32654 -0.0471391 -1.53105 -0.0123713 -0.368678 1.20014 -1.14827 0.752603 C
26 1 -0.00660103 8.35994 8.25676 2.89802 -2.01796 -0.350547 0.481594 -0.710582 1.16601 C
64 2 9.6641 9.69598 9.69828 0.652461 0.878038 2.12979 0.257369 0.337526 -0.283482 C
ITEM: TIMESTEP
13700
ITEM: NUMBER OF ATOMS
64
ITEM: BOX BOUNDS pp pp pp
0.0000000000000000e+00 1.1085848640000000e+01
0.0000000000000000e+00 1.1085848640000000e+01
0.0000000000000000e+00 1.1085848640000000e+01
ITEM: ATOMS id type xu yu zu vx vy vz fx fy fz element
3 1 2.72138 0.00151484 2.75405 4.76244 0.794049 0.236306 -0.674865 0.521317 0.22851 C
7 2 4.11347 1.41378 1.38421 0.146889 0.615261 1.97669 0.857925 -0.900872 0.0539567 C
34 1 5.54105 2.74237 2.78467 1.91664 -1.5314 -0.713678 -0.0179119 0.683978 -0.529766 C
2 1 -0.0704881 2.75982 2.85702 -6.29705 -1.63029 -2.55254 0.0899949 0.179994 -1.48313 C
36 1 8.39855 2.73345 0.00172886 -2.37253 2.05354 -0.94279 -0.924095 0.910738 0.342994 C
39 2 9.69986 1.35758 1.38627 3.10567 0.768083 2.89034 0.72033 1.10815 0.822234 C
6 2 1.31205 4.1106 1.43575 2.12736 0.3891 -0.574502 0.326208 0.756189 -0.608009 C
19 1 2.69102 5.52369 2.79692 -4.33341 0.171641 -1.56773 0.22951 0.983462 -0.443702 C
23 2 4.11288 6.98408 1.33832 -1.05591 -1.7648 1.52271 0.469657 0.271836 1.4152 C
38 2 6.95978 4.15214 1.37948 -0.715793 2.44497 2.02924 -0.543266 -0.383952 -0.0807245 C
49 1 5.57143 5.59883 -0.0158141 -2.52115 4.8599 3.79663 0.163306 0.0537294 1.43732 C
17 1 0.0196012 5.59512 -0.00778854 -2.92499 3.62537 2.62331 -0.398061 -1.1641 0.114882 C
51 1 8.29461 5.50871 2.82941 2.00963 -4.04648 -0.148198 1.03096 0.256127 -0.547574 C
55 2 9.67952 6.90299 1.44348 -0.0254472 -1.03776 1.06829 0.121782 0.135067 -0.821356 C
20 1 2.73542 8.41583 -0.0889036 0.304734 -2.29342 3.8928 -0.07846 -0.684918 1.1918 C
22 2 1.25339 9.74047 1.36627 -1.124 -0.121711 0.153134 2.96298 -0.583388 0.038691 C
33 1 5.55377 0.00795907 -0.00631293 -0.618992 4.9638 -0.70518 0.414685 0.0363107 -0.0367815 C
50 1 5.6333 8.38155 2.81974 -4.33635 -0.190922 0.490761 -1.62536 -0.951843 -0.114489 C
54 2 7.01271 9.73653 1.40353 0.657606 0.612328 -0.23908 -1.04937 0.195904 -0.321533 C
1 1 -0.00754019 0.0286972 0.0318746 -2.35713 2.77803 0.873255 -0.395024 0.454913 -2.01361 C
35 1 8.35901 0.0456743 2.77727 -0.640597 3.80963 -1.66493 -0.101887 -1.33479 0.170466 C
18 1 -0.0522781 8.3689 2.73635 -2.84405 0.780327 -1.46234 0.528277 -2.38419 0.313844 C
5 2 1.30694 1.40409 4.16807 -1.03362 0.101907 1.05092 1.98626 -0.775696 -0.257412 C
12 1 2.81431 2.70755 5.54578 1.60213 -4.55939 1.43945 -0.672393 0.118034 -0.805676 C
15 2 4.21938 1.35267 6.90065 -0.731041 3.40876 -2.48503 0.218517 0.599377 0.97354 C
37 2 6.96298 1.37447 4.14133 -3.15368 0.59164 -0.493866 -0.210394 0.638081 0.33386 C
9 1 -0.0207604 -0.0508333 5.4428 0.750296 2.62139 -2.40967 0.108778 -0.128569 2.14298 C
44 1 8.26679 2.79928 5.5578 -3.1301 0.698021 -0.609976 0.85873 -0.0735924 0.0391239 C
47 2 9.7301 1.38288 6.87443 4.32997 -2.59085 2.40947 0.192108 -0.0432853 -0.120831 C
14 2 1.42072 4.09603 6.864 2.93663 0.752761 1.03952 0.0267387 0.909876 1.31527 C
21 2 1.23145 6.90386 4.20097 -2.61279 -1.80997 0.285863 1.30476 0.623745 -1.35324 C
8 2 4.11031 4.13512 4.14487 1.44045 -0.429293 0.128849 0.868551 0.264046 0.0394223 C
31 2 4.12219 6.92214 6.83717 -0.330704 -0.0864566 0.466818 0.0164403 0.168935 1.43358 C
46 2 6.87486 4.16742 6.96201 1.81947 -0.623894 1.27324 -0.328721 -0.205224 -0.940221 C
53 2 7.05511 6.94594 4.22259 -3.57927 -3.36264 0.315107 -2.73031 -0.0652313 -0.859248 C
57 1 5.51838 5.57044 5.50953 -0.355765 4.08003 -1.01966 0.6497 -0.733468 -0.197989 C
25 1 -0.0478383 5.55973 5.63345 -2.10095 0.153057 -3.9414 0.460003 -1.16628 -0.666219 C
40 2 9.72257 4.19459 4.21512 -2.23894 0.425112 -0.126177 -1.38271 -0.594476 0.313423 C
63 2 9.63277 6.88859 6.93909 1.47969 -4.00177 1.94783 0.367319 0.558117 1.78371 C
28 1 2.64536 8.26858 5.55058 0.741541 1.05501 3.46008 0.790137 0.942457 -0.275337 C
30 2 1.32235 9.66145 6.9889 -1.47386 0.658465 0.583998 0.00691584 0.83117 -0.898967 C
41 1 5.65275 -0.000174294 5.56226 -2.47648 -6.36533 -3.21512 -1.60942 -0.321321 -0.807772 C
24 2 4.08656 9.74635 4.21498 2.04697 2.19632 -3.1278 1.16013 -0.91233 -0.329282 C
62 2 7.00301 9.7054 6.90902 0.688458 0.272976 -0.833624 -0.00215625 -0.107741 0.215452 C
56 2 9.7146 9.63561 4.10111 -1.34021 -0.37368 0.100548 -1.30325 1.77673 0.787875 C
60 1 8.36461 8.3245 5.5631 -2.02797 -1.21867 2.80788 0.361897 0.0338762 -0.118922 C
4 1 2.77131 2.80669 0.0230765 -2.97124 -1.33576 -2.49873 -0.125013 0.302497 -0.0754725 C
11 1 2.78621 0.0298884 8.28607 2.31046 -3.3945 -0.751971 -0.146257 -0.75383 -0.206449 C
13 2 1.43603 1.39556 9.70729 2.90878 -0.210616 0.93961 -0.226619 -0.347587 0.449004 C
42 1 5.56188 2.77517 8.3655 1.1445 -1.54876 0.510461 0.164694 -0.811785 0.12063 C
45 2 7.06183 1.35669 9.70992 0.277185 -0.0198708 -0.694493 -1.72681 0.0454341 -0.576621 C
10 1 0.0850927 2.72574 8.28531 -3.73798 -5.55941 -0.689239 -1.22489 0.483753 -0.0329417 C
43 1 8.40846 -0.0249386 8.27002 5.167 1.14486 3.6628 -0.875633 0.722191 0.133961 C
27 1 2.78813 5.50922 8.29623 -0.388963 -4.34498 -1.71984 0.43994 0.0750046 -0.360726 C
29 2 1.42026 6.94952 9.64421 1.32849 -1.58436 -1.20575 -0.399267 -0.431145 0.836823 C
16 2 4.22161 4.20769 9.77278 0.615582 1.28781 -0.410893 -1.27628 -0.880325 -1.33103 C
61 2 6.9367 6.96125 9.70035 1.04632 -0.103851 0.438241 0.132416 0.157598 -0.609009 C
48 2 9.72029 4.11669 9.67927 -0.317467 1.27445 -1.45722 1.01503 0.504838 0.0192553 C
59 1 8.25709 5.47323 8.33456 6.01095 1.82481 -2.03746 0.75296 1.12548 0.24454 C
32 2 4.18339 9.71184 9.61601 3.08112 2.01805 0.0511253 0.35453 0.488832 0.388246 C
58 1 5.56882 8.32498 8.21023 -1.75421 0.3239 -6.19587 -0.354328 -0.533645 0.810165 C
52 1 8.35165 8.31355 0.0321488 -3.43738 4.12883 -3.68121 -0.177634 0.193951 -0.609394 C
26 1 -0.0630488 8.2896 8.38544 -3.30624 1.29141 -2.25142 0.203854 -0.400908 -1.70242 C
64 2 9.70768 9.72705 9.68582 0.605751 -0.909998 -2.45515 0.224361 -0.437244 1.6251 C
ITEM: TIMESTEP
13800
ITEM: NUMBER OF ATOMS
64
ITEM: BOX BOUNDS pp pp pp
0.0000000000000000e+00 1.1085848640000000e+01
0.0000000000000000e+00 1.1085848640000000e+01
0.0000000000000000e+00 1.1085848640000000e+01
ITEM: ATOMS id type xu yu zu vx vy vz fx fy fz element
3 1 2.77918 0.00103082 2.77079 -0.464451 -0.781414 0.705913 0.879986 0.142441 -0.787356 C
7 2 4.18078 1.43554 1.35656 -1.3164 0.601092 0.146527 0.0441961 -1.04847 0.78336 C
34 1 5.52193 2.8346 2.78223 -2.09998 -1.34232 2.48528 0.190964 -1.0411 0.494206 C
2 1 0.0693909 2.77727 2.72525 3.05292 -1.0639 4.41714 -1.67508 -1.15828 -0.419913 C
36 1 8.26889 2.77117 0.011303 2.94778 -4.81233 -2.33434 0.547168 -0.0606229 -0.388083 C
39 2 9.6544 1.33393 1.33689 -0.928637 -3.63871 -1.35392 1.30551 0.875776 0.977771 C
6 2 1.41488 4.13637 1.37064 -1.79579 -2.79427 1.64903 0.998308 1.13891 0.505309 C
19 1 2.84652 5.57631 2.75561 0.91223 -4.90737 1.98726 -1.41543 -0.980193 0.111362 C
23 2 4.18196 6.887 1.29674 1.87193 -0.916428 -2.00001 0.416535 0.0765179 0.844335 C
38 2 6.88024 4.16857 1.33842 1.83091 -1.76614 2.08585 0.961986 -0.167962 1.26793 C
49 1 5.55364 5.47429 -0.0552358 2.55767 -4.38883 -9.04997 -0.727621 0.929245 -0.260189 C
17 1 0.0249493 5.5144 0.0327181 0.187909 2.16485 -1.05935 -0.677723 1.76642 0.0969477 C
51 1 8.27868 5.56537 2.74566 -5.06014 2.08238 -0.460063 0.271571 -0.476705 0.195513 C
55 2 9.67331 6.99991 1.43785 1.01519 -0.660974 4.2973 1.055 -2.05951 -0.928668 C
20 1 2.80995 8.32252 0.0328746 -1.38144 4.12106 -4.69098 -1.30877 -0.608886 0.0392441 C
22 2 1.40787 9.67836 1.40095 -4.49366 2.6763 2.36654 -0.436067 0.000589065 0.337808 C
33 1 5.5602 -0.00526265 -0.0246893 -2.19041 -2.95423 -0.0659727 -1.1024 0.284291 0.260066 C
50 1 5.49535 8.27533 2.73046 9.89905 2.7369 -0.847113 0.74269 0.83891 0.522523 C
54 2 6.91601 9.71644 1.37101 2.0046 -0.116419 0.504874 0.031002 -1.0656 0.176353 C
1 1 0.0251138 -0.0333017 -0.0199922 0.202396 -4.42233 3.89776 -0.431773 0.0921237 1.26719 C
35 1 8.30438 -0.0313076 2.77535 -1.41059 -0.145439 0.929601 -0.581644 0.611551 -0.52325 C
18 1 0.0219736 8.27334 2.82137 -1.35993 7.35507 0.703694 -0.670536 1.85849 -0.962325 C
5 2 1.43646 1.3989 4.09853 -3.78381 0.818162 0.033931 -1.36831 -0.41826 1.82418 C
12 1 2.71175 2.80597 5.56867 0.912748 0.197904 0.936923 0.929713 -1.443 0.319583 C
15 2 4.15703 1.33931 6.94578 0.0511857 -2.10979 0.793427 -1.04612 1.92533 -0.0113118 C
37 2 6.90954 1.34703 4.16378 2.09676 -1.32422 -1.24892 0.534661 1.50754 -0.259129 C
9 1 0.0372953 -0.0355298 5.60338 -1.37861 -1.43122 -5.81492 -0.731952 1.01083 -1.5935 C
44 1 8.39435 2.75167 5.53109 -0.560019 0.609637 -2.1718 -1.61989 0.579817 -0.459088 C
47 2 9.6382 1.37096 6.9964 -1.24659 -1.00423 -2.17636 2.00036 -0.137299 -0.0141445 C
14 2 1.34405 4.18323 6.92797 -3.09786 1.17566 -1.14906 1.00053 0.518879 1.01318 C
21 2 1.39522 6.93976 4.13072 1.099 -0.314463 -0.000248194 1.10447 -1.04532 0.801363 C
8 2 4.11904 4.15564 4.23917 0.52477 -0.177337 1.14749 0.692742 0.617727 -0.969974 C
31 2 4.20468 6.92801 7.02194 0.686983 -3.24746 -0.112712 -0.19442 0.809344 -1.60417 C
46 2 6.94761 4.18627 6.91536 -0.965006 3.07508 0.685315 1.06018 -1.5223 0.699643 C
53 2 6.9161 6.93142 4.16568 8.06635 0.173665 -0.191365 -0.916594 -0.579121 0.106101 C
57 1 5.53692 5.50524 5.62432 -0.700923 -1.15258 -0.735185 -0.0198211 1.39523 -1.29895 C
25 1 0.016353 5.52717 5.51729 -1.40062 4.4363 4.1297 -0.36759 0.844593 -0.577761 C
40 2 9.7507 4.16053 4.08723 5.50148 2.96224 -2.84563 -0.58815 -0.0876715 0.396192 C
63 2 9.72441 6.98561 6.8462 -1.28348 1.97172 -1.43063 -0.102965 -1.08737 1.37524 C
28 1 2.8366 8.30021 5.49635 -4.93898 -1.07438 -0.386099 -0.12784 -1.06057 1.30172 C
30 2 1.52157 9.6911 6.8845 -2.22523 -0.548083 2.66022 -1.41772 0.00945702 0.432913 C
41 1 5.51197 0.0359159 5.56197 6.50747 3.52832 6.16118 0.250977 -1.46743 -0.328814 C
24 2 4.14092 9.70414 4.18071 0.0710512 0.660385 1.36877 1.06328 0.268208 -1.27724 C
62 2 6.85762 9.68784 6.94538 -1.06157 1.96624 3.5834 0.233961 -0.242231 0.253037 C
56 2 9.65217 9.69321 4.13097 5.28655 -0.45037 -1.08791 1.70172 -0.105055 1.31231 C
60 1 8.28363 8.32677 5.5321 2.67509 6.0077 -3.42591 -0.378271 0.479431 -0.0558178 C
4 1 2.80446 2.79758 0.00231422 -1.20351 -2.08711 1.1874 -0.869012 -0.829418 -0.773392 C
11 1 2.75299 0.00971814 8.33703 -3.17949 3.19316 0.338898 0.735067 -0.61763 0.181307 C
13 2 1.37011 1.34911 9.73601 -2.67729 0.824154 0.432576 0.855037 1.41881 -0.309529 C
42 1 5.54341 2.76448 8.29615 -1.18458 2.74329 -0.892271 -0.102928 0.367958 -0.243113 C
45 2 6.90336 1.40804 9.70115 0.370581 -3.85222 -0.172161 -0.121855 -0.14593 0.00354294 C
10 1 0.0291175 2.80817 8.37097 2.84884 0.559041 -0.908359 -1.18089 -1.12181 -0.526981 C
43 1 8.22001 -0.0155078 8.3453 -1.11253 -1.3087 -2.59516 1.23241 -0.213225 0.0661989 C
27 1 2.79399 5.61216 8.32458 -6.27122 0.938953 0.500737 -1.31948 -1.40934 0.10126 C
29 2 1.4095 6.97928 9.72421 -1.84547 0.962281 -3.84329 -0.430716 -0.620527 -0.101872 C
16 2 4.1346 4.15353 9.6637 0.009869 0.305004 -0.267582 0.3941 -0.0974468 -0.193056 C
61 2 6.90224 6.88431 9.68297 2.06316 -1.43643 -2.25622 1.43656 0.407734 1.40941 C
48 2 9.70208 4.16102 9.74511 -0.943225 1.55142 0.757601 -0.263324 0.128423 -0.248017 C
59 1 8.33478 5.56984 8.32775 -6.48136 0.221439 -1.43696 0.6083 -0.0108211 -1.02059 C
32 2 4.09037 9.66404 9.74405 -1.24739 -0.265766 -0.742661 1.45181 1.54047 -0.4534 C
58 1 5.53824 8.29716 8.44204 1.50212 0.116799 1.96661 -0.428038 0.717499 -1.88057 C
52 1 8.33172 8.30152 0.00263837 2.37302 -2.89804 4.10556 -0.890518 0.501361 -0.485039 C
26 1 0.0740453 8.34198 8.23643 -0.569572 2.73926 4.34383 -0.718145 0.261002 1.05149 C
64 2 9.72766 9.71903 9.71977 -1.17612 1.42675 -2.3778 -0.499216 -0.995788 -1.57336 C
ITEM: TIMESTEP
13900
ITEM: NUMBER OF ATOMS
64
ITEM: BOX BOUNDS pp pp pp
0.0000000000000000e+00 1.1085848640000000e+01
0.0000000000000000e+00 1.1085848640000000e+01
0.0000000000000000e+00 1.1085848640000000e+01
ITEM: ATOMS id type xu yu zu vx vy vz fx fy fz element
3 1 2.7724 -0.0381921 2.76633 -0.453876 -0.388693 0.906867 0.291298 -0.436096 0.80335 C
7 2 4.13729 1.29564 1.40445 2.50157 1.18777 -2.99888 0.242835 1.46392 -0.557084 C
34 1 5.58637 2.70554 2.72637 -0.491209 3.31614 -5.83305 -0.475988 0.573378 -0.366977 C
2 1 -0.0205077 2.7981 2.76652 1.66255 3.43787 0.408568 1.5641 0.794016 1.60316 C
36 1 8.31328 2.78311 0.0242364 -4.13521 1.67134 4.04608 -0.364954 -0.326149 -0.798656 C
39 2 9.72999 1.46953 1.42164 0.970472 -0.420749 1.88303 -0.612553 -1.34019 -0.84646 C
6 2 1.42091 4.17898 1.38817 0.224754 -1.3639 -0.175195 -0.828191 -0.862951 -0.343185 C
19 1 2.76699 5.54231 2.78915 1.66745 6.57107 -0.74919 0.374074 0.388627 -0.168749 C
23 2 4.16281 6.91723 1.40974 -0.946879 -0.180223 0.148773 -0.709165 0.680542 1.39712 C
38 2 6.94364 4.17765 1.35359 -2.17277 3.73187 -0.99217 0.450443 -0.237946 1.56443 C
49 1 5.50131 5.56678 0.10003 -1.80325 0.204516 5.43892 0.395489 -0.98212 -1.36073 C
17 1 0.00234156 5.49146 -0.0496189 3.17972 -5.21157 0.685726 -0.45006 -0.736966 -0.146106 C
51 1 8.42289 5.52618 2.76741 0.463232 -0.506847 0.475975 -2.33477 0.920533 -0.656548 C
55 2 9.75701 6.91344 1.32075 -2.51579 2.54332 1.88767 -0.466087 0.236191 0.348974 C
20 1 2.76157 8.22314 0.0135013 5.28498 1.28728 0.403963 1.5447 1.33364 -0.564054 C
22 2 1.45613 9.65578 1.33275 -0.0831738 -0.934348 -0.780026 -1.48551 0.939592 0.604687 C
33 1 5.52311 -0.033345 0.0329935 3.73026 1.47098 -1.33313 0.592195 -0.115392 -1.13959 C
50 1 5.52042 8.31262 2.84292 -8.05048 -2.03919 -0.222099 0.449375 0.192721 -1.34293 C
54 2 6.93508 9.69327 1.42931 -0.844426 3.34364 -0.00667334 0.0417215 -0.252029 -0.175778 C
1 1 0.00182261 0.0639569 0.0261482 1.6208 2.34425 -3.30095 0.173967 -0.988501 0.0367072 C
35 1 8.38205 0.0131379 2.7634 4.25403 1.14361 -0.946613 -1.28957 0.210446 0.130559 C
18 1 0.0724522 8.27867 2.73247 1.63471 -8.93293 1.10923 -0.964397 0.869181 0.221264 C
5 2 1.47608 1.416 4.17034 1.5777 -0.480637 -4.04343 -1.93154 0.0286255 -0.373891 C
12 1 2.82852 2.82986 5.52806 -2.31812 3.07592 -0.359564 -0.416548 -0.000192427 -0.469612 C
15 2 4.11133 1.40905 6.89265 3.24284 -1.89082 0.548178 1.02772 -0.351071 0.808284 C
37 2 6.90077 1.35122 4.15928 -3.30862 -2.84556 -1.38449 1.23751 0.312345 -0.194587 C
9 1 -0.0200158 0.0861646 5.58776 3.9259 -2.47154 6.18326 0.129386 -0.848511 -0.891583 C
44 1 8.2587 2.79695 5.56264 4.11722 -1.08955 3.4025 0.256304 -0.77947 -0.449233 C
47 2 9.6502 1.45508 6.98189 -1.98128 -3.07588 3.21681 0.034215 -0.691155 -1.32304 C
14 2 1.41437 4.18014 6.90912 4.89936 0.374805 -0.363412 -0.0143375 -0.0615519 0.302067 C
21 2 1.40634 6.95325 4.18903 -6.67798 0.806736 -1.96102 0.985288 0.098639 -0.384588 C
8 2 4.21226 4.14143 4.06445 -0.604743 0.201897 0.139144 0.0295112 0.360002 1.13075 C
31 2 4.1381 6.97904 6.89406 2.63008 -0.83507 4.02432 1.18432 -1.97918 0.960934 C
46 2 6.89855 4.13388 6.92861 -4.63763 2.67863 0.942527 -0.483811 1.39457 -0.066707 C
53 2 6.904 6.90662 4.13606 -2.68285 -2.73996 -0.562494 1.95771 0.0761538 -0.400007 C
57 1 5.55973 5.58521 5.48574 -2.19047 -0.0726346 4.65653 -1.00977 -1.36913 1.06565 C
25 1 0.0519053 5.55202 5.50028 0.553765 -2.43384 -0.510012 -0.809982 -0.182989 1.19182 C
40 2 9.66865 4.18557 4.21058 -0.847652 0.545899 -1.85569 1.30019 -1.07679 -0.517405 C
63 2 9.71288 6.86139 6.9382 1.37247 -1.41002 1.53599 0.277234 0.475439 -0.0598515 C
28 1 2.81339 8.33483 5.6074 0.83494 2.17083 -3.70909 -1.67844 1.11601 -1.47818 C
30 2 1.36547 9.73149 6.95886 2.22565 0.487563 -1.04079 0.0167622 -0.519999 0.370527 C
41 1 5.49776 0.00954472 5.51551 -4.07309 1.55428 -2.18524 1.08647 0.569421 1.09883 C
24 2 4.19817 9.72316 4.20519 -3.11676 1.81573 0.803494 -1.78604 -0.818397 -0.821939 C
62 2 6.94486 9.71455 6.85624 0.363852 -0.732233 -1.00461 -0.157529 0.222427 0.89475 C
56 2 9.69645 9.68839 4.12992 -2.15972 -0.756464 -3.83348 1.19575 -0.478498 1.10956 C
60 1 8.30683 8.23731 5.5665 -3.09053 -5.80974 3.11498 0.490239 0.922513 -1.11257 C
4 1 2.7743 2.73476 -0.00887786 5.1951 4.46687 1.89483 -0.433202 -0.196445 0.533365 C
11 1 2.8094 0.00351142 8.33745 0.470412 1.26328 -1.05375 -1.37393 0.288516 -0.652553 C
13 2 1.33323 1.39335 9.64912 2.88559 -2.81096 1.33858 0.83803 0.429338 0.449232 C
42 1 5.49719 2.78422 8.31097 -1.22639 -2.56943 2.9009 0.031095 -0.0528573 0.255503 C
45 2 6.91116 1.42842 9.69741 -1.10223 0.699896 -0.131065 -0.371749 -1.09773 0.598465 C
10 1 -0.0437614 2.81146 8.27206 4.66919 1.3379 1.94365 1.19367 -0.31108 0.0596135 C
43 1 8.30801 0.0177367 8.31595 -2.30197 -0.983705 2.47693 -0.737035 0.138572 -0.021408 C
27 1 2.83254 5.50916 8.34389 11.172 4.17201 0.977153 -0.722927 1.02305 -0.505193 C
29 2 1.42832 6.88089 9.75739 3.13461 -1.39068 -0.561048 -0.882416 -0.419867 -1.78736 C
16 2 4.16081 4.16469 9.77716 -1.0137 0.512332 0.372384 0.434711 -0.403942 -0.578283 C
61 2 6.81756 6.90381 9.75226 -4.41668 -0.0408063 -1.96102 1.44293 0.402206 -1.87212 C
48 2 9.61349 4.08184 9.61331 0.528651 0.673894 -1.58764 1.60952 1.41385 2.01959 C
59 1 8.31296 5.51435 8.31418 0.246431 -1.73169 3.94164 -1.9285 0.547199 0.10205 C
32 2 4.14351 9.66185 9.67175 0.463819 -0.879663 -0.903782 0.302299 -0.149773 1.05818 C
58 1 5.53599 8.3476 8.23379 -0.668699 -1.66506 1.54876 0.282313 -0.520571 1.13965 C
52 1 8.27374 8.30076 -0.0331177 0.326456 1.92154 -1.0589 0.252787 0.10042 0.998404 C
26 1 -0.0179659 8.25823 8.36048 1.78136 -1.32782 -4.55928 0.294209 1.12365 0.156629 C
64 2 9.66399 9.75903 9.74231 2.0426 1.5694 1.30334 0.708623 -1.05821 -0.587167 C
ITEM: TIMESTEP
14000
ITEM: NUMBER OF ATOMS
64
ITEM: BOX BOUNDS pp pp pp
0.0000000000000000e+00 1.1085848640000000e+01
0.0000000000000000e+00 1.1085848640000000e+01
0.0000000000000000e+00 1.1085848640000000e+01
ITEM: ATOMS id type xu yu zu vx vy vz fx fy fz element
3 1 2.74808 0.0220054 2.77723 -3.09188 2.12285 -3.38607 -0.339595 -0.143632 -0.0527378 C
7 2 4.11842 1.46036 1.47507 -2.58445 -2.4562 1.88363 0.984308 -0.200939 -1.55646 C
34 1 5.55123 2.82972 2.87878 1.38504 -2.20439 5.877 -0.551343 -0.398965 -1.18665 C
2 1 -0.0315428 2.73145 2.7783 -1.82286 -1.88807 -4.32196 -0.635331 0.295372 -0.588157 C
36 1 8.37838 2.80257 -0.0439445 2.97645 0.308133 0.937853 -0.620847 -0.206975 1.08145 C
39 2 9.65313 1.32581 1.31112 -0.303694 1.62585 0.748087 0.397773 0.373706 1.67985 C
6 2 1.32297 4.19411 1.39976 -0.352472 0.211433 1.46755 0.0289842 -0.744854 -0.433504 C
19 1 2.72183 5.53565 2.75841 0.277301 -6.03008 1.23329 0.783159 0.44384 0.0360475 C
23 2 4.11585 6.9662 1.33093 1.58852 -2.97084 -2.82908 0.767549 -0.741258 0.879877 C
38 2 6.91772 4.14609 1.37988 0.361483 0.42746 0.0773197 0.0355236 0.123151 -0.149737 C
49 1 5.6022 5.59051 -0.036422 0.911471 1.52947 0.289737 -0.583057 0.0386904 0.919648 C
17 1 -0.0412541 5.61574 0.0287288 0.702965 4.63913 1.537 1.26709 -0.328082 -0.181159 C
51 1 8.2308 5.549 2.79812 7.01668 -0.0976753 1.2307 1.31353 -0.510421 0.510046 C
55 2 9.66243 6.90392 1.43685 2.42976 -1.041 3.16586 -0.249593 0.928943 0.162651 C
20 1 2.74007 8.38448 0.0225798 -6.66398 -4.12365 1.38743 0.0153462 -0.0760591 -0.585375 C
22 2 1.32088 9.73689 1.39773 0.312193 -1.12801 1.97126 0.717975 -0.277975 0.39236 C
33 1 5.571 0.0583289 -0.0032212 -3.0257 -0.295385 3.96075 -0.0385754 0.256623 0.588592 C
50 1 5.56344 8.33387 2.72278 4.19603 -0.111877 3.0647 -1.05672 -0.603075 0.529474 C
54 2 6.93517 9.69353 1.39213 -1.3382 1.16084 0.898489 -0.53966 0.453961 -1.07189 C
1 1 0.00142609 -0.0348457 -0.0419256 1.37159 1.92149 1.78173 -0.0512495 0.942963 -0.13296 C
35 1 8.20498 -0.00658534 2.79391 1.88328 -2.38364 2.46683 2.12334 0.360213 -0.478626 C
18 1 -0.0817208 8.3726 2.79383 2.16818 3.34083 0.443228 0.94081 -1.68825 0.168938 C
5 2 1.34349 1.36211 4.16457 1.02662 0.427708 -0.123558 0.273798 -0.412974 -0.638576 C
12 1 2.74231 2.66762 5.54767 1.35754 2.26972 1.96254 -0.444046 1.57781 0.629191 C
15 2 4.1958 1.32752 6.8825 -2.43013 -0.473295 -0.913867 0.425174 0.248337 1.09665 C
37 2 6.95226 1.41705 4.19389 -1.01322 -1.82541 0.414264 -1.04954 -0.704816 -0.161675 C
9 1 -0.0157223 -0.053963 5.48352 -2.66146 1.94945 -1.77559 0.611587 0.219835 1.5105 C
44 1 8.35097 2.71804 5.53506 -2.71842 1.73987 -0.524615 0.692201 0.501349 1.0861 C
47 2 9.80248 1.39807 6.91328 0.402161 0.115179 2.62864 -1.25339 -1.16188 -0.594477 C
14 2 1.26354 4.07019 6.94817 -4.41945 1.7889 0.643892 1.94172 -0.338225 -0.696832 C
21 2 1.34021 6.86679 4.17065 0.863579 0.62041 0.0895473 -1.13458 0.889606 -0.561944 C
8 2 4.07898 4.15871 4.20768 1.54586 0.487372 -0.482542 0.512865 -0.0609834 -0.141879 C
31 2 4.09539 6.92828 6.8832 -2.27754 0.900696 -1.33829 0.420804 -0.515915 0.702723 C
46 2 7.06105 4.13354 6.94459 3.39742 -0.293362 0.756394 -1.49003 0.177488 -0.463213 C
53 2 6.92619 6.9927 4.18453 -2.30443 -1.92356 -0.883052 -0.574277 -0.696532 -0.0653148 C
57 1 5.56847 5.48847 5.55661 3.86404 1.60292 -2.09483 -0.174613 0.989704 0.374848 C
25 1 -0.0490005 5.4769 5.59562 3.24335 -0.180447 -2.08166 0.305065 0.562086 -0.987408 C
40 2 9.68008 4.12947 4.20832 -0.59967 1.92679 -2.40351 -0.433381 0.257929 -1.66759 C
63 2 9.67925 6.89933 6.89841 0.686488 -1.5214 -2.33345 0.616385 1.41979 0.602757 C
28 1 2.70929 8.31039 5.46777 6.52377 -5.06051 6.07295 1.30451 -0.177083 0.309819 C
30 2 1.40121 9.65275 6.91728 -0.363894 0.574516 -0.300525 -0.759164 0.781406 -0.812089 C
41 1 5.60773 -0.0564038 5.52783 -0.69333 0.684225 -0.454022 -1.30762 1.19288 -0.646639 C
24 2 4.16265 9.71314 4.10512 4.92953 0.770096 0.872533 -0.053803 -0.462994 0.494893 C
62 2 6.92495 9.75113 6.95105 -2.17902 2.44606 1.27375 1.25457 -1.42017 0.11213 C
56 2 9.62794 9.69666 4.1824 0.103164 1.72244 -1.83531 0.508093 1.38321 -1.54632 C
60 1 8.34879 8.38086 5.53193 0.843405 -0.0282195 0.527922 -1.7329 -1.51734 1.60816 C
4 1 2.72533 2.80624 -0.0178766 0.638666 -0.0632007 -2.52055 1.37723 0.867062 0.320242 C
11 1 2.77532 -0.050552 8.28176 4.86647 0.0489058 3.75181 0.343697 0.992465 0.270678 C
13 2 1.3986 1.39099 9.67956 -3.24115 -0.315486 -1.85164 0.476983 -1.37373 0.316772 C
42 1 5.65308 2.75354 8.30178 2.19588 2.60512 -2.79097 -0.822686 -0.238524 0.0164841 C
45 2 7.09902 1.36139 9.67186 1.36516 0.41082 -2.59905 -2.1678 0.588226 0.30635 C
10 1 0.007306 2.70427 8.35191 -2.60517 2.00728 0.948718 -0.141979 0.861086 0.105911 C
43 1 8.40749 0.00932765 8.27114 0.306853 0.362303 -0.992435 0.0450212 -0.382954 -0.124509 C
27 1 2.62108 5.50417 8.2734 -2.16145 -3.71326 1.26412 2.27397 0.893912 0.589658 C
29 2 1.36844 7.00684 9.69988 0.0421878 0.679183 1.27571 -0.233897 -1.06238 0.396335 C
16 2 4.23896 4.23681 9.66756 -0.0297149 0.961559 -1.45536 -1.73825 -1.56192 -0.495185 C
61 2 7.02535 6.92181 9.70005 -1.68848 -2.29858 1.0045 -0.940439 0.976564 -0.10108 C
48 2 9.80453 4.14326 9.74262 -3.12539 -2.73793 -2.73449 -1.31269 0.957604 -1.25477 C
59 1 8.36525 5.5583 8.32374 3.81057 -0.925927 -2.10755 0.940157 -1.18895 0.541188 C
32 2 4.16955 9.72991 9.71743 0.384634 0.683882 -0.899891 0.263543 -0.339471 -0.106499 C
58 1 5.56486 8.30519 8.32534 -0.0707113 2.48795 -1.18712 -0.480191 -0.153687 -0.163492 C
52 1 8.35679 8.32269 0.0299409 0.278482 -4.50145 -1.709 -0.0706025 0.093042 -0.505757 C
26 1 0.00487986 8.33028 8.29734 0.550969 -3.60971 1.5821 -0.434516 -0.913035 -0.716475 C
64 2 9.73622 9.68541 9.66136 -1.18524 3.20849 -1.74605 -0.546422 -0.0448023 0.528662 C
ITEM: TIMESTEP
14100
ITEM: NUMBER OF ATOMS
64
ITEM: BOX BOUNDS pp pp pp
0.0000000000000000e+00 1.1085848640000000e+01
0.0000000000000000e+00 1.1085848640000000e+01
0.0000000000000000e+00 1.1085848640000000e+01
ITEM: ATOMS id type xu yu zu vx vy vz fx fy fz element
3 1 2.85809 -0.0493237 2.8061 3.89261 -2.82096 4.89217 -1.42167 1.51533 -0.854855 C
7 2 4.21026 1.33622 1.37915 -1.2274 -1.23011 3.59784 -1.33026 -1.21065 -0.677061 C
34 1 5.53218 2.71698 2.65659 4.37781 2.58091 -0.962447 0.904825 0.770015 2.27992 C
2 1 0.0314573 2.79479 2.79074 0.571014 -0.276598 3.92667 0.713616 -0.270994 -0.52612 C
36 1 8.25635 2.73061 -0.010455 2.54817 0.882645 -3.09468 0.94252 0.49122 -0.0356585 C
39 2 9.71882 1.3644 1.3899 -0.0105389 -1.78746 -1.41049 -0.000572778 1.57154 -0.202674 C
6 2 1.47744 4.16446 1.36417 -2.1276 1.04745 0.851842 -1.38709 -0.314424 0.631544 C
19 1 2.84217 5.57479 2.75391 -3.16806 5.78682 -0.633493 -0.469963 -1.23709 0.432811 C
23 2 4.21128 6.89545 1.41396 -0.779773 3.70733 -0.203556 -0.32139 0.598583 -1.06565 C
38 2 6.89616 4.14262 1.34975 0.334388 0.461467 -0.783671 0.533076 -0.299607 0.0805188 C
49 1 5.50221 5.4896 0.00172973 2.81881 -1.15908 0.7499 0.662365 0.739403 0.223688 C
17 1 0.0143251 5.47373 -0.0544683 -4.05615 -3.87517 -1.90889 -0.0454328 0.978943 0.892807 C
51 1 8.30721 5.52549 2.71532 -4.27237 -0.203717 -1.06246 1.17163 0.204534 0.17642 C
55 2 9.70851 6.94782 1.30905 1.04066 -2.63221 0.965532 0.180146 -0.9439 0.458498 C
20 1 2.82761 8.26577 -0.00451944 3.89996 1.62963 3.39823 -1.38166 -0.863915 0.753214 C
22 2 1.47543 9.70701 1.3508 -1.48273 0.348049 -1.14287 -0.639804 -0.627796 0.719715 C
33 1 5.51261 -0.0953044 -0.0201643 3.4301 -1.19363 -2.62496 -0.216439 -0.127375 0.600188 C
50 1 5.5142 8.30363 2.77961 0.394843 0.660069 -0.962599 1.2244 0.423999 0.663589 C
54 2 6.95782 9.65901 1.39947 1.52895 -0.698289 3.44867 -1.03925 1.02656 0.219 C
1 1 -0.0245887 -0.0310066 0.0402333 -2.09044 -2.54063 -1.67688 0.594191 0.138375 -0.646803 C
35 1 8.35611 0.0303615 2.72957 -5.75194 -0.00123608 -0.845462 -0.66359 -1.46925 1.49646 C
18 1 0.0670017 8.27335 2.72349 0.670868 -0.47254 -0.613806 -0.085089 0.791453 0.153958 C
5 2 1.45873 1.39674 4.1792 -0.622956 -0.501654 -0.478194 -0.824238 -0.294651 -0.309984 C
12 1 2.79056 2.81444 5.54302 1.47319 -7.60805 -2.68803 0.358634 -0.259985 -0.329521 C
15 2 4.11844 1.40702 6.93614 1.56843 -3.15097 -2.35437 -0.485114 -0.469336 -0.071529 C
37 2 6.89645 1.36291 4.14049 0.958901 -0.550816 -0.032762 0.622506 0.559611 -0.455315 C
9 1 0.0176702 0.0526922 5.60631 0.664026 0.53051 0.882679 -0.476412 -0.266912 -0.624849 C
44 1 8.30738 2.79699 5.51638 1.94574 -0.361912 -2.58346 -0.713155 0.420695 -0.301799 C
47 2 9.60046 1.43089 6.95715 1.10203 2.79857 1.71386 1.05744 -0.752003 -0.469987 C
14 2 1.43829 4.21528 6.89547 -2.76488 -0.606937 1.98048 -1.10799 0.40483 0.552832 C
21 2 1.47544 6.93843 4.14481 -1.3829 -1.25408 -0.423701 -0.68711 0.539796 -0.118558 C
8 2 4.19029 4.11694 4.10247 -0.634581 -0.194842 -0.899108 -0.0150244 0.628532 0.0763389 C
31 2 4.23612 6.93348 7.00553 -0.666591 -0.561667 -1.24433 -1.78434 0.723621 -2.17713 C
46 2 6.84877 4.16691 6.89243 -1.2606 1.3408 0.611916 0.324866 -0.365271 0.53784 C
53 2 7.00763 6.94578 4.12081 2.62387 1.58829 -1.63932 -2.0101 -0.543659 0.102734 C
57 1 5.51303 5.58656 5.50264 2.38666 -2.36038 -1.25878 0.967698 -0.408455 -0.38865 C
25 1 0.0146732 5.64799 5.51646 -0.777331 -2.13006 3.16459 0.89236 -0.785495 0.834758 C
40 2 9.77362 4.2143 4.17487 1.13169 1.56913 3.43579 -1.46935 -0.40558 -0.694964 C
63 2 9.71362 6.97976 6.9497 -0.989467 -3.11963 2.83054 -0.925585 -0.446287 -0.23745 C
28 1 2.7706 8.37391 5.55768 -6.47741 4.4028 -3.64287 0.690077 -1.31261 1.42269 C
30 2 1.40462 9.74162 6.98732 -1.09577 -0.566418 3.16657 -1.14548 -0.482987 -0.844573 C
41 1 5.50723 0.0146677 5.5637 3.66096 -5.89716 1.94029 0.423752 -0.294925 -0.0110499 C
24 2 4.13346 9.71158 4.19271 -0.391135 2.42642 -0.806039 1.53971 -0.742811 0.010127 C
62 2 6.92735 9.67146 6.90359 -1.03915 4.96126 -0.166371 -0.999012 0.761932 0.860168 C
56 2 9.75754 9.68173 4.15217 0.599001 -1.43862 -1.09832 -0.334738 0.481964 0.10425 C
60 1 8.27874 8.31267 5.54998 5.42239 4.63695 -2.42713 1.98997 0.383565 -0.53036 C
4 1 2.75877 2.67917 0.0307459 -4.74207 -1.7007 0.51746 -0.00902641 0.433676 -0.479968 C
11 1 2.70236 0.0482935 8.32787 -3.55269 -4.3886 -2.73923 1.05787 -0.377473 0.621618 C
13 2 1.29092 1.38662 9.69673 -2.59337 2.5784 -1.77567 0.193946 0.303816 0.230526 C
42 1 5.42594 2.76507 8.3318 1.96729 -1.66662 3.40606 1.36032 0.766993 0.116351 C
45 2 6.8026 1.38099 9.74836 3.50411 -4.455 -1.19465 1.0078 -0.505348 -1.42378 C
10 1 -0.0463184 2.81109 8.26012 -1.63407 -3.73784 -1.70016 0.398616 0.462233 0.546807 C
43 1 8.25162 -0.00572457 8.33243 2.64872 2.67929 0.127296 -0.211337 0.405033 0.443751 C
27 1 2.82418 5.59033 8.33866 -5.12265 -1.37996 -2.58505 -0.665698 -1.20975 -0.0136512 C
29 2 1.38911 6.89641 9.70144 0.841409 1.82006 -1.91933 -0.133321 0.945337 -0.103369 C
16 2 4.09976 4.14029 9.7739 2.12238 4.41587 1.68727 -0.271517 -0.389549 -1.08555 C
61 2 6.88605 6.90742 9.73084 -0.0785384 -2.62565 -1.16578 0.32565 0.0536744 -0.186058 C
48 2 9.64407 4.18827 9.67079 3.05309 -0.666797 -0.790611 -0.131956 -1.3598 0.00886556 C
59 1 8.26129 5.55373 8.29331 -2.35431 4.2552 0.338466 0.0812053 0.358168 -0.271766 C
32 2 4.05679 9.63002 9.69242 -1.86876 -0.617794 -0.777532 1.66794 1.56246 -0.941744 C
58 1 5.54808 8.30067 8.34082 1.89479 -1.74576 -0.482537 0.314564 0.798871 0.295099 C
52 1 8.27347 8.34613 -0.00944664 1.42873 3.13332 2.34245 0.550253 -1.33668 -0.214647 C
26 1 -0.022751 8.34998 8.3431 0.459261 4.47103 2.00234 0.765608 -0.227743 0.368239 C
64 2 9.66699 9.70713 9.73641 -0.3807 1.41296 -1.35251 -0.114807 0.357551 -0.620234 C
ITEM: TIMESTEP
14200
ITEM: NUMBER OF ATOMS
64
ITEM: BOX BOUNDS pp pp pp
0.0000000000000000e+00 1.1085848640000000e+01
0.0000000000000000e+00 1.1085848640000000e+01
0.0000000000000000e+00 1.1085848640000000e+01
ITEM: ATOMS id type xu yu zu vx vy vz fx fy fz element
3 1 2.66982 0.0820173 2.67346 3.81384 -3.14392 -2.54089 2.64943 -1.24026 1.40518 C
7 2 4.16022 1.45817 1.37483 4.11972 2.41194 1.41052 -0.248333 -0.130672 0.245159 C
34 1 5.50271 2.80614 2.83328 -5.12198 -3.56669 -3.07994 0.656375 -0.0186537 -1.34025 C
2 1 0.00295632 2.78015 2.74937 -1.83186 -0.418734 -1.22878 -0.492914 -0.117744 0.602245 C
36 1 8.29434 2.81182 0.0439365 -3.20817 -1.02854 0.621105 0.660302 0.198282 0.0539859 C
39 2 9.69861 1.39797 1.37823 0.089282 -1.71725 0.66618 0.0821171 -0.365559 0.153425 C
6 2 1.38974 4.16447 1.41534 3.88188 1.71666 -0.509752 -0.154964 -0.145057 -1.20302 C
19 1 2.74566 5.47475 2.7928 4.30719 -2.92796 -0.916569 -0.395868 1.81757 0.222576 C
23 2 4.11039 6.87235 1.37493 1.55267 -3.60789 -0.143297 -0.330627 1.68953 0.358361 C
38 2 6.89833 4.20279 1.42394 -4.20777 3.74917 0.300309 -0.19921 -0.0549795 -0.136685 C
49 1 5.52246 5.59419 -0.010546 -4.58968 1.75739 -1.46832 0.543754 -0.967225 -0.0467669 C
17 1 0.0219674 5.6144 0.0552995 1.39292 2.24784 -0.862094 -0.741341 -1.32517 -0.488038 C
51 1 8.31519 5.56208 2.7992 -2.67738 0.070117 -0.495006 -0.918711 -0.137483 0.18568 C
55 2 9.64367 6.96067 1.40777 -3.08037 1.84357 0.908431 0.658896 -0.320247 -0.0431417 C
20 1 2.72747 8.33723 -0.0472252 1.71724 0.570546 -4.21159 1.43639 0.427005 0.967776 C
22 2 1.33636 9.71939 1.40026 3.41247 0.916798 1.24409 -0.309692 -0.713212 -0.825178 C
33 1 5.54791 0.0758521 0.013521 -2.2565 1.44035 -1.06947 0.859408 0.244302 -0.693261 C
50 1 5.54245 8.31713 2.75673 -4.23936 -0.515431 -2.74113 -0.266543 -0.343921 -0.13512 C
54 2 6.93145 9.74447 1.35337 -1.90393 0.00276546 -0.0354997 0.244935 -0.839137 0.443142 C
1 1 0.0444963 0.0342912 -0.0254822 1.73406 -1.15033 4.73885 -0.748557 -0.520051 0.839542 C
35 1 8.31783 -0.00564824 2.80981 2.8129 4.69246 -2.55727 -0.79833 0.91875 -1.37645 C
18 1 -0.101982 8.3568 2.79796 -3.34306 1.44791 -2.45053 1.01329 -0.606171 -0.0268106 C
5 2 1.40289 1.40267 4.1259 2.45074 -0.0505288 -0.845187 -1.20749 0.333832 0.488438 C
12 1 2.76153 2.81157 5.52955 -1.80015 4.18211 3.71396 0.564852 -1.6061 -0.0136074 C
15 2 4.16812 1.40092 6.93009 1.10119 0.387947 -1.4791 0.133074 0.941501 -0.778793 C
37 2 6.9044 1.4069 4.1402 -5.5632 -2.17886 0.549155 0.403048 -0.0116811 0.364881 C
9 1 -0.0117942 -0.0563226 5.45591 0.197622 -0.310166 -1.62892 0.653238 0.806848 1.12898 C
44 1 8.27298 2.72286 5.602 -0.693617 -4.10489 1.91842 1.23164 0.0743958 -0.752306 C
47 2 9.7499 1.31957 6.9385 -0.562648 -1.5309 6.63205 0.0219029 0.697916 0.343083 C
14 2 1.42457 4.1368 6.90501 0.542855 -0.221558 -0.0283057 -0.362239 0.75591 0.989835 C
21 2 1.29221 6.88528 4.18184 -0.221059 -1.57855 -0.397092 0.981335 0.40392 -0.853418 C
8 2 4.12543 4.16076 4.16 -0.640873 -0.0440462 0.0074605 0.157678 0.0506839 0.743517 C
31 2 4.11659 6.95305 6.92768 3.16573 -0.0706725 5.37478 1.18668 -0.905226 0.808267 C
46 2 6.9672 4.14013 6.97495 2.56526 0.337893 -0.0150109 -1.13588 0.456335 -1.09693 C
53 2 6.8768 6.88764 4.21647 -3.13097 -1.1978 -2.13648 -0.158182 -0.00240426 -1.1639 C
57 1 5.48201 5.50476 5.58691 -5.68925 2.31928 2.12377 0.817159 0.153137 0.253889 C
25 1 -0.0253063 5.47859 5.56184 -2.80845 3.05641 -2.68115 -0.115636 -0.20882 -0.512636 C
40 2 9.65037 4.12689 4.15525 2.08023 1.02075 -1.62369 0.441013 -0.443682 0.535746 C
63 2 9.70264 6.88977 6.87437 3.5469 -0.905963 -0.257615 -0.474542 -0.835476 1.57584 C
28 1 2.7846 8.24211 5.53613 3.46124 -0.531568 -2.0378 -1.08867 1.51537 -1.0963 C
30 2 1.41156 9.69085 6.8915 4.63293 0.402743 0.825375 0.0937596 -0.163365 0.389521 C
41 1 5.52403 0.0633097 5.49895 -1.4127 2.00147 -2.48846 0.603574 -1.89946 0.985442 C
24 2 4.14375 9.71942 4.13484 -1.66107 2.19066 -2.17418 -1.0948 0.412868 -0.757887 C
62 2 6.95505 9.62987 6.90172 -0.789942 0.0459071 -0.0640924 -1.15405 1.69522 -0.392759 C
56 2 9.60038 9.69694 4.17631 -1.10709 -0.5734 -1.23091 0.56766 -0.965206 0.293661 C
60 1 8.28506 8.21803 5.55156 -9.14069 -3.90925 2.21914 0.222384 1.08306 -0.397752 C
4 1 2.8295 2.84783 -0.0239919 1.89887 -2.41474 0.0143778 -0.82166 -0.923565 0.492513 C
11 1 2.85845 0.0171418 8.30543 0.437237 3.17694 0.214304 -0.782947 -1.31472 -0.552659 C
13 2 1.51243 1.30896 9.73504 -0.389974 -1.77873 -1.68495 -0.539944 2.23625 -0.455113 C
42 1 5.57632 2.78829 8.28303 -3.12153 -1.32372 -3.73118 -0.151664 -0.482388 0.71131 C
45 2 6.99314 1.47206 9.69396 0.102625 2.52005 0.96089 -1.06687 -1.69124 -0.107368 C
10 1 0.118392 2.76999 8.36031 0.636033 -1.52084 -0.531478 -1.116 -1.39015 -0.384903 C
43 1 8.30582 -0.061126 8.31692 0.453235 -3.40048 -0.643142 0.880543 0.624681 0.333164 C
27 1 2.81022 5.52079 8.31604 2.19963 3.14544 1.08778 -0.675135 0.256174 -0.211218 C
29 2 1.41016 6.91184 9.70168 0.660131 -1.44189 0.856503 -0.47364 -0.00349112 -0.83282 C
16 2 4.20744 4.15496 9.66902 0.693174 2.25669 1.49313 0.23303 0.73251 0.0993314 C
61 2 6.90953 6.97647 9.70097 -0.985654 -1.67607 2.05563 0.0938121 -1.19009 -0.911427 C
48 2 9.72144 4.12899 9.72179 0.91502 1.62763 -0.968616 0.845757 0.815419 0.625732 C
59 1 8.31723 5.49348 8.33954 2.96023 -3.67557 0.401633 0.457133 1.49761 0.114916 C
32 2 4.24612 9.74416 9.68004 -2.14941 -1.71356 1.40528 -1.54287 -0.246253 0.887597 C
58 1 5.53063 8.35086 8.29798 -0.89223 -0.506455 0.260875 0.405437 -0.924372 -0.291918 C
52 1 8.31436 8.27955 -0.0324304 -2.94815 2.6108 -0.401419 0.00543921 1.80064 0.672119 C
26 1 0.00123374 8.25221 8.26366 -1.14912 -2.34117 -1.38699 0.563623 0.929037 0.505474 C
64 2 9.76746 9.68715 9.72275 2.05701 0.430829 -2.6516 -0.801373 -0.515511 -0.941891 C
ITEM: TIMESTEP
14300
ITEM: NUMBER OF ATOMS
64
ITEM: BOX BOUNDS pp pp pp
0.0000000000000000e+00 1.1085848640000000e+01
0.0000000000000000e+00 1.1085848640000000e+01
0.0000000000000000e+00 1.1085848640000000e+01
ITEM: ATOMS id type xu yu zu vx vy vz fx fy fz element
3 1 2.74534 -0.014854 2.84039 -10.966 4.9592 -1.29154 -0.345841 -0.692282 -0.660256 C
7 2 4.06789 1.35552 1.41551 -2.56338 -2.04159 2.96036 1.7064 0.9453 -0.268999 C
34 1 5.58956 2.78861 2.76864 -0.517369 0.63616 0.983813 -1.16264 -1.69516 0.0948606 C
2 1 -0.0409646 2.74637 2.77778 3.06267 1.1439 0.904226 0.295212 -0.103872 0.245438 C
36 1 8.34879 2.72169 0.000323587 -2.53222 -0.246611 -1.06291 -0.869069 -0.758762 -0.589746 C
39 2 9.70017 1.33499 1.37655 0.748548 -0.170486 0.468785 -0.420739 0.731 0.538991 C
6 2 1.33787 4.13032 1.4104 -1.63717 -0.878036 3.65517 0.597057 0.591444 -0.0491014 C
19 1 2.72944 5.60445 2.76634 -1.02553 -2.24166 -0.473035 1.4066 -1.94532 -0.553662 C
23 2 4.16499 6.9336 1.3445 2.36976 -3.51945 -0.66349 0.861519 -0.528046 0.838958 C
38 2 6.99308 4.06607 1.37438 0.651647 -0.503775 1.81573 0.0368105 1.44619 0.450509 C
49 1 5.63064 5.45809 -0.00563344 0.310016 -0.973654 -0.0696577 -1.27113 1.09569 -0.440733 C
17 1 -0.0159815 5.48283 -0.00903652 1.06986 -0.669303 -0.882543 0.484952 1.27255 0.0523447 C
51 1 8.34504 5.52945 2.77617 1.7471 -0.262838 -2.01061 0.058098 0.449075 -0.598265 C
55 2 9.7825 6.91708 1.42589 2.68589 -0.43725 1.11314 -0.706138 -0.356877 -0.490075 C
20 1 2.73352 8.33472 0.0487528 -3.79423 -1.98664 -2.60598 0.46235 0.409818 -1.80465 C
22 2 1.30219 9.73306 1.35983 -2.10095 1.8852 1.24828 1.32274 0.0634072 1.00356 C
33 1 5.54037 -0.0103081 0.0135726 -1.67381 -3.76435 2.5311 -0.479868 -0.249369 0.0502646 C
50 1 5.57597 8.30512 2.81406 3.09502 1.09071 1.42768 0.228355 0.218556 -0.758632 C
54 2 7.00045 9.69687 1.37946 2.92379 1.16042 2.32271 -1.89341 -0.824316 -0.0362595 C
1 1 -0.0730538 0.0290735 -0.0435856 -1.15071 0.650221 -6.63654 1.08913 -0.434133 0.9603 C
35 1 8.31614 -0.0427072 2.75107 -1.08049 -5.27435 2.78632 1.21671 0.511593 0.507764 C
18 1 0.107095 8.25694 2.81579 2.0304 -1.5338 2.38803 -2.22715 1.73545 -0.817098 C
5 2 1.35803 1.37276 4.18443 3.26912 1.12821 -1.57398 -0.131335 0.0200804 -0.0585691 C
12 1 2.75999 2.72451 5.54062 -1.77216 3.32593 -3.351 -0.185724 1.19993 0.757764 C
15 2 4.12221 1.37324 6.99537 -1.26078 -2.45784 1.19221 0.537587 -0.0797872 -0.585587 C
37 2 7.02114 1.37895 4.14608 0.848169 -0.933685 -2.20642 -1.85766 -0.103908 0.705685 C
9 1 0.0123422 0.0144285 5.61697 -0.78211 -0.906397 0.505153 -0.371917 -0.608745 -2.29375 C
44 1 8.37737 2.86496 5.46299 -1.84354 2.22689 -0.450909 -1.53433 -1.19214 1.26292 C
47 2 9.69639 1.42166 6.81165 -1.31502 0.577437 -0.920183 -0.734352 0.360098 2.27323 C
14 2 1.33115 4.19604 6.91539 -0.813573 1.09557 -1.93736 0.661404 -1.61227 0.133419 C
21 2 1.42067 6.9271 4.15217 -1.84113 -0.945529 1.51077 0.162715 0.0457996 1.44463 C
8 2 4.14994 4.13847 4.15618 2.8723 -2.18385 -3.1023 0.339879 0.922061 -0.266321 C
31 2 4.14803 6.88358 6.92046 -1.69418 -0.704707 -1.53836 0.280547 0.398943 -0.536327 C
46 2 6.92338 4.16349 6.92499 -2.09813 1.8292 2.08314 1.31094 0.0259495 0.166758 C
53 2 7.06385 6.98951 4.18975 6.44564 -0.923885 1.56808 -1.28354 -0.669764 -0.685932 C
57 1 5.64575 5.54123 5.50312 -0.267265 -2.36935 -3.06717 -1.80388 0.458237 0.199595 C
25 1 0.0205164 5.55155 5.51392 1.51262 0.426591 1.34359 -0.789862 1.17069 0.246346 C
40 2 9.71807 4.2023 4.15175 1.4742 3.57419 0.484805 0.872644 -0.10257 -0.91722 C
63 2 9.66543 6.99354 6.87148 0.714908 0.764939 -1.45001 1.86553 -0.269152 0.63223 C
28 1 2.72942 8.345 5.56832 -2.35365 -0.931171 1.04447 0.940281 -0.867877 0.16263 C
30 2 1.33688 9.70128 6.95101 -4.36495 0.826193 3.01688 0.530864 -0.0737389 0.0180121 C
41 1 5.54997 -0.0388857 5.62535 -2.61163 5.50124 -0.560975 0.518672 1.79264 -0.978968 C
24 2 4.18981 9.69543 4.22785 4.19222 2.13543 3.38145 -0.621171 -0.157628 -0.698922 C
62 2 6.93497 9.68849 6.96146 2.30204 -0.449892 0.60591 0.505326 0.110437 0.226472 C
56 2 9.72752 9.69567 4.15391 0.429436 0.962149 -1.38911 1.60874 0.828946 -0.450246 C
60 1 8.38394 8.42391 5.53352 3.98407 -0.430619 -1.0554 -1.29616 -0.931561 0.574036 C
4 1 2.72709 2.79805 -0.00824392 1.68101 3.00973 -1.18289 0.361493 -0.659253 0.104 C
11 1 2.70706 -0.0382251 8.31259 -1.37809 2.71043 -0.569119 0.188658 1.14086 0.595168 C
13 2 1.3261 1.39729 9.70897 -2.03866 -2.07661 0.398763 0.169138 0.224777 -0.937905 C
42 1 5.56451 2.77225 8.35078 -1.57825 1.41646 0.0986704 -0.430575 -0.483967 -1.23865 C
45 2 6.90755 1.33346 9.67287 1.17324 -0.766661 -1.8878 0.550692 1.2596 1.20684 C
10 1 -0.0891055 2.78828 8.29992 1.99571 5.61425 -0.669456 0.920992 0.0805352 -0.177382 C
43 1 8.32157 0.0530673 8.29916 -4.96527 -0.222965 -2.05268 0.266482 -0.972802 -0.501832 C
27 1 2.72661 5.53033 8.30752 1.16272 -2.23087 0.199833 0.506151 0.375543 0.0372938 C
29 2 1.35532 6.9634 9.67907 0.342727 -0.0479079 -1.34408 0.065001 -0.745012 0.846778 C
16 2 4.16241 4.13774 9.65329 0.6123 0.325607 1.0288 -0.35424 0.49932 1.34115 C
61 2 6.95742 6.92583 9.6663 -2.65065 0.380646 -0.208002 -0.306298 0.230876 1.43426 C
48 2 9.64669 4.16155 9.72637 -1.58203 -2.16879 -3.579 -0.0582976 0.383934 -1.23561 C
59 1 8.32042 5.63858 8.28107 -7.03035 -1.69687 0.609461 0.0283564 -2.05142 -0.106185 C
32 2 4.15255 9.71569 9.64702 2.38307 0.141017 -2.68107 -0.301705 -0.944383 1.55957 C
58 1 5.54427 8.27459 8.31346 0.314409 3.15093 0.650053 -0.319936 0.323732 -0.258471 C
52 1 8.36139 8.29159 0.0147238 0.747263 -6.86305 -3.33138 -0.39388 -0.526023 0.334254 C
26 1 -0.0261911 8.36854 8.32696 -2.4473 0.596209 -1.32699 -0.980129 -0.659706 0.0843273 C
64 2 9.65535 9.72522 9.76231 -0.0157753 2.93333 2.2688 0.172928 -0.0232111 -2.095 C
ITEM: TIMESTEP
14400
ITEM: NUMBER OF ATOMS
64
ITEM: BOX BOUNDS pp pp pp
0.0000000000000000e+00 1.1085848640000000e+01
0.0000000000000000e+00 1.1085848640000000e+01
0.0000000000000000e+00 1.1085848640000000e+01
ITEM: ATOMS id type xu yu zu vx vy vz fx fy fz element
3 1 2.88029 -0.0253814 2.72181 3.63637 0.565251 0.00721314 -2.2393 1.34105 -0.0647566 C
7 2 4.2594 1.36974 1.33855 -0.548449 2.24954 2.27494 -1.29892 -0.0847549 0.701681 C
34 1 5.55859 2.75657 2.76228 1.48787 6.07101 0.918035 -0.0608414 1.50829 -0.332853 C
2 1 0.0208008 2.79241 2.76006 -5.26403 -0.846895 -3.86833 0.260037 0.389587 -0.37526 C
36 1 8.32067 2.78611 -0.021072 3.07983 1.41731 3.46082 -0.563741 0.229143 0.268124 C
39 2 9.69989 1.42094 1.36685 2.16624 -4.1948 -0.316046 0.695664 -0.116271 0.562062 C
6 2 1.46156 4.20649 1.34635 -0.534375 -0.926966 1.24525 -1.47787 -1.29536 0.679098 C
19 1 2.79662 5.5143 2.78431 -5.25203 5.6844 0.0360187 -1.05885 1.37419 -0.210122 C
23 2 4.13272 6.93416 1.45388 -1.04664 -0.685231 -2.78615 0.540674 -0.0423752 -0.827685 C
38 2 6.91405 4.20092 1.31699 -1.83208 0.494371 -1.25254 0.0982634 -0.396376 1.22275 C
49 1 5.4695 5.60471 0.00509573 3.5081 -2.37948 0.430551 0.434588 -0.942756 0.0881029 C
17 1 0.0081334 5.5858 0.0110379 -1.22656 -1.064 1.62616 0.139796 -1.11625 -0.56375 C
51 1 8.33413 5.55496 2.75716 -0.267467 -0.986226 3.4663 -0.98196 -0.690459 0.228945 C
55 2 9.64305 6.91156 1.31796 -0.810196 1.28615 5.61589 0.670905 1.221 1.12219 C
20 1 2.83394 8.29176 0.00855187 -3.03181 2.71894 5.50903 -1.28882 -0.629043 0.212672 C
22 2 1.46698 9.67218 1.36773 -4.43517 1.48513 -0.480487 -0.155818 -0.0495565 0.986445 C
33 1 5.53655 -0.0332148 -0.0321961 0.414216 6.02437 -2.14296 0.128189 -0.38856 0.0640327 C
50 1 5.54289 8.30058 2.766 -4.75977 -2.5214 0.626466 -0.781415 0.481369 0.146799 C
54 2 6.8936 9.69512 1.40161 3.62421 2.70924 -1.39172 0.960755 1.17124 0.43023 C
1 1 0.066977 -0.0332898 0.11713 -2.35362 2.71343 -0.830144 -1.23612 0.609541 -2.73113 C
35 1 8.35797 0.0634616 2.78956 -1.13095 0.870355 -1.86295 -1.33944 -1.21153 -0.225708 C
18 1 -0.0780332 8.38265 2.69533 1.22049 -3.30785 -0.0191589 1.73675 -2.03304 0.679244 C
5 2 1.38347 1.37072 4.13908 -0.266838 -2.07658 -1.87857 1.59271 0.39644 -0.729632 C
12 1 2.83008 2.75874 5.55999 -0.728225 -3.79106 -0.495217 -1.30052 0.414125 -1.13317 C
15 2 4.17523 1.39862 6.91358 1.27939 -1.26993 1.3091 0.599154 -1.21073 0.458491 C
37 2 6.89187 1.39376 4.16567 0.908503 -0.716181 -1.64184 0.985562 -0.247393 -0.342531 C
9 1 -0.016099 0.0264347 5.47435 0.172543 0.215883 3.21445 0.113099 -0.358008 2.37113 C
44 1 8.23043 2.73719 5.5928 3.42945 2.18231 -3.64831 1.52686 0.304188 -0.606179 C
47 2 9.66564 1.39669 7.00635 3.81318 -3.06373 0.3833 0.61353 -0.585403 -1.63384 C
14 2 1.46553 4.16881 6.94571 -1.94802 1.62435 0.645487 -1.14242 -0.410476 -0.168781 C
21 2 1.39852 6.9382 4.14328 -5.40533 -2.13947 -1.6361 -0.867855 0.560886 -0.310487 C
8 2 4.13172 4.20139 4.1321 -2.86364 -0.726388 1.40409 1.48555 -1.44836 1.14381 C
31 2 4.18032 7.00982 6.96179 0.65557 -0.648917 4.14221 -0.488899 -1.56565 -0.15289 C
46 2 6.88421 4.10589 6.94286 0.425399 -0.368462 2.11887 -0.0255452 1.74752 0.0552078 C
53 2 6.85728 6.91243 4.12651 0.162522 1.28282 1.73961 1.60651 -0.0525651 0.83585 C
57 1 5.49465 5.59435 5.58592 3.66387 0.286727 1.63303 0.485085 -1.13242 -0.569515 C
25 1 0.0172764 5.56247 5.57202 -0.148565 -5.78036 -0.419391 0.229748 -0.966391 -0.483957 C
40 2 9.69476 4.12912 4.18438 -0.485007 1.57712 -0.703774 -0.233351 0.356095 0.279255 C
63 2 9.68874 6.87372 6.96102 -0.554474 -0.367182 -2.58629 0.460049 1.33943 -0.170382 C
28 1 2.81328 8.29676 5.57062 -0.0910996 0.544741 -0.151013 -1.0097 0.642378 -1.16656 C
30 2 1.47356 9.74469 6.90484 2.42786 -0.737288 -0.769911 -1.81481 -0.481403 0.526539 C
41 1 5.57247 -0.0191908 5.50952 -0.759135 -6.6959 2.16287 -2.04269 -0.123489 -0.277688 C
24 2 4.09399 9.67253 4.09667 -1.45908 2.99551 -1.13355 2.58123 -0.194448 1.70774 C
62 2 6.88272 9.68051 6.88841 -1.25539 -0.0817778 1.50351 1.56014 0.460666 1.23067 C
56 2 9.69855 9.68251 4.16754 -4.11768 -2.79658 -0.822429 -0.839508 0.608156 -0.268017 C
60 1 8.29279 8.28045 5.54946 0.45713 3.17191 0.39572 -0.00719969 -0.302918 -0.314476 C
4 1 2.76877 2.69315 0.0172978 -1.80156 3.30756 -1.19161 0.690637 1.32477 -0.513036 C
11 1 2.82663 0.00542061 8.36151 1.47177 -4.78046 -0.127762 -0.68319 0.342329 -1.31365 C
13 2 1.39594 1.34865 9.70468 1.49252 -3.03832 1.06177 -0.193752 -0.382951 0.825051 C
42 1 5.50818 2.77581 8.31447 2.69281 0.13698 2.68101 -0.240625 0.145046 0.608687 C
45 2 6.86203 1.43471 9.7428 1.33328 -1.67862 -2.91831 1.32105 -1.12304 -1.06896 C
10 1 0.0348232 2.74255 8.33347 -2.22613 -2.46364 2.12483 -0.213707 1.21012 0.10457 C
43 1 8.31566 -0.0107358 8.36636 1.41781 1.03845 1.92453 -1.5448 0.190855 -0.558156 C
27 1 2.81318 5.57072 8.30998 -2.04383 1.18959 -2.36251 0.0865825 -0.13905 0.169158 C
29 2 1.44455 6.8878 9.72679 0.0576593 2.29606 -1.98188 -0.388433 0.984342 -0.116726 C
16 2 4.12684 4.16645 9.71837 3.69181 1.77141 -3.2898 0.0529972 -0.47949 -0.0226545 C
61 2 6.87438 6.91778 9.7014 -0.164071 -0.849723 -1.3551 1.10622 0.550907 -0.290927 C
48 2 9.69153 4.17161 9.71603 1.68589 0.146654 3.02318 1.32689 -0.43871 -0.268511 C
59 1 8.32807 5.50172 8.31616 5.86691 7.80189 -1.56998 -1.54226 0.130156 0.329633 C
32 2 4.10547 9.66103 9.70329 1.59611 2.1251 -3.72489 1.94396 0.496813 -0.0770286 C
58 1 5.52952 8.32946 8.3044 -2.60687 -3.47952 -2.07426 0.270739 0.42031 0.786199 C
52 1 8.27042 8.35482 0.0217723 0.778988 3.57446 -0.528704 0.059665 -0.798525 -1.4106 C
26 1 0.0465591 8.2812 8.34994 1.5217 -1.42487 -1.86793 0.165944 0.544647 -1.14818 C
64 2 9.72119 9.69793 9.69127 1.97003 0.458194 1.47342 0.532831 -0.0578354 1.62341 C
ITEM: TIMESTEP
14500
ITEM: NUMBER OF ATOMS
64
ITEM: BOX BOUNDS pp pp pp
0.0000000000000000e+00 1.1085848640000000e+01
0.0000000000000000e+00 1.1085848640000000e+01
0.0000000000000000e+00 1.1085848640000000e+01
ITEM: ATOMS id type xu yu zu vx vy vz fx fy fz element
3 1 2.72948 0.00194708 2.81908 4.88176 -3.18361 -0.512074 0.966205 0.248245 -0.674934 C
7 2 4.11823 1.40321 1.39692 2.30146 -3.3089 -0.135028 0.611953 -0.681769 0.000948638 C
34 1 5.52083 2.75289 2.78968 0.195195 -6.17232 -0.352088 -0.126517 0.150765 0.535829 C
2 1 0.0178033 2.77067 2.81252 2.17497 -0.25342 3.00108 -1.09589 -0.225146 -1.2849 C
36 1 8.30932 2.81451 0.0199516 0.622387 -0.391657 -1.93045 0.638638 0.43579 0.159921 C
39 2 9.645 1.38575 1.35802 -0.113405 0.531658 -0.837202 1.43609 -0.0114024 0.730456 C
6 2 1.34453 4.20722 1.39323 3.3792 2.19525 0.183965 1.17872 -1.16747 0.129125 C
19 1 2.7999 5.54909 2.74673 3.61285 -6.19233 2.21731 -0.40241 -0.543398 0.299094 C
23 2 4.1192 6.94376 1.37713 0.771944 -2.86162 1.52916 1.20775 0.0521609 -0.491134 C
38 2 6.91318 4.14614 1.45544 -1.33633 1.21801 -1.47993 -0.532468 0.060877 -1.34283 C
49 1 5.56711 5.55253 0.00556487 -3.32441 3.44031 -1.43572 -0.0978604 0.164162 0.185291 C
17 1 -0.0062001 5.53522 0.000450939 -0.756715 3.87526 1.19238 -0.559278 0.441251 0.291973 C
51 1 8.23857 5.53637 2.79783 3.50308 1.61825 -3.34058 1.51496 0.284342 0.00898932 C
55 2 9.68272 6.92226 1.37903 0.30387 -2.16795 -2.20843 0.282701 0.0618645 1.15394 C
20 1 2.78332 8.31338 -0.0370524 5.21336 -1.55703 -2.41159 -0.771272 0.246611 0.939049 C
22 2 1.39465 9.71461 1.39836 1.85161 1.14756 -0.537175 -0.249598 -0.513114 -0.398221 C
33 1 5.59092 0.0264088 0.00609157 -1.89026 -4.17611 1.18605 -1.07262 0.924276 -0.319085 C
50 1 5.51043 8.35241 2.74602 6.53385 1.33625 -0.482554 -0.506766 -1.21496 0.176911 C
54 2 6.8493 9.69806 1.39917 -2.24208 -0.715896 2.75895 1.9998 0.077481 -0.697414 C
1 1 0.0112249 -0.00215664 -0.0395741 3.98329 -2.71275 9.95443 -0.00336919 0.613137 0.671594 C
35 1 8.25023 0.0102027 2.75811 4.01381 2.82812 1.2442 0.193217 0.00818851 0.192045 C
18 1 0.0288362 8.31925 2.83158 -3.96941 7.74444 -2.84409 -0.908439 -0.0912377 -1.10306 C
5 2 1.3758 1.39676 4.19021 -0.322357 0.0804806 -0.820044 0.0564054 -0.493748 0.261624 C
12 1 2.73932 2.78184 5.56818 6.13072 -0.459226 2.75647 0.538113 -0.127082 -0.160515 C
15 2 4.18495 1.40284 6.91331 0.256567 1.3314 0.355141 -0.319862 0.368783 0.0883573 C
37 2 6.91464 1.38961 4.19839 -3.73425 -1.81148 -0.739203 0.17932 -0.0253575 -0.548836 C
9 1 0.0405068 -0.050302 5.56764 -1.47829 2.62428 -9.10638 -0.977551 1.0408 -0.634736 C
44 1 8.39675 2.70077 5.56332 -7.21149 -0.257769 2.41041 -1.72692 1.18946 -0.923769 C
47 2 9.72618 1.38772 6.8892 -4.03296 2.25622 4.94948 1.22895 -1.24847 1.32823 C
14 2 1.32242 4.12476 6.93172 2.32273 3.96953 -0.143259 0.887878 1.27783 -0.162822 C
21 2 1.44439 6.88968 4.13998 2.74378 -0.404057 0.412149 -1.22663 0.336609 -0.0487729 C
8 2 4.14078 4.154 4.17686 0.859141 1.55432 -4.56884 -0.0643529 -0.32835 -0.339947 C
31 2 4.12366 6.89181 6.92514 2.66192 3.33064 2.25294 0.766592 1.05006 0.59505 C
46 2 7.04096 4.16112 6.89757 -2.98416 -2.30758 0.471459 -1.5145 -1.10337 0.236894 C
53 2 6.86051 6.94652 4.12965 0.0615923 -1.53075 -2.53794 -0.087696 -0.443483 0.60036 C
57 1 5.54003 5.4941 5.56005 -2.32976 3.48967 -0.632068 0.304649 0.831531 -0.18948 C
25 1 -0.0229539 5.54897 5.50164 1.82781 7.34488 -0.345786 0.24791 -0.566274 0.52647 C
40 2 9.66805 4.11507 4.16863 3.33866 2.61328 -0.16067 0.35538 0.890132 -0.479509 C
63 2 9.67258 6.89591 6.92098 -0.214164 -3.49806 -1.13135 0.0574859 0.187684 0.631431 C
28 1 2.76268 8.31775 5.46286 0.466224 -3.57461 4.7633 0.740462 -0.571791 1.75203 C
30 2 1.39709 9.6682 6.91604 3.99785 2.3736 2.88792 0.597448 0.011027 -0.279438 C
41 1 5.51727 0.00998598 5.53567 4.62838 2.98352 2.51336 0.523593 -0.563617 0.226701 C
24 2 4.17741 9.68879 4.14342 -2.67275 0.898199 -0.671303 -0.795312 0.887029 0.0206226 C
62 2 6.92993 9.70469 6.91572 -4.18914 -1.18622 -1.86255 -0.205674 0.0583469 0.0859932 C
56 2 9.65467 9.74624 4.16934 3.46511 -1.8785 -1.66612 0.409371 -1.19537 0.0361854 C
60 1 8.26591 8.27706 5.53389 1.20081 -0.138229 -1.01535 0.511746 0.649051 -0.153811 C
4 1 2.80598 2.82037 -0.00284817 -0.475829 -6.38997 1.08712 -1.19875 -0.21103 -0.119338 C
11 1 2.7669 0.0275318 8.24351 0.924905 1.96304 3.3213 0.679081 -0.7279 1.26901 C
13 2 1.40579 1.40857 9.65834 -3.87447 -1.3123 -1.53722 0.317624 -0.0977842 0.72585 C
42 1 5.61368 2.77326 8.29322 -2.72164 2.02638 -1.91323 -0.165908 0.50084 -0.122911 C
45 2 7.02169 1.44676 9.70561 -4.37277 2.90764 1.20576 -1.12838 -1.41103 -0.456765 C
10 1 0.00800894 2.76499 8.3088 0.810434 -0.746715 -2.22606 -0.692472 -0.382299 -0.0483332 C
43 1 8.3444 0.00464631 8.2664 1.76901 -0.156572 2.26066 0.058387 0.227152 0.671033 C
27 1 2.74982 5.50278 8.35013 1.87062 -2.33953 2.97671 -0.409984 0.274285 -1.00594 C
29 2 1.37003 6.89181 9.73364 3.11617 -3.90318 -0.0637197 0.224648 0.899492 -0.974808 C
16 2 4.1895 4.16908 9.67437 -0.482891 1.60094 1.55228 0.629488 -0.32451 0.387565 C
61 2 7.00113 6.92477 9.69485 -5.88707 -1.80536 0.239994 -0.905458 -0.223253 0.96092 C
48 2 9.74412 4.1491 9.70255 -3.17374 -0.764316 -2.15861 -0.522327 -0.491605 0.524782 C
59 1 8.30555 5.46689 8.37523 -0.640282 -3.01723 -1.14519 1.45965 1.47998 -1.21684 C
32 2 4.16825 9.72343 9.7302 -3.8684 -3.01632 -2.40397 0.209625 0.496374 -1.20037 C
58 1 5.61074 8.32767 8.37271 2.90397 1.5095 0.553711 -1.58838 -0.542796 -1.32283 C
52 1 8.33052 8.32747 0.00514724 -2.26154 0.363745 3.27526 -0.283143 0.485278 0.158074 C
26 1 0.0174342 8.32846 8.29697 -0.482402 -0.279322 5.83852 -0.360545 -1.36592 0.267789 C
64 2 9.72808 9.70365 9.67923 0.574943 4.01934 -1.20254 -0.513517 -0.01735 -0.128794 C
ITEM: TIMESTEP
14600
ITEM: NUMBER OF ATOMS
64
ITEM: BOX BOUNDS pp pp pp
0.0000000000000000e+00 1.1085848640000000e+01
0.0000000000000000e+00 1.1085848640000000e+01
0.0000000000000000e+00 1.1085848640000000e+01
ITEM: ATOMS id type xu yu zu vx vy vz fx fy fz element
3 1 2.73712 -0.0236555 2.78134 -1.65428 -2.64367 5.0133 0.967374 -0.746709 0.68369 C
7 2 4.13579 1.34362 1.43056 -1.48875 2.30312 3.71771 0.230443 0.482748 -0.758872 C
34 1 5.56792 2.7598 2.75367 2.8402 1.57878 -1.45821 0.404029 -0.439648 -0.173544 C
2 1 -0.0126181 2.76175 2.74948 0.800672 0.71557 2.83716 0.409862 0.122143 1.41704 C
36 1 8.32589 2.70891 -0.0486177 -2.10606 -0.929875 0.703959 -0.174814 0.0865837 -0.13291 C
39 2 9.70954 1.37953 1.39375 -1.49745 -3.14709 -3.01992 -0.450382 -0.464292 -0.512906 C
6 2 1.36147 4.16366 1.39515 -3.93545 3.71308 1.46227 0.430634 0.0491405 -0.282724 C
19 1 2.77732 5.57454 2.74892 1.47724 5.54937 -2.00997 0.0646915 -0.692135 0.558595 C
23 2 4.20087 6.95743 1.43815 -1.29916 -0.576078 -0.425619 -0.705262 -0.800971 -1.33048 C
38 2 7.00127 4.10353 1.34649 -0.684611 0.291142 1.98264 -0.4058 0.514021 0.894188 C
49 1 5.56965 5.50076 0.0376789 3.09716 -2.08906 1.50365 -0.331702 0.627228 -0.729891 C
17 1 0.0212981 5.48367 -0.0801502 1.67111 -4.2545 -0.823955 -0.32315 0.844889 0.748042 C
51 1 8.39346 5.54064 2.7521 -5.71051 -1.92947 2.35108 -0.750019 0.162986 -0.455344 C
55 2 9.78122 6.89892 1.34714 0.557671 -0.386548 2.06684 -0.474899 -0.650704 -0.202985 C
20 1 2.72668 8.3076 0.0362081 2.76691 1.82772 0.264683 1.36457 -0.145351 -0.660886 C
22 2 1.37205 9.68992 1.36219 -2.63742 2.02079 1.28117 -0.980076 0.764015 0.0890349 C
33 1 5.53018 -0.0594811 0.03613 7.25558 0.541939 -1.71343 0.366321 0.0194686 0.414831 C
50 1 5.56427 8.27632 2.81689 -2.81663 1.72888 0.482518 1.40087 1.01052 -0.176084 C
54 2 7.00279 9.64538 1.39292 -0.934132 -0.419661 2.2301 -1.28992 -0.123705 0.323187 C
1 1 -0.0550982 0.0276678 -0.0740685 -0.329039 -1.35938 -4.55965 0.324215 -1.18913 1.73303 C
35 1 8.35086 -0.0464443 2.78959 -1.61122 1.90016 -0.522263 0.013872 0.986142 -0.489749 C
18 1 0.0345652 8.25019 2.75172 5.15299 -2.69697 5.15064 -0.476414 1.77734 0.68594 C
5 2 1.40904 1.36421 4.19206 0.383539 -0.13717 -1.69959 -1.26814 0.693832 -0.919401 C
12 1 2.74826 2.80527 5.5015 -4.59657 0.224881 0.670205 0.903442 -0.984465 0.799268 C
15 2 4.07575 1.31512 6.93158 1.75754 -2.85037 -0.545494 0.613606 1.29833 -0.443906 C
37 2 7.00201 1.40391 4.14703 -0.207954 0.188208 1.22354 -1.32472 -0.367761 -0.308013 C
9 1 -0.0424153 0.0754712 5.59697 4.01737 -3.21882 7.61977 0.813107 -0.633969 -1.54357 C
44 1 8.28424 2.84141 5.50971 9.87289 -2.20567 0.652367 0.343114 -0.383108 0.896086 C
47 2 9.68898 1.43923 6.87232 1.4615 1.67503 -1.56102 -1.30996 0.655628 1.59257 C
14 2 1.38112 4.13212 6.91846 -6.04424 -2.33441 0.375637 0.362728 0.682483 0.614387 C
21 2 1.39973 6.92994 4.16881 -1.39329 -3.08933 -1.49096 0.283773 -0.20929 0.864356 C
8 2 4.17611 4.13673 4.10986 -1.12818 -0.353992 -0.0255884 -0.0215246 0.879738 0.259566 C
31 2 4.12242 6.91979 6.86056 -3.14821 -2.02376 1.01156 0.888141 0.369582 0.0198118 C
46 2 6.89948 4.18579 6.9511 3.35698 1.456 0.84329 -0.0620813 -0.646637 -0.150579 C
53 2 7.04988 6.96891 4.16524 1.43235 1.58953 -1.12624 -0.825925 -0.838604 0.109819 C
57 1 5.58359 5.54483 5.50127 0.163623 -2.73918 3.6708 -0.41542 0.395889 -0.185381 C
25 1 0.00752342 5.51417 5.60782 -2.64807 -2.34339 0.162094 -0.346261 1.45876 -0.938444 C
40 2 9.69322 4.18338 4.17377 -0.760696 -0.772013 2.28638 1.05158 -0.40939 -0.352122 C
63 2 9.72468 6.99443 6.9925 -0.375673 -1.93123 -1.20119 -0.321534 -1.49376 -1.87097 C
28 1 2.77686 8.38801 5.57184 -0.463877 5.62596 -9.28235 -1.04949 -0.458314 -0.573053 C
30 2 1.26668 9.74329 6.93698 -1.46183 0.156989 -0.678584 1.70465 -0.529051 0.747069 C
41 1 5.56502 0.0268803 5.52754 -0.72363 -1.57883 -2.64886 0.734557 0.0561878 0.726834 C
24 2 4.23383 9.69415 4.19369 2.70983 1.27971 -1.53324 -1.46829 0.432385 -0.921428 C
62 2 6.99427 9.73639 6.93561 -0.676924 1.28293 -0.00294211 -2.06469 -0.666126 -0.468684 C
56 2 9.7414 9.74953 4.18272 -3.23369 2.28462 -0.843347 0.740234 -1.28203 -0.465877 C
60 1 8.38572 8.37412 5.57747 -1.05084 -0.636082 1.75174 -0.0542522 -0.293501 -0.228006 C
4 1 2.73486 2.76442 0.0355477 1.86315 3.0562 1.4643 0.0652509 -0.566495 -0.105419 C
11 1 2.71834 -0.0215776 8.37102 -2.66408 0.270158 -3.7661 -0.562072 -0.0117596 -0.617934 C
13 2 1.31896 1.40572 9.69917 -1.94393 -1.37598 -1.64954 0.645579 0.584172 -0.286504 C
42 1 5.48956 2.71769 8.32333 4.53588 -4.24645 2.34844 0.118587 0.258691 -0.10602 C
45 2 6.88943 1.28656 9.69702 4.25584 1.45491 -1.89554 -0.0994716 1.4341 0.139192 C
10 1 -0.0469608 2.81929 8.30143 2.05055 -0.304544 2.43264 0.393519 -0.799381 -0.276169 C
43 1 8.30021 0.0179122 8.29509 -0.918062 0.7046 -2.57301 0.914851 0.16363 0.152291 C
27 1 2.75965 5.6071 8.25924 0.147093 1.60159 -0.305665 -0.54709 -1.27175 1.2559 C
29 2 1.33367 6.98164 9.68409 -1.01572 -0.594344 0.206892 1.09691 -1.05695 -0.118058 C
16 2 4.10723 4.13973 9.72029 2.28466 2.72313 -3.13631 0.386767 0.677285 -0.431643 C
61 2 6.94267 6.93087 9.69424 0.245163 -1.12458 -3.11983 -1.2139 -0.239456 -0.362902 C
48 2 9.65141 4.17915 9.65221 3.34162 -0.0853071 -1.08968 0.077815 -0.469995 0.280432 C
59 1 8.32287 5.5928 8.27402 -2.15844 -2.9067 4.42872 -0.677364 -0.349599 0.653535 C
32 2 4.14973 9.69748 9.71792 0.200343 -0.218433 0.145698 -0.754832 -0.819414 0.0654233 C
58 1 5.4778 8.30993 8.2589 3.71593 0.973394 3.19744 1.59677 0.22458 0.685421 C
52 1 8.34566 8.25058 -0.00338489 3.86988 0.0228914 -0.481059 -0.358645 0.233583 0.494522 C
26 1 -0.0555195 8.3173 8.3308 1.19023 3.46938 -3.17051 0.331395 1.60138 0.791429 C
64 2 9.61237 9.68215 9.72383 1.42536 1.43378 1.033 1.06485 0.485995 -1.11505 C
ITEM: TIMESTEP
14700
ITEM: NUMBER OF ATOMS
64
ITEM: BOX BOUNDS pp pp pp
0.0000000000000000e+00 1.1085848640000000e+01
0.0000000000000000e+00 1.1085848640000000e+01
0.0000000000000000e+00 1.1085848640000000e+01
ITEM: ATOMS id type xu yu zu vx vy vz fx fy fz element
3 1 2.80343 0.0871568 2.6839 -2.89784 3.05822 -5.81048 -0.391594 -0.777837 0.784955 C
7 2 4.22886 1.44383 1.31043 0.682668 -2.18057 3.61167 -1.58728 0.837544 1.40257 C
34 1 5.48491 2.82721 2.81513 -3.16938 -1.15009 3.21378 0.544244 -0.305188 -0.555372 C
2 1 0.0308342 2.78272 2.74079 -0.446121 -2.24762 -3.99467 0.184811 0.00505436 0.462714 C
36 1 8.31325 2.84552 0.0526982 3.9296 -0.366563 0.307382 -0.341518 -0.872124 0.224193 C
39 2 9.7079 1.40929 1.43071 1.76319 -0.316584 0.338507 -0.35086 -0.564684 -0.959595 C
6 2 1.47506 4.12698 1.35228 -0.0354059 2.3494 1.6192 -2.15902 0.53045 -0.0361285 C
19 1 2.7217 5.48721 2.79653 0.804349 -1.31837 -0.248101 0.957844 1.45512 -0.364722 C
23 2 4.10955 6.90339 1.36859 1.19431 0.580988 2.44018 -0.237575 0.16932 0.471577 C
38 2 6.85687 4.20804 1.41348 -0.626762 -0.282079 -1.8281 0.140373 0.0780986 -0.527865 C
49 1 5.49212 5.59979 -0.0446569 -0.243483 1.46975 1.69737 0.824641 -0.912098 0.792976 C
17 1 -0.0216136 5.639 0.0951537 1.01314 1.12875 -2.70626 0.662028 -1.48443 -0.665464 C
51 1 8.26021 5.5602 2.78446 5.01408 2.26082 0.913509 -0.757061 0.139702 0.514944 C
55 2 9.58322 6.98446 1.39997 1.17066 -0.634228 -0.484312 0.557157 0.262421 0.129199 C
20 1 2.77025 8.28656 -0.0319806 -5.45227 -0.233378 0.0048173 0.546657 1.04041 0.136032 C
22 2 1.43026 9.69261 1.37654 0.837375 0.969939 -2.07636 -0.509733 0.0665286 0.219509 C
33 1 5.49698 0.0779699 -0.0258494 -5.2174 -0.8244 2.75202 1.57994 -0.449845 -0.706156 C
50 1 5.5002 8.34125 2.7004 -1.47571 -1.95697 -0.369061 -0.449733 -0.0874062 0.352273 C
54 2 6.86763 9.78656 1.32041 0.0511283 0.13295 0.435097 0.0604915 -0.971377 0.451045 C
1 1 0.0391336 -0.0120447 0.0411758 0.455745 4.33964 -3.17096 0.0117616 0.420858 -0.934782 C
35 1 8.26122 -0.0125833 2.74919 2.16724 -5.17643 2.35427 0.694608 0.276482 0.59041 C
18 1 -0.0749514 8.36624 2.74179 -0.284959 -3.21098 -3.95478 1.26141 -1.0345 0.389026 C
5 2 1.38203 1.38685 4.15734 2.1946 -3.3991 1.70636 0.536241 0.241132 -0.809527 C
12 1 2.8035 2.74333 5.55476 0.720554 2.96984 -0.970582 -1.17745 0.917762 -0.22503 C
15 2 4.18547 1.45866 6.91176 -0.958614 -3.27789 -0.0389704 0.437727 -1.27446 0.451788 C
37 2 6.86888 1.36736 4.13253 -1.15602 -0.971876 -0.552792 -0.145418 -0.112587 0.570072 C
9 1 0.00664161 -0.0503971 5.45823 -3.97828 1.76842 1.30125 0.497578 -0.490056 1.99602 C
44 1 8.26855 2.69925 5.56097 -4.98773 -0.398526 -0.243146 1.68066 -0.310224 -0.205162 C
47 2 9.7377 1.26192 6.98371 1.79431 0.201372 0.341653 -0.39484 1.46728 -1.39844 C
14 2 1.46336 4.1768 6.9554 -1.34561 0.0682386 0.275774 -2.01893 -1.2396 -0.975775 C
21 2 1.36582 6.93187 4.14554 -1.69104 -1.54504 -0.812342 -0.679123 0.145571 -0.776953 C
8 2 4.1072 4.19251 4.20812 -1.40421 -0.834986 -5.06064 0.191515 -0.788662 -0.334507 C
31 2 4.21634 6.93695 6.99356 -0.0404754 1.22641 1.45926 -1.30587 -1.29593 0.200681 C
46 2 6.97632 4.14342 6.92663 2.39581 -0.517249 2.12151 -0.457069 1.10297 -0.15801 C
53 2 6.74544 6.89228 4.17075 -1.12508 2.97266 -2.19569 2.43218 0.802631 -1.29592 C
57 1 5.50853 5.5251 5.56321 2.05736 -1.21549 -2.17035 -0.0890532 -0.525453 1.23226 C
25 1 0.0134194 5.53071 5.48984 3.169 -2.31791 3.27996 -0.455875 -0.7402 0.991105 C
40 2 9.66714 4.11829 4.10926 -1.64399 2.95557 0.367618 0.0749643 0.179997 0.941415 C
63 2 9.68596 6.90357 6.90305 2.28422 0.622629 1.39164 0.825775 0.325724 -0.362877 C
28 1 2.77116 8.21635 5.57757 4.33003 -2.28806 6.25478 0.954185 1.24586 -1.04592 C
30 2 1.49109 9.6776 6.91485 -1.71432 1.17702 0.488919 -1.74599 0.293133 -0.434919 C
41 1 5.47839 -0.0262941 5.54914 -0.911951 2.77357 -0.920321 0.569555 0.0454364 -0.500172 C
24 2 4.08833 9.69452 4.10153 1.79473 0.803702 1.24113 0.174074 -0.138083 0.692499 C
62 2 6.88931 9.65662 6.93892 1.67586 1.05898 0.493071 0.880683 0.79884 -0.112398 C
56 2 9.64558 9.64678 4.17634 -0.706862 0.798185 -0.112813 -0.839866 0.704405 -0.774301 C
60 1 8.22958 8.23268 5.51821 -0.057551 0.517612 1.2913 0.0373041 0.479749 0.423253 C
4 1 2.82271 2.78256 -0.0648648 1.46422 -0.513422 -0.0347179 0.377065 -0.215662 1.01637 C
11 1 2.85944 0.000682728 8.26853 5.33834 0.946109 3.6893 -0.132108 0.264915 0.311905 C
13 2 1.51934 1.34457 9.71762 -4.37951 -1.92501 -1.98724 -2.1702 -0.0780617 -0.688621 C
42 1 5.54972 2.85148 8.28415 -2.54288 0.762531 -2.79382 0.636773 -1.29602 0.790228 C
45 2 6.94075 1.43435 9.72025 1.14776 -1.43542 -0.752035 0.139766 0.2033 -0.602195 C
10 1 0.0296126 2.7263 8.3341 -2.13006 2.63107 0.218936 0.528823 0.521051 0.587841 C
43 1 8.33898 -0.0523845 8.37268 1.64927 -2.60242 -1.26032 -0.727297 -0.235642 -0.402501 C
27 1 2.7616 5.48707 8.37284 1.79206 2.47494 -0.870596 1.16216 1.84089 -0.629378 C
29 2 1.39968 6.90993 9.71631 -1.55147 0.96124 0.247862 -0.611042 -0.0977682 -0.120963 C
16 2 4.16145 4.15319 9.69321 1.23885 1.73047 1.54795 0.539681 0.552223 -0.227141 C
61 2 6.96819 6.94701 9.73134 -0.077186 -0.488892 1.66445 -0.761634 -0.496471 -1.05264 C
48 2 9.72296 4.18659 9.77865 -1.53398 -0.0199379 -2.45551 0.597258 0.0956946 -1.07511 C
59 1 8.3543 5.56311 8.31819 4.61992 -0.0589456 -1.66747 -0.335147 -0.764149 0.65157 C
32 2 4.19632 9.74321 9.70137 0.706398 -0.00279557 -2.44926 -0.631669 -1.07897 -0.0788204 C
58 1 5.5774 8.31368 8.36175 -4.10712 -0.101366 -2.58738 -0.195553 0.126086 0.159067 C
52 1 8.24773 8.36957 -0.0292127 -1.29294 -1.6356 -0.0429586 1.335 0.344016 0.459428 C
26 1 0.0614725 8.2781 8.27942 -0.704142 -6.29052 0.634783 -0.0492781 -0.0928038 -0.393172 C
64 2 9.79391 9.63931 9.67573 -0.409728 1.8536 1.29664 -0.927167 0.749616 1.0336 C
ITEM: TIMESTEP
14800
ITEM: NUMBER OF ATOMS
64
ITEM: BOX BOUNDS pp pp pp
0.0000000000000000e+00 1.1085848640000000e+01
0.0000000000000000e+00 1.1085848640000000e+01
0.0000000000000000e+00 1.1085848640000000e+01
ITEM: ATOMS id type xu yu zu vx vy vz fx fy fz element
3 1 2.76082 -0.0576491 2.87812 3.82309 0.570438 2.62621 -0.588854 1.45212 -1.71582 C
7 2 4.0995 1.33329 1.33959 3.524 -1.18794 0.655599 0.953185 -0.903443 1.34142 C
34 1 5.5788 2.7154 2.68914 2.72471 3.86785 -1.59862 -0.643827 0.166889 1.30643 C
2 1 -0.0354664 2.78873 2.81475 1.94572 2.96323 -0.0266249 0.180164 -0.54545 -1.33462 C
36 1 8.2694 2.73442 -0.0481391 -3.31789 3.35885 -1.99144 0.956756 0.166854 0.349532 C
39 2 9.6678 1.38955 1.39112 0.0508932 -1.02665 -0.0624527 0.510654 0.907803 -0.442543 C
6 2 1.34908 4.12207 1.40969 5.2504 0.365887 0.282743 0.335582 0.939113 0.530629 C
19 1 2.79753 5.56173 2.77218 -2.64828 -2.03016 0.276541 -0.0148192 -1.1507 0.0590926 C
23 2 4.19066 6.92496 1.39812 1.72675 -4.09647 0.168469 0.730443 0.0647445 -0.128842 C
38 2 6.99053 4.11598 1.39232 -3.31922 0.762299 1.9056 -1.02278 0.0248221 -0.867641 C
49 1 5.56899 5.47032 0.00296155 -2.45556 -0.0261799 -1.11242 -0.297435 0.922838 -0.127884 C
17 1 -0.00645916 5.45572 -0.0474713 -1.86583 1.53604 3.04691 0.737967 1.48197 0.267698 C
51 1 8.3377 5.508 2.73379 -0.126635 -4.8925 -3.9981 1.97967 -0.161883 0.424461 C
55 2 9.76649 6.89691 1.36998 -1.03209 0.665647 -0.825494 -0.407782 -0.0256215 0.0688089 C
20 1 2.81275 8.33898 0.00838257 2.53435 -6.90879 2.78044 -1.3385 -0.835861 0.251939 C
22 2 1.338 9.68904 1.42577 0.552992 1.10889 0.0850989 1.41366 0.113737 -0.448201 C
33 1 5.57905 -0.0685759 -0.0128294 -0.928976 1.02061 -1.49913 -1.37852 -0.156828 1.27479 C
50 1 5.61509 8.28497 2.84505 -0.620171 -0.540017 -0.113916 -0.101992 -0.335102 -0.150406 C
54 2 6.98993 9.66217 1.42589 0.14892 1.35447 1.46888 -0.593797 0.56809 -0.0916334 C
1 1 -0.0490301 -0.0164972 0.028724 -0.837858 -3.77058 2.15682 0.555711 0.672814 -0.546737 C
35 1 8.33449 0.0573948 2.7631 -4.94731 0.780315 -2.47568 0.545479 -1.838 0.551852 C
18 1 0.0361517 8.29774 2.80056 -1.21376 2.24874 0.55896 -0.272804 -0.519591 -0.621123 C
5 2 1.33527 1.44989 4.16806 1.55525 1.57721 -0.707101 1.26201 -1.46872 0.0521309 C
12 1 2.77546 2.76482 5.51593 2.32601 -2.80081 -0.8583 0.820024 0.252892 0.378795 C
15 2 4.14441 1.39871 6.98264 -0.753767 1.80558 -1.30446 -0.242317 -1.00292 -0.750524 C
37 2 6.9974 1.40153 4.149 -2.0382 -0.47138 -2.30083 -1.14076 0.322351 0.194874 C
9 1 0.0206122 0.0287646 5.54798 1.76868 2.72353 -3.51497 -0.815185 0.590988 0.105214 C
44 1 8.33318 2.87784 5.49129 -1.89489 1.62109 -1.09692 -1.42875 -0.442652 0.83155 C
47 2 9.64081 1.44056 6.84479 -0.797077 -1.34669 3.56658 0.757721 -0.317553 1.2428 C
14 2 1.43187 4.17553 6.86611 2.55765 3.35515 1.0988 -1.1454 0.258589 0.529356 C
21 2 1.43964 6.94959 4.15653 1.8114 -1.4848 -0.168968 -1.16577 -0.439594 0.209664 C
8 2 4.22277 4.14046 4.16916 0.594029 -0.386107 -0.860531 -0.6823 -0.201929 -1.49079 C
31 2 4.1607 6.88516 6.86253 2.49733 1.93787 2.6268 -0.930232 2.27823 0.415394 C
46 2 6.79701 4.20395 6.89571 -1.56609 -0.709721 1.56077 1.72743 -1.46737 0.619411 C
53 2 7.11861 6.87975 4.18781 -0.198348 -1.85006 0.973119 -2.63764 1.04073 -0.149368 C
57 1 5.53425 5.5852 5.51245 -1.17604 1.82394 -2.64122 0.882279 -0.200244 -0.938609 C
25 1 -0.0326217 5.60334 5.5558 2.05567 1.60213 -4.41155 1.40188 -0.055821 0.175408 C
40 2 9.77378 4.17339 4.17778 2.34819 1.30442 -0.0474225 -1.44174 1.22477 -0.766778 C
63 2 9.64477 6.94449 6.97742 -2.03593 -2.05189 -0.586668 0.612791 0.419859 -0.347375 C
28 1 2.70734 8.37841 5.52485 -3.74653 -0.403739 0.192532 0.99729 -1.00198 1.75504 C
30 2 1.30099 9.72406 6.97447 2.07934 2.61099 3.08112 0.574315 -0.220573 -0.789042 C
41 1 5.61091 -0.00431168 5.5803 -4.33382 -3.67755 0.290521 -1.21735 0.940837 -0.498661 C
24 2 4.16668 9.68747 4.2198 2.0893 2.30213 -2.76051 1.1893 0.0832936 -0.185926 C
62 2 6.9604 9.69362 6.9075 -4.2786 -1.00834 -0.653517 0.0237618 -0.118123 0.482118 C
56 2 9.80053 9.73373 4.13469 1.17354 -0.929507 0.820122 -1.22931 0.498711 -0.155687 C
60 1 8.40717 8.37963 5.51708 0.956036 -3.34899 -1.06415 -0.191237 -0.54953 0.549418 C
4 1 2.70429 2.75073 0.0647913 -2.36024 0.0884315 -3.39522 1.00645 0.42397 -0.861172 C
11 1 2.65835 0.00489364 8.33401 -4.15094 -1.44134 -2.84304 1.92101 0.443352 0.274065 C
13 2 1.38369 1.44036 9.7337 1.20069 -2.46327 1.36322 -1.90474 -1.17321 -0.254676 C
42 1 5.53162 2.7397 8.37963 -0.982623 2.56508 1.88991 -0.827529 0.813987 -1.05225 C
45 2 6.84091 1.3433 9.73384 -3.44326 0.367535 0.0823943 1.42124 0.619571 -0.600389 C
10 1 0.00667657 2.7872 8.25747 0.157838 -1.50838 -1.99715 -0.283001 0.277931 0.199457 C
43 1 8.24479 0.0750835 8.29631 -2.17511 2.60471 4.78324 0.838255 -0.862187 -0.037827 C
27 1 2.79182 5.5509 8.26616 -4.48435 -6.78711 1.11905 0.196694 -0.864078 0.461096 C
29 2 1.40775 6.90852 9.65361 1.37781 -1.1721 -0.775078 -0.523082 0.707896 1.00145 C
16 2 4.11305 4.10382 9.72247 -1.64818 0.765413 -0.588231 -0.0460814 0.626941 0.199708 C
61 2 6.91719 6.92115 9.65405 -1.83006 -0.346234 -0.505316 -0.44653 0.562276 1.69799 C
48 2 9.66407 4.1687 9.66004 -0.175173 0.915835 0.129174 -0.63222 -0.970715 -0.692252 C
59 1 8.20519 5.54423 8.2858 -2.08492 4.44362 -1.36693 1.23026 -0.409764 -0.187442 C
32 2 4.13027 9.71264 9.69531 -0.269504 0.381559 -0.230906 0.36404 -0.183976 -0.885973 C
58 1 5.5272 8.30776 8.2697 2.30399 -0.733783 1.23651 -0.232787 0.0961054 0.102909 C
52 1 8.35709 8.31073 0.0220649 -3.18075 -0.988538 -4.10659 -0.782431 -1.06671 -0.565715 C
26 1 -0.0617347 8.37271 8.35932 1.31741 4.01227 -0.431667 0.322875 -1.51515 -0.244822 C
64 2 9.63107 9.72127 9.70217 3.52687 -0.265693 0.0826201 0.158595 1.0402 0.0262253 C
ITEM: TIMESTEP
14900
ITEM: NUMBER OF ATOMS
64
ITEM: BOX BOUNDS pp pp pp
0.0000000000000000e+00 1.1085848640000000e+01
0.0000000000000000e+00 1.1085848640000000e+01
0.0000000000000000e+00 1.1085848640000000e+01
ITEM: ATOMS id type xu yu zu vx vy vz fx fy fz element
3 1 2.7455 0.0242285 2.68285 -1.04733 -2.67118 0.881212 0.892228 -0.389255 1.56144 C
7 2 4.15684 1.45168 1.33519 -1.50262 3.87576 -0.281877 0.314829 -0.691548 1.3665 C
34 1 5.49973 2.77255 2.85028 -3.07153 -2.87862 -2.73106 1.1715 0.996563 -0.885562 C
2 1 -0.0112284 2.72047 2.73331 -4.89888 -1.88622 1.47872 0.18903 0.810513 0.724797 C
36 1 8.36629 2.71 0.0447244 1.96328 -0.876381 2.01414 -0.500904 1.19824 -0.647256 C
39 2 9.73042 1.36799 1.40477 0.391802 -4.17879 -0.599549 0.0153496 -1.06288 -0.468765 C
6 2 1.33356 4.15352 1.36677 -2.5735 -0.176549 3.01894 1.56001 0.0379793 0.200034 C
19 1 2.77321 5.53783 2.76931 -0.56085 2.3002 1.12942 -1.07997 0.425801 0.0296178 C
23 2 4.10619 6.96201 1.36331 -1.6045 -0.18496 -0.828333 0.482739 -0.0219061 -0.891205 C
38 2 6.98807 4.16584 1.36126 0.497844 0.144881 2.18741 -1.38318 0.0957065 1.38222 C
49 1 5.55615 5.56977 -0.0533483 2.29778 -2.72792 -2.42319 -0.104026 -0.554813 0.718783 C
17 1 0.0154989 5.62316 0.0389761 -2.72556 -2.88296 -2.22803 -1.167 -1.24641 -0.00125051 C
51 1 8.30722 5.61477 2.84468 -6.18514 4.91527 2.15224 -1.11515 -1.11215 -0.961531 C
55 2 9.70605 6.93516 1.46982 0.0154687 -0.601773 4.75477 -0.234542 0.441572 -0.869773 C
20 1 2.70482 8.40198 -0.0409263 -0.0434851 9.72744 -4.27004 1.05459 -1.30103 0.766726 C
22 2 1.37069 9.68707 1.40357 -5.91749 2.28731 1.5035 -0.881909 0.786663 -0.711019 C
33 1 5.55608 0.0403321 0.0223689 2.20622 1.28618 -2.41997 0.0799735 0.563313 -1.19771 C
50 1 5.55244 8.34701 2.69884 1.38098 -0.126808 -0.903941 -1.00552 -0.178172 0.553247 C
54 2 6.92028 9.73727 1.3218 1.94775 0.637978 0.0278226 1.11214 -0.277721 1.55927 C
1 1 0.025876 0.0177856 -0.0229628 -1.25955 0.764384 2.23298 -0.535141 -1.01808 0.205421 C
35 1 8.37282 -0.0306375 2.78854 0.910974 5.33515 -1.06774 -2.18198 1.23752 -1.16165 C
18 1 -0.0437964 8.34441 2.7922 -2.38087 1.48849 0.656764 0.369286 0.214124 0.370938 C
5 2 1.33467 1.32602 4.14179 -3.19931 0.495972 0.808219 0.833662 0.915497 0.27981 C
12 1 2.71072 2.78249 5.59554 -2.45182 -0.800206 -0.132729 0.183629 -0.9635 -0.761346 C
15 2 4.15373 1.35368 6.93805 2.89554 -0.338076 2.68424 0.242937 1.36597 -1.09381 C
37 2 6.97263 1.3746 4.19936 0.540491 -0.560588 -0.500465 -0.224413 0.240046 -1.09902 C
9 1 -0.0328365 -0.0601731 5.5337 -1.16787 -4.43381 -2.93424 0.805779 0.24159 -0.503267 C
44 1 8.34288 2.70666 5.60273 2.45106 0.165959 -1.92749 0.525549 0.754923 -1.19743 C
47 2 9.76119 1.33391 6.92169 3.21585 -1.65848 -3.09808 -0.362876 0.343694 0.918744 C
14 2 1.30324 4.11867 6.9711 -0.735971 -0.417331 -2.04768 0.867472 1.32103 0.498389 C
21 2 1.33459 6.94443 4.14662 -2.39685 -2.94211 -1.08597 0.816441 -0.672759 0.263582 C
8 2 4.12133 4.22676 4.2478 -1.77805 -0.396123 0.807715 0.112471 -1.52862 -0.588229 C
31 2 4.11758 6.90418 6.91596 0.414979 -4.27986 2.35722 1.39894 0.51003 1.14015 C
46 2 7.04257 4.17355 6.92919 0.0970173 2.76568 0.468683 -1.268 -0.741456 0.284493 C
53 2 6.8081 6.95445 4.17955 4.45902 0.419394 -0.0511683 1.57763 0.111772 0.114344 C
57 1 5.5616 5.52228 5.61726 -2.42867 -1.42475 2.69737 -0.287086 0.466294 -0.378158 C
25 1 -0.0436426 5.52008 5.54465 -7.27459 -0.188001 1.84169 0.115636 -0.525869 -1.01103 C
40 2 9.64125 4.09652 4.08506 2.2489 0.367982 1.0183 0.926363 0.344945 1.92495 C
63 2 9.74625 6.96189 6.90737 -0.60895 -1.20057 0.320652 -1.69228 -1.01011 -0.118911 C
28 1 2.82683 8.27224 5.51666 -3.83654 -0.857511 -5.69721 -1.42924 -0.0676835 -0.629568 C
30 2 1.4238 9.65736 6.83747 -0.97582 -1.00798 1.0997 0.309184 0.575948 2.00091 C
41 1 5.56291 0.0587511 5.5331 8.14524 0.359804 3.2052 -0.406873 -2.3412 0.476906 C
24 2 4.14376 9.66597 4.1428 -2.81471 2.23303 1.11867 0.749759 1.85854 -0.883143 C
62 2 6.95047 9.70458 6.97858 1.5194 -0.62844 0.30441 -1.49302 0.284126 -0.892238 C
56 2 9.63318 9.72436 4.1566 0.461672 -0.824818 -0.851047 0.882874 -1.73541 0.97779 C
60 1 8.24729 8.33044 5.57046 -0.813602 4.51787 -2.83278 0.652144 -0.504959 -0.652818 C
4 1 2.82116 2.8073 -0.0247248 -2.75478 -0.458157 5.20516 -1.46164 0.253455 -0.409158 C
11 1 2.85884 0.0036776 8.31792 -2.06262 -1.22156 0.21776 -2.15412 -1.0713 -0.442469 C
13 2 1.42449 1.37204 9.69534 2.78262 0.0181237 -0.383496 0.509956 0.37068 0.138297 C
42 1 5.5677 2.7554 8.22738 2.44735 -1.2743 -0.818063 0.918218 0.265906 1.30629 C
45 2 6.99163 1.38573 9.69108 1.91847 -0.489651 0.797876 -0.47131 -0.492235 -0.696857 C
10 1 -0.0280438 2.74798 8.39288 0.686845 -1.55066 -0.216826 0.157417 -0.209068 -0.675919 C
43 1 8.38664 -0.0617296 8.2795 0.630143 -0.572929 -5.40521 -0.987378 1.51834 0.782343 C
27 1 2.76054 5.59249 8.34355 -0.822302 4.34045 -2.80436 -1.22265 -1.26128 -0.417927 C
29 2 1.3336 6.97376 9.72586 0.188539 -1.06702 -3.51155 1.05646 -0.0680189 -0.745531 C
16 2 4.18176 4.14447 9.63115 4.82789 0.961937 -1.05689 0.340945 0.650164 0.306533 C
61 2 6.99712 6.91551 9.6828 1.52781 -1.52457 -2.73039 -0.47963 0.366083 -0.0204807 C
48 2 9.69721 4.17058 9.7591 1.54747 0.798336 1.06239 0.991612 -0.411344 0.618491 C
59 1 8.40741 5.50696 8.32726 -1.10382 -0.991211 -0.0861112 -0.429559 1.41477 -0.357051 C
32 2 4.18314 9.73601 9.73481 1.48833 2.73257 -3.07803 0.0654047 -0.164345 -0.22075 C
58 1 5.52405 8.31971 8.34509 -1.21685 -1.55759 -2.10811 0.41866 -0.541936 -0.40474 C
52 1 8.33876 8.30163 0.0442274 2.77989 5.38956 5.15732 -0.129132 0.0661068 -0.820233 C
26 1 0.00518846 8.28486 8.26758 -3.38885 -1.66684 1.49642 0.489087 1.44407 0.414978 C
64 2 9.68355 9.67295 9.66865 1.0184 1.04851 -0.121385 1.49863 -0.326938 0.929823 C
ITEM: TIMESTEP
15000
ITEM: NUMBER OF ATOMS
64
ITEM: BOX BOUNDS pp pp pp
0.0000000000000000e+00 1.1085848640000000e+01
0.0000000000000000e+00 1.1085848640000000e+01
0.0000000000000000e+00 1.1085848640000000e+01
ITEM: ATOMS id type xu yu zu vx vy vz fx fy fz element
3 1 2.77652 -0.0101124 2.80555 -3.02114 0.0890583 -2.85653 0.0326374 -1.07812 -0.749214 C
7 2 4.15833 1.26867 1.35314 0.697849 -2.23987 -1.03852 0.195377 2.83714 0.782692 C
34 1 5.60033 2.7961 2.73124 -0.0535498 -2.35571 1.25057 -1.59428 -1.55545 -0.149047 C
2 1 0.0747934 2.83892 2.81037 1.76455 -0.219661 -0.522266 -1.14765 -0.5891 -0.217315 C
36 1 8.2792 2.83548 -0.0376348 -4.07161 -6.72665 -0.95815 0.278275 -0.809542 0.368534 C
39 2 9.66858 1.50004 1.45418 1.71604 0.41884 1.39436 0.566064 -1.58935 -1.26339 C
6 2 1.42057 4.15877 1.34213 -0.168415 0.564608 0.119707 -0.0838535 -0.0476624 0.777333 C
19 1 2.7408 5.57818 2.75352 2.12283 -1.74838 -1.56659 0.799944 -0.502199 0.33388 C
23 2 4.14038 6.96766 1.45503 0.0933609 -2.44679 2.20675 0.632799 -1.1843 0.707277 C
38 2 6.90495 4.18746 1.36912 3.02073 -0.152521 -2.85912 0.709341 -0.327715 -0.200814 C
49 1 5.49912 5.59037 0.113509 -2.55783 3.47999 -0.889096 -0.0424718 -0.273858 -1.79362 C
17 1 0.020044 5.48859 -0.0217319 3.53331 4.94366 2.30897 -0.489925 0.285717 -0.716472 C
51 1 8.33595 5.48408 2.72074 5.62699 0.126072 0.306775 -0.635919 1.97461 0.21546 C
55 2 9.68794 6.92078 1.24378 3.95276 -0.513881 0.935779 0.486454 -0.262419 2.34262 C
20 1 2.84366 8.18803 0.0452778 -0.606629 -2.9527 0.895261 -0.871043 2.33107 -1.58504 C
22 2 1.48122 9.64862 1.3264 0.07463 -0.638207 0.0194047 -1.14114 0.975395 0.687701 C
33 1 5.52926 -0.0203376 -0.0365505 0.335292 -3.03318 3.15307 0.0758902 -0.230861 0.388701 C
50 1 5.46701 8.34016 2.83424 2.01168 2.66921 -0.910279 1.21894 -0.527886 -1.17452 C
54 2 6.83591 9.72275 1.41378 -0.0155061 1.46985 0.0987747 1.13359 -1.33011 -0.840075 C
1 1 0.0143754 0.0266635 -0.0183792 0.597041 1.8243 -2.39406 -0.218079 0.267032 1.20182 C
35 1 8.26345 -0.0310437 2.76439 7.4438 -4.3732 3.30791 1.21713 0.754668 0.200825 C
18 1 0.083129 8.2709 2.71945 -0.413481 -0.158019 -0.739531 -1.81037 0.877189 -0.484674 C
5 2 1.41987 1.39092 4.16151 -0.0524134 -1.75199 -1.95489 -0.323434 0.270679 0.495327 C
12 1 2.83504 2.78555 5.49287 -1.36938 2.64866 2.3806 -0.181705 0.347082 0.363191 C
15 2 4.15769 1.41033 6.90619 -2.38017 -2.89601 1.61659 0.354857 -0.307139 0.899031 C
37 2 6.9081 1.35655 4.14223 0.0189152 -1.99393 0.0398855 -0.54094 -0.0141215 0.577711 C
9 1 0.0306783 0.0483746 5.61802 -1.51301 0.438402 1.12737 -1.09335 -0.453361 -1.38428 C
44 1 8.27041 2.76821 5.5516 -3.2161 -0.655195 3.27821 -0.400791 -0.218964 -0.113381 C
47 2 9.63215 1.40567 6.95035 -1.46018 1.18474 1.10338 0.95982 0.0880816 0.456875 C
14 2 1.51235 4.16151 6.96813 0.793815 1.32908 0.927081 -0.965587 -0.557369 -1.1566 C
21 2 1.43901 6.98909 4.15585 -1.39802 0.863076 -0.919777 -0.114184 -0.950449 0.689586 C
8 2 4.20204 4.19239 4.09856 2.47879 2.55114 -1.39244 -0.655513 -0.343147 -0.0643623 C
31 2 4.2055 6.9509 6.86257 -0.376887 0.815699 -0.117412 -0.09643 -0.480914 1.99495 C
46 2 6.85187 4.14286 6.92374 -0.0922922 1.08493 2.215 1.05108 0.349935 0.604792 C
53 2 6.83059 6.8792 4.11948 0.606495 -1.37639 0.505014 2.92696 0.626731 -0.297516 C
57 1 5.55322 5.54399 5.50413 0.739589 1.77982 -0.270218 -0.907306 -0.561848 0.497303 C
25 1 0.123474 5.51481 5.54078 0.856087 4.53972 0.960712 -1.98609 0.503647 0.497716 C
40 2 9.65564 4.1467 4.17599 0.340624 1.86334 -3.85345 1.82529 0.38332 0.334332 C
63 2 9.68543 6.86975 6.99487 3.69978 0.786109 -0.825257 1.7633 0.242707 -0.804081 C
28 1 2.78528 8.3478 5.6119 3.93348 2.56274 4.4275 -0.450387 -0.0690118 -1.15456 C
30 2 1.3837 9.7294 6.96473 -0.302495 2.18718 -0.196267 0.53961 -0.140743 -0.13896 C
41 1 5.43383 -0.061866 5.50287 -4.21037 6.15122 -4.03081 2.34598 1.72658 0.7055 C
24 2 4.14422 9.65858 4.17096 2.96607 -1.52947 1.84032 -1.80911 0.637208 0.226087 C
62 2 6.93009 9.73582 6.88855 0.401536 -1.34216 1.3196 0.335884 -0.533468 0.38528 C
56 2 9.73477 9.69305 4.14592 0.25605 1.87845 -2.711 0.164515 -0.530279 0.407723 C
60 1 8.32739 8.21574 5.55489 -0.230551 -0.133493 3.46325 -0.547863 1.25207 -0.823124 C
4 1 2.78456 2.7554 -0.0221704 4.04453 -1.58113 -2.036 -0.333485 -1.05592 1.28842 C
11 1 2.7801 -0.000171311 8.30903 2.6574 3.75721 1.5098 0.350045 0.350344 0.448723 C
13 2 1.4037 1.42049 9.67024 -3.36057 -3.25632 0.943541 -0.394407 -0.540043 -0.0157569 C
42 1 5.53734 2.79609 8.4082 -5.38026 -1.48287 -1.64973 -1.251 -0.231935 -1.62055 C
45 2 6.88541 1.38652 9.70549 -3.6483 -0.0432458 0.728445 0.4304 0.607685 1.15445 C
10 1 0.0260951 2.80434 8.28413 -0.654412 1.80523 1.22507 -0.264366 -0.448823 -0.253177 C
43 1 8.26104 0.0395049 8.3919 0.16109 -2.5316 2.19217 0.929504 -1.06688 -1.6625 C
27 1 2.84894 5.51932 8.33675 5.42784 0.742082 1.9408 -0.072843 1.41458 -0.17624 C
29 2 1.42884 6.87731 9.74908 0.597807 -0.142488 0.694725 0.108163 0.0708347 -1.12225 C
16 2 4.1058 4.15349 9.78517 -2.87887 -0.888473 -0.773668 2.1856 0.808686 -0.362376 C
61 2 6.88989 6.94548 9.7321 -2.57386 -1.05178 -2.16219 -0.563529 -0.749024 -0.487598 C
48 2 9.69816 4.1579 9.63945 -4.38141 0.984373 -3.1761 0.0690396 0.0777133 0.80583 C
59 1 8.25575 5.53498 8.34858 -1.67421 -1.68633 -0.350042 -0.266298 -0.271945 -0.535723 C
32 2 4.15671 9.67508 9.73081 -0.712865 -1.51985 0.0447149 -0.289076 -0.472403 -0.852731 C
58 1 5.57791 8.34956 8.30247 0.254302 3.39297 1.94989 -0.638006 -0.360906 -0.179336 C
52 1 8.26594 8.31544 -0.0619841 -1.35517 -4.55757 -1.65736 -0.00938434 1.08738 1.53152 C
26 1 0.0751699 8.32467 8.3365 -2.43836 2.27742 -2.68405 -1.38447 -1.04076 0.456329 C
64 2 9.70989 9.69009 9.71054 -1.29407 2.30938 0.52368 -0.112185 0.559944 -0.448251 C
ITEM: TIMESTEP
15100
ITEM: NUMBER OF ATOMS
64
ITEM: BOX BOUNDS pp pp pp
0.0000000000000000e+00 1.1085848640000000e+01
0.0000000000000000e+00 1.1085848640000000e+01
0.0000000000000000e+00 1.1085848640000000e+01
ITEM: ATOMS id type xu yu zu vx vy vz fx fy fz element
3 1 2.8367 0.00634684 2.80597 1.32051 3.94941 0.383989 -1.47505 0.766495 -0.174794 C
7 2 4.16535 1.42145 1.40632 0.76423 -2.33459 -0.434449 -0.282297 -0.500388 -0.0635933 C
34 1 5.50891 2.75971 2.83754 2.81324 5.73238 1.66842 0.833297 0.609345 -0.242822 C
2 1 -0.0382454 2.73419 2.70425 2.25661 1.34089 -1.46456 0.473513 0.123834 0.713736 C
36 1 8.37857 2.79431 -0.00967438 3.55889 6.4257 1.1924 -1.95145 -0.747073 -0.243667 C
39 2 9.64156 1.34997 1.34366 -1.55049 1.49825 1.37549 1.06264 0.0213593 0.469194 C
6 2 1.36659 4.1674 1.39086 1.03942 0.601649 -0.0410338 0.0934292 0.133352 0.390358 C
19 1 2.84913 5.49176 2.78158 -3.00481 4.15808 1.01042 -0.503421 0.882016 -0.844967 C
23 2 4.22576 6.9257 1.33785 -1.06712 0.46409 -0.481494 -0.834477 -1.26173 -0.39651 C
38 2 6.94144 4.12187 1.4188 -3.58569 1.91245 1.67101 -0.0221656 0.129761 -0.183251 C
49 1 5.59431 5.45798 -0.0790465 1.78738 -2.03736 5.25205 -0.398043 0.847206 1.03419 C
17 1 -0.00934841 5.53228 -0.0109956 -0.141936 -4.29232 -0.583781 0.451961 0.965014 1.07611 C
51 1 8.33281 5.55356 2.79441 -3.26268 -4.23629 2.07531 0.07201 -1.22461 -0.00514667 C
55 2 9.70041 6.89949 1.41173 -2.21606 0.785546 0.0116024 0.725282 0.604843 0.054837 C
20 1 2.73236 8.35479 0.0172238 1.16464 -2.52728 2.00694 0.374646 -1.16016 0.163802 C
22 2 1.40835 9.68719 1.47003 1.45828 -1.54903 -0.648178 -0.353687 0.559401 -0.442423 C
33 1 5.5375 -0.00497737 0.0387307 -1.6244 2.02174 -3.18934 0.393057 -0.106971 -0.0350715 C
50 1 5.61131 8.21482 2.75133 -4.33284 -0.530168 2.71217 -0.717325 1.67392 0.191321 C
54 2 6.95771 9.6322 1.37952 -4.35719 3.66145 1.48521 -0.814403 1.32882 0.67093 C
1 1 -0.00351682 -0.0527362 0.0395652 1.81249 0.756476 -1.8373 -0.153509 0.361276 -1.47898 C
35 1 8.2679 0.0342799 2.76196 -6.22867 -0.854361 -1.17052 0.838104 -1.03698 0.330247 C
18 1 -0.0171395 8.32614 2.82034 8.28872 -2.29432 2.42726 0.684146 -0.621714 0.325733 C
5 2 1.34953 1.41635 4.1788 0.773559 0.327959 -0.881679 1.27644 -0.246325 -1.36184 C
12 1 2.75617 2.76383 5.5717 1.4518 0.728034 -2.35034 -0.995771 0.206976 0.192974 C
15 2 4.1351 1.374 6.92184 1.96432 0.151572 -1.37569 0.4326 -0.362392 0.545971 C
37 2 6.9886 1.43432 4.18212 -0.7617 -1.8728 -1.17384 -1.14944 -0.46747 -0.152921 C
9 1 -0.00147254 0.0604091 5.52338 2.86838 0.986871 5.93968 0.499239 -0.502856 1.03104 C
44 1 8.35912 2.80495 5.51566 3.24728 -0.243992 -0.459211 0.039737 -0.44345 0.659658 C
47 2 9.71342 1.3904 6.903 0.30169 -2.25232 0.603794 -0.375939 0.649769 -0.129329 C
14 2 1.24984 4.11548 6.90847 -0.619702 0.457541 2.15211 1.65896 0.409099 0.129547 C
21 2 1.49043 6.90876 4.15562 0.421521 -0.0275165 -3.00245 -2.29893 -0.400595 -0.479438 C
8 2 4.13739 4.14699 4.2393 -1.55539 1.55923 -0.00278316 0.756384 -0.310551 -0.747834 C
31 2 4.11176 6.89406 6.88391 0.757109 -0.939406 0.0914157 -0.0997763 0.102631 0.767373 C
46 2 6.9721 4.18813 6.86533 -0.0239223 0.539212 0.497443 0.304619 -0.267703 1.14461 C
53 2 6.97909 6.9283 4.16535 -6.99776 -1.39901 -1.86795 -0.145394 -0.128909 0.703606 C
57 1 5.56118 5.53157 5.54975 2.50127 -0.820305 1.31863 -0.103448 0.725134 -0.473171 C
25 1 -0.0319753 5.54415 5.53497 7.04348 -4.95648 -2.28375 0.117029 1.03091 -0.136438 C
40 2 9.74133 4.1142 4.15213 -2.40518 -0.745131 -0.213659 -0.451841 1.12318 -0.912986 C
63 2 9.64298 6.97568 6.96165 -4.26991 -3.61683 0.702695 1.57016 0.0701561 -1.83022 C
28 1 2.78035 8.31556 5.49203 1.78819 -1.74624 0.685189 0.622828 0.715662 0.672348 C
30 2 1.35625 9.69478 6.87915 1.29271 0.24612 0.0703403 0.153582 -0.2238 0.672403 C
41 1 5.63218 0.0259572 5.58589 -3.96386 -7.34139 1.7885 -2.26085 0.254973 -1.75583 C
24 2 4.19624 9.69119 4.10678 1.39826 -0.0700864 -1.79721 1.61651 -0.305453 1.32865 C
62 2 6.89841 9.76241 6.95768 -3.88955 2.83842 -0.911713 0.61895 -2.24782 0.293762 C
56 2 9.73189 9.79155 4.2098 -1.28081 -0.213451 -1.42196 -0.875179 -0.500823 -2.00358 C
60 1 8.33351 8.41373 5.51556 -1.92503 -3.26551 0.839038 -0.890816 -0.763297 1.28589 C
4 1 2.71176 2.77879 0.0436018 1.37576 3.80817 -2.6333 1.39694 0.252707 -1.15039 C
11 1 2.72295 -0.0270115 8.33999 2.38463 -1.89858 -0.537685 0.178216 0.964424 -0.771331 C
13 2 1.36205 1.44364 9.68691 2.15987 -0.398391 -1.89073 -0.392865 -1.85488 0.970484 C
42 1 5.57708 2.7894 8.24483 6.0627 2.60663 4.26103 -0.231513 -0.690927 0.80671 C
45 2 6.94149 1.32704 9.69144 2.16473 0.747874 -2.35679 0.197116 1.80336 -0.105294 C
10 1 -0.0495642 2.75378 8.31775 0.387439 0.807949 2.78989 -0.160843 0.417944 0.303312 C
43 1 8.34101 0.0296534 8.24552 -3.98065 2.8768 2.29925 -0.607381 -0.52241 1.07062 C
27 1 2.62262 5.5569 8.2741 -1.3949 -0.342676 0.105673 1.27969 -0.489904 0.230401 C
29 2 1.295 6.97431 9.69656 0.200062 -1.28893 1.39358 1.70622 -0.892515 1.00274 C
16 2 4.12683 4.14052 9.63701 0.042692 1.38231 -0.934628 -0.760573 0.0158731 0.108923 C
61 2 7.01814 6.88666 9.70918 0.381644 -1.51551 -0.350652 -1.07056 0.679179 -0.228875 C
48 2 9.74321 4.18627 9.74329 1.89459 -0.231604 -0.0613034 -0.769129 -0.545429 -1.71599 C
59 1 8.38014 5.5581 8.28483 1.71817 0.139557 3.41672 -0.981382 -1.06914 0.829956 C
32 2 4.10882 9.74917 9.75808 1.27631 1.57476 0.29865 0.711446 -1.31785 -0.906902 C
58 1 5.48884 8.24414 8.33706 0.0643195 1.35595 0.730162 0.695544 1.37455 0.298473 C
52 1 8.35585 8.31628 0.0546417 0.101728 0.957113 -2.63347 -0.137843 -0.882776 -1.52408 C
26 1 -0.0068736 8.28513 8.33333 8.36193 -1.28958 -0.332595 -0.858688 1.49021 -1.61099 C
64 2 9.64405 9.66596 9.62623 3.72228 -0.28412 0.436004 1.28969 0.803514 1.63876 C
ITEM: TIMESTEP
15200
ITEM: NUMBER OF ATOMS
64
ITEM: BOX BOUNDS pp pp pp
0.0000000000000000e+00 1.1085848640000000e+01
0.0000000000000000e+00 1.1085848640000000e+01
0.0000000000000000e+00 1.1085848640000000e+01
ITEM: ATOMS id type xu yu zu vx vy vz fx fy fz element
3 1 2.72047 -0.016216 2.75581 3.86797 -4.21845 3.0324 0.432903 0.875962 -0.486411 C
7 2 4.14599 1.4008 1.33368 0.628792 -1.27736 1.52226 0.0497744 -1.16888 1.17363 C
34 1 5.54352 2.75348 2.7084 -2.16294 -4.26294 1.94632 -0.00231479 0.825321 0.936672 C
2 1 0.00170562 2.78087 2.87755 -2.35176 -0.111594 -0.324725 0.116094 0.0240344 -1.47604 C
36 1 8.28017 2.73459 0.0174225 4.51688 -0.156888 -1.30196 2.04619 1.04447 0.510144 C
39 2 9.7624 1.38309 1.45436 -1.95353 -1.04545 -1.04093 -0.710102 0.678087 -1.25529 C
6 2 1.33967 4.15527 1.37518 -2.77622 1.72411 2.02357 0.228564 -0.284068 0.512339 C
19 1 2.71459 5.54832 2.75473 4.20599 -3.83883 1.01183 -0.120908 0.181113 0.961263 C
23 2 4.06177 7.00707 1.41867 1.65157 2.93688 1.79483 1.03945 -0.211584 -0.302761 C
38 2 6.95538 4.19368 1.39105 1.96869 -0.842329 -0.757346 -1.38333 -0.0913789 -0.702641 C
49 1 5.50854 5.66412 0.0431712 0.72065 0.488487 -2.90079 0.858662 -1.08482 0.194907 C
17 1 -0.0117322 5.5968 0.0155754 -0.754251 0.413764 -1.23852 0.336813 -1.24232 -0.901406 C
51 1 8.28071 5.57096 2.7666 6.60774 4.11197 -0.591117 0.425283 0.0290851 0.53883 C
55 2 9.6695 6.92336 1.32999 1.42965 -3.6308 -0.153782 -0.685496 0.452825 1.03585 C
20 1 2.79022 8.33992 -0.0684069 -1.07098 3.03211 1.53045 -0.827108 0.500457 0.485853 C
22 2 1.3612 9.72089 1.33806 -1.3396 -0.546823 1.05668 -0.217139 -0.842883 -0.0475868 C
33 1 5.59196 0.0204893 0.00390565 0.405211 -0.253923 3.50518 -1.16454 -0.170704 -0.329407 C
50 1 5.4991 8.41804 2.74198 2.74 -4.74885 -0.605445 -0.0679639 -0.992746 0.942971 C
54 2 6.9463 9.73944 1.35697 1.27697 -2.73212 2.19232 0.285075 0.0293552 0.840372 C
1 1 -0.0113859 0.0206469 -0.0402892 0.790199 -0.869506 4.12501 0.537928 0.159812 0.0490604 C
35 1 8.36238 0.0123491 2.77027 0.491298 2.54625 1.04099 -1.28683 -0.166092 0.198121 C
18 1 -0.0943223 8.32316 2.71503 -6.86823 1.49892 -2.66152 1.47756 -0.18505 0.352213 C
5 2 1.35028 1.32882 4.18085 -4.01599 -0.673139 2.26741 0.678275 0.365639 -0.109298 C
12 1 2.76306 2.71382 5.54276 3.97248 -2.7677 2.0601 0.770585 0.714376 -0.757317 C
15 2 4.16649 1.40498 6.93643 -0.148774 -3.58586 -0.786345 0.320247 -0.857722 -0.687481 C
37 2 6.90662 1.3778 4.14426 1.42748 0.0444967 0.349155 0.614387 0.0641604 -0.541663 C
9 1 0.0070531 -0.0940006 5.50145 -1.76613 2.98703 -6.11662 -0.432571 0.596777 0.889711 C
44 1 8.30295 2.70775 5.58118 -2.98326 2.1457 -0.127897 -0.0851635 0.647955 -0.515282 C
47 2 9.75325 1.33843 6.91208 1.06759 1.628 0.569437 0.00938713 -0.135998 -0.0593548 C
14 2 1.48663 4.13725 6.9321 -3.05962 -1.85747 -0.341285 -1.9692 0.669913 -0.325877 C
21 2 1.28619 6.92933 4.18652 1.97167 -1.40174 -0.190562 0.206742 0.029288 -1.4294 C
8 2 4.16517 4.16476 4.14393 -1.22984 0.522076 -1.41499 -1.06655 -0.987723 -0.715804 C
31 2 4.16939 6.91107 6.90673 -0.0764174 -0.14105 -2.94525 -0.305859 0.769718 0.619203 C
46 2 6.93017 4.16851 6.91884 -0.0129791 1.85201 -1.30603 -0.686755 -0.591711 0.155714 C
53 2 6.86033 6.9463 4.16961 2.58617 0.764887 -1.48077 0.121021 0.222745 -1.08626 C
57 1 5.49524 5.54434 5.51622 1.0504 -1.19759 -0.58377 1.01387 -0.34227 0.490347 C
25 1 -0.0731338 5.55319 5.56667 -2.89672 -0.408158 4.14048 1.76776 -1.58352 0.286574 C
40 2 9.64272 4.13719 4.17242 1.46231 -0.347591 1.05887 -0.214386 0.572399 0.570995 C
63 2 9.75858 6.92685 6.97876 -0.855011 -0.696251 5.67718 -2.45408 -0.629387 -0.184262 C
28 1 2.6988 8.29517 5.53646 -1.64238 -0.348394 -0.0301874 0.585878 -0.431982 0.660038 C
30 2 1.36271 9.66593 6.94985 -2.6984 0.649619 0.584776 0.00510721 0.370648 -0.534408 C
41 1 5.54486 0.00229496 5.50541 8.31994 4.07611 3.13581 0.121277 -0.942933 1.4713 C
24 2 4.05402 9.71561 4.1823 -0.47335 1.17566 -1.21071 1.1493 0.0455722 -0.480331 C
62 2 7.05742 9.6567 6.92613 0.73225 4.34598 -0.794455 -1.97425 1.2609 -0.605579 C
56 2 9.66087 9.67225 4.1413 2.96362 2.93055 0.486419 -0.122536 -0.585111 0.325454 C
60 1 8.31776 8.22823 5.55492 6.99455 2.89282 -2.12665 0.846242 0.538394 -0.398546 C
4 1 2.7809 2.76575 0.00978783 -5.83554 -0.583754 4.80504 -0.343577 0.900116 -0.112524 C
11 1 2.76894 0.00620069 8.25507 -2.16016 -0.960211 3.08196 0.673322 -0.408681 0.852141 C
13 2 1.46517 1.39814 9.68064 -3.33834 2.89486 -2.75466 -1.50323 -0.332615 -0.147527 C
42 1 5.54529 2.74501 8.33114 -0.692074 1.63183 -3.21947 0.763209 0.684024 0.419335 C
45 2 6.95941 1.35987 9.73745 0.569777 -4.87831 0.718267 0.143133 -0.154676 -1.7167 C
10 1 0.0349977 2.75607 8.27965 1.60537 -1.14541 -3.79637 0.322186 0.438613 0.626653 C
43 1 8.40277 -0.0382754 8.32413 7.26962 1.20655 -2.13985 -1.24224 0.973549 -0.0553568 C
27 1 2.85747 5.49343 8.35264 -2.54791 -0.962665 -0.983863 -0.667549 0.73311 -0.347633 C
29 2 1.4016 6.90877 9.68481 -2.23545 1.47513 -2.05052 -0.301782 0.723288 -0.604696 C
16 2 4.20661 4.1521 9.77415 0.756734 1.30671 0.652409 0.171315 0.0400392 -0.413125 C
61 2 6.97097 6.98685 9.72768 1.18272 -2.58329 -1.07615 -0.896805 -1.05619 -0.467611 C
48 2 9.71672 4.17439 9.69575 0.223747 0.536475 -1.91721 -0.168148 -1.12887 0.483568 C
59 1 8.29505 5.51615 8.34141 3.86087 2.62787 -3.55974 0.665213 1.09447 -0.265953 C
32 2 4.20693 9.7335 9.66696 -2.20152 1.98107 -0.227605 0.0610232 -0.105131 -0.43184 C
58 1 5.62189 8.3198 8.28602 -1.68631 -6.15649 -1.00296 -0.884561 0.0236113 0.0115805 C
52 1 8.31039 8.34527 -0.00353943 1.55724 0.972965 6.16584 0.242462 -0.0123519 0.183093 C
26 1 -0.0638677 8.35609 8.31258 -3.73383 -3.11381 5.52153 2.2079 -1.3543 0.815678 C
64 2 9.68741 9.67253 9.69353 -3.15033 1.58734 -5.06459 0.490843 0.801856 0.901765 C
ITEM: TIMESTEP
15300
ITEM: NUMBER OF ATOMS
64
ITEM: BOX BOUNDS pp pp pp
0.0000000000000000e+00 1.1085848640000000e+01
0.0000000000000000e+00 1.1085848640000000e+01
0.0000000000000000e+00 1.1085848640000000e+01
ITEM: ATOMS id type xu yu zu vx vy vz fx fy fz element
3 1 2.77777 0.0303992 2.73537 -0.256363 -1.03763 1.59165 1.36503 -1.14237 1.41824 C
7 2 4.15634 1.36313 1.36494 1.16306 1.45311 -2.13168 0.556547 0.341185 0.237501 C
34 1 5.53483 2.77344 2.76986 3.00024 0.979541 -4.33533 0.165503 -0.575835 -0.129638 C
2 1 0.0459751 2.7721 2.68658 2.43828 -0.339719 4.84578 0.0408137 0.326264 1.14227 C
36 1 8.25022 2.75851 -0.0218256 -5.98055 -1.73025 -0.62941 0.286931 0.262097 0.214217 C
39 2 9.67155 1.42214 1.41202 2.31999 -1.97746 3.82863 -0.175899 -1.19797 -1.08686 C
6 2 1.46639 4.11899 1.32999 1.55176 0.795815 -1.58822 -0.608697 0.536449 0.454468 C
19 1 2.79425 5.51871 2.78644 -0.985723 0.556027 -0.745303 0.772449 -0.585057 0.0283205 C
23 2 4.2277 6.79227 1.39066 -1.85006 -2.38094 0.0784735 -0.408704 1.79438 -0.246258 C
38 2 6.89094 4.14596 1.38486 -0.787993 1.89779 1.42069 0.619981 -0.642332 -0.24482 C
49 1 5.54523 5.42528 -0.0580847 -0.74602 1.68085 1.79225 -0.534872 0.966986 -0.118422 C
17 1 0.0282965 5.50619 -0.00963069 -0.634878 2.00771 1.36798 -0.297435 0.789086 0.666258 C
51 1 8.28705 5.52152 2.74284 -6.95673 -2.38934 -1.89497 1.48378 0.336238 -0.485925 C
55 2 9.72962 6.97003 1.37219 0.682851 1.61659 -0.329361 0.123531 -1.00654 0.551224 C
20 1 2.77209 8.24939 0.0328333 3.60773 -4.43379 -2.40995 0.878281 -0.207843 0.647679 C
22 2 1.45293 9.68438 1.42754 1.60061 0.483306 0.174889 -1.21826 0.287714 -1.18957 C
33 1 5.48038 -0.0535166 -0.0195174 3.36278 -1.13381 -0.0497104 0.934074 1.16205 0.879706 C
50 1 5.61811 8.2672 2.77592 0.00729736 4.53794 -2.49013 -0.248003 -0.720732 -0.38308 C
54 2 6.92992 9.70329 1.3367 -1.23901 2.03657 -1.38412 0.035861 -0.84531 0.380866 C
1 1 -0.0273695 -0.0222423 0.0176808 -1.60643 -2.42309 0.767983 0.397762 -0.180426 1.09336 C
35 1 8.30284 -0.0412974 2.76967 2.5838 1.36411 -2.75604 0.452532 0.861325 -0.193727 C
18 1 0.102889 8.32133 2.8157 1.27178 0.222676 2.98351 -1.68822 0.397148 -0.457326 C
5 2 1.45425 1.43451 4.11896 0.478772 -0.284741 -0.644726 -1.82079 -0.452646 0.697465 C
12 1 2.75456 2.88097 5.49463 -4.23841 0.333575 1.0216 0.787594 -1.36944 1.2234 C
15 2 4.07557 1.43581 6.96991 -2.93703 1.94023 -0.673651 0.315763 -0.404718 -1.61591 C
37 2 6.94798 1.39247 4.13188 -2.86386 -2.55337 -0.432615 -0.847577 -0.487664 0.531569 C
9 1 -0.0108171 0.0442608 5.60302 3.20824 -2.93093 1.39264 0.641474 0.64794 -1.73735 C
44 1 8.31586 2.81309 5.49716 5.60946 -3.99267 2.40012 -0.272197 0.20875 0.524464 C
47 2 9.61896 1.38364 6.92765 0.510786 -2.06338 2.21783 0.12047 0.601567 1.33101 C
14 2 1.42012 4.21881 6.93153 0.887197 -0.0136351 2.30303 -1.38665 -0.507048 0.338337 C
21 2 1.49568 6.98421 4.15318 0.241517 0.29937 -0.901982 -0.380386 -0.853318 0.637887 C
8 2 4.24425 4.17281 4.19937 2.4808 1.60677 2.25154 -1.38319 0.215604 -1.20245 C
31 2 4.1676 6.92259 6.94154 0.584891 -2.33489 1.83563 0.226778 1.12415 -0.0847617 C
46 2 6.84849 4.16281 6.9446 2.29386 2.50327 0.575815 1.13051 -0.785438 -0.421359 C
53 2 6.98383 6.84069 4.18913 -3.88819 -0.998625 0.169594 -0.80423 1.54693 -0.33781 C
57 1 5.54936 5.54914 5.56866 -2.95771 2.13098 -1.25849 0.117803 0.269458 0.174378 C
25 1 0.0662326 5.56762 5.49145 -2.44973 5.75927 -5.51215 -0.531984 0.52776 0.080121 C
40 2 9.7511 4.17917 4.09015 0.528105 -1.07565 -2.78554 -0.0384194 -0.297593 0.280171 C
63 2 9.71485 6.97415 6.85899 3.64715 0.725373 0.499806 -0.547773 -0.939503 0.80434 C
28 1 2.84097 8.36288 5.57305 -1.32787 1.51448 -3.52069 -0.539985 -0.463748 -0.121254 C
30 2 1.41378 9.76802 6.91294 0.0296791 1.24809 2.07041 0.328818 -0.659089 0.646811 C
41 1 5.4759 0.00727644 5.54445 -3.5486 -2.38008 -4.51635 1.17258 0.665042 0.576946 C
24 2 4.21841 9.64683 4.15248 1.80361 0.928252 -1.27791 -0.920782 1.32159 -1.04597 C
62 2 6.87182 9.67389 6.96351 0.394452 -0.991122 2.3024 -0.916485 0.735536 -1.08442 C
56 2 9.72704 9.72882 4.18116 -1.31727 1.3001 -1.18758 0.0752849 -0.55053 -0.123112 C
60 1 8.26415 8.35273 5.53109 -6.58145 -3.45009 1.85187 1.03025 -0.354301 0.0566803 C
4 1 2.81373 2.72206 -0.0285164 3.84898 -3.8009 -1.25428 -0.70086 -0.078798 0.638463 C
11 1 2.78652 0.00631698 8.36439 -2.18247 0.0926 -3.63847 -0.431346 -0.306519 0.0229489 C
13 2 1.40941 1.34431 9.76548 1.71857 -1.52421 -1.56252 -1.31882 0.637793 -1.13022 C
42 1 5.47078 2.76852 8.31601 -0.064336 -3.28415 0.109964 -0.23716 0.559449 -0.538599 C
45 2 6.78256 1.41262 9.68853 -2.42582 0.0270803 0.754414 0.994035 -0.70888 0.790192 C
10 1 -0.0324425 2.8023 8.37387 -3.34052 -0.529928 0.571495 0.648426 -0.612357 -0.990963 C
43 1 8.13799 0.000440433 8.33926 0.443208 -1.97602 0.298919 2.75333 -0.0517385 0.35359 C
27 1 2.76359 5.62084 8.29598 0.160352 -1.36009 2.60905 0.124338 -1.51007 0.655306 C
29 2 1.38944 6.90979 9.7198 -0.995257 -0.415583 0.470246 -0.382711 0.706692 -0.649393 C
16 2 4.06782 4.10011 9.6616 -1.079 0.0552383 -0.310742 1.01406 1.3902 -0.281779 C
61 2 6.88157 6.93357 9.69252 1.85325 -0.0991696 -0.24416 -0.67638 -0.371073 -0.315973 C
48 2 9.65995 4.21252 9.72356 -0.64943 3.4862 -0.922832 -0.705941 -0.724927 -0.502167 C
59 1 8.22307 5.56242 8.29293 -1.2728 -4.08264 3.61719 1.80509 0.544873 -0.381644 C
32 2 4.13771 9.67543 9.76958 -0.116086 0.389253 1.96619 -1.25403 -0.171826 -0.975415 C
58 1 5.47198 8.36728 8.35083 5.48479 4.07428 2.24918 0.703811 -1.57779 -0.154483 C
52 1 8.28844 8.2693 -0.0476888 -1.0733 -0.389041 -3.25976 0.229811 0.444251 1.18317 C
26 1 0.0519195 8.32325 8.26124 -1.69974 7.13655 -3.98516 -0.848233 0.244811 1.06358 C
64 2 9.67654 9.65902 9.73797 0.357321 -2.49367 -1.59816 -0.207294 0.890126 -2.09428 C
ITEM: TIMESTEP
15400
ITEM: NUMBER OF ATOMS
64
ITEM: BOX BOUNDS pp pp pp
0.0000000000000000e+00 1.1085848640000000e+01
0.0000000000000000e+00 1.1085848640000000e+01
0.0000000000000000e+00 1.1085848640000000e+01
ITEM: ATOMS id type xu yu zu vx vy vz fx fy fz element
3 1 2.7339 0.0387723 2.75836 -5.69916 3.91223 -6.50893 -0.485383 -0.648938 0.139292 C
7 2 4.13573 1.40154 1.37516 -0.309362 -0.763962 -0.483336 -0.344528 1.09525 0.00141911 C
34 1 5.49496 2.77752 2.81296 -3.94184 -1.5555 2.92532 0.873705 0.073478 -0.498921 C
2 1 -0.0780327 2.75672 2.77411 -0.669746 -0.890122 -4.38568 0.459004 -0.117835 0.844161 C
36 1 8.38558 2.78444 0.0437514 0.926485 -0.838587 0.7217 -0.92208 -0.402422 -0.593451 C
39 2 9.68712 1.37315 1.37927 -1.39522 3.50581 2.97824 0.343283 -0.63457 0.285575 C
6 2 1.30434 4.15117 1.43305 -0.265983 -1.53306 1.54954 0.856947 0.593581 -0.456136 C
19 1 2.72816 5.57845 2.74817 -1.05427 0.244866 -1.1131 -0.140407 0.236554 -0.0167999 C
23 2 4.13376 7.03358 1.34932 0.971437 -1.67596 2.33288 -0.724391 -1.47909 -0.184852 C
38 2 6.98273 4.13197 1.42981 -2.29281 1.28634 0.840161 -0.988163 1.13131 0.0775695 C
49 1 5.55734 5.57441 0.0013404 0.255048 -2.20104 -1.3657 0.470001 -0.202717 0.638687 C
17 1 -0.0160859 5.5581 0.0392308 1.68508 -2.33855 -1.15471 0.251844 -0.426288 -0.201965 C
51 1 8.37913 5.56319 2.83352 -0.60334 2.75328 1.78591 -2.47161 -0.406291 -0.123299 C
55 2 9.67266 6.88032 1.42194 -0.738653 -0.325977 0.124632 0.198779 1.09333 -0.969988 C
20 1 2.71115 8.41983 -0.033488 -4.05052 4.31195 -1.85585 0.993388 -0.560205 -0.625184 C
22 2 1.32219 9.72934 1.39059 0.456807 -0.656577 1.27869 0.0940332 0.337197 -0.271901 C
33 1 5.55797 0.087538 -0.0094155 -3.26797 -2.48019 -2.47761 0.731323 -1.21106 -0.344147 C
50 1 5.4774 8.32515 2.78561 0.753125 0.791751 0.255488 0.981296 1.16432 0.243442 C
54 2 6.94555 9.72865 1.39522 -1.56639 3.0988 -0.0318843 -1.50247 -0.266579 0.0962933 C
1 1 0.020705 0.0623012 -0.059582 -0.150543 2.99328 -4.8778 -0.110858 -0.366871 0.927971 C
35 1 8.30981 -0.0250582 2.78808 -2.27136 -4.53399 4.02321 0.730227 0.627698 -0.158452 C
18 1 -0.0713115 8.28796 2.7345 0.217593 -1.14752 -3.09312 1.14246 0.257651 0.926505 C
5 2 1.30402 1.34327 4.16912 1.13415 1.57872 -0.764204 1.38248 1.26066 -0.793262 C
12 1 2.7928 2.6742 5.56903 0.165166 4.01293 -5.5719 -0.547386 0.895105 -0.235841 C
15 2 4.26589 1.36188 6.98625 1.46465 -0.514658 3.27858 -1.30104 0.713507 -0.60277 C
37 2 7.00617 1.42678 4.15652 0.937485 0.150682 -2.94486 -2.37282 -0.93332 -0.143215 C
9 1 -0.0110514 -0.0271991 5.49021 -4.50285 -3.31837 2.10048 0.360454 -1.23372 0.996182 C
44 1 8.26167 2.79245 5.55052 -5.62224 0.745001 -3.44712 2.00081 -0.736028 0.148095 C
47 2 9.74649 1.35429 6.85166 1.29759 -2.23542 -1.91636 -0.789359 0.869562 0.803318 C
14 2 1.37645 4.13482 6.90769 4.51998 -0.0437079 -1.45905 0.803093 -0.745343 0.231977 C
21 2 1.30193 6.89392 4.17784 -1.32555 0.229588 -1.31857 0.0905474 0.110112 -0.4513 C
8 2 4.07353 4.18055 4.15489 0.878424 1.07406 -0.878821 0.902588 -0.430336 0.461119 C
31 2 4.15291 6.89904 6.87325 1.11732 -2.3738 -1.69121 -0.316176 -0.831951 0.929801 C
46 2 6.9345 4.14411 6.8956 -4.9533 2.87029 2.30006 0.152161 1.27242 1.13082 C
53 2 6.90706 6.96108 4.1894 0.0584645 -3.74517 0.317869 0.53922 -0.230504 -0.783151 C
57 1 5.56015 5.52921 5.5334 0.113141 -4.3052 0.74186 -0.800278 -0.195395 -0.455854 C
25 1 -0.0519831 5.4881 5.59564 0.453846 -5.92141 6.49061 -0.224184 0.845567 -0.5562 C
40 2 9.65304 4.14608 4.18941 0.651622 1.48801 -0.773947 0.75857 -0.327912 0.177442 C
63 2 9.6125 6.9127 6.94386 -0.271721 -1.27077 2.38441 2.32105 0.22074 -0.624052 C
28 1 2.72962 8.24069 5.55118 2.2459 0.409212 3.09989 0.0188113 0.365795 -0.922904 C
30 2 1.38314 9.62333 6.88381 -1.56502 0.731953 0.898206 -0.762275 0.986616 1.21794 C
41 1 5.58203 0.0299106 5.57164 -0.778139 2.30967 -1.25093 0.119551 -0.985265 -1.31877 C
24 2 4.0513 9.70922 4.18521 -0.881501 -1.55134 1.97907 1.54486 0.356725 0.140539 C
62 2 6.97635 9.69631 6.92103 2.0735 0.140199 0.739962 -0.350069 -0.23162 0.449644 C
56 2 9.70708 9.68193 4.15497 0.668229 0.446246 -0.731112 -0.325878 0.0107745 -0.657425 C
60 1 8.35689 8.32552 5.53566 1.47103 2.18852 -2.15193 -1.28365 -0.119774 0.0653707 C
4 1 2.74688 2.87696 -0.00298751 1.28694 1.88997 0.0196545 0.799001 -1.13523 0.483922 C
11 1 2.78898 0.00110489 8.27188 5.09772 2.12812 1.7274 -0.388044 -0.000440821 -0.111464 C
13 2 1.4521 1.43761 9.69415 4.71991 -0.286997 0.585146 -0.284765 -0.554191 -0.646733 C
42 1 5.60194 2.81023 8.31832 -1.33712 0.172592 1.2089 0.720683 -1.25722 0.592347 C
45 2 7.0595 1.3725 9.68978 -0.155253 -0.226278 -0.170769 -1.13513 1.19977 0.0748821 C
10 1 0.0365772 2.73282 8.27512 3.16483 0.953097 2.40721 -0.40997 0.319529 0.506613 C
43 1 8.41788 -0.013504 8.29923 -7.38427 -1.8395 -0.765084 -1.01278 0.0591346 -0.657348 C
27 1 2.77633 5.49138 8.30257 2.83319 5.39693 -3.69781 -0.0250126 0.957667 -0.14723 C
29 2 1.36328 6.90715 9.70285 0.938876 -1.37752 -0.923949 0.736488 -0.0654807 0.206723 C
16 2 4.21104 4.16368 9.67721 0.938078 -0.289541 1.83513 -0.507257 0.541228 0.60598 C
61 2 6.9803 6.94835 9.71653 -0.451522 -0.167185 -0.0585386 -0.379877 -0.231156 -0.396599 C
48 2 9.76702 4.11597 9.75102 1.66951 1.03328 -1.2389 -0.383968 0.809066 -1.55948 C
59 1 8.3633 5.54923 8.30155 -7.03005 0.437099 -1.90321 -1.37636 -1.70385 1.46515 C
32 2 4.20598 9.77271 9.62317 3.04155 2.35605 -0.521566 -0.41471 -1.19631 1.13229 C
58 1 5.52655 8.24097 8.26412 -5.59257 1.71469 -2.10547 1.0564 1.54715 0.548605 C
52 1 8.34232 8.34298 0.0486244 -0.120458 0.436827 -0.732459 -0.0970815 -0.244353 -0.551222 C
26 1 -0.0361961 8.24248 8.3334 0.49142 -6.76178 -1.85629 0.116237 1.10174 -0.701988 C
64 2 9.71914 9.72304 9.7055 1.36283 -0.824599 1.30369 0.628654 -0.940959 0.212233 C
ITEM: TIMESTEP
15500
ITEM: NUMBER OF ATOMS
64
ITEM: BOX BOUNDS pp pp pp
0.0000000000000000e+00 1.1085848640000000e+01
0.0000000000000000e+00 1.1085848640000000e+01
0.0000000000000000e+00 1.1085848640000000e+01
ITEM: ATOMS id type xu yu zu vx vy vz fx fy fz element
3 1 2.82318 -0.0657823 2.8213 3.21941 1.06119 2.68362 -1.12827 1.30955 -1.57916 C
7 2 4.16075 1.33378 1.37801 1.43771 -1.71819 -0.544277 0.281547 0.587091 0.670994 C
34 1 5.61814 2.79901 2.70965 -1.54504 2.92515 -1.01449 -1.11697 -0.793251 0.983576 C
2 1 0.0365808 2.80734 2.79801 -3.71942 -0.892984 -2.1865 -0.33823 -0.737905 -1.35139 C
36 1 8.28818 2.76896 -0.0659922 -0.427857 -0.806662 0.509307 0.387914 -0.624836 0.787595 C
39 2 9.72296 1.3847 1.36184 -0.0350739 -2.80579 1.6931 -0.0963294 1.62556 0.326848 C
6 2 1.39006 4.20211 1.32253 -1.58786 -1.14533 1.6126 -0.121967 -0.94258 1.41473 C
19 1 2.76417 5.51549 2.81405 -0.22284 0.146257 0.527532 0.46905 0.336984 -0.697231 C
23 2 4.13333 6.92749 1.43536 2.78317 0.171891 -1.80078 0.99887 -0.79665 0.548774 C
38 2 6.97755 4.17547 1.33176 3.76656 -2.66649 1.41699 -0.990134 -0.276575 -0.397675 C
49 1 5.51333 5.56956 0.0273815 -0.772278 -1.82489 -3.19094 0.0464077 -0.590448 -0.934302 C
17 1 -0.0121258 5.54087 -0.0456683 -2.12908 2.29233 0.823787 0.271692 0.183185 0.100456 C
51 1 8.30579 5.51035 2.71093 7.02464 -3.14569 -0.169246 1.16371 0.867408 0.927126 C
55 2 9.72536 6.92338 1.30819 3.10026 -1.05389 3.47553 -0.184234 0.319576 1.83933 C
20 1 2.82067 8.23677 0.0291798 -2.45002 -1.58109 2.58593 -1.6172 1.09723 0.0543212 C
22 2 1.4136 9.68257 1.39537 -2.20855 0.0105933 3.10593 0.751195 -0.823604 0.670461 C
33 1 5.55498 -0.0441748 0.0145324 -2.50898 4.61927 1.8958 -0.734619 -0.467999 0.0535084 C
50 1 5.5697 8.2938 2.79876 -2.39211 -3.87929 0.23329 -0.343293 0.00801968 -0.792034 C
54 2 6.94966 9.64719 1.39632 4.30861 1.20325 1.04669 0.151543 1.02445 0.110268 C
1 1 -0.00627665 -0.0598724 0.0928931 -2.70244 -0.216136 -1.01406 -0.383194 0.528701 -2.30296 C
35 1 8.33165 0.0753842 2.73044 0.704248 -0.712411 -4.31193 -0.502632 -1.78826 1.07682 C
18 1 0.0153307 8.34339 2.80697 -1.20797 -1.43063 2.15128 -0.302918 -0.729027 -0.928391 C
5 2 1.38294 1.34117 4.14359 -4.53557 -1.53241 -0.372525 0.856377 0.972827 0.403545 C
12 1 2.77138 2.77422 5.55558 -0.0428667 -5.93952 3.54947 -0.532217 0.347256 -0.64547 C
15 2 4.09553 1.37735 6.91321 0.265104 -0.978488 3.19417 1.0511 -1.09129 0.878098 C
37 2 6.92662 1.3793 4.19444 5.26413 0.183526 -0.728975 0.442687 0.372803 -0.489429 C
9 1 0.0106644 0.0256161 5.55841 1.26345 6.60265 -2.42646 -1.01193 0.269335 0.407124 C
44 1 8.38777 2.75281 5.57448 -0.262977 2.88592 1.42529 -2.04095 0.105804 -0.70222 C
47 2 9.66152 1.41841 6.97659 0.00956799 -1.23392 -0.403711 1.7349 -0.64159 -0.553941 C
14 2 1.37862 4.18445 6.96949 -3.70417 2.23759 0.756999 -0.346731 -0.136702 -1.48127 C
21 2 1.44983 6.97355 4.16441 -0.0762196 -0.516005 0.210272 -0.955842 -0.391799 -0.795469 C
8 2 4.21732 4.16556 4.17365 0.427698 1.48269 2.7657 -0.597504 -0.531965 -0.406633 C
31 2 4.1498 6.99201 6.94042 2.10088 -1.24409 -0.757969 -0.015518 -0.531419 0.492639 C
46 2 6.94393 4.12348 6.9041 0.607129 0.595871 -2.17559 0.00684952 1.09785 0.513382 C
53 2 6.94447 6.92682 4.14049 1.50799 -0.339084 3.40325 0.343082 -0.575608 0.118749 C
57 1 5.53161 5.60476 5.54711 2.89567 4.71889 -1.41749 0.735657 -0.808723 0.413596 C
25 1 0.0405531 5.59344 5.4621 1.15019 3.24128 -5.46032 -0.323415 -1.08613 1.50786 C
40 2 9.6879 4.12158 4.16679 1.88942 0.262937 -3.63492 0.657646 1.40331 -0.64088 C
63 2 9.76631 6.94617 6.91494 -2.58768 3.0024 -0.00989267 -0.0951961 0.146696 0.784426 C
28 1 2.76406 8.34521 5.52334 -2.31439 -1.22879 1.16601 0.841168 0.587839 0.679311 C
30 2 1.40078 9.75567 6.91592 0.438306 -0.338367 -1.06553 -0.292541 -0.788421 -0.325192 C
41 1 5.53982 -0.0747126 5.54713 -2.86289 1.43636 4.70825 -0.561666 1.57618 -0.0770211 C
24 2 4.17935 9.68183 4.11406 0.990662 0.241241 -0.785966 0.44555 -0.857491 1.59388 C
62 2 6.93596 9.70206 6.93194 -0.456824 0.301769 1.29421 0.830108 0.101303 0.276944 C
56 2 9.69965 9.7296 4.1802 2.44158 2.4856 -0.503578 -0.366863 0.132777 -0.380553 C
60 1 8.31971 8.28254 5.5522 0.663289 0.475929 1.86079 0.255553 0.810744 -0.115138 C
4 1 2.71898 2.70012 0.00935399 -2.67345 3.00236 -3.74865 0.609974 0.621975 -0.467363 C
11 1 2.69681 -0.0317708 8.35265 -4.35421 -2.27554 -2.44552 1.52012 0.905423 -0.129087 C
13 2 1.31096 1.36089 9.69713 -1.22738 0.12538 1.40431 -0.21298 -0.208545 0.704951 C
42 1 5.54158 2.75289 8.3079 -3.02777 2.56789 -2.41005 -1.17133 0.285653 -0.622259 C
45 2 6.83849 1.3729 9.70058 -1.4084 -3.26201 -0.880959 1.26625 0.180608 0.148454 C
10 1 -0.0397432 2.80629 8.32128 -4.79734 -1.05912 -3.86043 0.180993 -0.177836 0.362267 C
43 1 8.28952 0.0761261 8.32833 3.61425 1.51027 1.18057 -0.685867 -1.36009 -0.0263981 C
27 1 2.75203 5.53647 8.33705 -3.21394 -5.45581 1.5135 0.663321 0.782959 -0.424261 C
29 2 1.39402 6.92453 9.71703 -4.1898 1.3509 -0.322833 -0.14969 0.523291 -0.421976 C
16 2 4.11128 4.12289 9.6945 -1.72067 -2.51203 -4.59042 0.660278 0.101657 0.755849 C
61 2 6.91761 6.94371 9.68118 2.36663 -1.47098 -1.47212 0.204449 -0.959259 0.451079 C
48 2 9.66841 4.17984 9.70904 -0.369163 1.57503 2.0638 0.619751 -0.655812 -0.285664 C
59 1 8.35235 5.53265 8.33286 6.72215 4.37192 -3.22532 -0.921229 0.748703 -1.32202 C
32 2 4.11492 9.65763 9.74222 -1.04594 3.21242 -0.712528 0.905151 0.606001 -0.589797 C
58 1 5.59178 8.35553 8.34066 -1.33558 -4.27418 -0.365172 -1.49655 -0.261827 -0.382044 C
52 1 8.29837 8.2887 -0.0220015 -0.859747 -1.77158 -1.5259 0.244253 0.264361 -0.117132 C
26 1 0.0533964 8.42097 8.34025 -0.815426 3.48542 0.170241 -0.798293 -1.73186 -0.446106 C
64 2 9.64143 9.71442 9.68831 -1.05763 0.952299 -2.12279 0.839177 0.534394 0.773514 C
ITEM: TIMESTEP
15600
ITEM: NUMBER OF ATOMS
64
ITEM: BOX BOUNDS pp pp pp
0.0000000000000000e+00 1.1085848640000000e+01
0.0000000000000000e+00 1.1085848640000000e+01
0.0000000000000000e+00 1.1085848640000000e+01
ITEM: ATOMS id type xu yu zu vx vy vz fx fy fz element
3 1 2.77754 0.00571077 2.76057 -0.610301 -3.52026 0.619928 0.744792 0.0498556 0.638397 C
7 2 4.13916 1.39074 1.40038 0.438057 -2.12156 -2.85646 1.11392 -1.16222 -0.224352 C
34 1 5.51843 2.69812 2.81773 3.79733 0.617667 -1.9083 -0.207776 1.77935 -1.09916 C
2 1 0.0563061 2.77268 2.78415 3.50793 4.01727 4.03777 -0.794677 0.420846 -0.177975 C
36 1 8.3273 2.79495 0.0432198 0.615587 3.54789 -3.08858 -0.654641 0.645189 -0.704694 C
39 2 9.68495 1.4244 1.36712 2.35759 0.656493 2.8558 0.929339 -1.41123 1.37437 C
6 2 1.41407 4.18452 1.34317 -1.18032 2.14461 -1.99001 0.472231 -0.943761 1.20829 C
19 1 2.83575 5.5464 2.72575 -3.64376 -1.81872 1.31941 -1.13109 -0.379237 0.599284 C
23 2 4.16036 6.91288 1.40311 -4.43139 2.52675 3.72384 0.589911 0.646591 -1.60234 C
38 2 6.86678 4.15977 1.40716 0.018254 3.65858 -0.329223 0.959081 -0.521778 0.665663 C
49 1 5.55047 5.52719 -0.00213542 -1.55417 4.119 4.6988 -0.416258 0.764179 0.536225 C
17 1 0.026415 5.53012 0.0194902 -0.675576 -2.39966 -0.833794 -0.954686 0.0961275 -0.46127 C
51 1 8.2524 5.6081 2.79137 -6.90452 1.88707 -2.29625 0.83228 -1.81371 -0.778632 C
55 2 9.67765 6.90994 1.36243 -0.549819 -1.33715 -4.0127 0.844354 0.490672 1.01067 C
20 1 2.78645 8.31427 -0.00885603 4.61025 0.916072 -4.12668 0.357557 -0.962005 -0.0667951 C
22 2 1.49979 9.71873 1.36076 0.727479 -0.10198 -1.19369 -2.46822 -0.151135 0.057562 C
33 1 5.55787 -0.026556 -0.00564684 1.86732 -1.45556 -3.15458 -0.986883 1.63384 -0.526974 C
50 1 5.53975 8.32753 2.71124 0.680128 2.33173 1.57276 -1.3111 -0.554646 0.897878 C
54 2 6.83012 9.67818 1.3402 -2.95736 1.14353 0.794912 2.87501 0.880198 1.38924 C
1 1 0.0369155 0.0110909 -0.0176901 4.14537 -0.983265 7.13689 -0.276383 -0.126584 0.15956 C
35 1 8.28427 -0.0165112 2.81423 -1.50343 7.63058 -0.835275 -0.500329 0.442211 -1.48079 C
18 1 0.0456318 8.31383 2.73949 -1.77378 4.37337 -0.553617 -0.137161 0.136929 0.447535 C
5 2 1.45923 1.39152 4.18355 -1.84692 -2.94741 -1.0754 -1.42686 -0.29788 0.000278248 C
12 1 2.76275 2.86468 5.5261 1.81755 3.00604 -1.95277 0.390011 -1.17608 0.299724 C
15 2 4.15112 1.43745 6.89971 0.226922 1.23912 0.741494 0.516975 0.236402 -0.500628 C
37 2 6.87683 1.3956 4.18126 -1.99575 -2.52474 -0.586253 1.59099 -0.552897 -0.557705 C
9 1 0.0126862 -0.034782 5.57154 1.21245 -5.85946 -3.83419 0.238275 1.11128 -0.703231 C
44 1 8.30004 2.75886 5.50404 2.0606 -1.50936 0.774945 -0.158033 0.0763088 0.948717 C
47 2 9.6899 1.38604 6.90242 0.211661 -2.02738 2.25151 0.340881 -0.208298 0.813732 C
14 2 1.36044 4.14529 6.942 3.05001 0.072567 2.96468 0.650021 0.846032 0.844329 C
21 2 1.49156 6.92403 4.14711 0.407151 2.04478 -0.496304 -1.79625 -0.223576 0.47268 C
8 2 4.1614 4.1738 4.12268 2.41907 3.32656 -0.953967 0.353841 -0.442085 0.518371 C
31 2 4.11169 6.90679 6.94197 0.563122 0.811115 -0.891841 1.87383 0.549937 -0.409691 C
46 2 6.93649 4.1406 6.92655 -2.72326 -0.295947 1.15121 -0.126049 -0.839064 -0.077286 C
53 2 6.84523 6.92584 4.09377 -5.78456 -1.04209 -2.35108 0.422339 0.528654 2.0956 C
57 1 5.54431 5.47195 5.58156 -5.20764 -0.294877 1.54545 -0.632026 1.75884 -1.01609 C
25 1 -0.0193014 5.52194 5.59295 -0.039529 -0.256991 -0.889508 0.897377 0.483613 -1.73555 C
40 2 9.66444 4.15934 4.17596 -2.46047 -3.21782 1.57671 0.673614 0.437273 -0.944148 C
63 2 9.68373 6.88644 6.92356 1.37001 -3.78083 2.30552 -1.44843 0.45141 0.293202 C
28 1 2.84154 8.34604 5.53544 -1.46149 -2.75987 -1.6715 -1.33231 -0.716661 0.418559 C
30 2 1.40645 9.70003 6.93133 0.542122 1.57359 1.74508 0.531951 -0.40232 1.16597 C
41 1 5.54714 0.0408866 5.5116 3.91778 -5.89964 -1.32383 -1.20387 -1.19228 0.954166 C
24 2 4.15101 9.67441 4.12961 -3.12001 -0.180007 -2.40509 1.14112 1.34592 -0.245039 C
62 2 6.88484 9.71471 6.95201 0.39697 0.634003 0.267257 0.0633036 -0.405093 -0.837433 C
56 2 9.68639 9.70655 4.18537 -0.0212389 -1.07989 -0.334494 0.785536 -0.637898 -0.830565 C
60 1 8.26682 8.33155 5.51573 1.09352 -4.70706 -2.74634 -0.12595 -0.979934 0.579694 C
4 1 2.83028 2.75984 0.0228696 -4.04061 -2.35898 2.90285 -1.2127 0.709145 -1.20384 C
11 1 2.87617 0.0549429 8.3221 -2.31835 -1.69152 2.8206 -1.86578 -1.26149 -0.435357 C
13 2 1.40844 1.40046 9.66125 3.6985 -0.648883 -3.77185 0.977458 -0.267441 1.26418 C
42 1 5.53533 2.78317 8.29913 6.28841 0.300096 2.66701 0.328098 0.122676 0.467779 C
45 2 6.9581 1.42608 9.70744 -1.45895 0.382705 -0.569285 -0.239693 -1.03702 -0.228182 C
10 1 0.0210769 2.76245 8.35495 4.16173 1.2862 0.993598 -1.00449 0.0306824 -1.28528 C
43 1 8.31464 -0.0493239 8.30081 -1.2511 4.28658 0.648804 0.0369816 1.36874 0.454818 C
27 1 2.79042 5.58242 8.32842 0.962904 1.45334 -0.972235 -1.07426 -1.74228 0.00134867 C
29 2 1.39171 6.87402 9.72748 1.74458 -2.98999 0.273265 0.0639287 1.22762 -0.13799 C
16 2 4.17868 4.19097 9.71017 3.35556 -0.0621036 1.95271 -0.256738 -0.744153 -0.43246 C
61 2 6.91534 6.93999 9.73992 -1.25059 1.35586 -0.911677 0.483206 0.188138 -0.125846 C
48 2 9.72036 4.15742 9.71664 0.384868 0.692062 0.658876 -0.531931 0.0749071 0.0921738 C
59 1 8.23868 5.5025 8.33496 -1.07146 -4.1598 3.00257 1.65819 0.84439 0.169826 C
32 2 4.17339 9.67648 9.7131 1.88379 0.619773 -0.79198 0.0217535 0.665519 -0.181052 C
58 1 5.5212 8.30485 8.3398 2.32332 2.06918 0.0420649 0.0930749 -0.436257 -0.498521 C
52 1 8.33335 8.35344 0.0533523 -0.0860866 1.76819 2.37223 -1.01051 -0.840362 -1.07709 C
26 1 -0.0172363 8.22852 8.3253 4.14095 1.22614 3.57817 0.58432 1.2488 -0.0566524 C
64 2 9.69142 9.67577 9.7112 0.160936 -0.520141 -1.81973 0.849551 0.137086 -0.197198 C
ITEM: TIMESTEP
15700
ITEM: NUMBER OF ATOMS
64
ITEM: BOX BOUNDS pp pp pp
0.0000000000000000e+00 1.1085848640000000e+01
0.0000000000000000e+00 1.1085848640000000e+01
0.0000000000000000e+00 1.1085848640000000e+01
ITEM: ATOMS id type xu yu zu vx vy vz fx fy fz element
3 1 2.73969 0.0300696 2.7722 1.28663 -0.61981 0.968925 -0.337573 -0.817 0.074783 C
7 2 4.1435 1.40299 1.44101 -1.1906 0.349562 2.21347 0.523659 0.647034 -0.953508 C
34 1 5.52997 2.83891 2.77539 -2.22877 -4.94644 2.41826 0.147519 -1.25189 0.335285 C
2 1 -0.0804561 2.72298 2.77625 0.23414 -2.51488 -0.269931 0.692636 0.674989 0.353408 C
36 1 8.31 2.76173 -0.0188406 0.260009 -2.2542 2.69871 0.712526 0.681037 -0.159439 C
39 2 9.65228 1.35956 1.35672 -3.66642 1.79606 -1.20281 0.262648 -0.0359293 0.0242476 C
6 2 1.32852 4.17217 1.44143 -1.99505 2.16774 -1.46287 0.659094 -0.207834 -0.773574 C
19 1 2.74108 5.59286 2.78397 6.98445 2.26761 -2.32549 -0.212178 -0.428192 -0.143664 C
23 2 4.18247 6.99112 1.37417 2.90627 -2.08835 2.95778 -0.625526 -0.674028 0.830262 C
38 2 6.95916 4.13828 1.41826 -1.74881 -1.67984 0.433696 -0.0110416 0.776575 -0.653758 C
49 1 5.59224 5.57966 0.0297599 1.98681 -3.54509 -4.5558 -0.611735 -0.548725 -0.755289 C
17 1 -0.00347382 5.56319 -0.00554638 3.41031 2.30912 1.44552 0.230715 -0.4416 -0.0144798 C
51 1 8.39202 5.48071 2.80615 1.61372 2.9182 3.32376 -1.95372 1.64123 -0.616721 C
55 2 9.66331 6.89494 1.35734 1.95596 -2.95041 -0.430228 0.299441 0.129682 0.211704 C
20 1 2.74184 8.34231 0.0220292 -1.75819 -0.381704 4.86132 0.0695682 0.541387 -0.716117 C
22 2 1.29899 9.74164 1.38966 4.87358 0.246615 2.61476 0.488978 -0.38072 -0.266098 C
33 1 5.56585 0.0537466 0.0280604 3.33366 -2.89214 4.73043 0.0532083 -1.01903 0.000690199 C
50 1 5.51845 8.34742 2.82973 2.42547 -1.04025 -3.21819 1.19972 -0.139095 -0.460464 C
54 2 6.97247 9.68848 1.40238 -5.08118 -2.30435 -1.39803 -1.29331 -0.381437 -0.516923 C
1 1 -0.0546026 0.0493288 -0.0897135 -2.38676 0.543761 -1.11614 0.658492 -0.646617 2.11102 C
35 1 8.34635 -0.064661 2.76867 3.28359 -3.65786 2.95845 -0.667797 1.86889 0.298647 C
18 1 -0.0408069 8.24452 2.77162 2.05353 -3.87012 0.1128 -0.526818 1.34437 -0.0747626 C
5 2 1.34686 1.35318 4.16249 0.356119 0.340181 -0.787309 -0.00385416 0.529553 -0.23349 C
12 1 2.77793 2.65296 5.55344 -1.34234 1.25402 1.75957 0.083194 1.11059 -0.326868 C
15 2 4.2099 1.33025 6.93282 -0.706762 -1.38979 2.24524 -0.679893 0.231302 0.350749 C
37 2 6.98598 1.46402 4.14477 0.0188888 1.74224 0.938854 -1.13925 -1.75642 -0.36802 C
9 1 -0.01122 0.0448264 5.57797 0.17074 2.91495 6.2855 0.00267008 -1.36109 -1.50739 C
44 1 8.31786 2.75895 5.59479 2.65914 1.37209 -1.94647 0.269143 0.963866 -1.24283 C
47 2 9.72517 1.40872 6.86872 -0.429538 1.46509 -2.15555 -0.579096 -0.492421 1.81476 C
14 2 1.4364 4.10744 6.89709 -4.024 -1.77085 0.924149 -0.564237 -0.256229 0.500688 C
21 2 1.24532 6.85121 4.19623 6.56827 -0.761908 -1.67299 2.55604 1.49139 -0.368173 C
8 2 4.07208 4.11744 4.14256 1.54106 2.72379 0.212532 1.0145 1.07274 0.525411 C
31 2 4.15989 6.91171 6.8785 -1.6446 -2.48865 -1.18058 0.144081 0.324291 0.399983 C
46 2 6.95395 4.14328 6.92505 0.233926 1.50187 -0.532994 -0.796867 0.75168 0.86676 C
53 2 7.00242 6.95223 4.19418 -1.23549 -1.82335 -2.36627 -0.457129 -0.252498 -1.34989 C
57 1 5.57021 5.56164 5.46461 5.22924 -4.37981 0.863282 -0.63204 -1.33695 1.09471 C
25 1 -0.00768382 5.49788 5.60132 -2.72143 0.765597 2.4015 -0.985013 -0.159086 0.237074 C
40 2 9.67914 4.16663 4.1922 0.987729 -0.430487 -1.77066 0.96788 -1.60299 0.787557 C
63 2 9.69082 6.94796 6.96003 1.79748 -0.216349 1.24109 0.740226 -0.859628 -0.30554 C
28 1 2.71422 8.30899 5.54654 3.39002 5.65645 -2.23743 -0.0960483 -0.711785 -0.907596 C
30 2 1.31485 9.67068 6.8855 -0.200936 1.80713 -1.77357 1.07067 0.945464 0.6471 C
41 1 5.54263 0.00598285 5.5092 -0.413855 6.68487 -1.45348 1.77082 0.00026251 0.188105 C
24 2 4.11954 9.73762 4.1797 1.92077 -3.56091 -2.38796 -0.480107 -0.502244 -0.261794 C
62 2 7.01512 9.69428 6.9043 -2.06409 2.00995 3.11533 -1.71673 0.994646 0.450511 C
56 2 9.70439 9.72185 4.17193 0.238601 5.47337 0.328191 0.556191 -1.17421 0.559318 C
60 1 8.34462 8.31093 5.60209 -2.72873 5.6852 -0.16821 0.610439 0.238901 -1.43098 C
4 1 2.80428 2.82995 0.0177525 6.82604 -0.913319 3.40502 -1.29869 -0.591542 0.844593 C
11 1 2.75106 -0.0362274 8.26823 6.77626 4.68639 -0.766446 -0.331026 0.576277 0.805971 C
13 2 1.38655 1.41915 9.73958 -2.62441 0.505318 -1.96273 0.68647 -0.0755396 -1.78647 C
42 1 5.55954 2.71932 8.35815 -5.42041 -0.923294 -3.25934 0.139163 0.881095 -0.649987 C
45 2 7.00897 1.34026 9.69034 -2.01532 -0.11046 -0.18614 -0.999063 0.476386 0.120498 C
10 1 -0.00876553 2.74932 8.2637 -1.91253 -1.28174 1.92125 1.30428 0.353127 0.541221 C
43 1 8.39418 -0.00684084 8.29796 3.80161 -4.76548 -2.4552 -0.29546 -0.0240823 -0.392291 C
27 1 2.77228 5.51851 8.2851 2.73438 3.79559 2.34526 -0.413613 0.978866 -0.0567467 C
29 2 1.35727 6.94957 9.6825 -3.17289 -1.55734 1.08304 0.723876 -0.103172 -0.253756 C
16 2 4.11704 4.181 9.68036 -1.51006 0.541539 -3.29096 2.15314 0.0569319 0.750869 C
61 2 6.97932 6.96043 9.70264 -0.0482161 -1.71929 -1.26568 -1.27684 -0.950785 -0.918772 C
48 2 9.77129 4.15754 9.66215 2.37552 2.62296 -1.03753 -1.11671 -0.384917 0.867891 C
59 1 8.37118 5.55791 8.34257 -3.87936 -1.2687 -0.0261289 -1.00761 -0.491531 -0.485039 C
32 2 4.17183 9.73302 9.68747 -1.77123 0.132832 1.82439 -0.0234257 -0.500601 0.332452 C
58 1 5.57189 8.32529 8.27092 -0.422049 -0.671298 2.87856 -0.100153 -0.0823386 0.404014 C
52 1 8.31017 8.28763 -0.0477922 2.2097 1.70755 3.26186 0.592546 1.04418 1.53873 C
26 1 -0.0221083 8.33968 8.2738 -3.81461 -2.91904 -1.4124 0.0660635 -0.51311 1.19197 C
64 2 9.71094 9.6884 9.71155 -2.8795 -0.464207 -2.32746 -0.217038 -0.171498 -1.11055 C
ITEM: TIMESTEP
15800
ITEM: NUMBER OF ATOMS
64
ITEM: BOX BOUNDS pp pp pp
0.0000000000000000e+00 1.1085848640000000e+01
0.0000000000000000e+00 1.1085848640000000e+01
0.0000000000000000e+00 1.1085848640000000e+01
ITEM: ATOMS id type xu yu zu vx vy vz fx fy fz element
3 1 2.80358 0.0215092 2.75214 -0.649921 3.15895 0.0457055 0.0288204 -0.470822 0.453115 C
7 2 4.18482 1.3483 1.3489 0.580157 -2.89326 1.03371 -1.06912 1.1382 0.132973 C
34 1 5.56606 2.74698 2.76696 3.44107 5.08355 0.996153 -0.0509522 -0.0930953 -0.388887 C
2 1 0.0794001 2.79681 2.72655 0.322528 -1.544 0.979135 -0.430955 -0.570489 0.686396 C
36 1 8.30985 2.74544 -8.39822e-05 -0.145405 -1.28132 -1.82916 -0.875121 -0.987856 0.779539 C
39 2 9.76875 1.3607 1.39854 0.717431 -1.09003 3.31793 -0.963153 0.480597 -0.185192 C
6 2 1.47541 4.12312 1.33433 -3.18176 2.21485 2.27203 -1.80428 0.578308 0.123865 C
19 1 2.77475 5.45369 2.8088 -1.11496 1.15067 -0.165563 1.15212 1.21225 -0.513194 C
23 2 4.16444 6.83554 1.35652 0.998612 3.35017 0.363772 -0.307223 0.749932 0.68576 C
38 2 6.94609 4.16254 1.38366 1.07039 0.219082 3.32472 -0.433788 -0.670437 -0.356793 C
49 1 5.51261 5.46729 -0.0389835 3.8295 3.90971 8.49735 0.671285 0.298783 0.074608 C
17 1 -0.0209457 5.51498 -0.00592848 -1.84265 -1.76211 -0.335149 0.363743 0.845594 0.79366 C
51 1 8.31979 5.56685 2.71427 3.83152 -5.54282 0.581965 0.535958 -0.0402336 0.900205 C
55 2 9.7051 7.00377 1.39298 -0.65363 -1.3826 -3.64302 0.889572 -0.868554 -0.117104 C
20 1 2.77222 8.26515 -0.0396629 2.04822 -0.492692 -1.53368 0.0430864 0.106971 1.33778 C
22 2 1.41292 9.6947 1.39798 -1.97756 1.91969 0.264698 1.10013 -0.56223 0.0252258 C
33 1 5.46393 -0.0588713 -0.0202644 0.574222 1.43852 -2.03626 1.89473 0.417751 0.550675 C
50 1 5.59069 8.27144 2.74601 -3.52036 4.1677 3.64852 -0.522899 0.594945 -0.295988 C
54 2 6.99009 9.70795 1.34738 1.24276 1.11813 2.35158 -1.8006 -0.294545 0.153584 C
1 1 0.0252849 -0.0900104 0.0627543 1.20077 2.10295 -5.84924 -0.77879 1.31296 -1.05794 C
35 1 8.27451 0.0337888 2.75201 0.781771 -4.49043 0.580149 2.19781 -1.31471 0.548649 C
18 1 0.0319536 8.39585 2.8025 0.855709 -0.934272 1.23928 0.182603 -1.64591 -0.235439 C
5 2 1.43639 1.39922 4.16463 -2.68533 -3.62753 0.228448 -0.561773 0.36092 -0.572104 C
12 1 2.75179 2.86009 5.53865 -0.631537 -2.72392 -0.360624 -0.504347 -0.512299 0.458063 C
15 2 4.05691 1.4525 6.92854 0.841535 -0.488157 1.52592 0.951682 -1.11499 0.742236 C
37 2 6.91878 1.34139 4.13823 3.00408 2.27918 -1.91085 -0.667399 0.552458 1.13092 C
9 1 -0.00116106 -0.0160196 5.48073 -0.484051 1.20781 2.221 0.29679 0.911604 2.13485 C
44 1 8.2906 2.78004 5.49177 -1.95343 -4.52521 4.40813 1.11102 -0.680828 0.453111 C
47 2 9.65027 1.33643 6.98544 1.25247 -0.869902 -2.55972 0.329453 1.01362 -1.31511 C
14 2 1.35783 4.28393 6.92271 0.815424 0.248222 0.300203 -0.541705 -2.0564 -0.34376 C
21 2 1.47751 6.98722 4.15658 -6.28174 -2.77951 0.134558 -0.889673 -0.74476 -0.627526 C
8 2 4.21861 4.11873 4.18902 -2.1195 -0.554354 -2.2677 -0.382269 0.853137 -0.267648 C
31 2 4.17093 6.95795 7.04168 1.01387 -1.79989 -1.84369 -0.663894 -1.20964 -0.971008 C
46 2 6.9433 4.1523 6.89906 0.768412 -0.669558 -1.02741 0.0333059 1.11694 -0.159396 C
53 2 6.96408 6.91898 4.15562 -2.59259 1.05205 -0.0183411 -0.636858 -0.383282 0.0220271 C
57 1 5.52022 5.58016 5.59596 -0.215602 5.32034 -3.61707 0.75965 -0.189974 -0.553725 C
25 1 0.0361767 5.5988 5.46064 3.36344 0.144751 1.37576 -0.58605 0.623792 0.558234 C
40 2 9.73675 4.17946 4.1112 -1.83672 0.507884 -0.098861 -0.305921 -0.192231 -0.310299 C
63 2 9.72453 7.01386 6.84234 -1.29033 1.60012 3.47213 0.907115 -0.884036 1.26254 C
28 1 2.82577 8.28475 5.60227 1.78484 -0.640738 4.8002 0.189694 1.55677 -0.363521 C
30 2 1.40872 9.72937 6.93327 -4.91455 -0.480703 -0.63636 -0.598232 -0.713104 -0.379937 C
41 1 5.5315 -0.0187372 5.63147 -2.22814 -3.25198 -3.31698 -0.701513 1.1106 -1.38813 C
24 2 4.19024 9.7139 4.15179 -1.20206 1.40873 -0.315632 0.0574461 -0.850801 0.320024 C
62 2 6.88222 9.66258 6.95042 4.19482 -0.336738 0.110282 0.863632 -0.155941 0.0648157 C
56 2 9.72035 9.67369 4.19821 2.15976 2.57911 0.125685 -1.25744 1.55593 -1.91401 C
60 1 8.32529 8.31873 5.50268 0.660217 -2.97252 4.448 -0.964194 0.592165 0.829394 C
4 1 2.70076 2.69931 -0.0674977 0.558427 0.548434 -1.90463 2.21654 -0.100736 1.09509 C
11 1 2.69782 -0.00914898 8.3734 -2.54994 -4.35559 -0.381318 1.58394 0.530583 -0.865826 C
13 2 1.33015 1.33835 9.72577 -0.489153 1.19144 -1.39125 -1.10114 0.181438 -0.464283 C
42 1 5.52788 2.83897 8.25612 7.09278 -4.54777 4.44475 -0.666232 -1.40152 0.589687 C
45 2 6.80754 1.39316 9.70305 1.90881 -2.78096 -2.37716 0.597829 0.47872 0.261801 C
10 1 -0.0220893 2.82189 8.33789 -3.00758 0.64162 -0.970961 -0.624164 -0.352876 -0.0110649 C
43 1 8.18617 0.0062094 8.36524 -0.977253 2.64013 2.00546 1.42865 -0.708624 -0.215447 C
27 1 2.70702 5.5427 8.33449 -0.954507 -2.06027 -3.06019 1.65199 0.444088 0.310775 C
29 2 1.36954 6.9248 9.68312 -4.98792 -1.18476 -0.0558305 -0.456329 -0.481646 0.809809 C
16 2 4.10699 4.09415 9.68345 -2.78807 -0.63102 -1.36525 -0.336351 0.801329 -0.443008 C
61 2 6.91867 6.92558 9.70725 4.21369 1.51092 1.58987 -0.00143348 -0.46421 -0.316797 C
48 2 9.59331 4.17209 9.76909 3.2821 1.91338 -1.78818 1.49995 0.500222 -2.27441 C
59 1 8.32851 5.61064 8.23328 5.48883 -0.514771 2.42378 -0.203586 -0.62885 0.954225 C
32 2 4.14533 9.67532 9.71483 1.06504 3.13681 -1.92943 -1.15942 -0.0561211 -0.629987 C
58 1 5.52408 8.31763 8.36516 1.01771 2.76386 -2.64778 0.605105 0.0761566 0.160414 C
52 1 8.31981 8.3107 -0.0212491 -0.795195 -4.07408 -4.90308 0.0603132 -0.0173868 0.0552296 C
26 1 0.0406847 8.34463 8.35648 1.93443 3.22101 -2.51604 -1.1189 0.165646 -1.4968 C
64 2 9.68813 9.7028 9.72203 1.02124 -1.50435 0.00286285 -0.238231 0.256723 -0.424943 C
ITEM: TIMESTEP
15900
ITEM: NUMBER OF ATOMS
64
ITEM: BOX BOUNDS pp pp pp
0.0000000000000000e+00 1.1085848640000000e+01
0.0000000000000000e+00 1.1085848640000000e+01
0.0000000000000000e+00 1.1085848640000000e+01
ITEM: ATOMS id type xu yu zu vx vy vz fx fy fz element
3 1 2.74352 -0.0292492 2.76471 1.76088 1.22333 -2.34007 -0.0325168 1.35059 -0.737863 C
7 2 4.12646 1.43782 1.36468 2.38987 -1.38332 -0.512628 0.140728 -1.81463 0.405816 C
34 1 5.47893 2.77313 2.7152 -3.20093 -2.45467 -0.016661 1.1632 0.653314 1.23536 C
2 1 -0.0606676 2.80297 2.81287 1.86212 2.11107 -3.0325 0.728854 -0.36032 -0.493446 C
36 1 8.29508 2.81313 0.0428506 3.34609 2.59419 1.41863 1.02006 -0.114355 -0.648289 C
39 2 9.70798 1.41435 1.35871 1.28984 0.828834 1.52534 -0.410162 0.567791 0.977495 C
6 2 1.36532 4.14527 1.39414 1.96752 0.0179184 -2.35517 -0.339422 0.764735 0.558641 C
19 1 2.73094 5.57698 2.75804 -1.42174 -4.29002 2.99869 -0.263605 -0.655699 0.60079 C
23 2 4.084 6.96723 1.40926 -0.759964 -2.68577 3.53604 0.720562 -0.0843845 -0.823295 C
38 2 6.90065 4.17986 1.37062 -1.71902 1.96396 1.05806 -0.637831 0.493347 0.360011 C
49 1 5.52018 5.61865 0.000397137 -4.83202 -3.31302 -7.37982 0.378326 0.0400077 1.25754 C
17 1 0.0232663 5.57759 0.0114505 1.4767 -0.381542 -2.5175 0.16719 -0.635456 -0.527852 C
51 1 8.25423 5.55895 2.78312 -0.465672 3.53315 -1.13768 0.69597 -1.05387 0.341616 C
55 2 9.66882 6.88719 1.42557 -1.57424 0.653651 -1.49447 -0.498726 0.36561 -1.48557 C
20 1 2.77989 8.38266 -0.00351559 -2.22739 -0.499994 -2.4275 0.372142 -0.369218 -0.713856 C
22 2 1.35409 9.7212 1.35053 0.191152 0.519897 1.70972 -0.526808 -0.368431 0.594555 C
33 1 5.5867 0.0774814 -0.0130225 -4.38322 -0.914228 1.79952 -1.07294 -0.907683 0.115642 C
50 1 5.49414 8.30566 2.76315 3.25155 -3.90749 -1.01401 0.62076 0.546956 0.882772 C
54 2 6.89442 9.73027 1.37162 0.0766482 1.21055 -1.43851 0.201178 0.32647 1.01374 C
1 1 -0.00134208 0.0668323 0.00177316 1.25804 -5.74266 3.31617 0.865389 -0.603939 -0.671723 C
35 1 8.32347 0.0524566 2.75421 -8.09437 3.90557 -2.9563 -0.91448 -0.755328 0.246255 C
18 1 -0.0626679 8.26648 2.71103 -0.922908 3.4952 -0.621423 1.12196 0.938542 1.06757 C
5 2 1.38601 1.39788 4.14294 -0.0890976 -0.989855 -0.571764 -0.336168 -0.51541 -0.0907475 C
12 1 2.81642 2.72605 5.5188 3.40691 1.18353 -0.738114 0.431374 0.383575 -0.111258 C
15 2 4.2529 1.394 6.91568 -1.54083 1.81597 1.46212 -1.37828 -0.0626863 -0.250306 C
37 2 6.87695 1.4034 4.17246 -0.460586 -0.375888 -3.22898 0.855069 0.52029 -1.08104 C
9 1 0.0224644 -0.0523393 5.49973 -0.0560131 -2.52981 -5.30917 -0.318812 -0.222914 0.300895 C
44 1 8.29539 2.80622 5.55075 -2.99354 2.50668 -1.7577 -0.945932 -0.984015 0.984016 C
47 2 9.74558 1.3789 6.88811 1.23923 -4.10208 2.31953 0.137161 0.0776327 -0.151102 C
14 2 1.50103 4.11019 6.92492 1.24463 4.0166 1.47299 -1.12397 0.69343 -0.0733654 C
21 2 1.32946 6.91775 4.16601 3.81203 1.79932 -0.0225568 -1.00884 -0.441148 -0.586395 C
8 2 4.14356 4.1818 4.13029 3.10351 0.950761 -0.0626462 -0.667103 -0.693859 -0.477772 C
31 2 4.12313 6.92592 6.88911 0.788137 1.72121 2.68321 0.0853264 0.249768 -0.855783 C
46 2 6.83338 4.14593 6.97237 -2.03218 -0.166817 0.424449 0.855546 -0.391627 -0.315338 C
53 2 6.93378 6.90576 4.18718 -2.1202 -2.04517 -1.15742 -1.69154 0.3781 -0.478579 C
57 1 5.49295 5.4996 5.53547 0.0648154 -3.43582 4.71316 0.642968 1.03392 0.164175 C
25 1 -0.0496273 5.48752 5.58168 1.23442 -4.31331 -1.60166 1.77812 -0.18343 -0.110064 C
40 2 9.64106 4.16267 4.20759 -0.0964705 -0.994963 -1.1884 0.011719 0.505484 -1.1785 C
63 2 9.66283 6.82349 6.94072 1.40791 0.34626 -0.125252 -0.584781 1.18858 0.397258 C
28 1 2.68161 8.32202 5.48014 -1.5329 -1.96467 -1.03032 1.25994 -0.570865 1.34891 C
30 2 1.41911 9.66237 6.96706 0.843119 2.23561 0.721685 -1.30212 0.398075 -0.420702 C
41 1 5.5516 0.00148347 5.52919 1.18276 -0.881586 7.59899 -0.0705867 -0.956395 0.026123 C
24 2 4.08368 9.71124 4.16169 -0.675835 -0.59353 -4.20909 1.25099 -0.291549 -0.185001 C
62 2 6.946 9.67533 6.90664 -1.73457 -0.345676 1.63152 0.170701 0.32564 0.234194 C
56 2 9.63685 9.63468 4.11695 -0.24994 0.0727569 2.80105 1.10883 1.07438 0.028852 C
60 1 8.31314 8.27352 5.53304 3.36892 -2.11863 -3.50143 0.0710169 -0.34369 0.67099 C
4 1 2.81353 2.84325 0.0507161 -3.4579 1.58878 -2.36546 -0.102433 0.0740409 -1.15886 C
11 1 2.8625 0.0189161 8.25889 -0.975487 0.265284 0.333434 -0.318125 -0.601259 0.919729 C
13 2 1.52727 1.38335 9.74543 3.00639 -2.22586 0.665246 -1.10439 0.16321 -0.858625 C
42 1 5.48975 2.75853 8.37992 -5.39907 6.71763 -3.99207 1.99374 -0.0216475 -0.0279727 C
45 2 6.9877 1.41424 9.74261 -4.95243 -0.97195 -0.422933 0.0508137 -0.19683 -1.63803 C
10 1 0.105859 2.71667 8.28319 4.68886 -0.388378 0.357728 -0.461069 0.413004 1.02269 C
43 1 8.40142 -0.0132276 8.28904 -3.03439 -0.933948 1.22431 -1.60527 0.499266 0.327897 C
27 1 2.89498 5.5098 8.31352 -2.15482 -1.17341 3.62699 -1.06379 -0.0668575 -0.205934 C
29 2 1.51765 6.89305 9.67535 -0.222151 -1.40214 -2.22783 -1.89073 0.628351 0.429335 C
16 2 4.24797 4.21232 9.74988 1.64224 -1.31504 -0.480632 -1.61102 -0.944136 -0.0552382 C
61 2 6.8586 6.96889 9.68871 -0.973523 1.6054 -1.26729 1.66103 0.0567931 0.80392 C
48 2 9.74089 4.12708 9.71048 -0.641969 2.38872 3.89841 -0.149681 0.323886 -0.469758 C
59 1 8.23054 5.5136 8.35794 -1.90638 5.03159 -4.63729 0.790265 -0.283965 0.057883 C
32 2 4.23561 9.70598 9.65709 3.20578 1.8817 0.876948 -0.437045 0.508807 0.495196 C
58 1 5.53186 8.26567 8.25605 -0.102098 -3.22387 2.07318 0.0483434 1.17904 -0.119954 C
52 1 8.30379 8.35748 0.0519605 -0.709463 2.94803 0.437087 -0.0699241 -0.90541 -1.16449 C
26 1 -0.0446133 8.2337 8.32721 4.76735 -2.70887 5.96193 1.37777 0.431163 0.170726 C
64 2 9.7224 9.72248 9.71969 -0.10035 -1.30977 -1.18064 0.161064 -0.752791 0.126116 C
ITEM: TIMESTEP
16000
ITEM: NUMBER OF ATOMS
64
ITEM: BOX BOUNDS pp pp pp
0.0000000000000000e+00 1.1085848640000000e+01
0.0000000000000000e+00 1.1085848640000000e+01
0.0000000000000000e+00 1.1085848640000000e+01
ITEM: ATOMS id type xu yu zu vx vy vz fx fy fz element
3 1 2.74853 0.000858703 2.79818 -0.29983 -3.79045 4.86256 1.10937 -0.49705 0.532488 C
7 2 4.14052 1.38257 1.41809 -0.729679 1.36313 -0.805925 1.07473 -0.132365 0.0294383 C
34 1 5.60316 2.78359 2.83555 -2.29702 -0.132237 -5.05445 -1.00057 -0.459663 -0.564797 C
2 1 -0.00896688 2.71249 2.74012 -2.03675 0.491476 2.30743 0.0838832 0.494789 -0.136918 C
36 1 8.30997 2.71506 -0.0552173 -7.17054 -1.19938 -1.17316 0.328342 0.631481 0.629373 C
39 2 9.66976 1.33241 1.34106 1.39106 -2.78051 1.73647 0.178942 0.730372 0.807752 C
6 2 1.37803 4.1545 1.41057 -0.938554 -0.717439 0.33652 0.330846 -0.61987 -0.798033 C
19 1 2.79805 5.54286 2.74766 1.09167 0.797917 -3.58 0.408436 -0.133119 0.205963 C
23 2 4.24023 6.8889 1.30657 1.08098 -0.564225 1.08868 -0.684313 0.695914 2.00826 C
38 2 6.99439 4.11069 1.37557 1.35969 -2.65001 2.31757 -0.526101 -0.141329 0.380084 C
49 1 5.60157 5.47501 0.0023937 1.0568 0.013016 0.406696 -0.718298 -0.503242 -1.54554 C
17 1 -0.0250885 5.53968 0.031428 -2.31626 1.17445 2.95835 0.0479817 -0.246532 -0.299997 C
51 1 8.33851 5.50111 2.78392 -2.41116 -1.03304 -2.84948 0.412757 0.860602 -0.553743 C
55 2 9.747 6.93474 1.45538 3.07452 -2.61788 2.83685 -0.472327 -0.00436527 -0.309189 C
20 1 2.74382 8.27991 0.0419669 1.84148 0.11743 2.38377 -0.233017 0.0840191 0.0549591 C
22 2 1.37398 9.71211 1.4276 -0.20103 3.16937 1.00991 0.0918089 -0.179363 -0.559816 C
33 1 5.53437 -0.0550015 0.0100595 2.28477 4.27167 -2.65992 -0.220866 0.893386 -0.176541 C
50 1 5.58913 8.34113 2.78027 -2.82268 -2.23252 -1.65488 -0.333213 -1.31354 -0.17424 C
54 2 6.95754 9.66305 1.3838 0.201531 -0.144014 -1.10958 0.627339 0.35046 -0.111041 C
1 1 -0.0396709 -0.0021296 0.00541676 -2.76716 4.40964 0.831737 0.20013 -0.979332 0.359462 C
35 1 8.38661 -0.0474145 2.79886 6.55511 0.741748 0.632631 -1.522 0.743098 -0.617007 C
18 1 0.0565739 8.33379 2.85509 -2.10662 -4.11189 -0.964008 -0.572179 -0.165594 -1.1577 C
5 2 1.37657 1.38043 4.15908 -1.71282 -0.377457 -0.113167 -0.521621 0.132871 0.429417 C
12 1 2.68177 2.7859 5.58595 -3.3278 -0.838535 0.0894765 0.893129 -0.510549 -0.0269137 C
15 2 4.11987 1.34666 6.92717 2.19524 1.98347 3.55228 0.262683 0.700328 0.103794 C
37 2 6.99339 1.38588 4.21188 0.681264 0.484769 0.74289 0.0190531 -0.378815 -1.56134 C
9 1 -0.0256189 0.0512063 5.59427 2.28958 1.58508 -1.04282 0.444389 0.0941488 -0.911098 C
44 1 8.37875 2.77637 5.50959 3.60234 2.79802 -2.38449 -0.0921865 1.05693 -0.418026 C
47 2 9.63729 1.44325 6.92241 -0.737765 -0.0730809 -4.37964 0.727597 -1.04467 0.674247 C
14 2 1.26887 4.15338 6.93475 1.55447 0.662059 1.02565 0.252772 1.00722 0.0555908 C
21 2 1.41221 6.9185 4.14967 2.25277 -0.863211 -0.063577 1.46612 0.681438 0.21672 C
8 2 4.12443 4.14459 4.22407 2.68875 1.95565 0.249685 0.804835 0.518352 -0.800856 C
31 2 4.16902 6.90727 6.94706 0.216594 -3.63421 0.153341 0.681797 0.628532 0.253071 C
46 2 7.04432 4.15604 6.89197 -4.27124 0.482488 0.309205 -1.72367 0.120186 -0.197062 C
53 2 7.02811 6.96047 4.15818 3.52178 -0.713279 1.44938 -1.35056 0.00879635 -0.450258 C
57 1 5.59916 5.59222 5.51159 -3.64341 0.888573 -3.01592 -0.0737131 -1.03708 0.892292 C
25 1 0.00182633 5.633 5.49537 -4.22344 5.29768 -0.796117 -0.337551 -1.44778 0.495944 C
40 2 9.76557 4.17617 4.10687 0.90206 1.0152 -0.867938 -0.274577 -0.594011 0.790489 C
63 2 9.70587 7.01693 6.85946 -0.686708 0.261942 0.361881 -0.679207 -0.771651 0.983918 C
28 1 2.83775 8.28859 5.56554 -3.11147 0.285878 -1.33004 -0.857269 0.211365 -0.615731 C
30 2 1.39373 9.71353 6.8603 -0.327807 0.123749 2.17157 0.467795 0.448756 1.04429 C
41 1 5.55114 0.020617 5.4936 0.0550639 1.73174 -2.9614 0.28773 0.0705748 2.08654 C
24 2 4.21676 9.6981 4.21478 -0.377448 0.347338 -0.036722 -1.2291 -0.122833 -1.81165 C
62 2 6.91203 9.72767 6.94977 0.0695466 -1.38369 2.33281 -0.877361 0.679334 -0.495896 C
56 2 9.76549 9.73449 4.17191 0.782736 1.39392 -1.84655 -0.635053 -0.439408 1.07146 C
60 1 8.27404 8.41268 5.55614 -1.44955 2.66807 -0.279592 1.4897 -0.560162 -0.613875 C
4 1 2.75249 2.7163 -0.0126098 -0.803703 -2.14749 4.36337 -0.933755 0.787667 -0.094911 C
11 1 2.70177 0.00800451 8.36615 -1.06345 -0.395013 -1.48929 -0.209653 -0.131076 -0.708937 C
13 2 1.22458 1.3937 9.70243 2.31945 0.421826 1.56159 1.91117 0.311169 -0.0568583 C
42 1 5.61871 2.73577 8.26702 -1.5596 -2.98456 2.77965 -1.72308 1.10662 -0.27233 C
45 2 6.93717 1.38017 9.6699 -3.16911 -0.50687 1.26818 -0.991985 -1.02807 0.734916 C
10 1 -0.131609 2.81121 8.34592 -2.38675 -0.148937 -3.5103 1.39653 -0.840214 -1.17429 C
43 1 8.27336 0.0252114 8.28653 4.83146 1.28329 -1.06775 0.862678 -0.186224 0.459001 C
27 1 2.67078 5.5977 8.27817 2.76257 -0.557649 -3.30147 0.239393 -0.866822 0.599568 C
29 2 1.31047 6.97317 9.73038 -0.257926 -2.75547 -1.65057 -0.0447283 0.108224 -1.01445 C
16 2 4.07419 4.14125 9.62721 0.908457 -0.256738 -2.79397 1.64509 -0.0734368 0.501693 C
61 2 6.97652 6.86439 9.69023 -1.08522 0.839603 -1.79023 -0.870308 0.676625 -0.5191 C
48 2 9.673 4.15121 9.68349 0.52411 2.8799 0.559746 -0.0896549 0.564154 1.82567 C
59 1 8.37864 5.50479 8.30012 0.609843 -2.67142 1.44511 -0.102897 1.75215 -0.953326 C
32 2 4.05893 9.66381 9.73975 1.34198 1.50272 -2.41122 1.02069 0.836429 -0.161204 C
58 1 5.53241 8.37973 8.34651 -3.17947 -3.72216 -1.7225 -0.000202985 -1.95701 0.204538 C
52 1 8.34138 8.24607 -0.0181878 0.79771 -0.757722 4.10529 0.224896 0.732638 0.689068 C
26 1 -0.0277901 8.41389 8.23445 -6.81356 0.409013 -3.56617 0.328196 -1.06306 1.40862 C
64 2 9.67781 9.72874 9.70228 -1.73989 0.284131 -0.529553 -0.419783 -0.290399 -0.665961 C
ITEM: TIMESTEP
16100
ITEM: NUMBER OF ATOMS
64
ITEM: BOX BOUNDS pp pp pp
0.0000000000000000e+00 1.1085848640000000e+01
0.0000000000000000e+00 1.1085848640000000e+01
0.0000000000000000e+00 1.1085848640000000e+01
ITEM: ATOMS id type xu yu zu vx vy vz fx fy fz element
3 1 2.77999 -0.00117168 2.71846 -6.34754 3.36269 -6.9026 -0.688106 -0.931124 0.495662 C
7 2 4.17492 1.30955 1.37158 0.332797 -0.79578 -0.424351 0.0785811 2.09099 -0.612806 C
34 1 5.56069 2.75446 2.75773 2.51093 0.449048 5.00643 -0.394194 0.318777 -1.08701 C
2 1 0.0400471 2.8133 2.80488 -2.09818 -1.32414 -0.694336 -0.638849 -0.0745936 0.222075 C
36 1 8.37092 2.80894 0.0444136 4.89448 -2.18357 -0.733009 -1.47955 0.0855533 -0.955454 C
39 2 9.7329 1.46312 1.3778 0.0978597 0.330834 -0.0186072 0.384432 -2.33237 1.04201 C
6 2 1.40358 4.18372 1.37762 -2.80937 2.55345 1.89152 0.0125883 -0.0236164 0.199146 C
19 1 2.75057 5.59233 2.79526 -6.43182 0.499411 0.799439 -0.616624 -0.151398 -0.555912 C
23 2 4.09599 6.98646 1.42479 0.217832 0.65752 1.4701 0.587338 -0.211617 -0.312565 C
38 2 6.9106 4.24361 1.35477 2.37911 2.67958 0.574012 0.819858 -1.09463 1.22495 C
49 1 5.49005 5.60692 0.0433051 0.0180525 1.26614 0.950222 0.299538 0.400224 0.630174 C
17 1 0.0141678 5.50754 -0.0542694 1.43361 1.45521 0.396431 -0.549121 0.391819 0.309216 C
51 1 8.35062 5.59488 2.78516 -1.86531 0.443051 4.74424 -1.32166 -0.481904 -0.515546 C
55 2 9.65109 6.94785 1.29183 -1.12745 -1.6288 -0.513564 1.23942 -0.27355 0.532031 C
20 1 2.78657 8.32616 -0.0296192 -4.34372 1.74342 -3.34336 0.609482 -0.618691 -0.10231 C
22 2 1.42666 9.6444 1.30453 -1.80223 1.18322 2.06485 -0.47898 1.54609 1.17925 C
33 1 5.56462 -0.0312731 -0.00532021 0.470142 -6.26483 2.81856 0.280592 0.497719 -0.431425 C
50 1 5.48377 8.34995 2.7978 4.47282 7.29322 1.65388 0.0945462 -0.0277929 -0.495584 C
54 2 6.89695 9.71527 1.42259 -1.84788 1.44494 0.694369 0.0652559 -0.677848 -0.651773 C
1 1 0.0633775 -0.0200838 -0.0303302 -0.580524 0.937847 -0.383001 -0.727426 1.40531 0.93894 C
35 1 8.24689 -0.00262809 2.77922 1.61549 -1.6038 1.12186 2.13866 0.427085 -0.100913 C
18 1 -0.00916713 8.3291 2.67946 -0.305448 3.25617 2.11868 -0.450429 -0.582135 0.615143 C
5 2 1.4417 1.37856 4.15561 -2.59913 -3.59413 -2.19425 -1.01284 -0.0547402 0.120592 C
12 1 2.84059 2.77902 5.5052 -1.52779 0.0953462 -0.688173 -1.03976 -0.158937 0.0678711 C
15 2 4.16492 1.3612 6.86293 1.45001 -2.53949 3.13038 0.316485 1.20081 1.82291 C
37 2 6.87757 1.35486 4.15097 2.20285 1.08712 0.351009 0.130952 0.235934 0.90692 C
9 1 -0.0282726 -3.34428e-05 5.56909 -4.26753 -3.64279 1.70181 0.257553 -0.142056 -0.529775 C
44 1 8.23588 2.72335 5.604 -1.46846 -2.64665 0.904331 1.08642 -0.164039 -0.379754 C
47 2 9.70861 1.38223 7.02212 0.37248 -1.43726 0.486371 -0.454085 -0.200047 -1.33298 C
14 2 1.44992 4.1532 6.92363 0.751472 -0.847883 1.44348 1.06139 -0.688659 0.653944 C
21 2 1.33057 6.9657 4.15894 -4.99923 -0.873639 -0.729461 0.186856 -0.527688 0.603514 C
8 2 4.12938 4.14543 4.06919 -2.10439 1.97053 0.774054 1.2928 0.65807 1.54335 C
31 2 4.14178 7.0032 6.92988 0.51561 0.403425 -0.222077 0.599932 -1.33192 0.128676 C
46 2 6.91429 4.14971 6.94916 2.57551 -0.596811 1.962 -0.431142 0.214303 0.539189 C
53 2 6.83332 6.91553 4.10959 -0.946627 -1.19606 -0.714557 1.56314 -0.0592797 1.26769 C
57 1 5.53802 5.51432 5.58149 1.54857 -0.153508 -1.39758 -1.32084 0.420018 -1.26776 C
25 1 0.026141 5.44065 5.60346 -1.0486 -0.422269 -0.486831 -0.836474 1.96071 -1.01644 C
40 2 9.62748 4.14606 4.22658 -0.513308 -1.16846 -1.18901 1.03559 -0.54082 -0.515199 C
63 2 9.70278 6.84223 6.98889 2.14325 0.473275 0.700712 1.04342 1.11863 -0.334125 C
28 1 2.76265 8.37619 5.54241 0.833135 -2.46572 -0.104984 -0.81318 -1.15315 -0.279698 C
30 2 1.37626 9.68801 6.93568 -1.21335 0.595432 -3.82903 -0.0644691 0.407456 0.726415 C
41 1 5.51258 -0.0231274 5.57058 0.273297 -0.76582 -5.77464 0.30584 0.0208472 -1.80668 C
24 2 4.11121 9.71655 4.16088 -1.58911 -0.978637 1.3089 0.46907 0.574662 -0.0656652 C
62 2 6.94912 9.71822 6.85124 2.94494 -0.652224 1.57599 0.652943 -1.22631 1.51719 C
56 2 9.67603 9.63293 4.1616 2.08594 1.14964 0.794857 0.321532 1.27477 -0.626261 C
60 1 8.34923 8.21454 5.53401 -3.49321 -0.155577 -0.488945 -1.15567 0.358715 0.00424879 C
4 1 2.7942 2.80427 -0.0269424 3.59168 0.0568083 -1.22307 -0.40558 -1.42519 1.19871 C
11 1 2.81697 0.00988648 8.28859 1.06658 2.47482 1.04999 -0.617276 -0.581376 0.128676 C
13 2 1.39159 1.38647 9.65963 -1.11669 -1.31032 -1.05622 1.58071 -0.197467 0.681139 C
42 1 5.51682 2.79409 8.3435 5.42954 -1.24855 -1.72727 0.315271 -0.712139 0.116988 C
45 2 6.99666 1.39157 9.71089 2.537 0.827216 -2.59468 -1.37868 0.491855 0.703264 C
10 1 0.0919318 2.7528 8.29456 -0.2518 0.447945 4.25268 -1.28553 0.503624 -0.0720257 C
43 1 8.30136 -0.0283325 8.35767 -4.01035 -1.60151 -2.02926 0.832821 -0.00213223 -0.844589 C
27 1 2.83981 5.53511 8.36096 -1.9795 4.17699 0.566438 -0.350764 0.394873 -0.980741 C
29 2 1.46268 6.90288 9.72001 -1.21905 -1.31162 0.402743 -0.558814 -0.427195 0.127435 C
16 2 4.18178 4.20853 9.80495 -1.4441 -0.94631 -2.04775 0.155098 -0.755113 -1.93039 C
61 2 6.87289 6.93623 9.74782 2.56065 0.216296 -0.999773 0.73733 0.653157 -0.594317 C
48 2 9.70324 4.08138 9.65408 2.85805 -0.495252 -0.929148 0.261816 1.77188 -0.216546 C
59 1 8.24566 5.58815 8.3289 -3.92889 -4.52258 0.638517 0.65475 -1.95862 0.929559 C
32 2 4.18958 9.67546 9.69336 1.37479 0.910948 -0.681993 0.0199205 0.624413 -0.513866 C
58 1 5.59124 8.32092 8.30283 2.70155 8.31127 -0.405556 -0.469311 0.491147 -0.361394 C
52 1 8.28953 8.37827 -0.0352499 -0.900775 -0.154839 -3.5909 -0.342172 -0.355424 0.603869 C
26 1 0.0616736 8.25754 8.39969 1.59431 1.94773 -2.53393 -1.08256 0.584246 -1.46344 C
64 2 9.75127 9.72957 9.73054 2.72485 0.385538 -0.01769 -0.527858 -0.98012 -0.827824 C
ITEM: TIMESTEP
16200
ITEM: NUMBER OF ATOMS
64
ITEM: BOX BOUNDS pp pp pp
0.0000000000000000e+00 1.1085848640000000e+01
0.0000000000000000e+00 1.1085848640000000e+01
0.0000000000000000e+00 1.1085848640000000e+01
ITEM: ATOMS id type xu yu zu vx vy vz fx fy fz element
3 1 2.84529 -0.00503673 2.85055 7.03897 -0.815417 4.67303 -1.74939 0.936465 -1.627 C
7 2 4.12339 1.46435 1.44668 -0.40741 -6.07346 0.871496 -0.00403065 -1.10339 -0.792895 C
34 1 5.49337 2.81899 2.76447 -0.0282757 -0.878755 -2.34558 0.613537 -0.930841 1.35982 C
2 1 -0.00301566 2.75753 2.7347 4.15155 0.317333 -0.75925 -0.168909 -0.0798449 0.0324006 C
36 1 8.26016 2.81586 -0.017338 -1.62486 0.85447 3.05941 0.668008 -1.03846 0.315289 C
39 2 9.65969 1.3366 1.33569 0.6996 3.17976 -0.053503 0.16297 1.806 0.412345 C
6 2 1.41929 4.14188 1.37048 1.10805 0.614492 -1.92924 -0.791819 0.829759 0.439906 C
19 1 2.85477 5.50078 2.77856 7.67289 2.50075 -0.117751 -0.938463 -0.0267836 -0.519119 C
23 2 4.16859 6.86814 1.3018 0.634141 -0.947817 2.5017 0.26032 -0.047901 1.86904 C
38 2 6.85573 4.12629 1.38194 -1.27341 1.18026 0.68524 1.04622 0.780557 -0.129702 C
49 1 5.57629 5.54207 -0.00724205 -0.670945 -2.1967 -0.0301072 -0.478343 -0.623645 -0.648992 C
17 1 -0.00816819 5.56703 0.00234896 -1.68719 -2.92298 -1.60431 0.546843 0.37557 0.588907 C
51 1 8.28216 5.49603 2.74054 5.64287 1.40096 -2.49034 -0.167646 0.65744 0.854765 C
55 2 9.69187 6.94243 1.47191 1.28892 -0.27943 -1.26534 0.358058 -0.718224 -1.25875 C
20 1 2.82492 8.30002 0.0462145 2.82105 -0.793025 4.73213 -1.80812 0.631536 -0.472862 C
22 2 1.38007 9.71324 1.41812 3.87209 -2.15223 -0.369713 0.922144 -0.49272 0.682213 C
33 1 5.50503 0.115081 0.00479115 -0.605745 3.14133 -2.39218 0.140802 -2.13725 0.863298 C
50 1 5.53576 8.21077 2.72622 -6.46271 -5.05937 -0.984131 0.467745 1.58314 -0.0165256 C
54 2 6.9189 9.66835 1.35004 -2.17753 -0.376777 0.979977 -1.1155 0.985369 0.393702 C
1 1 -0.00171897 -0.0080719 0.0143181 2.08379 -3.93562 -4.57902 -0.249571 -0.62442 -0.944664 C
35 1 8.26759 0.0302171 2.73237 -6.80593 -3.3487 0.227055 -0.552357 -0.718396 0.613043 C
18 1 0.0247356 8.27891 2.84063 2.33326 -1.00096 -2.48562 -0.209408 0.930563 -0.409178 C
5 2 1.42381 1.43929 4.1718 2.38792 -0.162589 -0.436508 0.0055546 -0.666567 -0.675157 C
12 1 2.76429 2.77025 5.5887 1.28897 1.76928 0.24483 -0.515703 0.6722 -0.732789 C
15 2 4.14978 1.39999 6.85263 -1.01607 0.394442 -0.17788 0.062166 -0.974156 2.68668 C
37 2 6.86747 1.39578 4.18323 -0.319854 -1.27505 -0.361471 1.33932 0.717706 -0.671529 C
9 1 0.0755372 0.0347906 5.51572 0.922261 5.38787 3.62217 -1.19725 -1.17315 0.496421 C
44 1 8.37828 2.77703 5.54462 -2.50826 -0.24872 0.937506 -1.12559 -0.189004 -0.78468 C
47 2 9.74674 1.41357 6.91444 -0.0858389 0.227812 1.88011 0.160317 -0.667137 -0.269398 C
14 2 1.31951 4.11833 6.93649 -2.22798 3.574 1.75264 0.52845 0.627367 -0.310966 C
21 2 1.46559 6.89009 4.15764 6.61364 1.62975 -2.1044 -0.183613 0.345663 -0.473654 C
8 2 4.16099 4.12045 4.21363 2.05794 0.654497 -2.76326 0.0601502 0.8744 -0.170316 C
31 2 4.10972 6.87458 6.93022 0.185185 0.156777 2.60016 0.214652 0.495904 0.0877835 C
46 2 6.98219 4.15953 6.90202 -0.407765 -0.000644234 -1.41894 -0.0874481 0.54275 0.982393 C
53 2 6.95229 6.94425 4.17288 -3.57651 -1.46585 -3.53359 -0.340826 -0.78236 -0.203309 C
57 1 5.52689 5.56737 5.55414 3.02123 1.41976 4.74094 0.906875 -0.75548 -0.0981624 C
25 1 0.0415508 5.57008 5.49387 3.20128 -3.67362 1.13671 -0.843894 -0.76636 0.605814 C
40 2 9.70474 4.1778 4.12926 -1.44986 0.900431 -1.85615 0.50571 -0.407387 -0.15318 C
63 2 9.68759 6.93577 6.8689 -0.773228 -1.39622 1.57812 1.34529 0.196399 0.729743 C
28 1 2.79986 8.29063 5.52625 4.17898 7.58206 1.8437 0.660122 0.931616 -0.0769777 C
30 2 1.43405 9.67049 6.95998 0.430173 0.539633 0.271641 -0.761375 0.231962 -1.28568 C
41 1 5.55604 -0.000790181 5.57275 -3.75858 0.908577 7.09927 -0.720782 0.319076 -1.14315 C
24 2 4.24052 9.72571 4.10901 1.75167 -1.26168 -3.44939 -0.242922 -1.98825 1.51636 C
62 2 6.85439 9.73642 6.95321 -3.53365 2.19522 -0.210201 1.39045 -0.969519 1.22105 C
56 2 9.63121 9.71544 4.13382 1.08041 1.23664 0.500134 1.57024 0.482088 0.740576 C
60 1 8.28825 8.35779 5.58616 2.23897 0.0212635 -0.0860613 -0.508044 0.105121 -0.691971 C
4 1 2.75712 2.77529 0.0082062 -0.787682 2.50501 -2.68406 1.06725 0.713418 -0.757073 C
11 1 2.77971 -0.0507023 8.33394 1.18932 -0.743661 -0.845431 0.441893 1.57293 -0.130464 C
13 2 1.3973 1.39369 9.72898 -3.43677 -0.0358164 -0.826342 -0.500328 -0.559717 -0.765073 C
42 1 5.54366 2.77796 8.297 -3.10623 1.54904 0.230592 0.359155 -0.108571 -0.468083 C
45 2 6.92771 1.37553 9.70755 -3.50339 -1.47107 -1.1363 0.250984 1.01482 -1.05228 C
10 1 -0.0390299 2.77188 8.33271 -0.190396 -1.05029 -0.994926 0.649352 -0.0853403 0.718802 C
43 1 8.37541 0.041391 8.29358 -3.62378 1.23979 3.75469 -1.82037 -0.508996 -0.11034 C
27 1 2.72121 5.50044 8.2894 2.73621 -1.36307 1.92495 -0.00515777 0.628534 0.500467 C
29 2 1.40609 6.98071 9.69066 -0.664244 -2.201 0.587598 -0.169663 -1.06781 0.437995 C
16 2 4.18587 4.20789 9.66807 -1.22814 0.318746 -0.77573 -0.819153 -1.26516 0.6047 C
61 2 6.93037 6.89381 9.70993 -2.23439 -1.63441 0.185298 1.1042 0.262908 -0.416105 C
48 2 9.69317 4.18168 9.72188 -0.59802 0.0787185 -0.123218 0.805711 -0.785103 0.44016 C
59 1 8.43984 5.54035 8.33738 0.627838 8.23474 -2.91818 -2.83937 0.482239 -1.09443 C
32 2 4.14088 9.69379 9.76322 -0.114456 -0.442006 1.4502 0.903878 0.230946 -0.642286 C
58 1 5.48286 8.243 8.34164 -2.32767 -4.44377 1.18938 0.495163 1.16403 -0.0337271 C
52 1 8.31181 8.28518 0.0412688 0.497576 0.851973 -0.860847 0.145374 0.12874 -1.05249 C
26 1 0.00207995 8.30915 8.29854 1.50693 -0.79731 3.466 -0.489632 0.125039 -0.209995 C
64 2 9.65423 9.68661 9.66457 -0.415002 1.81534 0.487433 1.24579 -0.120306 1.09928 C
ITEM: TIMESTEP
16300
ITEM: NUMBER OF ATOMS
64
ITEM: BOX BOUNDS pp pp pp
0.0000000000000000e+00 1.1085848640000000e+01
0.0000000000000000e+00 1.1085848640000000e+01
0.0000000000000000e+00 1.1085848640000000e+01
ITEM: ATOMS id type xu yu zu vx vy vz fx fy fz element
3 1 2.68023 -0.00489228 2.73798 2.41921 -1.3397 2.06647 2.20454 0.463564 1.05981 C
7 2 4.1846 1.38445 1.3766 0.119808 0.926439 2.53742 -0.212244 -1.50688 0.472383 C
34 1 5.60324 2.71484 2.79502 -1.59064 3.24103 0.177953 -0.741817 1.13162 -1.25494 C
2 1 -0.00850175 2.78384 2.83556 -1.80204 1.47319 0.290711 0.0333795 -0.482747 -0.674235 C
36 1 8.36286 2.69781 -0.0226401 2.07639 3.05676 -3.43849 -0.272123 0.621014 0.569824 C
39 2 9.72883 1.35343 1.41257 0.338343 -3.38889 0.326525 0.139161 1.20875 0.406151 C
6 2 1.37139 4.11621 1.43215 -1.75528 1.43937 1.45877 -0.289596 -0.174754 -1.08343 C
19 1 2.69147 5.5122 2.75728 -1.53889 -2.20579 2.07257 1.59305 1.21951 0.858533 C
23 2 4.1842 6.94101 1.36801 -0.512958 2.07412 -0.0915457 -0.367789 0.486471 1.15644 C
38 2 6.99171 4.12959 1.35403 -0.568864 0.261808 1.36991 -0.65274 -0.2498 0.637733 C
49 1 5.54643 5.51672 -0.00878091 1.77553 5.77791 2.51486 0.487476 0.443242 0.666195 C
17 1 0.0383134 5.54753 0.0216562 1.73331 0.367865 -2.52155 -1.10296 -0.79498 -1.01953 C
51 1 8.33046 5.5468 2.78687 -1.83841 -2.30554 1.07481 1.08278 -0.62063 -0.582086 C
55 2 9.70635 6.92337 1.39259 -1.43905 -3.55201 1.53364 0.355079 -0.13682 -0.121829 C
20 1 2.70664 8.2919 -0.051031 4.24532 -0.197963 -2.94181 1.10521 0.604651 0.781258 C
22 2 1.34326 9.73139 1.35601 -2.59506 3.31297 0.669171 0.471775 -1.23811 -0.288327 C
33 1 5.56245 -0.134987 0.0417319 -0.935033 4.50294 1.20114 -0.625782 2.10517 -1.32323 C
50 1 5.65428 8.41085 2.82983 3.4837 -0.808001 2.12123 -1.84937 -1.45171 -0.00309161 C
54 2 7.02708 9.71603 1.40008 -0.75122 -1.51187 0.571309 0.42885 -0.258293 0.673695 C
1 1 -0.0302258 0.00152546 0.0320444 1.7766 4.17968 5.20606 0.0134528 0.161493 -1.26265 C
35 1 8.41344 0.0150615 2.83008 1.69661 5.39955 -2.3797 -0.99134 -0.810318 -0.771115 C
18 1 -0.00805171 8.34345 2.73259 0.689662 -0.445844 2.46554 0.267131 -0.831338 0.168494 C
5 2 1.37209 1.38519 4.17573 -2.43769 -1.9986 0.207036 -0.563539 -0.453984 0.026728 C
12 1 2.75894 2.77417 5.52159 4.43384 -2.31178 2.89893 0.521282 -0.577831 0.119274 C
15 2 4.1338 1.3621 6.90897 2.33228 -0.228246 -3.28706 0.738206 0.711927 -0.00159352 C
37 2 6.95611 1.36037 4.14025 -2.00114 0.839783 0.509687 1.02289 0.621796 0.0769116 C
9 1 -0.0396509 -0.0549363 5.52658 2.35226 0.187727 -3.33875 0.255425 1.91519 0.80887 C
44 1 8.30661 2.835 5.47694 2.16397 1.17236 4.26247 -0.388962 -0.69658 1.46394 C
47 2 9.63132 1.40972 6.92789 2.3834 0.913632 -1.2177 1.31498 -0.0309129 -0.967407 C
14 2 1.41481 4.17172 6.86962 0.203977 -3.82075 2.10704 -0.658968 0.508666 0.909412 C
21 2 1.28083 6.93416 4.18303 -2.65987 -2.65287 0.243789 1.29158 -0.196532 -0.761191 C
8 2 4.14449 4.11102 4.13338 -1.11312 0.208484 -1.17678 0.0642865 0.41077 -0.764766 C
31 2 4.17311 6.93423 6.91066 -2.4451 -1.93648 -3.53637 0.575674 -0.378765 0.281142 C
46 2 6.88635 4.17708 6.92845 -0.787544 -1.12416 0.594125 -0.515203 -1.08399 -1.20459 C
53 2 7.0722 6.95191 4.17281 -0.536308 0.909782 -1.23109 -2.55235 -0.180292 -0.180976 C
57 1 5.54552 5.51755 5.45915 -3.30457 1.30847 -2.652 0.225207 1.16359 0.882867 C
25 1 -0.0595638 5.59024 5.60646 2.77975 2.08807 -0.227741 1.43594 -0.483175 -0.436799 C
40 2 9.76229 4.20642 4.20435 -2.84878 -0.10561 0.781709 -1.42398 -0.0816266 -0.908715 C
63 2 9.70631 6.97651 6.93754 -1.85601 -1.74978 2.23563 -1.54204 -0.955244 0.960396 C
28 1 2.71387 8.27032 5.57877 -3.31618 -5.92879 -0.237798 -0.135268 1.07062 0.207548 C
30 2 1.31121 9.71991 6.95906 -2.18367 -0.233641 1.80375 0.959357 -0.397206 -0.151685 C
41 1 5.60353 0.0158934 5.48757 4.59771 -1.79485 -0.263565 -0.66373 -0.178771 2.36362 C
24 2 4.11355 9.74763 4.2772 -0.152348 2.76731 -3.65875 -0.0467152 -0.917491 -2.77435 C
62 2 7.01613 9.7065 6.8993 0.20534 2.64156 0.177348 -0.920585 0.240089 -0.513412 C
56 2 9.76306 9.6543 4.1502 -0.627684 0.768751 -1.39839 -0.790335 0.664733 -0.204778 C
60 1 8.39396 8.32835 5.52672 0.370508 -1.58328 3.21864 -0.0605883 0.116455 0.532935 C
4 1 2.74379 2.71697 0.023734 -2.35972 -1.04419 3.24293 -0.233991 0.680146 -0.158889 C
11 1 2.69476 0.0765887 8.32391 -1.61318 -4.34999 1.53451 0.558148 -1.53454 -0.482846 C
13 2 1.29696 1.40518 9.68395 1.92189 1.92813 -1.35044 0.736263 0.101762 0.954589 C
42 1 5.52515 2.76871 8.33816 1.76082 1.31008 1.37394 -0.230831 -0.282327 0.153967 C
45 2 6.95634 1.34863 9.72065 2.02855 -3.37401 0.115896 -1.24343 -0.68638 -0.191184 C
10 1 0.0222891 2.805 8.26461 0.377717 1.17583 -1.62992 -1.12279 -0.223638 -0.227704 C
43 1 8.32794 -0.018317 8.30852 8.11869 3.01248 -2.63484 -0.262648 0.695339 0.297617 C
27 1 2.75434 5.5514 8.30993 -2.2946 -2.49953 -1.5986 0.829385 -0.269545 -0.157088 C
29 2 1.36759 6.94584 9.64626 -0.0839069 0.339869 -2.48225 -0.74797 -0.502419 0.452065 C
16 2 4.12127 4.15955 9.77365 2.92081 3.32962 -1.03744 -0.156939 -0.513342 -1.47832 C
61 2 6.93361 6.92842 9.71079 0.183233 0.106306 0.323093 -0.142433 0.117154 -0.0412281 C
48 2 9.6567 4.12221 9.65316 1.42188 1.46561 -1.65983 0.998845 1.23964 0.473178 C
59 1 8.21543 5.52361 8.27174 7.11771 -5.68733 4.9241 2.1897 1.07424 0.706463 C
32 2 4.10525 9.66967 9.63231 2.06547 1.76071 0.130051 0.444196 0.563128 0.776174 C
58 1 5.62398 8.35766 8.29422 -0.319184 -1.95352 -1.53651 -1.27218 -0.864575 -0.361995 C
52 1 8.36273 8.30222 0.00174933 -1.98432 -1.53586 3.70315 -0.641256 -0.0527904 -0.0937216 C
26 1 -0.0646714 8.34514 8.32754 2.80042 -1.39856 2.18614 0.852486 -0.094495 0.165099 C
64 2 9.68328 9.72153 9.7071 -1.86756 -0.651219 -3.74082 0.226737 -0.147888 0.384395 C
ITEM: TIMESTEP
16400
ITEM: NUMBER OF ATOMS
64
ITEM: BOX BOUNDS pp pp pp
0.0000000000000000e+00 1.1085848640000000e+01
0.0000000000000000e+00 1.1085848640000000e+01
0.0000000000000000e+00 1.1085848640000000e+01
ITEM: ATOMS id type xu yu zu vx vy vz fx fy fz element
3 1 2.78203 0.0446179 2.70105 -5.68041 0.154479 -0.835791 -0.0750319 -0.785534 0.460821 C
7 2 4.16114 1.44793 1.34291 1.97838 0.448154 -0.498467 0.506517 -0.693359 0.0425239 C
34 1 5.49242 2.81789 2.73545 3.67386 -3.68248 3.53017 0.551969 -0.250941 1.29278 C
2 1 0.000814517 2.74098 2.71186 3.23598 0.0521573 4.01689 0.387533 0.973067 0.557327 C
36 1 8.27115 2.83271 0.0869239 -0.2225 -0.838401 -0.0272431 0.494715 0.218207 -1.35509 C
39 2 9.68634 1.41483 1.35343 0.131844 -1.97568 1.02056 -0.27427 -1.51729 0.43069 C
6 2 1.4371 4.13541 1.36368 -0.16178 -0.410855 0.257596 -0.818495 1.15033 0.495378 C
19 1 2.77364 5.59626 2.80069 -1.41442 -1.77886 -3.5523 -0.660767 -1.47318 -0.246214 C
23 2 4.1116 6.87318 1.33178 1.12857 -2.70152 0.000486479 0.149654 0.914947 0.366554 C
38 2 6.84905 4.24059 1.39056 0.430901 1.00069 0.614559 1.034 -0.985173 0.537031 C
49 1 5.5303 5.53137 -0.0197702 -1.03804 -5.03086 -3.30344 -0.432143 0.803503 -0.46755 C
17 1 -0.0383223 5.56802 0.032278 2.3175 3.25439 5.97313 1.16975 0.372781 0.190967 C
51 1 8.27123 5.56965 2.76825 -1.74638 3.2687 0.150132 0.0700956 0.105301 0.386241 C
55 2 9.64166 7.02513 1.41246 -1.45111 1.47724 1.18897 -0.268619 -1.72967 -1.0034 C
20 1 2.77419 8.35881 0.0407545 -4.23437 -3.1718 2.52021 0.564483 -1.01837 -1.14516 C
22 2 1.37921 9.64781 1.38187 0.0203712 1.94926 1.86969 -1.00373 1.72877 0.632073 C
33 1 5.55721 0.0867155 -0.0622613 3.34053 -7.10031 3.23664 -0.0192164 -0.381 0.844707 C
50 1 5.43314 8.28433 2.70755 4.64939 3.67259 -0.942017 2.02342 0.435186 0.869689 C
54 2 6.90876 9.7567 1.35016 -1.11535 2.3803 -2.06325 -1.19672 -1.26897 -0.285777 C
1 1 0.00753136 0.00670188 -0.0422924 -2.17205 -4.78009 0.31151 0.834263 -0.0398427 2.15414 C
35 1 8.28585 -0.0527371 2.74796 3.13455 0.286232 4.89878 0.0980057 1.89052 0.147293 C
18 1 -0.0552682 8.29369 2.78687 -1.45762 1.38748 -1.35282 0.404135 1.16943 0.0719117 C
5 2 1.43658 1.42867 4.10416 -0.00158752 -0.0432061 -1.11309 -1.92138 -1.51103 0.466145 C
12 1 2.73483 2.76685 5.51587 -5.6287 1.363 -0.612907 1.18933 0.163291 1.2461 C
15 2 4.17706 1.38748 6.93333 -1.80838 -0.831771 0.940521 -0.697038 0.531563 -0.82695 C
37 2 6.87301 1.35756 4.15125 -0.871996 -2.22472 -1.01277 0.116815 0.0637283 -0.494264 C
9 1 -0.00196453 -0.0104803 5.56745 0.911364 -5.04125 0.0133549 0.677922 -0.620648 -1.32378 C
44 1 8.32609 2.6707 5.55908 4.60614 2.16374 -6.89822 0.124358 1.25119 0.157419 C
47 2 9.71568 1.29075 7.0193 -2.57234 -2.50686 2.98654 -0.493113 0.734184 -0.561216 C
14 2 1.42535 4.18902 6.9288 -1.25352 2.10116 0.157126 -0.743199 -1.0226 0.75069 C
21 2 1.32389 6.93816 4.15052 -0.729824 1.38938 -0.688792 0.907707 -0.0735077 0.295628 C
8 2 4.13105 4.16248 4.20554 0.579348 -0.216916 1.93453 0.170466 0.489169 -0.649983 C
31 2 4.17505 6.9601 7.02914 0.892726 -0.619485 3.78738 -0.432845 0.172808 -2.58078 C
46 2 6.95952 4.17359 6.95575 2.08343 2.56635 -0.214712 0.152998 -1.08583 -0.0774574 C
53 2 6.84721 6.86912 4.2044 2.57188 -0.891979 -1.65192 -0.355383 1.05243 -1.54334 C
57 1 5.51982 5.52642 5.62506 2.75062 -5.6801 1.05281 -0.389585 -0.069385 -0.0163961 C
25 1 0.00198393 5.47809 5.49736 -4.98794 -0.0957439 2.34204 0.034993 0.534016 0.359299 C
40 2 9.68974 4.13935 4.1153 3.09454 0.0949789 -1.84843 -0.453214 -0.985235 0.104683 C
63 2 9.72717 6.88294 6.86551 3.66071 3.24023 -0.941954 -0.682048 0.685857 0.406934 C
28 1 2.7894 8.33007 5.4982 2.25862 -0.24937 -0.68839 0.260018 -1.56005 0.557703 C
30 2 1.49147 9.6674 6.89632 -1.81951 1.18223 -0.246574 -1.5285 0.948655 0.101998 C
41 1 5.47312 -0.0119197 5.55982 1.23155 0.361849 -5.0497 1.38971 -0.190064 -0.459731 C
24 2 4.13307 9.72243 4.14522 -0.747865 0.917223 2.24754 -0.267717 0.0421369 -1.09096 C
62 2 6.89344 9.65024 6.90528 0.947562 0.504344 1.69645 -0.466353 0.74698 0.387043 C
56 2 9.59808 9.65564 4.14956 0.908178 0.0165757 0.73967 1.55124 0.545024 0.767185 C
60 1 8.23027 8.2689 5.52617 2.64378 1.42685 -2.52793 0.953711 -0.413427 0.304986 C
4 1 2.85016 2.81675 -0.0213188 1.1457 -1.73674 -0.28135 -1.19307 -0.542183 -0.0266349 C
11 1 2.88545 -0.0421079 8.2682 -0.920888 7.14326 -0.320086 -1.48412 0.257295 1.13267 C
13 2 1.50306 1.3044 9.76985 -4.93044 -1.48255 -1.51232 -0.274829 1.16534 -1.9135 C
42 1 5.54603 2.73823 8.30463 -0.120538 1.1063 -1.06357 0.349963 1.59818 0.0743768 C
45 2 6.96828 1.46819 9.69516 -1.06253 -0.768701 -0.814831 -0.16668 -1.03664 0.13832 C
10 1 0.031237 2.71168 8.38028 3.13857 0.0207539 0.844628 1.06861 0.305367 -0.371309 C
43 1 8.25001 -0.0770996 8.35125 -0.111204 -3.9908 2.42035 1.39323 0.418436 0.225774 C
27 1 2.83716 5.57465 8.33095 -1.44013 1.1145 1.73315 -1.25701 -0.605847 0.240612 C
29 2 1.4589 6.93538 9.72914 -2.80223 -0.201064 -2.63776 -1.52719 0.110725 -0.361352 C
16 2 4.172 4.17432 9.68382 -2.52403 0.07379 -0.635216 0.831819 -0.448283 -0.518201 C
61 2 6.89176 6.93837 9.70181 1.55143 -1.00649 -1.82525 0.538835 0.420518 -0.00254179 C
48 2 9.73216 4.13836 9.73765 -0.146619 0.18646 -0.941266 -1.05658 0.460042 -0.104098 C
59 1 8.32774 5.59194 8.34318 -5.86421 0.444884 -3.72736 0.533455 -1.07909 -0.128667 C
32 2 4.18279 9.70576 9.72049 -1.31498 -0.172787 -0.654679 0.133785 0.249279 0.114431 C
58 1 5.52183 8.33625 8.33464 6.47331 2.07295 4.21896 0.739017 -0.144767 0.461975 C
52 1 8.29144 8.37345 -0.0497671 6.50441 2.47191 -0.389062 0.142965 -0.259802 0.752037 C
26 1 0.0482736 8.29019 8.23662 -3.58316 1.92119 -1.86555 0.409188 -0.0895361 1.19192 C
64 2 9.80122 9.69947 9.72955 0.928599 0.195699 -1.61943 -1.81983 -0.826997 -2.16369 C
ITEM: TIMESTEP
16500
ITEM: NUMBER OF ATOMS
64
ITEM: BOX BOUNDS pp pp pp
0.0000000000000000e+00 1.1085848640000000e+01
0.0000000000000000e+00 1.1085848640000000e+01
0.0000000000000000e+00 1.1085848640000000e+01
ITEM: ATOMS id type xu yu zu vx vy vz fx fy fz element
3 1 2.78702 -0.0556952 2.83376 2.59797 1.13152 -2.77077 -0.624317 0.0942338 0.072849 C
7 2 4.0726 1.33915 1.43918 -1.1769 -1.35698 -0.832929 0.670518 0.87597 -1.13781 C
34 1 5.54638 2.72609 2.76506 -4.3715 1.12284 -6.21941 0.177115 -0.117931 -0.551892 C
2 1 -0.0287597 2.78933 2.75515 -2.61559 -2.60608 -3.75198 0.571966 -0.34806 1.13624 C
36 1 8.29776 2.67623 -0.0544648 -1.59417 -1.61304 5.04463 -0.0111518 0.962337 0.776679 C
39 2 9.69861 1.3867 1.36602 1.54891 2.3723 1.00207 -0.223331 -0.175445 0.331997 C
6 2 1.39289 4.14078 1.42614 1.56585 -1.61154 0.920232 -0.512111 0.153745 -1.2828 C
19 1 2.81288 5.50033 2.75267 2.28083 3.06181 3.8953 0.22286 0.910248 -0.16201 C
23 2 4.20387 6.91907 1.33671 1.09957 -2.30109 -0.789111 -0.793583 0.345813 1.42947 C
38 2 6.97256 4.08519 1.36001 -2.77671 2.85531 1.42142 -0.522293 0.560065 0.200769 C
49 1 5.54197 5.52958 0.00987655 2.04219 0.55836 3.56549 0.657577 -1.15204 0.334609 C
17 1 0.00994286 5.47966 -0.0544029 -3.39135 -3.09625 -3.1245 0.154666 0.264342 0.795741 C
51 1 8.38846 5.4992 2.75011 1.53652 -1.52209 -1.03371 -1.05333 0.92198 -0.126865 C
55 2 9.80965 6.87263 1.42718 1.38894 0.98852 0.696488 -1.03093 0.719858 -1.27829 C
20 1 2.7997 8.31725 -0.0364239 1.26358 4.1539 0.350183 -0.413687 -0.24889 1.45643 C
22 2 1.38608 9.70165 1.37293 0.377316 -1.92786 -0.374221 0.970082 0.115236 -0.126039 C
33 1 5.46198 -0.013678 0.00702012 -0.815389 2.68287 -2.97808 1.41039 -0.856504 0.629305 C
50 1 5.57071 8.28258 2.82224 -5.8096 -2.52732 -1.00596 0.208307 0.132544 -0.684532 C
54 2 6.96925 9.64416 1.43279 0.648973 1.7848 0.713765 -1.93334 0.548268 -1.3006 C
1 1 0.0027555 0.0282668 0.00803478 -1.32933 5.00558 -3.98639 -0.466071 -0.311079 -0.190289 C
35 1 8.29076 0.00139489 2.74072 2.73967 -6.7596 -2.55722 1.5666 -0.161226 0.941818 C
18 1 0.0824003 8.32956 2.7827 0.165024 -4.19174 0.748027 0.0499207 -1.19204 0.0169282 C
5 2 1.42094 1.41063 4.18654 3.33005 2.32673 -2.05289 -0.0590192 0.420403 -0.652447 C
12 1 2.85224 2.79972 5.57252 1.1394 1.19648 -4.36211 -1.49109 0.0397207 -0.827096 C
15 2 4.13279 1.36978 6.9294 1.22879 0.342069 1.66794 0.0461133 0.0249771 1.5351 C
37 2 6.94719 1.38993 4.16489 -1.97771 -0.100598 -0.617752 -0.731918 -0.260293 -0.176201 C
9 1 -0.00991175 0.0591336 5.51393 -1.99634 3.91788 5.02465 0.59874 -0.662857 1.13244 C
44 1 8.20725 2.84821 5.53571 -1.87458 -5.40623 2.51626 2.40029 0.0551639 -0.904449 C
47 2 9.67901 1.49649 6.86434 -0.466556 -1.5997 1.05799 -0.779072 -1.08888 0.230826 C
14 2 1.3593 4.17545 6.89286 5.17783 2.43357 -0.0816976 0.434803 -0.244515 0.138298 C
21 2 1.47516 6.90911 4.17684 -1.91564 -0.0395297 -1.02388 -0.0325629 1.01979 -0.639645 C
8 2 4.20024 4.13432 4.10787 1.40267 -0.479747 -2.22087 0.273233 0.595505 0.859463 C
31 2 4.14236 6.88833 6.85774 0.668026 -1.44424 2.86761 -0.259689 -0.18524 1.55159 C
46 2 6.87721 4.16513 6.9241 -6.00569 2.0148 2.15139 -0.413791 1.41392 -0.17613 C
53 2 7.03852 6.96304 4.15943 0.837031 -4.09355 1.93032 -0.589343 -0.759451 -0.487981 C
57 1 5.55622 5.61313 5.4774 -2.11119 3.9716 -2.79944 0.517138 -1.53558 0.0175613 C
25 1 0.0439016 5.60545 5.51819 2.184 1.34978 -2.28839 -0.682521 -0.18426 0.603425 C
40 2 9.73532 4.24369 4.16513 -0.117611 2.94427 -2.02024 -0.470938 -2.00882 0.461182 C
63 2 9.65278 6.93531 6.9004 0.0583428 -1.81372 2.3571 1.61169 0.545829 0.798049 C
28 1 2.80591 8.32147 5.60397 -2.16813 4.03841 0.444406 -0.447154 0.615351 -1.06777 C
30 2 1.37706 9.70208 6.98407 -0.195217 -1.19752 2.21645 -1.20375 0.0560138 -0.842437 C
41 1 5.56073 0.038226 5.5892 -3.12046 1.7937 2.07033 0.0574541 -0.0190335 -0.768169 C
24 2 4.24286 9.70467 4.21927 0.192262 2.17587 0.40424 -1.07786 -0.466672 -0.0983564 C
62 2 6.8937 9.73327 6.93701 0.253167 -1.16939 -0.513568 0.370066 -0.696292 0.247966 C
56 2 9.78192 9.70003 4.11844 -0.617827 -0.773666 -3.02787 -1.58537 0.738662 0.411784 C
60 1 8.33764 8.37032 5.56142 -3.75865 0.164674 -0.0438059 0.159071 0.472392 -0.536804 C
4 1 2.70169 2.76786 -0.0189036 3.81353 0.066731 2.64965 1.38605 -0.0550211 1.13325 C
11 1 2.6866 -0.00749657 8.37389 5.73014 -5.68571 -1.54498 1.37539 0.724158 -0.677576 C
13 2 1.32975 1.44268 9.69527 3.58813 -1.28464 2.92958 -0.629115 -0.426381 -0.484873 C
42 1 5.52469 2.79938 8.30852 -0.941832 -6.07899 1.51625 -0.194112 -1.04663 0.45127 C
45 2 6.90403 1.35339 9.69363 -2.58169 0.0956467 -0.323055 -1.48358 0.35668 -0.259987 C
10 1 -0.0571744 2.83194 8.27338 -3.77724 -0.336343 1.21185 0.370445 -0.245473 0.419314 C
43 1 8.26728 0.0804316 8.26754 -4.35579 -0.928719 -1.76832 0.859652 -0.662934 0.0276884 C
27 1 2.74008 5.50462 8.29521 5.82515 2.53384 -1.11305 0.979649 0.67539 0.306715 C
29 2 1.42724 6.9396 9.72386 3.43377 -1.90225 -1.23179 -1.10139 -0.768988 -0.835533 C
16 2 4.17036 4.15542 9.73882 -0.619903 1.4646 0.504768 -1.10505 -0.14813 -0.791929 C
61 2 6.871 6.88179 9.72169 -4.58511 0.136832 0.807396 0.290743 0.53241 -1.67568 C
48 2 9.59155 4.12979 9.67732 0.859003 0.52661 -2.46647 1.42999 0.448086 -0.153609 C
59 1 8.29944 5.55034 8.27255 -0.320634 1.72793 3.67368 -1.18584 -0.165711 0.592876 C
32 2 4.12144 9.66497 9.68534 1.97891 1.10425 -1.1058 0.225448 0.777086 -0.460749 C
58 1 5.46739 8.27719 8.26241 -5.39704 0.63686 -3.95756 1.17526 0.180863 0.804462 C
52 1 8.26538 8.21485 0.0177102 -4.29433 -0.830756 -1.59663 1.60328 0.890656 0.512775 C
26 1 -0.0440712 8.32459 8.39032 0.391862 -1.92813 -3.50789 -0.332929 0.0777574 -0.72075 C
64 2 9.59728 9.77244 9.73987 2.03499 1.22981 1.87753 0.615716 -1.07108 -0.279578 C
ITEM: TIMESTEP
16600
ITEM: NUMBER OF ATOMS
64
ITEM: BOX BOUNDS pp pp pp
0.0000000000000000e+00 1.1085848640000000e+01
0.0000000000000000e+00 1.1085848640000000e+01
0.0000000000000000e+00 1.1085848640000000e+01
ITEM: ATOMS id type xu yu zu vx vy vz fx fy fz element
3 1 2.73974 0.0240953 2.75682 -2.06536 1.87694 -0.330071 0.600411 0.170117 -0.667667 C
7 2 4.22445 1.43496 1.41331 -1.07969 0.862855 3.10771 -1.00856 -0.219992 -0.527168 C
34 1 5.58325 2.84653 2.81594 2.00784 -0.310742 5.85004 -0.371728 -0.426591 -0.146802 C
2 1 0.000847104 2.77897 2.81912 -1.5127 0.937531 -1.24834 -0.624641 -0.281183 -1.38833 C
36 1 8.37353 2.85667 -0.021035 0.308228 -3.34534 -2.89712 -0.0118098 -1.976 0.927022 C
39 2 9.7092 1.35436 1.36055 0.80498 -1.06291 0.251196 0.184868 1.68286 0.612612 C
6 2 1.35498 4.18693 1.36224 -1.56778 -0.189881 3.0671 0.128384 -0.413986 0.584356 C
19 1 2.68823 5.59026 2.77786 -3.35867 -3.55462 -2.09086 0.449026 -0.479164 0.392682 C
23 2 4.08977 6.99592 1.42377 0.414075 -1.28563 -2.76979 1.22757 -1.10849 -0.412181 C
38 2 6.96116 4.18765 1.33781 1.68708 0.0588022 0.692989 -1.18906 0.441312 0.6446 C
49 1 5.52402 5.59802 -0.0177817 -3.59895 0.878008 -4.28617 0.45073 0.472906 0.887187 C
17 1 -0.00851415 5.60268 0.0139591 2.03574 2.13807 1.39825 -0.457775 -0.36411 -0.0510277 C
51 1 8.22939 5.56354 2.80389 0.811853 -2.06658 1.79715 1.48847 -0.808254 0.345078 C
55 2 9.61612 6.93852 1.40531 1.22092 -2.15275 6.82371 0.885796 -0.210096 -0.183847 C
20 1 2.74432 8.306 0.0112601 -1.46731 1.31022 -4.87242 0.0568793 1.05333 -0.195757 C
22 2 1.36565 9.71601 1.36868 -4.11175 2.07644 2.71559 0.329068 -0.849182 0.783221 C
33 1 5.59333 0.00255531 -0.00070847 -4.15885 2.42421 0.0409211 -0.265604 0.394675 -0.406126 C
50 1 5.55176 8.35643 2.76168 1.71868 1.13634 1.10764 -0.962672 0.00701124 -0.0719189 C
54 2 6.95829 9.72033 1.40931 1.29943 1.71138 1.07825 0.233398 0.473721 -0.305838 C
1 1 0.00182761 -0.0506025 0.0200094 2.01574 -4.31855 -0.348083 0.0675187 1.13223 -1.09438 C
35 1 8.30736 0.0810299 2.79731 -9.77273 3.29233 -1.23923 0.174387 -1.87757 -0.298293 C
18 1 -0.0628711 8.32104 2.73972 -1.80215 6.15853 0.193762 -0.133261 0.251143 0.499118 C
5 2 1.32877 1.33371 4.14156 -2.43653 -1.59242 -1.21044 0.548687 0.433009 0.503266 C
12 1 2.71366 2.7042 5.55399 2.7235 -2.93562 4.52214 0.336332 0.343139 -0.405233 C
15 2 4.19954 1.33006 6.85506 1.33955 -1.51526 -0.902731 -0.238496 1.16307 1.12898 C
37 2 6.92697 1.36515 4.19007 1.15308 0.0867038 -0.697803 0.207954 1.48934 0.304956 C
9 1 -0.0126579 -0.0564344 5.53447 -0.750772 -2.42735 -8.43351 -0.75433 0.690805 0.207185 C
44 1 8.41287 2.74689 5.57087 -6.82072 2.94595 -0.614999 -2.00112 -1.72172 0.782991 C
47 2 9.74107 1.36169 7.00052 3.35138 0.275297 0.504451 0.589545 -0.266854 -1.85386 C
14 2 1.32217 4.09777 6.93768 -3.61956 -0.140104 1.39211 1.52955 0.456864 0.099546 C
21 2 1.24873 6.91544 4.16519 -1.60403 -2.0775 0.143396 0.491979 -0.378383 -0.447505 C
8 2 4.082 4.17573 4.20279 -1.21088 0.839499 1.5931 0.270595 -0.236708 -0.507432 C
31 2 4.14559 6.99665 6.92854 -0.323025 -1.92054 -1.5634 0.134509 -1.14849 0.145192 C
46 2 7.03981 4.1267 6.93586 3.59346 -0.796099 0.72643 -1.54662 -0.160128 0.124155 C
53 2 6.87053 6.967 4.14889 -0.310726 0.854778 0.504337 -0.121983 -1.03662 1.11708 C
57 1 5.54545 5.47976 5.5993 1.20761 1.62297 2.63498 -0.0974428 1.52755 -0.427568 C
25 1 -0.044119 5.46478 5.58061 -0.943919 -3.43421 -1.41254 0.36777 0.445304 -0.617269 C
40 2 9.67491 4.09637 4.23629 0.283163 1.75896 -2.68454 0.130509 1.79657 -2.38029 C
63 2 9.72035 6.86674 6.90982 -0.897825 -0.00306254 -2.81261 -0.399613 0.981801 1.06571 C
28 1 2.69506 8.28686 5.45223 2.97376 -3.52665 1.26624 0.983915 0.51006 1.02023 C
30 2 1.41879 9.72806 6.87565 2.12303 -1.04637 -0.222819 -0.464846 -1.05341 0.430963 C
41 1 5.55286 -0.0756485 5.50787 0.852613 -0.850905 2.05069 -0.334577 0.749992 -0.328852 C
24 2 4.10265 9.70735 4.11227 2.02678 0.997658 0.0237676 0.386851 -0.456102 0.174085 C
62 2 6.96552 9.73952 6.89898 -1.4864 2.50064 2.5938 0.670366 -1.02769 0.955503 C
56 2 9.62971 9.66351 4.18166 1.88679 -1.2539 -0.692665 0.853233 0.903566 -0.97272 C
60 1 8.31682 8.27407 5.54404 -0.319862 -1.10098 1.33519 -0.625517 -0.102894 0.418291 C
4 1 2.75499 2.78598 -0.0301315 -3.21094 4.24069 -7.84699 0.548438 -0.227591 0.348962 C
11 1 2.76698 0.0343653 8.2583 -5.81795 1.43905 1.48731 0.742651 -1.04812 0.570623 C
13 2 1.3574 1.34623 9.66601 0.359548 0.64106 -0.78201 0.881334 0.193897 1.06335 C
42 1 5.55017 2.79095 8.31103 1.94337 6.02378 -3.36697 1.09144 -1.06449 -0.235218 C
45 2 7.06904 1.39816 9.69821 4.01587 -1.56662 -1.71872 -2.02024 0.21936 -0.132326 C
10 1 0.0257101 2.72876 8.31665 4.30253 -0.82659 -0.4404 -0.652996 0.336781 0.799865 C
43 1 8.41264 -0.0150592 8.32432 -1.47717 0.302648 0.778349 -1.29107 -0.101279 -0.195604 C
27 1 2.72829 5.53598 8.31623 -5.60081 -4.37774 0.355181 0.560616 0.419119 -0.390615 C
29 2 1.38606 6.96677 9.71326 0.53644 1.87601 -0.627536 -0.221961 -0.721445 -0.380972 C
16 2 4.19 4.20372 9.70437 3.16567 1.37597 -1.24923 -1.07535 -0.630928 -0.47725 C
61 2 6.99578 6.92539 9.6773 1.27352 -2.17672 0.00670285 -0.118452 0.390842 1.04886 C
48 2 9.76379 4.1284 9.72394 -1.17531 -0.78732 2.30367 0.390751 1.28676 -0.886243 C
59 1 8.3504 5.49962 8.33531 1.4425 0.981179 -6.52342 0.830877 0.270693 -0.00793194 C
32 2 4.13373 9.67444 9.69332 2.05094 0.671678 0.567751 0.745153 0.972735 0.0229882 C
58 1 5.63679 8.33627 8.34365 -1.69209 -0.997079 -1.92772 -1.38581 0.163807 -1.00994 C
52 1 8.37122 8.37761 -0.00452919 -1.52971 -2.98401 -2.21589 -1.13333 -0.816492 -0.287291 C
26 1 0.0348854 8.32266 8.29135 -0.632957 1.67252 3.94121 -0.0304941 -0.262607 -0.711382 C
64 2 9.76247 9.69777 9.67472 -0.314909 2.08071 -1.91155 -0.0301969 -0.347816 0.396178 C
ITEM: TIMESTEP
16700
ITEM: NUMBER OF ATOMS
64
ITEM: BOX BOUNDS pp pp pp
0.0000000000000000e+00 1.1085848640000000e+01
0.0000000000000000e+00 1.1085848640000000e+01
0.0000000000000000e+00 1.1085848640000000e+01
ITEM: ATOMS id type xu yu zu vx vy vz fx fy fz element
3 1 2.82011 -0.0546662 2.79687 1.08251 -3.37159 3.20559 -0.550902 1.01707 -0.172973 C
7 2 4.13611 1.34907 1.37521 2.46514 -4.0095 0.557388 0.7559 -1.20602 0.445588 C
34 1 5.49893 2.72019 2.72605 -0.759755 2.45084 -5.79206 0.646845 -0.0875334 0.621902 C
2 1 0.0325462 2.7789 2.74392 1.31362 1.02153 2.86068 0.0870864 -0.193694 0.407315 C
36 1 8.26834 2.79939 0.0173791 -1.03456 6.69656 -4.04886 0.0600553 0.211512 -0.783926 C
39 2 9.6495 1.38766 1.34462 1.96003 -1.75469 1.1439 0.99929 0.599499 1.2574 C
6 2 1.44983 4.17807 1.36378 -0.286737 -0.426621 -1.16214 -0.884471 -0.277601 0.811733 C
19 1 2.87661 5.53143 2.75588 0.39961 3.61449 0.706366 -1.06597 -0.0867218 -0.187508 C
23 2 4.19781 6.89452 1.35926 -0.31827 2.02628 3.55436 -0.300133 0.158654 0.667296 C
38 2 6.84779 4.14719 1.39303 2.48578 0.570559 -1.58218 1.9449 -0.0545899 0.66519 C
49 1 5.56518 5.5336 0.0453452 0.967792 -1.14753 -0.272576 -1.08938 -0.340598 -1.48026 C
17 1 -0.0192521 5.50741 -0.0109322 -2.54746 -2.62265 -4.17151 0.35588 0.219547 -0.369167 C
51 1 8.33664 5.5655 2.72386 -3.94825 2.45243 -4.36184 -0.274892 -0.451817 -0.0568832 C
55 2 9.70427 6.97684 1.3055 0.179487 0.838847 -0.151299 0.504546 -1.0102 1.5342 C
20 1 2.80772 8.2639 0.0517775 0.683188 -3.60958 3.05053 -0.46646 -0.211177 -1.36223 C
22 2 1.47857 9.66883 1.3612 1.63967 -0.337759 -1.22288 -1.96065 0.81708 0.835878 C
33 1 5.54472 -0.0249145 -0.0226764 0.562288 -2.38346 -3.04456 -1.06072 -0.0705773 0.180547 C
50 1 5.4846 8.28385 2.74809 -0.270113 -1.98651 0.48322 0.893136 0.17418 0.661986 C
54 2 6.86192 9.64562 1.38516 1.15476 -0.528577 2.8323 1.27241 1.28354 0.65152 C
1 1 0.00583563 0.0622443 0.0149225 -2.55304 0.461554 4.54263 0.0455297 -2.11452 0.0880938 C
35 1 8.37611 -0.0467326 2.77994 5.37152 3.56278 0.928019 -2.92007 0.900678 -0.891101 C
18 1 0.0632738 8.26963 2.76889 1.8742 -4.27206 -2.63612 -0.373682 1.13144 -0.340704 C
5 2 1.48951 1.42035 4.20145 -0.314223 -0.682942 -0.958196 -2.01753 -0.785778 -0.943009 C
12 1 2.76297 2.86898 5.52709 -1.81581 1.32809 -1.8721 1.10351 -0.980982 0.61252 C
15 2 4.11675 1.41182 6.92844 1.12718 -1.85218 -1.28277 0.409662 0.0357252 -0.304961 C
37 2 6.85982 1.35053 4.16511 -0.150013 -4.47217 0.881864 2.24628 0.662508 -1.53202 C
9 1 0.0286148 0.0477045 5.63228 -0.544643 1.27866 4.53698 -0.136222 -0.433596 -1.63874 C
44 1 8.33602 2.74208 5.50606 8.72962 3.38776 -0.913975 -1.07889 1.09162 0.131714 C
47 2 9.63855 1.38658 6.94947 -3.29248 0.940474 4.73348 0.912744 0.260673 0.387782 C
14 2 1.39007 4.20092 6.90878 -0.90101 1.25532 0.746945 -0.479947 0.576937 0.807729 C
21 2 1.51017 6.9345 4.14564 -0.964318 2.85591 -0.515906 -0.414101 0.272502 0.314907 C
8 2 4.19967 4.12195 4.10658 2.53064 0.463017 -1.03789 -0.221083 0.684879 0.743234 C
31 2 4.18927 6.93071 6.99905 1.89632 1.65062 2.31241 0.21202 0.304176 -1.74526 C
46 2 6.90973 4.17656 6.91356 -1.16984 0.750662 -0.688712 0.494994 -0.762354 0.0948065 C
53 2 6.92604 6.92298 4.10564 3.02833 -0.119716 -3.31213 0.0132219 0.360731 0.423965 C
57 1 5.52682 5.55861 5.50616 -1.9689 -3.37596 -0.7498 0.352115 -0.1511 0.430947 C
25 1 0.0392918 5.63646 5.52327 0.681763 2.47087 1.88852 0.230617 -1.14657 -0.0314398 C
40 2 9.74795 4.2058 4.15929 2.04589 -0.246045 3.21928 -0.276037 -0.458918 -0.538221 C
63 2 9.70502 6.91846 6.92763 1.60253 -2.24581 1.34733 -0.888317 0.393048 -0.167478 C
28 1 2.84056 8.34593 5.59428 -6.83662 1.26323 -1.74703 -0.523599 -0.310179 -0.0807492 C
30 2 1.40983 9.71375 6.98034 -0.869913 3.31769 2.39101 0.10558 -0.299455 -0.307991 C
41 1 5.51862 0.0411384 5.50839 -1.03213 -3.07482 1.48405 -0.461336 -1.00991 1.69417 C
24 2 4.18549 9.70655 4.16911 -0.571967 1.41437 -0.360373 0.0145798 -0.60094 0.0255353 C
62 2 6.88092 9.67848 6.90854 0.638003 3.14313 -1.94239 0.0878843 0.803281 0.387546 C
56 2 9.70372 9.72497 4.14213 1.27044 -1.0793 -1.17805 2.02792 -0.992968 1.34424 C
60 1 8.29546 8.32913 5.52796 2.4351 1.93769 -2.52017 0.282817 -0.477154 -0.16072 C
4 1 2.76803 2.69514 0.0765546 -4.16106 -4.19237 2.9546 -0.489958 1.25486 -2.36917 C
11 1 2.8174 -0.0120187 8.35536 -1.78398 0.577487 -2.33325 -1.66795 0.745067 -0.550333 C
13 2 1.34622 1.37145 9.6957 -6.16634 -0.83738 -1.84848 0.991546 0.883319 -0.0793142 C
42 1 5.53232 2.74017 8.33207 -6.00515 -0.403308 2.4749 -0.759443 1.68694 -0.66424 C
45 2 6.87421 1.43388 9.72198 -0.108272 -1.99536 0.306587 1.17604 -1.40858 -0.0787313 C
10 1 -0.0421333 2.80746 8.3246 -4.7697 0.676883 -4.06487 0.873838 -0.780803 -1.17632 C
43 1 8.27201 -0.00492644 8.3295 2.304 3.66086 -0.844647 -0.481395 0.0792622 0.14991 C
27 1 2.81518 5.58646 8.31044 0.983985 1.58834 -1.79593 -1.20506 -1.3021 0.685831 C
29 2 1.40428 6.89488 9.73704 0.632755 -0.758091 -0.215685 -0.33964 0.562133 -0.590839 C
16 2 4.12555 4.16166 9.73036 -0.430723 1.59915 1.60959 0.62278 -0.725625 0.295442 C
61 2 6.88571 6.91861 9.73814 -1.84149 -1.48566 -1.77271 1.03027 0.39846 -0.159469 C
48 2 9.67464 4.15664 9.64467 -0.188171 -1.10129 -2.5193 -0.177063 -0.165224 2.16652 C
59 1 8.31067 5.53742 8.35789 -1.69965 -1.52485 3.28014 -0.804268 0.729903 -1.41835 C
32 2 4.08616 9.66155 9.70754 -3.32861 -2.88699 -1.39662 1.77139 0.223149 0.823864 C
58 1 5.51316 8.31903 8.35596 2.30776 -0.632715 3.00981 0.536015 -0.00730091 -0.0665879 C
52 1 8.28756 8.33902 0.025564 1.24847 2.62656 2.18609 -0.280901 -0.205313 -1.18563 C
26 1 -0.000305736 8.2757 8.28761 0.745012 0.110979 -0.890868 0.225891 0.810351 1.60066 C
64 2 9.69048 9.71713 9.72611 0.127916 2.68008 -0.761008 0.362775 -0.222826 -0.515639 C
ITEM: TIMESTEP
16800
ITEM: NUMBER OF ATOMS
64
ITEM: BOX BOUNDS pp pp pp
0.0000000000000000e+00 1.1085848640000000e+01
0.0000000000000000e+00 1.1085848640000000e+01
0.0000000000000000e+00 1.1085848640000000e+01
ITEM: ATOMS id type xu yu zu vx vy vz fx fy fz element
3 1 2.732 0.0531024 2.73598 -0.167746 -1.64305 -2.16279 0.650552 -1.44962 0.798213 C
7 2 4.12665 1.44877 1.44352 -0.410344 2.91728 0.922555 1.02984 -0.217517 -1.14975 C
34 1 5.576 2.77443 2.81383 -1.02014 -2.15592 3.64287 -1.3388 0.893982 -1.33561 C
2 1 -0.0251093 2.75556 2.7949 -1.34386 1.59565 -2.12804 -0.0240344 0.486903 -0.319816 C
36 1 8.33721 2.70589 0.0302755 0.567696 -1.18342 4.26325 -0.914953 1.55283 -1.10804 C
39 2 9.68345 1.37798 1.35983 -2.87991 -1.16558 -3.76287 1.0353 -1.48343 0.916389 C
6 2 1.38227 4.17615 1.43049 1.45366 2.63675 1.33546 0.272887 -0.863487 -0.949247 C
19 1 2.74395 5.53344 2.78839 1.10731 -1.25767 -2.42741 0.474066 0.453134 -0.361388 C
23 2 4.16187 6.91579 1.35637 1.56336 -0.994415 -3.7145 -0.0846903 1.02088 1.03689 C
38 2 6.93359 4.13172 1.39083 -5.79237 2.14241 1.10204 0.589239 0.233459 0.323405 C
49 1 5.5486 5.52106 -0.00392356 -1.04383 2.78971 3.58048 0.234338 0.268205 0.0113868 C
17 1 0.0593323 5.56402 0.019373 1.67778 3.39552 3.57845 -0.936763 -0.668817 -0.772146 C
51 1 8.35239 5.51532 2.82105 0.650481 0.949547 3.45602 -1.36695 0.89358 -1.13356 C
55 2 9.73206 6.87332 1.40219 -1.66697 -0.165133 0.632218 -0.17256 1.19837 0.35399 C
20 1 2.75435 8.36124 -0.0422737 0.169499 0.489709 2.07089 0.553285 -0.416583 0.844332 C
22 2 1.32164 9.72265 1.37088 3.03517 -0.832642 1.54477 1.32477 -0.413607 0.257192 C
33 1 5.54717 -0.0138671 0.102271 3.71213 1.27828 2.37864 0.0379081 0.939347 -1.61467 C
50 1 5.61914 8.33777 2.81494 -2.10698 1.65855 -2.9152 -1.18482 -0.857317 -0.821425 C
54 2 6.98304 9.68501 1.39361 -6.11436 -1.88772 -0.368183 -0.598796 -1.04321 -0.515387 C
1 1 0.00894386 -0.0417868 -0.0559707 1.88984 5.54986 -1.39897 -0.55533 1.7195 0.76045 C
35 1 8.25643 -0.018674 2.75814 4.30883 -1.08197 1.14686 1.8373 1.0612 0.459909 C
18 1 -0.0142311 8.35748 2.81755 -0.277337 -0.749564 1.37424 -0.0950399 -1.54686 -0.630551 C
5 2 1.40275 1.3915 4.14982 3.94539 0.21898 -0.0625733 -0.328205 0.205785 0.0513956 C
12 1 2.82603 2.71801 5.54625 -3.39601 1.54501 1.34359 -1.34671 0.775829 -0.369797 C
15 2 4.1264 1.34281 6.9258 1.03214 -1.62158 -0.69456 1.41764 0.629224 0.40921 C
37 2 6.93738 1.45745 4.11253 -6.10113 0.196299 1.40411 -0.191167 -2.0779 1.61058 C
9 1 0.00486673 0.004783 5.47986 1.76544 0.392434 0.237857 0.0883174 0.25052 0.986408 C
44 1 8.22501 2.78966 5.58163 -1.43268 -4.12009 -0.654548 2.00056 0.571723 -0.723133 C
47 2 9.74284 1.42664 6.87581 1.32454 -2.12111 3.00245 -0.66528 -0.746452 1.03187 C
14 2 1.39947 4.13097 6.89318 -1.19563 -1.90734 1.04839 0.571699 -0.514913 0.792725 C
21 2 1.32062 6.83766 4.18825 0.172861 -2.7787 -1.33048 0.936909 2.06806 -0.383056 C
8 2 4.1154 4.12641 4.12647 -0.991013 -0.090245 -0.683248 1.48556 0.650799 0.937125 C
31 2 4.09965 6.91406 6.85241 -1.67633 -0.441482 1.90334 1.02899 -0.245422 1.56201 C
46 2 6.90415 4.1738 6.97414 1.3186 1.14221 2.33497 -0.243322 0.264487 -0.93214 C
53 2 6.96599 6.94028 4.21715 -5.46369 -1.47114 -1.86228 0.370522 -0.309981 -1.11249 C
57 1 5.57639 5.54447 5.5133 -0.432766 0.936933 0.650321 -1.51809 -0.671797 0.350876 C
25 1 -0.0185319 5.4725 5.56543 -2.58129 1.6918 -1.06838 -0.419099 0.984305 0.368341 C
40 2 9.67587 4.18866 4.17272 -0.242446 0.961273 -1.23484 0.0399077 -2.22722 0.818381 C
63 2 9.68881 6.92562 6.92458 1.17295 -2.89188 0.704292 0.935095 -0.0397929 0.739982 C
28 1 2.77209 8.32963 5.50289 6.11662 -2.26588 -1.07181 -1.10154 -0.495459 -0.12972 C
30 2 1.34745 9.6894 6.90702 2.27869 -1.02082 -0.0559602 0.507876 0.475489 0.326987 C
41 1 5.57112 0.0269187 5.56191 0.842969 4.38927 -8.32131 0.21725 0.0926203 -0.637933 C
24 2 4.20072 9.72797 4.17589 1.58144 1.74338 -2.38431 -0.830905 0.472495 -1.05215 C
62 2 6.93437 9.69101 6.93331 -3.12621 0.180206 1.42961 0.303494 0.342492 -0.584437 C
56 2 9.68579 9.71883 4.17252 -3.15199 1.94629 -2.41062 -0.812021 -0.124977 -0.268142 C
60 1 8.333 8.30459 5.58153 -3.89244 -1.35818 1.66351 -0.0126211 0.720143 -0.422514 C
4 1 2.84387 2.86209 -0.0388542 3.55679 0.521558 2.48042 -1.8041 -1.54498 1.88972 C
11 1 2.76043 0.0146306 8.31094 5.97384 0.0811472 2.4612 0.0603778 -1.12108 -0.135775 C
13 2 1.4474 1.39825 9.71028 2.04859 -1.49285 -1.3832 -0.296361 0.0624741 0.388252 C
42 1 5.5565 2.76105 8.29052 4.40475 -1.08496 -1.47977 -0.871602 -0.422599 0.792192 C
45 2 6.96095 1.36989 9.67999 2.88849 2.98047 -0.845922 -0.864563 -0.5702 0.80368 C
10 1 0.0732592 2.76596 8.3349 2.85432 1.30547 5.92868 -1.34066 0.244334 -0.425517 C
43 1 8.32605 -0.0309077 8.28897 2.67895 -3.89148 0.123196 0.652253 0.923551 -0.0683695 C
27 1 2.73795 5.50072 8.34809 0.33195 1.22301 0.520777 0.598243 0.998671 -1.46108 C
29 2 1.39484 6.96441 9.67587 2.45175 -0.382511 0.898989 -0.189727 -0.423889 0.566563 C
16 2 4.171 4.16434 9.69987 1.75299 3.44316 -1.31634 1.06634 0.35245 -1.08149 C
61 2 6.90974 6.93479 9.69247 -1.82846 -1.43907 0.996126 -0.292558 -0.321686 -0.449993 C
48 2 9.67356 4.1472 9.70876 2.47719 -1.17235 -2.69386 0.970298 0.425668 -0.00706294 C
59 1 8.27852 5.57654 8.28908 1.42094 -3.75789 2.10184 0.674996 -0.660515 1.01527 C
32 2 4.19981 9.71849 9.68305 -0.209061 0.733478 0.389769 -0.363376 0.215995 0.180376 C
58 1 5.55868 8.32434 8.25915 -2.04526 0.894681 -0.348653 -1.11072 -0.836756 0.487725 C
52 1 8.33178 8.24038 -0.0312607 0.884878 1.95492 1.92728 -0.0424081 0.710208 1.31234 C
26 1 -0.0260162 8.35041 8.36931 -1.10059 -4.05004 -3.5017 -0.0748403 -0.798615 -1.55418 C
64 2 9.6679 9.68859 9.72836 1.043 1.07103 -1.59367 0.026815 -0.0440261 -0.673608 C
ITEM: TIMESTEP
16900
ITEM: NUMBER OF ATOMS
64
ITEM: BOX BOUNDS pp pp pp
0.0000000000000000e+00 1.1085848640000000e+01
0.0000000000000000e+00 1.1085848640000000e+01
0.0000000000000000e+00 1.1085848640000000e+01
ITEM: ATOMS id type xu yu zu vx vy vz fx fy fz element
3 1 2.79354 0.030362 2.78928 -2.32542 4.29973 -0.220579 -1.44989 0.00389426 -0.908887 C
7 2 4.17911 1.42098 1.38144 -2.44961 -1.12836 5.19123 -0.571577 -0.170495 -0.390475 C
34 1 5.5416 2.82606 2.75919 4.78462 -0.624596 0.966844 0.441354 -0.995902 0.840956 C
2 1 0.0189195 2.75062 2.76214 1.3039 -3.09103 4.19418 -0.384053 0.63478 0.457429 C
36 1 8.31993 2.79422 -0.000498299 2.02282 -3.55794 1.38148 0.463257 -1.05689 0.974215 C
39 2 9.74572 1.35992 1.43717 0.447675 0.727432 0.708952 -1.40538 0.862891 -1.09335 C
6 2 1.37951 4.11351 1.35051 -1.42552 0.359151 2.12785 -0.264743 1.20818 0.968867 C
19 1 2.74684 5.54983 2.8133 0.26864 0.502436 2.91153 -0.949243 -0.675188 -0.476048 C
23 2 4.08207 6.90541 1.4027 1.272 -1.3727 -0.462699 1.46438 0.089349 -0.924776 C
38 2 6.95397 4.16446 1.37983 0.773413 -1.31699 -0.169943 -0.769136 0.102001 -0.448813 C
49 1 5.5815 5.54935 -0.0242116 3.06406 -2.7923 2.84338 -0.754596 0.209127 0.412836 C
17 1 -0.0627969 5.52505 0.0120582 0.186993 -2.00116 0.0545517 1.09116 1.49846 1.10701 C
51 1 8.27919 5.54901 2.73822 3.44275 -2.1791 -0.072787 0.776875 0.352168 1.33825 C
55 2 9.648 7.00185 1.41831 2.77174 -1.98493 0.61354 0.36128 -1.79102 -1.03027 C
20 1 2.77809 8.33921 -0.0124738 -1.64995 1.93947 -1.22179 -1.06852 -0.315891 -0.013992 C
22 2 1.33026 9.72401 1.3578 -3.7976 1.61814 -1.85261 1.58189 -0.308675 1.12074 C
33 1 5.51746 0.0703984 -0.109272 -0.624459 -3.94442 5.25567 0.541294 -1.32311 2.11025 C
50 1 5.48881 8.30658 2.74959 4.69057 2.17714 5.12931 1.17133 1.09829 0.00590174 C
54 2 7.01125 9.78182 1.36154 3.17751 1.28367 2.76011 -3.11562 -0.768676 -0.272065 C
1 1 -0.0184449 0.00272231 0.0185425 0.960234 -7.26939 -2.32056 0.122353 -0.0372532 -0.353584 C
35 1 8.32975 0.007359 2.79689 -5.66739 -3.87559 -0.56664 0.894852 -0.51248 -0.104525 C
18 1 -0.042072 8.31422 2.75643 2.10996 3.57552 2.1994 0.39077 0.726316 0.284428 C
5 2 1.31771 1.36581 4.17202 0.585833 -0.189104 -0.326608 1.25617 -0.199783 0.0645514 C
12 1 2.74126 2.76657 5.53472 4.41602 -0.828668 -1.37679 -0.527958 0.0460954 0.274531 C
15 2 4.16066 1.43144 6.92244 -2.66846 -2.32286 -0.463405 -0.17709 -1.03082 0.48659 C
37 2 6.95386 1.33018 4.14201 0.332604 0.844006 -3.64801 -1.43271 1.11283 1.05754 C
9 1 -0.0185101 -0.0720347 5.55055 -0.561881 -0.195547 0.960032 0.123556 0.189947 -0.373677 C
44 1 8.38975 2.71933 5.52711 -1.97612 -0.564843 2.03417 -0.986616 -0.137421 -0.153328 C
47 2 9.71632 1.30645 6.92164 0.0987738 2.88943 -1.07647 -0.284539 0.613154 0.212949 C
14 2 1.35989 4.19719 6.91383 -1.61712 2.45331 -1.8092 0.444138 -1.23231 0.49724 C
21 2 1.31181 6.95378 4.15611 -3.04454 -3.45579 0.797625 1.12074 -0.366625 0.166051 C
8 2 4.12395 4.15389 4.19554 -0.0821642 -2.88749 -3.13438 0.539114 0.388269 -0.342598 C
31 2 4.21672 6.93477 7.0188 -0.180527 -2.37689 -1.34616 -1.30653 0.124573 -1.79088 C
46 2 7.01107 4.1355 6.9025 -0.343991 1.23793 0.726041 -0.22088 0.237392 0.928431 C
53 2 6.934 6.95162 4.17296 3.15357 1.06109 -0.101597 -1.2224 -0.805715 -0.313536 C
57 1 5.52776 5.5234 5.60759 4.98093 0.712041 -4.58931 0.912381 0.359376 -0.921238 C
25 1 0.00290209 5.53485 5.53618 3.11399 -4.22162 0.720338 -0.622228 0.255097 -0.675471 C
40 2 9.70407 4.15256 4.15254 0.999507 5.09124 -0.1705 0.151786 0.10619 -0.79068 C
63 2 9.71044 6.94496 6.8458 0.702699 0.0961219 -0.525911 0.813829 0.182809 1.05363 C
28 1 2.72666 8.29984 5.58837 0.069449 5.35127 0.411128 1.18326 -0.396216 -0.510758 C
30 2 1.41402 9.7147 6.9335 -3.91111 0.232865 1.6745 -0.833471 -0.575613 -0.467373 C
41 1 5.52889 -0.0674203 5.62197 0.58119 -2.16716 5.3381 0.120557 1.30715 -1.84491 C
24 2 4.09362 9.71374 4.16126 3.35198 1.39297 3.34121 0.962049 -0.969483 0.786221 C
62 2 6.96815 9.6744 6.92474 0.490084 2.17154 0.315566 -0.347739 -0.189548 1.26135 C
56 2 9.66134 9.63828 4.17266 2.4886 -0.264848 -0.704377 0.819675 1.31796 -0.738818 C
60 1 8.32709 8.31696 5.52425 3.53754 0.622524 -0.304315 -0.794565 -0.474997 0.324853 C
4 1 2.70573 2.73038 -0.0164888 3.72464 3.97868 -3.35686 1.78904 0.503283 -0.213427 C
11 1 2.76155 -0.0321811 8.27781 -3.30269 2.14102 -1.20055 0.597406 1.41846 0.592624 C
13 2 1.37046 1.33139 9.71578 -4.45189 1.1366 -1.98579 -0.406871 0.360084 -1.22719 C
42 1 5.57023 2.77664 8.32376 2.12225 -1.77494 -0.511142 0.302374 0.343568 -0.737156 C
45 2 6.94432 1.40553 9.69604 0.603174 -2.38249 -3.22982 0.288234 0.582191 -0.400494 C
10 1 -0.0412425 2.73916 8.29258 -0.062182 -0.2538 -1.83809 0.705758 0.741628 0.992311 C
43 1 8.31593 0.00585268 8.34909 -2.82895 2.22748 -1.05364 0.462293 -0.914556 -0.351803 C
27 1 2.78793 5.55722 8.28873 -2.2597 -2.81393 3.9437 -0.648549 -0.301489 1.2432 C
29 2 1.34048 6.93177 9.69876 -0.999803 0.676923 -2.7417 0.845832 -0.323853 -0.053586 C
16 2 4.16566 4.14136 9.68605 -1.83408 0.292655 1.8776 -0.513604 0.149889 0.427135 C
61 2 7.00193 6.94488 9.68374 -0.638199 -1.03027 -0.86547 -0.418787 -0.346719 0.381196 C
48 2 9.68936 4.19606 9.76222 -3.07718 -0.924239 -2.33336 0.218779 -1.36876 -2.0683 C
59 1 8.42123 5.58685 8.29492 -2.11796 5.88295 -1.65771 -1.47688 -0.719662 -0.126579 C
32 2 4.14851 9.69205 9.64769 -0.449761 -1.33023 -1.73468 0.231682 0.210106 0.571046 C
58 1 5.56875 8.29242 8.35424 6.11097 2.09731 -0.546816 0.899917 0.837415 -0.431071 C
52 1 8.32263 8.35349 0.000547023 0.738356 -5.44138 -3.70696 0.408968 0.0549004 -0.294626 C
26 1 0.0303337 8.31969 8.25494 0.819693 6.071 5.06326 -0.634898 -0.184062 0.586179 C
64 2 9.75974 9.68411 9.71276 -1.75171 1.72951 1.25458 -0.909251 0.265394 -0.684227 C
ITEM: TIMESTEP
17000
ITEM: NUMBER OF ATOMS
64
ITEM: BOX BOUNDS pp pp pp
0.0000000000000000e+00 1.1085848640000000e+01
0.0000000000000000e+00 1.1085848640000000e+01
0.0000000000000000e+00 1.1085848640000000e+01
ITEM: ATOMS id type xu yu zu vx vy vz fx fy fz element
3 1 2.77647 -0.0617431 2.76409 7.52476 -0.401382 1.77182 0.853827 1.43062 0.576531 C
7 2 4.16636 1.32072 1.32226 3.05239 2.35395 0.839519 -0.792832 -0.366868 1.6188 C
34 1 5.50402 2.70657 2.71952 -2.01974 1.86203 -2.11025 1.02731 0.63368 0.22633 C
2 1 -0.0163035 2.82362 2.74125 0.756558 -0.926772 -4.4505 0.666279 -1.21103 0.146692 C
36 1 8.2667 2.76701 -0.0453024 0.308095 2.16156 -0.647959 0.488717 0.202604 0.574222 C
39 2 9.65926 1.38871 1.3386 2.6191 -2.37029 0.901864 0.715125 1.49016 0.683678 C
6 2 1.43397 4.1738 1.39378 1.57569 -2.21359 -1.54495 -1.08532 -0.742577 -0.93937 C
19 1 2.79059 5.50536 2.7282 2.19138 1.20322 2.56401 1.10822 1.03277 1.05558 C
23 2 4.20752 6.90312 1.39683 -2.03557 -2.35942 0.927316 -0.666865 -0.0272698 -0.0884088 C
38 2 6.91029 4.13821 1.36038 -1.69356 1.88221 0.570006 -0.36139 0.460903 -0.0184472 C
49 1 5.46776 5.5255 -0.0592331 1.19252 0.990661 -3.33561 1.65964 -0.00928103 1.7034 C
17 1 0.071477 5.56291 -0.0361221 -1.30682 -1.63855 -2.14867 -1.10517 -1.36015 0.245946 C
51 1 8.35099 5.53459 2.75031 -0.602071 -1.07122 -1.62089 0.373567 -0.732236 -0.359266 C
55 2 9.72994 6.90462 1.32973 -3.04487 4.10683 3.17414 -0.160349 0.530524 0.381341 C
20 1 2.77796 8.24146 0.0158546 4.12681 0.465345 0.664554 0.89145 1.32507 0.440512 C
22 2 1.44686 9.67669 1.41349 -2.62569 0.167851 -0.143832 -1.40696 -0.347616 -1.21337 C
33 1 5.50993 -0.0898089 0.0250418 -1.76851 5.67619 -8.1689 0.509017 0.382334 -0.74129 C
50 1 5.60187 8.2681 2.79564 -3.86386 -4.42732 -2.19494 -0.721195 -0.115454 0.501829 C
54 2 6.90348 9.64488 1.41469 5.19685 1.83359 -0.20428 1.23599 1.35841 0.244294 C
1 1 -0.00623974 0.0262876 0.0613331 -1.26437 3.21968 2.12423 0.541431 -1.25321 -0.844896 C
35 1 8.37189 0.0396718 2.75537 -0.260454 1.99532 0.260774 -1.72145 -1.20143 0.261672 C
18 1 0.0481984 8.27845 2.73691 -2.68794 -2.89255 -1.44369 -0.176898 0.416599 0.720195 C
5 2 1.43412 1.42468 4.15298 -1.67906 0.0595565 -1.26127 -0.506027 -0.0166222 -0.773896 C
12 1 2.81597 2.78334 5.56509 1.07215 -1.12812 1.08827 0.52937 0.196478 -0.933558 C
15 2 4.15759 1.3808 6.96721 0.68197 0.965283 -2.28166 -0.438327 0.146786 -0.760429 C
37 2 6.91936 1.38867 4.15661 -1.49118 -2.99637 -1.63899 0.761376 0.826535 -1.00554 C
9 1 0.0185167 0.0695648 5.52308 -0.463249 0.146659 -0.604624 -0.152624 -0.316329 0.926378 C
44 1 8.25065 2.88544 5.51063 1.64493 -1.87313 0.439921 0.169275 -1.42408 0.974308 C
47 2 9.63005 1.42858 6.92986 0.91469 -4.4826 3.27165 0.707342 0.339417 -0.493088 C
14 2 1.45742 4.17862 6.90863 -1.62609 2.23773 -0.561522 -1.38354 0.62862 0.0212214 C
21 2 1.50514 6.95484 4.14606 -5.17953 0.503069 -0.865006 -1.91865 -0.789775 -0.507669 C
8 2 4.21567 4.17508 4.11066 -0.91593 -0.506844 -0.362068 -1.11214 -0.91204 0.414666 C
31 2 4.14823 6.98476 6.91054 2.12685 1.77109 6.01507 0.179967 -1.73115 0.508417 C
46 2 6.78661 4.16216 6.95508 0.0515559 -0.164727 0.765004 0.637252 -0.086405 -1.03826 C
53 2 7.02515 6.89778 4.15535 0.79643 -0.853209 0.0658005 -1.23449 0.212026 0.177164 C
57 1 5.52437 5.57607 5.51682 -3.65548 0.20339 7.33676 0.368507 0.40572 0.101542 C
25 1 0.0138786 5.63821 5.53507 1.0978 1.54746 2.11477 0.999632 -1.06545 0.433322 C
40 2 9.76183 4.18037 4.18222 1.36888 1.42661 -0.190682 -0.93927 0.852813 -0.563799 C
63 2 9.64997 6.91504 6.96703 0.276308 -1.84539 -2.65147 -0.36536 -0.269847 -0.184308 C
28 1 2.7819 8.29676 5.56707 -2.50622 -1.50868 2.37573 0.0324592 1.98821 -0.0438646 C
30 2 1.40175 9.74407 6.96661 1.58975 2.31879 1.229 -0.937586 -0.880066 -0.292172 C
41 1 5.53704 0.058769 5.49978 0.984515 -1.80084 4.45273 -0.177515 -1.51874 1.38493 C
24 2 4.17555 9.67723 4.16649 -2.2909 3.40547 -3.96731 0.186521 -0.15322 -0.125604 C
62 2 6.87946 9.66017 6.9128 -0.59856 0.331037 -0.52034 0.268619 1.35031 -0.245213 C
56 2 9.75801 9.73754 4.13523 -2.02963 -2.46849 -0.134938 -0.283377 -0.875099 0.187602 C
60 1 8.31145 8.3241 5.54575 0.994408 0.195954 1.48554 0.989755 0.344786 -0.201728 C
4 1 2.77622 2.71941 0.0350761 -5.47766 -4.62294 1.56189 0.0206835 0.947634 -0.43488 C
11 1 2.77295 0.0392981 8.36144 1.89443 -5.32954 -0.0876331 -0.0426717 -0.770005 -0.326265 C
13 2 1.40041 1.37113 9.74913 0.81805 -3.97077 2.17172 -0.990508 0.724424 -0.52125 C
42 1 5.41143 2.82206 8.33519 -2.08223 0.95778 1.1576 1.90608 -1.49941 0.39138 C
45 2 6.83399 1.40842 9.75211 0.474986 0.274741 0.313748 0.11982 -1.0144 -1.70663 C
10 1 0.0385322 2.80348 8.29679 0.171814 -3.02943 -0.371212 -0.520174 -0.600457 0.279183 C
43 1 8.27831 -0.0201436 8.31297 0.953522 -2.37471 3.58997 -1.0261 0.970765 0.238446 C
27 1 2.80667 5.53545 8.32536 4.21899 2.39549 -4.33447 0.338041 0.348038 -0.432086 C
29 2 1.46688 6.89607 9.72612 -0.86177 0.603302 -0.700053 -1.33353 0.363281 -1.21645 C
16 2 4.13413 4.14517 9.73445 1.2072 1.62864 -1.6424 -1.64382 -0.141682 -0.214458 C
61 2 6.82961 6.93518 9.69676 -0.651353 0.313437 -0.577307 1.05746 -0.0567149 -0.231918 C
48 2 9.66483 4.16111 9.6733 -0.013954 2.65301 2.08806 0.686101 0.214679 0.140529 C
59 1 8.18018 5.47751 8.30652 7.88797 0.873319 0.0543618 1.192 1.54164 0.447505 C
32 2 4.11581 9.67551 9.69447 -0.57536 -0.661998 -2.6993 0.00512561 -0.189993 0.454271 C
58 1 5.49089 8.32599 8.30111 -5.44271 -2.92577 0.578075 0.186768 0.0741407 0.171288 C
52 1 8.27652 8.32213 0.00437493 -1.89921 3.92999 2.22161 0.198998 -0.779167 -0.427809 C
26 1 -0.0292247 8.25378 8.35623 1.4652 -2.77933 -2.81595 0.843843 1.46054 0.135373 C
64 2 9.66432 9.73637 9.72333 3.33059 0.2748 -0.968375 0.748569 -0.74275 0.117368 C
ITEM: TIMESTEP
17100
ITEM: NUMBER OF ATOMS
64
ITEM: BOX BOUNDS pp pp pp
0.0000000000000000e+00 1.1085848640000000e+01
0.0000000000000000e+00 1.1085848640000000e+01
0.0000000000000000e+00 1.1085848640000000e+01
ITEM: ATOMS id type xu yu zu vx vy vz fx fy fz element
3 1 2.70378 0.0545648 2.75327 -7.01323 -3.6412 -2.0737 1.79822 -1.14772 0.184008 C
7 2 4.13034 1.46678 1.41047 -0.77041 0.933329 -0.787913 0.776042 0.0526661 -0.313916 C
34 1 5.55776 2.84456 2.84229 -2.89445 -1.58665 0.437957 -0.786029 -0.752517 -0.234909 C
2 1 -0.0171725 2.74025 2.80653 -1.36794 3.45011 2.13996 -0.287011 0.122218 -0.879345 C
36 1 8.33327 2.80123 0.0374011 -3.83666 0.264545 -2.69765 0.456369 -0.592111 -0.368644 C
39 2 9.69335 1.34421 1.37198 -1.87408 -3.29496 -2.02303 0.576796 0.114263 0.0835745 C
6 2 1.34131 4.20631 1.41429 1.15902 1.65213 3.91306 0.496359 -1.0755 -0.00657172 C
19 1 2.73891 5.58203 2.75313 -3.09722 -4.9351 -4.88763 0.523355 -0.434266 0.157086 C
23 2 4.11611 6.98035 1.34447 1.39255 -0.851645 -2.7458 0.076346 -0.26205 0.570501 C
38 2 6.94847 4.1608 1.41142 -1.84302 -1.22182 1.3111 -0.483367 0.14828 0.401334 C
49 1 5.58653 5.55979 0.0760353 -4.62007 -0.64869 -4.19244 -0.555668 0.112283 -2.0877 C
17 1 -0.0512508 5.54669 0.0757531 5.27794 5.14393 2.06163 1.06516 0.287098 -1.28111 C
51 1 8.22601 5.57113 2.81003 -2.90602 1.90364 0.053681 0.696004 -0.141079 0.476513 C
55 2 9.70202 6.89397 1.45487 1.0744 -1.77747 1.5883 -0.785081 1.0055 0.27894 C
20 1 2.75113 8.39508 -0.0132995 -3.38075 -3.57749 -2.13465 0.269358 -0.673947 -0.349162 C
22 2 1.35886 9.72983 1.37496 0.336786 2.53298 1.96033 -0.280471 -0.29373 0.552401 C
33 1 5.59682 0.064683 0.0182599 -1.73379 -3.33186 4.59098 -0.779895 0.997932 -0.61299 C
50 1 5.47191 8.37368 2.73145 3.88995 1.69512 0.906432 0.429717 -0.767223 0.113119 C
54 2 6.87914 9.72798 1.3727 -3.54645 -0.635777 1.30831 1.55654 -0.987982 -0.137174 C
1 1 0.0412665 -0.0170276 -0.0749683 1.00036 0.0398689 2.57147 -0.344664 1.09783 1.09898 C
35 1 8.27616 -0.00738013 2.77943 3.69804 3.78341 0.0926931 -0.219368 0.638239 -0.497226 C
18 1 -0.0394854 8.35112 2.83367 2.16381 0.351449 -2.50036 0.334434 -0.573881 -0.825825 C
5 2 1.36425 1.34363 4.16153 1.54955 0.388222 -0.695931 -0.971292 0.265623 0.292371 C
12 1 2.67435 2.76223 5.52608 0.510326 -0.812546 3.44623 1.60654 -0.781161 1.45894 C
15 2 4.19183 1.36374 6.94612 2.72651 -1.35569 2.80315 -0.319424 0.749454 -1.44122 C
37 2 6.95702 1.41472 4.19673 -3.65651 -1.22386 -1.25028 -0.841434 -0.714233 -0.699315 C
9 1 0.00752141 -0.0917129 5.53749 2.38612 -2.11282 -4.02172 -0.0871917 1.06611 -0.511891 C
44 1 8.37015 2.69876 5.56961 -0.881084 6.32324 -3.7091 -0.306641 0.860247 -0.210867 C
47 2 9.78586 1.38943 6.89133 -0.975607 -0.234331 0.576512 -0.253941 -0.997677 0.868463 C
14 2 1.3211 4.10369 6.95475 2.04925 1.81894 -1.03985 -0.24407 0.485288 -0.354914 C
21 2 1.34349 6.85764 4.15502 1.74523 -1.80423 -0.0767898 -0.458998 1.0938 0.0218032 C
8 2 4.0724 4.17924 4.22094 1.68705 0.444392 -2.12715 0.50572 -0.104122 -1.38494 C
31 2 4.12181 6.87439 6.90605 0.567828 0.923808 0.955221 0.584636 0.930604 0.434698 C
46 2 7.07649 4.15716 6.92024 -3.03766 1.79032 2.39418 -1.77365 -0.230792 -0.21199 C
53 2 6.79962 6.97779 4.17594 2.13021 -0.0638227 -0.788527 0.895786 -0.345159 -0.897353 C
57 1 5.54022 5.49862 5.53353 -0.862167 -2.61428 -4.32148 0.0607308 0.071474 1.31093 C
25 1 -0.0681825 5.44836 5.51599 -2.62535 2.07192 -1.69689 0.432365 0.677769 0.533246 C
40 2 9.61362 4.09244 4.15335 3.24386 1.91599 0.727065 0.549083 0.645711 -0.483573 C
63 2 9.70121 6.91569 6.90633 -0.637123 -1.22521 -0.459067 -0.314372 0.072002 -0.142273 C
28 1 2.7893 8.27916 5.44333 1.2883 -6.39716 0.378112 -0.150289 -1.04698 1.16746 C
30 2 1.44234 9.63792 6.84002 2.13773 0.399509 2.68726 -0.0759763 0.670139 0.981676 C
41 1 5.53529 -0.0279943 5.49367 -0.710668 2.65941 -3.84987 0.560821 0.590366 1.36343 C
24 2 4.16253 9.69122 4.15947 1.04028 1.84945 2.27494 -1.39138 1.24185 -1.57564 C
62 2 6.9293 9.70518 6.94368 -3.16854 -2.16428 1.31643 -0.0209151 0.248056 -0.699314 C
56 2 9.60334 9.71843 4.1671 1.48775 0.71214 -2.97628 1.00998 -0.612859 0.147003 C
60 1 8.26094 8.30639 5.5209 -3.05665 -1.23329 -0.660379 0.0256476 -0.201381 0.813298 C
4 1 2.79906 2.89528 -0.0323659 3.68774 0.935458 -1.30464 -0.653598 -1.32608 0.454925 C
11 1 2.78248 -0.00509779 8.27379 -1.17267 5.28591 0.289207 0.345914 -0.531908 0.248261 C
13 2 1.43875 1.41246 9.65784 2.29536 -0.629519 0.707618 0.0215131 -0.0575229 0.846664 C
42 1 5.70403 2.70749 8.27705 -3.67059 4.34497 0.478105 -1.94172 1.85515 -0.132691 C
45 2 7.0414 1.41657 9.66391 0.402089 2.14217 1.12873 -0.561295 -0.728884 1.50228 C
10 1 -0.0239129 2.75437 8.37262 4.88913 1.8583 -2.20499 0.901515 -0.416785 -1.12107 C
43 1 8.34687 0.0472134 8.25887 1.69079 -1.57492 -1.63272 0.989812 -1.29759 0.694535 C
27 1 2.6908 5.5242 8.30254 -2.44466 -4.55419 3.19807 1.11004 -0.0196336 0.230473 C
29 2 1.36353 6.94247 9.72286 4.92312 -1.43905 -0.0317576 -0.604799 0.250539 -0.174687 C
16 2 4.22172 4.17063 9.64007 2.64581 1.19211 1.32036 0.741997 0.404419 0.115579 C
61 2 7.00774 6.89692 9.68339 -3.70801 -0.167594 -1.16546 -1.39145 0.430981 1.011 C
48 2 9.75665 4.11915 9.73932 -1.48757 -1.88479 -0.949136 -1.24402 1.10752 0.496319 C
59 1 8.36605 5.53033 8.35791 -8.98821 -4.29915 -0.0871547 1.11831 -0.34438 -0.628037 C
32 2 4.21145 9.75946 9.7242 0.43921 -0.106966 -3.09966 -0.415836 -0.352112 -0.615428 C
58 1 5.57783 8.31234 8.32694 3.08868 -0.523097 0.504756 -0.806879 -0.684835 -0.0891351 C
52 1 8.36563 8.26579 0.00103944 -0.315669 -0.50572 -0.733693 -0.80352 1.02788 0.81286 C
26 1 0.00786067 8.35295 8.24649 -2.706 -4.0124 1.94498 0.200794 -1.10096 0.894021 C
64 2 9.72613 9.68902 9.7175 -0.772564 3.80203 0.828835 -0.561661 0.275767 -1.64777 C
ITEM: TIMESTEP
17200
ITEM: NUMBER OF ATOMS
64
ITEM: BOX BOUNDS pp pp pp
0.0000000000000000e+00 1.1085848640000000e+01
0.0000000000000000e+00 1.1085848640000000e+01
0.0000000000000000e+00 1.1085848640000000e+01
ITEM: ATOMS id type xu yu zu vx vy vz fx fy fz element
3 1 2.84525 -0.0573068 2.80429 -2.34208 2.43579 0.0485603 -2.53662 -0.283883 -0.0554613 C
7 2 4.16458 1.2488 1.40458 -0.809098 0.397699 4.36421 0.0786341 1.85204 -0.801481 C
34 1 5.59283 2.69189 2.7043 3.23884 2.62694 -1.87246 0.139855 0.80506 0.261082 C
2 1 0.00209649 2.78012 2.75911 -1.45717 -2.3624 -0.244838 0.915957 0.774993 1.34489 C
36 1 8.37319 2.71371 -0.0057169 1.32297 0.505008 2.07785 -1.78045 1.24683 -1.47262 C
39 2 9.71538 1.46061 1.42631 1.5983 -1.24725 -0.0304408 -0.56582 -2.28492 -0.0137315 C
6 2 1.38764 4.15791 1.33998 -0.452939 1.46495 0.430851 -0.0342792 0.359899 1.18028 C
19 1 2.78959 5.57992 2.83633 -1.98705 4.14678 1.68746 -0.966344 -1.16128 -1.23723 C
23 2 4.1656 6.92077 1.51287 1.15725 -0.453399 1.05661 0.320355 0.339444 -2.00946 C
38 2 6.98498 4.1671 1.31967 2.17925 0.0749008 -1.6217 0.162965 -0.639563 1.20097 C
49 1 5.5377 5.57054 0.0331237 3.00912 -2.01553 7.92971 -0.536359 -0.598226 -0.0499108 C
17 1 -0.0319308 5.47105 -0.107479 -7.17836 -6.58717 -0.0770684 0.406799 0.731103 1.1955 C
51 1 8.44369 5.52854 2.74998 -0.423249 -0.821192 -1.46871 -1.82485 0.657052 -1.04346 C
55 2 9.73273 6.93454 1.2645 3.20266 -0.533133 2.65086 0.130521 -0.278314 1.2979 C
20 1 2.77758 8.26707 0.0358559 -0.151899 2.7268 2.35166 -0.0490502 -0.939216 -0.294264 C
22 2 1.40968 9.65567 1.32816 -1.42311 0.500384 -0.743452 -0.379022 1.67502 1.32385 C
33 1 5.5303 -0.0607311 -0.0131832 3.08519 -3.07334 -0.116644 0.0626905 -0.985111 0.709429 C
50 1 5.57075 8.29672 2.81861 -3.09149 0.194072 -2.08806 0.5583 0.383017 -0.197181 C
54 2 6.98334 9.68118 1.41766 2.44125 0.606723 2.72817 -2.04732 0.0711306 -0.361838 C
1 1 -0.0697111 0.0302227 0.0280369 -2.21114 -0.163973 -4.31624 0.566851 -0.937307 -0.00709687 C
35 1 8.33262 -0.0482655 2.75966 2.24916 -2.19821 0.0332181 1.38112 1.07552 0.84541 C
18 1 0.0253101 8.30156 2.72997 -0.806864 -1.45966 5.16928 -0.0412483 0.086223 0.0675566 C
5 2 1.394 1.37552 4.20442 1.19686 -1.37961 -0.837362 0.27256 0.416374 -1.3375 C
12 1 2.81633 2.80901 5.49931 -8.03103 3.46481 -6.63711 -1.05195 0.117591 0.144924 C
15 2 4.06244 1.37725 6.89474 -0.30062 -3.57938 1.78074 1.21757 -0.17483 0.883182 C
37 2 6.99022 1.3507 4.1624 2.01588 -0.0754302 1.48842 -1.42561 -0.21958 -0.396828 C
9 1 -0.0757434 0.12005 5.60465 -2.35053 0.132135 3.84414 1.151 -1.58453 -0.659687 C
44 1 8.26336 2.76421 5.54921 1.6746 -3.33822 0.854337 0.983302 0.837769 -0.522929 C
47 2 9.63546 1.44487 6.93903 0.899602 2.42994 0.559851 -0.787744 -0.528664 0.451981 C
14 2 1.40558 4.15974 6.9433 -2.54798 0.734845 0.743801 0.805541 0.511649 -0.174817 C
21 2 1.43536 6.99966 4.17159 -2.9497 -2.28775 -0.10293 -0.570746 -0.202674 0.561421 C
8 2 4.2064 4.15596 4.07512 0.285023 -0.674008 0.436808 1.01797 0.0823931 1.37197 C
31 2 4.18844 6.98011 6.89792 0.156921 -1.10321 2.03271 -0.592382 0.181558 -0.0418978 C
46 2 6.91307 4.12982 6.92533 3.25366 0.683322 1.70856 -0.244157 1.01903 0.515049 C
53 2 7.00951 6.92088 4.12434 1.60376 0.723137 0.827608 0.534742 0.0982391 0.491218 C
57 1 5.60678 5.60085 5.54135 -0.896585 0.666736 -1.78391 -0.767556 -1.27803 -0.920292 C
25 1 0.0647491 5.57613 5.56069 -1.27313 -1.49322 -2.15489 -0.543888 -0.0873564 -0.230273 C
40 2 9.70607 4.18319 4.18626 0.188148 1.23499 1.05968 1.03114 -0.907588 0.401772 C
63 2 9.73828 6.9258 6.96589 2.72911 -1.37914 -0.838954 0.787418 0.987024 -0.888438 C
28 1 2.73506 8.43766 5.60525 -2.42514 3.83723 -5.47195 0.227742 -1.50141 -0.339538 C
30 2 1.3046 9.77529 6.97304 -0.643171 1.72898 -1.87607 0.132611 -0.150876 -0.0748575 C
41 1 5.5499 0.0165057 5.58896 0.0285162 -1.24907 -2.9074 -0.220894 -0.203558 -1.4292 C
24 2 4.16209 9.66112 4.17566 3.84 0.564268 1.2205 1.18076 0.920055 0.933848 C
62 2 7.00307 9.73716 6.87941 0.352692 1.58457 0.611087 -1.12077 -0.996483 0.97514 C
56 2 9.7713 9.70369 4.18796 -1.70556 1.13036 -0.517359 -0.469708 0.261782 -0.767352 C
60 1 8.39137 8.31354 5.54708 1.69911 2.30936 -2.05789 -0.301027 -0.197593 -0.252898 C
4 1 2.69488 2.65904 0.0313348 -2.2177 2.80693 1.03126 0.699205 0.26107 -0.478163 C
11 1 2.74097 -0.0234847 8.34526 -1.3557 -1.75017 -0.0107048 -0.866491 0.906242 0.0666982 C
13 2 1.23365 1.37121 9.6644 -4.67625 -1.66261 -1.07004 1.6766 0.0189609 0.269879 C
42 1 5.45047 2.76251 8.29383 5.30289 -8.70361 -1.98461 0.44777 -0.112056 0.714562 C
45 2 6.85099 1.33322 9.71237 0.389378 0.262067 -3.7109 0.970842 1.10502 -0.488042 C
10 1 -0.0691427 2.79132 8.2562 -7.62176 1.66013 4.49212 0.536014 0.594554 0.580212 C
43 1 8.29884 -0.0124388 8.33438 -4.39782 5.0704 -3.55727 0.116158 0.828609 -0.232553 C
27 1 2.82754 5.61459 8.32586 -2.37749 3.65096 -4.31416 -1.22104 -1.05846 -0.0535992 C
29 2 1.33419 6.91341 9.71407 0.0192834 0.54982 -0.347563 1.58515 0.263076 -0.203973 C
16 2 4.08508 4.13892 9.76573 -0.499528 0.222149 -1.79602 0.7124 0.0654417 -0.309144 C
61 2 6.92519 6.93017 9.72039 -0.333819 -2.26642 -3.26131 -0.407544 0.684723 -1.09891 C
48 2 9.64317 4.18701 9.61673 0.474149 -1.26166 -1.83157 0.248507 -1.40032 0.478058 C
59 1 8.34206 5.60087 8.26341 1.305 1.49715 0.590397 -1.9617 -1.06047 0.675513 C
32 2 4.10025 9.65013 9.7155 -0.656738 -0.856825 -0.57513 0.84645 0.283087 -0.324263 C
58 1 5.531 8.35154 8.27221 -1.41175 1.70043 -1.67521 1.17514 -0.0251233 0.715328 C
52 1 8.27487 8.35089 0.00539299 2.64019 -4.14734 -1.30689 0.986313 -0.920094 -0.716489 C
26 1 0.00131749 8.33606 8.3739 -1.08271 4.97033 -5.40919 -0.431011 -0.112333 -0.776964 C
64 2 9.67954 9.70208 9.70519 0.436147 1.91826 2.94087 -0.321375 0.32826 0.604718 C
ITEM: TIMESTEP
17300
ITEM: NUMBER OF ATOMS
64
ITEM: BOX BOUNDS pp pp pp
0.0000000000000000e+00 1.1085848640000000e+01
0.0000000000000000e+00 1.1085848640000000e+01
0.0000000000000000e+00 1.1085848640000000e+01
ITEM: ATOMS id type xu yu zu vx vy vz fx fy fz element
3 1 2.7851 0.0509809 2.75964 5.20633 -1.60841 -2.24238 0.555096 0.349307 -0.626088 C
7 2 4.20133 1.4526 1.33408 1.07516 -2.47426 2.1509 -0.804829 -0.102858 1.63143 C
34 1 5.4903 2.81943 2.85612 -0.75444 -4.0829 1.95742 -0.398526 -0.359293 -1.06111 C
2 1 0.0553607 2.77512 2.75866 -2.83694 0.12999 -2.80662 -1.66244 -0.387196 -1.00933 C
36 1 8.2385 2.85322 -0.0359381 3.99663 -4.31956 4.68171 1.42991 -0.780031 2.15872 C
39 2 9.65389 1.3347 1.34598 0.550634 2.20605 -1.11965 0.699439 1.40981 0.162441 C
6 2 1.43111 4.1784 1.38573 0.390221 1.43683 -0.393525 -0.0535751 -0.837037 -0.635894 C
19 1 2.82657 5.49804 2.70435 1.24683 1.63855 1.05008 -0.407286 1.01967 0.994917 C
23 2 4.15165 6.89213 1.29719 -1.20762 -0.673391 2.69931 0.735259 0.500204 1.07619 C
38 2 6.82697 4.1718 1.44603 -2.20869 2.07699 -0.697543 0.605983 0.21511 -1.32617 C
49 1 5.53209 5.54679 -0.0680801 -1.94557 4.87224 -3.5449 0.379064 -0.193189 1.11949 C
17 1 0.0745595 5.64803 0.0963295 0.68225 3.82928 -1.84308 -1.47206 -1.36574 -0.765681 C
51 1 8.22551 5.54357 2.78382 5.37691 0.0284548 4.58829 0.735733 -0.263279 0.584062 C
55 2 9.62216 6.92729 1.41157 -1.66169 0.319916 -1.18843 0.92951 0.714686 0.341252 C
20 1 2.81829 8.31589 -0.0220272 -2.3681 1.59034 -0.281964 -1.06234 0.793717 0.39659 C
22 2 1.42796 9.7192 1.43054 0.699287 -0.883346 -2.11541 0.385851 -1.0943 -0.622211 C
33 1 5.52593 0.0668967 -0.016433 -0.692138 5.72296 -2.30854 0.580528 -0.40849 0.0988387 C
50 1 5.53243 8.29336 2.73578 -2.26681 0.813649 1.03074 -0.98641 -0.0586169 -0.748465 C
54 2 6.84654 9.70777 1.33153 -0.692426 1.01437 1.67714 1.21704 0.293541 0.771157 C
1 1 0.0928325 -0.058251 0.0163812 0.791929 1.35294 0.592962 -1.21004 1.0391 -1.1314 C
35 1 8.21585 0.0309474 2.78644 -6.62536 -3.44208 -1.77251 0.868666 -1.08708 -0.94996 C
18 1 -0.0113761 8.34211 2.7632 -1.49727 3.25003 -5.19914 -0.011494 -0.876269 0.677377 C
5 2 1.39673 1.41469 4.13088 0.503403 -2.16109 1.82223 1.07022 -0.242169 0.871248 C
12 1 2.80907 2.7404 5.61747 4.81244 -2.34246 3.13167 -1.58446 0.78276 -1.70656 C
15 2 4.20213 1.4172 6.90976 -0.130995 -0.194048 -2.70116 0.57853 -0.663167 1.39776 C
37 2 6.87503 1.41171 4.13917 -1.1718 -2.1734 0.04448 0.412568 0.0704908 1.55138 C
9 1 0.0858731 -0.0516756 5.47112 -4.33569 3.70698 -1.54367 -1.04189 0.307304 1.45279 C
44 1 8.32516 2.77336 5.55558 -5.64737 -4.97975 1.22075 -0.137146 -1.03 -0.239294 C
47 2 9.73442 1.33001 6.92914 2.25754 -1.29959 2.78941 0.682564 0.250429 -0.12106 C
14 2 1.36443 4.12035 6.93515 -3.19198 -0.107644 1.84268 0.520603 0.163599 -0.0862513 C
21 2 1.46327 6.89032 4.1226 -0.35617 -0.466272 -0.702873 -1.24066 0.430871 0.0417609 C
8 2 4.09321 4.18439 4.2145 -2.37804 1.0655 -4.49148 0.685538 -0.69013 -0.0309241 C
31 2 4.11179 6.91241 6.92377 1.08583 1.77341 1.99308 1.26484 -0.734496 2.02698 C
46 2 6.93729 4.16442 6.91145 3.18975 -2.26851 2.1543 0.315288 0.0084633 0.756628 C
53 2 6.83014 6.92408 4.16525 -4.96134 0.512179 -3.11736 0.913329 -0.163138 0.511469 C
57 1 5.50351 5.51258 5.58739 3.60581 3.65014 3.02931 -0.0374819 0.756015 -0.549131 C
25 1 0.00817309 5.54878 5.56493 -0.294662 -1.74967 0.764795 -0.799267 -0.0895279 -0.803567 C
40 2 9.69051 4.11436 4.13193 -0.776055 2.6394 0.069052 0.295503 1.30728 0.29419 C
63 2 9.60586 6.94308 6.9398 -0.119702 -4.87824 -0.329988 1.56809 -0.725973 0.0826854 C
28 1 2.84246 8.25995 5.54315 2.03987 3.87358 2.16575 -0.987457 1.08068 -1.34704 C
30 2 1.46243 9.64206 6.92461 2.01031 0.511851 1.98851 -0.57776 0.559579 -0.283125 C
41 1 5.52011 -0.0242514 5.52838 -1.20256 1.24967 2.17155 -0.151017 0.393635 -0.449368 C
24 2 4.14614 9.69668 4.08178 -1.83032 -0.34389 -2.28867 0.233482 -0.172606 1.18598 C
62 2 6.83251 9.67585 6.95645 -0.807576 1.58279 -0.0965759 1.44804 0.5631 0.56076 C
56 2 9.65576 9.71181 4.16845 0.534459 -1.45144 0.202836 -0.260788 -0.260259 -0.321168 C
60 1 8.22937 8.31621 5.57251 -1.98463 -2.4956 0.377375 0.0279464 0.150741 -0.764433 C
4 1 2.84254 2.81402 -0.0469631 -0.514149 -1.41282 -2.33709 -0.311724 0.385133 0.944327 C
11 1 2.80984 0.0227298 8.29466 2.61641 -0.420623 -1.40771 0.855279 -0.710928 -0.342923 C
13 2 1.53971 1.37797 9.72101 -1.79806 -2.14791 -2.21181 -2.05545 -0.447631 0.158337 C
42 1 5.57211 2.84506 8.3395 -2.94877 4.90718 -2.36853 0.281013 -1.81532 -0.854877 C
45 2 6.95464 1.40707 9.73388 3.65726 0.832598 0.597812 -0.516478 0.058944 -1.4744 C
10 1 0.108164 2.71832 8.34451 1.79431 -2.69257 -3.34673 -2.09471 0.26898 0.638876 C
43 1 8.33878 -0.0336177 8.35412 1.83576 -6.34788 2.56446 -0.79135 0.0656403 -0.912766 C
27 1 2.7179 5.48791 8.32544 2.35739 0.472146 3.35047 0.46053 1.19393 -0.418694 C
29 2 1.39236 6.94236 9.71383 -0.649288 -1.5859 1.22257 0.584041 -0.0462264 -0.186757 C
16 2 4.17862 4.18203 9.65821 2.33301 3.00599 0.959056 -0.377189 0.166271 0.168427 C
61 2 6.95917 6.92858 9.73026 0.0385073 -0.765697 2.51084 -0.0843622 -0.335454 -0.394051 C
48 2 9.75777 4.19864 9.78128 0.972525 0.0638524 -1.58461 0.843944 -0.433929 -0.945097 C
59 1 8.31201 5.50257 8.36164 4.3511 2.93097 -2.26854 0.238012 0.588666 -0.37485 C
32 2 4.17788 9.75478 9.73408 0.0490193 -1.30594 -1.54618 -0.208914 -0.570383 -0.857343 C
58 1 5.54079 8.28675 8.39883 -0.574742 0.344962 -1.73918 -1.01604 0.0363312 -1.15577 C
52 1 8.31199 8.33033 -0.00699346 -3.94993 5.03633 0.792345 -0.0814123 0.112286 0.179326 C
26 1 0.0270918 8.27383 8.30123 0.937345 -2.74035 4.1045 -0.318972 0.025558 -0.698336 C
64 2 9.74312 9.63741 9.65847 4.1261 1.9759 -1.13023 0.342105 0.882896 1.35869 C
ITEM: TIMESTEP
17400
ITEM: NUMBER OF ATOMS
64
ITEM: BOX BOUNDS pp pp pp
0.0000000000000000e+00 1.1085848640000000e+01
0.0000000000000000e+00 1.1085848640000000e+01
0.0000000000000000e+00 1.1085848640000000e+01
ITEM: ATOMS id type xu yu zu vx vy vz fx fy fz element
3 1 2.73071 -0.00549306 2.7946 -0.906649 1.21973 4.75169 0.206616 0.275223 -0.198034 C
7 2 4.12061 1.37973 1.36173 0.789341 -0.624928 1.48965 0.529675 -0.911879 1.04154 C
34 1 5.53778 2.77066 2.70487 1.06255 4.00999 0.117411 0.577458 -0.362739 0.878943 C
2 1 -0.0214596 2.7805 2.8174 5.86926 -1.04448 2.7086 0.112289 -0.337146 -0.214021 C
36 1 8.34252 2.76479 -0.00689599 -5.96849 7.08538 -10.8012 -0.399318 -1.1911 -0.106816 C
39 2 9.73044 1.36835 1.45092 -1.57979 -4.64738 -1.86713 0.0471656 1.85193 -1.6416 C
6 2 1.33966 4.14541 1.42615 1.19062 2.98588 1.91129 0.366629 0.366149 0.0917057 C
19 1 2.7315 5.54316 2.81205 3.54365 -0.812454 -1.92344 0.429933 0.0628665 -0.451516 C
23 2 4.13222 6.96823 1.41873 2.24991 -2.20355 -1.64323 0.460132 -0.600577 -0.0207836 C
38 2 6.99299 4.14493 1.37288 -2.13446 -0.63555 1.8273 -0.875591 0.0623541 0.232732 C
49 1 5.57242 5.53058 0.0519421 1.4446 -1.38097 0.823935 -0.484916 0.655273 -0.827899 C
17 1 -0.00328052 5.46328 -0.0507048 3.44172 -0.813921 -0.575887 0.142522 1.45722 0.489774 C
51 1 8.31677 5.54877 2.75948 -6.2301 -1.67522 -5.89717 0.94509 -0.394018 0.15312 C
55 2 9.73253 6.90076 1.36522 0.704269 -2.52466 0.0429129 0.18901 -0.470073 0.163399 C
20 1 2.7559 8.32377 -0.0271438 7.21535 -2.444 -0.484716 -0.123224 0.463993 -0.0324156 C
22 2 1.32937 9.72388 1.37548 -0.859364 2.55983 1.32665 0.436911 -0.589575 -0.0323293 C
33 1 5.55315 -0.0654172 0.0516059 -3.47022 -3.7832 0.499949 -0.67338 1.19791 -0.86609 C
50 1 5.5699 8.35067 2.80728 3.59797 -0.940595 2.35705 -0.00404369 -0.0646574 0.514732 C
54 2 6.991 9.72098 1.38812 -1.25515 -2.56371 2.1558 0.292889 -0.467602 1.18787 C
1 1 -0.0569315 0.0554903 -0.0163818 2.3625 -3.82406 3.28634 0.654834 -0.996292 0.0268497 C
35 1 8.42733 0.0441727 2.7889 -2.43099 4.5889 1.5907 -2.71341 -1.08712 0.113737 C
18 1 0.0201321 8.25248 2.80298 3.11541 -0.688098 2.31891 -1.13534 1.66575 -1.34184 C
5 2 1.34267 1.38539 4.17578 1.00103 1.44086 -2.20956 0.227907 -0.548515 0.0558275 C
12 1 2.75839 2.76713 5.4878 5.15459 -0.651484 2.06101 1.34125 -0.959386 0.879348 C
15 2 4.1525 1.37432 6.97926 0.42175 -1.51258 -0.564664 -0.197875 0.0742134 -1.58993 C
37 2 6.96125 1.3979 4.15093 -2.26968 0.55948 -2.89792 0.0180263 0.519802 -0.373198 C
9 1 0.00850442 -0.0446112 5.59417 5.45055 -0.785694 -1.10396 -1.19148 1.1732 -1.94358 C
44 1 8.3561 2.82865 5.5261 2.87036 5.94766 0.839916 -2.2128 -0.745146 0.302904 C
47 2 9.68429 1.41216 6.85053 -1.79638 3.2058 0.444513 1.11846 0.38395 1.4598 C
14 2 1.48142 4.15737 6.8687 -0.297463 0.313404 -0.9628 -1.85881 0.61024 1.24215 C
21 2 1.32413 6.92265 4.16875 3.03379 -3.59604 -1.13824 0.868004 -1.02745 0.350809 C
8 2 4.17552 4.13256 4.14673 0.0200609 -1.23986 -1.20917 -0.620566 0.0322666 -1.04531 C
31 2 4.17956 6.88711 6.88723 -1.24595 -0.473261 -1.1384 -0.0999676 1.01454 0.0140854 C
46 2 6.87461 4.19551 6.89472 -3.15871 1.43118 -0.630209 0.781709 -1.41623 0.718104 C
53 2 7.02654 6.92472 4.19224 3.66745 0.328341 -1.96347 -1.78884 0.312144 -0.74137 C
57 1 5.52981 5.51899 5.48032 -2.6249 -2.97834 -1.86297 0.655182 0.85975 0.337184 C
25 1 -0.0198782 5.54986 5.56337 6.54505 3.5791 1.824 0.0931066 -0.361552 0.169124 C
40 2 9.67869 4.13818 4.17094 1.79161 0.740326 1.91015 0.760849 1.69276 -0.567028 C
63 2 9.72432 6.98071 6.97639 -2.56739 0.00790769 1.42125 -0.579023 -1.66901 -0.554094 C
28 1 2.6859 8.25926 5.54943 0.165004 -1.9227 2.34455 1.02067 0.979026 0.638945 C
30 2 1.30999 9.69564 6.93135 -0.433654 0.776616 2.4229 2.00914 -0.585367 0.800985 C
41 1 5.59618 0.0104918 5.56413 0.124054 -3.9937 2.35969 -0.417044 -0.0818538 0.351679 C
24 2 4.11533 9.72916 4.24513 3.53008 1.93151 -1.43391 0.449622 -0.754567 -1.0172 C
62 2 7.04303 9.67579 6.88732 -4.02092 0.392494 -0.874919 -1.4897 0.600431 0.533144 C
56 2 9.69525 9.69945 4.13755 1.90454 1.68659 -1.14351 1.84177 -0.360303 0.593384 C
60 1 8.4029 8.31496 5.53432 0.889548 3.27256 2.10282 -0.411229 -0.193565 0.090578 C
4 1 2.74497 2.78919 0.0859891 0.115139 -1.52404 -0.355829 -0.285415 -0.211043 -1.60285 C
11 1 2.74869 -0.00449135 8.31988 -4.45832 1.38158 1.61739 -0.682304 0.344047 -0.141184 C
13 2 1.36692 1.43552 9.70115 -0.260692 0.487203 -0.00839078 -0.00461889 -0.125028 0.120669 C
42 1 5.54707 2.71524 8.34152 0.482188 1.04312 4.52567 -0.450211 1.5313 -0.388861 C
45 2 6.86521 1.33196 9.70344 -2.25158 -1.38717 0.00541073 1.84163 0.453272 0.658959 C
10 1 -0.0243183 2.82786 8.29689 2.54824 0.657718 -0.950968 0.856908 -0.695257 -1.15852 C
43 1 8.33308 0.0655266 8.25963 -0.580587 4.98895 0.548452 -0.478059 -1.12891 0.953439 C
27 1 2.83787 5.54688 8.30036 -2.3407 -2.08342 -2.01385 -0.554307 -0.663618 0.365384 C
29 2 1.36953 6.9183 9.65111 0.784648 0.0315676 -0.414831 0.48583 -0.306574 0.540139 C
16 2 4.1615 4.11736 9.749 -0.718817 0.920901 0.0705315 0.287649 0.521924 -0.0742172 C
61 2 6.94439 6.92987 9.66816 -2.7353 -1.46691 -1.23342 -0.513824 -0.0983883 1.30191 C
48 2 9.6672 4.16251 9.66393 -1.13511 0.883892 -0.764212 -0.0774631 -0.382912 0.233016 C
59 1 8.28112 5.53355 8.31309 -2.33271 -2.99527 4.11806 0.445446 0.6429 -0.864776 C
32 2 4.17287 9.74466 9.66224 -1.74574 -0.400832 0.494196 -0.00413523 -1.62912 0.538294 C
58 1 5.57678 8.30965 8.27198 2.02937 1.37855 4.65057 -0.16421 0.418568 -0.197931 C
52 1 8.34522 8.28831 0.018695 -0.621937 -2.37183 -1.78717 -0.847225 -0.0285978 -0.311106 C
26 1 -0.0169456 8.33446 8.31706 1.87501 3.15764 0.833753 -0.251294 0.309113 1.04944 C
64 2 9.63476 9.69646 9.7191 -1.42559 0.428201 -0.587274 1.09531 0.913046 -0.889203 C
ITEM: TIMESTEP
17500
ITEM: NUMBER OF ATOMS
64
ITEM: BOX BOUNDS pp pp pp
0.0000000000000000e+00 1.1085848640000000e+01
0.0000000000000000e+00 1.1085848640000000e+01
0.0000000000000000e+00 1.1085848640000000e+01
ITEM: ATOMS id type xu yu zu vx vy vz fx fy fz element
3 1 2.77907 -0.014104 2.72361 1.04399 -2.32961 -0.950545 0.321088 2.93183e-05 1.03404 C
7 2 4.17174 1.361 1.33322 0.803335 3.43481 0.224517 0.0538262 0.766176 1.04371 C
34 1 5.57186 2.72809 2.80105 -1.91467 -0.525513 -0.501109 -0.193814 0.915311 -0.378756 C
2 1 0.0191861 2.77976 2.72992 -2.54957 3.02102 -0.337995 0.579254 -0.164517 0.409686 C
36 1 8.31922 2.69456 0.0855359 5.02157 -2.13961 7.22258 -0.634038 2.14748 -2.44354 C
39 2 9.70907 1.42912 1.41899 2.13696 -3.0673 1.92161 0.491688 -2.85664 0.114279 C
6 2 1.40403 4.11658 1.33318 -1.06394 -0.200317 1.47731 -0.119363 0.766606 0.440554 C
19 1 2.75567 5.50053 2.78452 -1.51609 -1.93342 1.26838 0.140806 0.437156 0.0505881 C
23 2 4.15343 6.84501 1.39616 -2.23003 -0.739506 0.711299 -0.32684 0.761499 -0.649824 C
38 2 6.94647 4.16892 1.36372 0.16234 1.27239 0.184048 -0.0376455 -0.140302 1.21257 C
49 1 5.51103 5.5011 -0.0587791 0.616808 -1.02545 -0.773707 0.622313 0.0848754 0.210699 C
17 1 -0.0283966 5.59375 0.0600416 0.582438 -0.474181 0.617623 0.540321 -1.01753 -1.10861 C
51 1 8.40343 5.56826 2.79249 1.93253 3.09119 4.72325 -2.3231 0.0873444 -0.905773 C
55 2 9.71606 6.98601 1.39683 -1.3906 1.32149 2.98771 -0.317753 -0.191395 0.481366 C
20 1 2.70984 8.27909 0.0457167 -3.83551 0.131248 1.12122 1.70797 -0.213588 -0.656042 C
22 2 1.40317 9.66213 1.40499 -2.32431 1.46219 0.260676 -1.03216 1.01528 -0.258694 C
33 1 5.57194 0.0377917 -0.0165843 4.51553 1.24985 2.31157 -0.760951 -0.75015 -0.204261 C
50 1 5.56878 8.27061 2.71666 -2.04118 1.31943 -2.85365 0.180113 0.383536 0.527962 C
54 2 6.95354 9.7516 1.32031 1.5684 2.72518 -1.7138 -0.255751 -1.70766 0.804285 C
1 1 -0.00242024 -0.0412983 0.00553212 -1.97847 4.74068 -2.16384 -0.206952 0.352788 0.899073 C
35 1 8.33373 -0.0758228 2.77298 9.18728 2.2703 1.50825 0.151994 1.9653 -0.172419 C
18 1 -0.0417541 8.38082 2.77208 -0.216078 -2.90219 0.59973 1.15411 -0.812497 0.856719 C
5 2 1.38563 1.39195 4.14564 -1.22122 -0.975189 0.699394 -0.116909 0.11832 -0.831582 C
12 1 2.6922 2.81997 5.53977 -6.61485 2.32628 -0.437373 0.964209 0.163298 0.366321 C
15 2 4.07676 1.41159 6.92466 -0.0877929 -0.782909 0.516666 0.704501 -0.0230004 -0.815715 C
37 2 6.99833 1.35005 4.1806 -1.23682 -1.95945 0.822708 -1.29715 -0.340355 -1.24588 C
9 1 -0.0478082 0.053369 5.49947 0.75799 -2.28424 4.18629 1.248 -0.935589 1.0798 C
44 1 8.28572 2.71691 5.53895 5.10697 -0.879103 -2.2811 1.96939 1.41548 0.269145 C
47 2 9.67739 1.32997 6.96006 1.63528 -3.71233 -0.334893 -0.513778 0.750481 0.380839 C
14 2 1.33769 4.19541 6.982 -1.13841 -0.317599 -1.99162 -0.222768 -0.303137 -0.707384 C
21 2 1.4315 7.00333 4.16025 -5.40033 -0.389307 -0.857383 -1.08204 -0.913526 -0.244479 C
8 2 4.19266 4.21175 4.20797 -1.18091 -0.558682 -0.191031 -0.167056 -1.1987 -0.212523 C
31 2 4.15183 6.96107 6.95197 0.478487 -0.611763 3.52863 -0.353204 -0.581938 0.0163935 C
46 2 6.9729 4.14708 6.9551 3.14766 1.61062 0.409989 -0.462148 0.29486 -0.959255 C
53 2 6.91256 6.89124 4.21227 0.13095 0.293783 0.329171 1.13696 0.865549 -1.6902 C
57 1 5.58864 5.58946 5.6162 0.0222045 -2.04111 2.9589 -0.908324 -1.15803 0.0946007 C
25 1 -0.0319754 5.53306 5.49258 -6.26711 -1.18464 0.677038 1.25212 0.647611 0.140079 C
40 2 9.72204 4.14348 4.0741 -1.15141 -0.974654 -0.891463 -0.373916 -0.899311 1.99732 C
63 2 9.73115 6.96167 6.86721 2.59831 1.38462 -0.680062 -0.420208 -0.22413 0.0242002 C
28 1 2.83607 8.37211 5.54591 -1.01838 -3.54425 -2.07095 -1.03177 -0.924405 0.3169 C
30 2 1.4064 9.72936 6.89893 -1.81403 0.513461 -1.58248 -0.758369 0.193821 0.193663 C
41 1 5.52803 0.0603937 5.52126 3.17068 4.17297 -1.6221 -0.0762719 -1.4448 0.887979 C
24 2 4.17454 9.65916 4.14095 -2.14504 3.07209 0.249155 0.858831 1.49131 -0.966397 C
62 2 6.9142 9.68879 6.96292 2.89502 -0.764413 -0.210823 -0.742632 0.180857 -1.25239 C
56 2 9.68427 9.7161 4.19365 -4.8216 -0.566671 -1.04886 -0.111969 -0.558277 -0.486724 C
60 1 8.29603 8.31121 5.53644 1.17556 -2.48078 0.625875 -0.100558 0.435974 0.411892 C
4 1 2.78584 2.73833 -0.0540864 0.886559 1.67201 4.65241 -0.430988 -0.338454 0.370212 C
11 1 2.79621 -0.0146151 8.33427 5.49938 -0.248779 -0.205882 -0.67849 -0.142001 -0.111345 C
13 2 1.37348 1.3104 9.7213 -2.06195 -2.65453 -1.18827 0.188814 0.953819 -0.479867 C
42 1 5.51095 2.78114 8.23805 0.894689 -2.59634 -1.5321 0.181546 -0.196652 1.22767 C
45 2 6.88413 1.40571 9.69757 0.129664 -0.0687787 -1.26663 0.952883 0.00419977 -0.517976 C
10 1 -0.0168371 2.75585 8.36396 0.598662 1.52223 3.32685 -0.250789 -0.149049 -0.203149 C
43 1 8.27329 -0.0845599 8.36948 4.53971 -1.40518 -0.732475 0.411811 1.66487 -0.37001 C
27 1 2.73936 5.56906 8.35249 3.17863 0.912014 1.1493 -0.0340092 0.254972 -0.749372 C
29 2 1.33422 6.9453 9.70901 -3.22451 0.214205 -2.19661 0.096526 -0.154025 0.258074 C
16 2 4.1083 4.12368 9.64068 2.83099 0.901833 -1.05734 0.763332 0.351916 0.202192 C
61 2 6.94896 6.93585 9.69019 1.41275 -1.23419 -2.07297 -0.560647 -0.16738 -0.413365 C
48 2 9.67429 4.19464 9.72523 0.188423 0.409211 -0.260089 -0.227497 -0.520584 0.362851 C
59 1 8.3469 5.60722 8.23632 1.87929 0.618274 -1.28011 -0.0173566 -0.809549 1.55584 C
32 2 4.15719 9.70151 9.74821 1.30859 2.97419 -3.96029 -0.237603 -0.559661 -0.0715387 C
58 1 5.50919 8.31576 8.31097 0.598667 -3.6452 -0.800567 0.622199 0.23176 1.06328 C
52 1 8.34384 8.30952 -0.0103082 4.95185 2.15453 3.18796 -0.507056 0.347917 -0.137985 C
26 1 -0.0165095 8.31287 8.28991 -1.45624 -4.17027 -2.78201 0.851294 0.517342 -0.401232 C
64 2 9.71974 9.67503 9.69197 0.720799 0.542666 -0.0925228 -0.254025 -0.170908 0.341502 C
ITEM: TIMESTEP
17600
ITEM: NUMBER OF ATOMS
64
ITEM: BOX BOUNDS pp pp pp
0.0000000000000000e+00 1.1085848640000000e+01
0.0000000000000000e+00 1.1085848640000000e+01
0.0000000000000000e+00 1.1085848640000000e+01
ITEM: ATOMS id type xu yu zu vx vy vz fx fy fz element
3 1 2.75488 0.0417427 2.76603 -3.99613 2.06991 -2.88124 -0.000727576 -1.33493 -0.142597 C
7 2 4.13283 1.35987 1.35922 -0.946861 -3.92155 -0.986465 0.266852 1.4327 0.21139 C
34 1 5.50314 2.80666 2.76213 2.53266 -1.26581 -0.456566 -0.323922 -0.64363 0.0277406 C
2 1 -0.0319087 2.73284 2.78535 1.41613 -0.649472 1.16971 0.0445629 1.35362 0.21055 C
36 1 8.29751 2.85109 -0.066423 -0.411813 -2.91394 3.8588 0.599586 -1.1559 2.14942 C
39 2 9.6653 1.40973 1.38869 -1.04572 2.55234 0.618313 -0.520738 -0.367239 -0.983616 C
6 2 1.37432 4.177 1.40843 0.395018 -0.465905 0.281195 -0.066811 -0.547844 0.116398 C
19 1 2.75349 5.6275 2.7365 -2.03536 -0.479105 1.9805 0.554373 -1.24978 -0.190182 C
23 2 4.14404 7.01417 1.35551 0.849396 -3.62238 0.743467 0.371671 -0.289631 0.738599 C
38 2 6.89771 4.16845 1.40762 -2.08234 0.721498 -1.35344 -0.309833 -0.5593 -1.17887 C
49 1 5.56335 5.60269 0.0617474 -0.180214 -0.444933 2.98616 -0.734644 -0.40886 -0.487151 C
17 1 0.01775 5.49841 -0.0221174 -1.88827 1.34798 3.07292 0.429014 1.02557 0.510427 C
51 1 8.20963 5.50419 2.75788 5.52056 -1.28002 -1.2392 1.91276 1.20911 1.0004 C
55 2 9.67842 6.8723 1.34752 1.94065 0.250798 -1.35335 -0.506665 0.731831 0.522295 C
20 1 2.84538 8.37945 -0.0759338 -1.12359 -0.250886 0.667001 -1.41055 -0.702723 1.34798 C
22 2 1.40546 9.70583 1.35092 -1.66377 0.242705 -0.83285 0.346618 -0.114097 0.409421 C
33 1 5.50018 0.0132367 -0.0443701 0.177384 -0.355655 0.734259 1.35715 0.376224 1.17096 C
50 1 5.49495 8.35271 2.82137 3.60233 -2.17238 0.968056 -0.315227 -0.424814 -0.943117 C
54 2 6.83771 9.71393 1.4107 -0.404461 3.9717 0.407705 -0.0435342 -0.2764 -1.16093 C
1 1 0.0419231 0.0256145 0.00759369 2.12542 -2.78967 -0.328161 -0.0562823 0.902229 -0.805617 C
35 1 8.19735 0.00460538 2.72656 -0.440101 -7.39849 -0.218889 2.58192 -0.010719 0.988323 C
18 1 0.0271211 8.29165 2.7527 -1.38561 2.89665 -0.281215 -0.354224 -0.426201 -0.585829 C
5 2 1.37774 1.37819 4.14549 1.21747 0.641089 -1.27352 0.412411 0.0113855 0.88173 C
12 1 2.89728 2.70896 5.53092 1.06564 -0.0237244 -2.51587 -1.9197 0.565984 0.357382 C
15 2 4.26499 1.39294 6.97452 -1.32974 -0.325489 1.28486 -0.822136 -0.946431 -0.204119 C
37 2 6.91308 1.41469 4.1346 0.726371 -1.2285 -1.38413 -1.40235 -0.833883 1.09884 C
9 1 0.0178828 -0.0615057 5.52675 -2.40258 2.67853 -4.04491 0.412114 0.633595 0.592161 C
44 1 8.25778 2.77604 5.59246 -6.46365 -3.01792 1.90104 0.431908 0.113603 -0.914723 C
47 2 9.72552 1.41026 6.87963 -1.65773 -0.197872 0.47614 -0.503927 -1.23912 0.194731 C
14 2 1.48306 4.11816 6.94649 3.01732 2.51476 1.91578 -0.953707 -0.585581 -1.17282 C
21 2 1.41163 6.89926 4.14681 1.17001 0.859703 -0.439345 -1.19638 0.904767 0.109209 C
8 2 4.1048 4.20033 4.14764 1.40661 1.48124 -2.3795 0.31413 -0.560786 -1.28266 C
31 2 4.16132 6.87051 6.84952 0.77871 1.52481 0.0174648 -0.165518 1.5258 1.40307 C
46 2 6.85138 4.1648 6.92458 -3.18646 -0.561881 3.93638 0.877053 0.172909 0.761868 C
53 2 6.84235 6.93274 4.14957 1.50102 -1.75714 2.01776 0.970574 -0.130562 -0.145973 C
57 1 5.49108 5.51646 5.47931 2.39623 3.24272 -3.61948 0.694821 0.158496 0.766866 C
25 1 0.0611782 5.52334 5.55168 1.55396 -0.397838 -1.81817 -1.38349 -0.228797 0.847993 C
40 2 9.65385 4.15285 4.19478 2.1727 3.54006 -2.86132 0.286683 -0.00133174 -0.466363 C
63 2 9.60273 6.86693 7.00096 0.208726 -1.11728 -0.396263 1.87847 0.748502 -0.964719 C
28 1 2.72115 8.2826 5.54118 0.921785 3.36734 1.61839 1.19624 -0.368656 -0.153271 C
30 2 1.42516 9.63271 6.95957 0.0017852 0.987975 3.56451 -1.22465 1.02514 -0.836532 C
41 1 5.50121 -0.101807 5.55594 -0.635544 1.75868 -0.339714 0.913738 2.49926 -0.861917 C
24 2 4.09738 9.67844 4.17218 0.57339 -0.859686 2.46453 -0.625039 0.434652 -0.0801348 C
62 2 6.91 9.71245 6.91619 -1.15417 -1.14932 1.1198 0.63937 -0.622903 0.506956 C
56 2 9.73578 9.68357 4.12985 1.28298 -0.295122 -1.39477 -1.84466 0.0875399 -0.500296 C
60 1 8.27054 8.31003 5.52502 1.43562 -0.903482 -1.44613 0.62649 -0.415446 0.277147 C
4 1 2.78995 2.83417 0.00169167 3.14835 -0.462706 -2.40994 0.722169 0.0876337 0.990193 C
11 1 2.76466 -0.00956396 8.27006 -0.237127 -0.153946 1.22625 1.79295 0.48629 0.921692 C
13 2 1.53321 1.47223 9.68835 0.182598 -2.97822 1.03756 -3.01531 -1.85209 -0.324402 C
42 1 5.59868 2.78311 8.40247 -0.49063 0.239864 -0.956675 -0.621016 -0.0383692 -0.70047 C
45 2 6.98107 1.38017 9.72286 -3.15111 -0.248708 0.0971923 -0.772038 0.151912 -0.191254 C
10 1 0.0115352 2.7308 8.27073 0.794439 0.911102 1.10911 1.18912 0.986608 0.903292 C
43 1 8.30576 0.0430864 8.28286 -3.24811 -3.72223 1.33989 1.15842 -0.988749 0.203795 C
27 1 2.79994 5.52943 8.28481 -1.22811 -1.21916 2.45473 0.879051 -0.05644 0.779082 C
29 2 1.47253 6.89227 9.72573 2.0154 -0.631451 -1.80091 -1.01831 0.602081 -0.699724 C
16 2 4.19428 4.19207 9.73951 -1.53743 0.536209 0.565786 0.182101 0.447394 -0.198651 C
61 2 6.91834 6.94303 9.74364 -2.91347 1.24232 -0.895549 -0.637536 -0.213144 -0.924083 C
48 2 9.76166 4.14297 9.70818 -0.917688 1.05957 -3.33202 -0.478285 -0.411894 -1.07302 C
59 1 8.26558 5.48002 8.41794 -2.21419 2.03148 -1.23268 -0.101182 0.368598 -1.19002 C
32 2 4.19714 9.73069 9.70635 0.889928 -0.390315 -0.308097 -0.661447 0.129574 -2.19896 C
58 1 5.5425 8.32553 8.30769 1.29693 2.97546 -1.84208 -0.172301 -0.896258 -0.381095 C
52 1 8.23078 8.32751 -0.00822795 0.0958379 -3.54521 -2.45971 1.76569 0.404164 0.994762 C
26 1 0.0412723 8.30435 8.34167 -0.395101 0.696977 2.47312 -0.825185 -1.48557 0.125925 C
64 2 9.72963 9.68819 9.70997 1.92878 1.19311 0.648312 -0.820686 0.810915 -0.177478 C
ITEM: TIMESTEP
17700
ITEM: NUMBER OF ATOMS
64
ITEM: BOX BOUNDS pp pp pp
0.0000000000000000e+00 1.1085848640000000e+01
0.0000000000000000e+00 1.1085848640000000e+01
0.0000000000000000e+00 1.1085848640000000e+01
ITEM: ATOMS id type xu yu zu vx vy vz fx fy fz element
3 1 2.83244 -0.0634891 2.84086 5.6549 2.44935 2.1679 -0.94857 1.96136 -0.814027 C
7 2 4.19501 1.37362 1.4029 1.47341 0.440103 1.3912 -1.24411 -0.593418 0.158245 C
34 1 5.56445 2.74793 2.7813 0.00917203 0.733945 2.40244 1.15291 0.791628 0.213787 C
2 1 0.00144328 2.78907 2.72914 -3.05503 -5.15552 -4.34764 0.408201 -0.800633 0.410817 C
36 1 8.29264 2.71014 -0.0653985 -1.52412 0.958103 -5.77985 0.64506 0.333019 0.885421 C
39 2 9.70901 1.37521 1.37849 0.664585 -2.4853 0.540023 -0.526413 0.809451 -0.336015 C
6 2 1.37443 4.17718 1.36443 1.14953 1.47512 1.78781 0.337782 -0.00191256 -0.0464218 C
19 1 2.85184 5.49056 2.75601 1.62471 3.76164 -2.10487 -1.0046 0.492981 1.07036 C
23 2 4.19351 6.91855 1.44225 1.23312 -1.59261 -2.75148 -0.0260215 -1.14167 -2.04147 C
38 2 7.03192 4.13934 1.35739 -0.555323 0.974524 1.71803 -2.24146 0.254107 0.0361533 C
49 1 5.50292 5.49123 -0.0936298 2.13135 -0.644755 -1.62524 1.16557 0.0789252 1.97071 C
17 1 0.000710778 5.55954 -0.0527967 0.792113 -4.10313 0.288155 -0.844025 -0.85455 1.37892 C
51 1 8.37567 5.56294 2.77461 -5.76813 -4.52883 0.0456827 0.118612 -1.35549 -0.239126 C
55 2 9.73593 6.90893 1.38491 1.24856 -1.45461 4.21662 0.114118 0.467424 -0.328294 C
20 1 2.72006 8.24579 0.0872 4.18164 2.95387 -2.08526 0.655649 0.52579 -0.794482 C
22 2 1.43936 9.66554 1.47187 -0.757783 0.641618 1.4622 -1.68758 0.911002 -1.35692 C
33 1 5.54165 -0.0513193 0.034359 -3.30894 0.00805514 -5.25328 0.192578 -0.438489 0.180448 C
50 1 5.56957 8.27873 2.75423 -2.17496 1.1971 1.49194 1.01033 0.0457419 0.757295 C
54 2 7.001 9.61751 1.40347 -0.377749 0.884475 1.46552 -0.823828 2.28628 0.636764 C
1 1 -0.0820683 -0.0320651 0.00278336 -1.33814 -1.23227 2.364 1.1934 -1.03915 0.283596 C
35 1 8.35395 0.0715449 2.8048 -9.25038 3.07958 -3.48583 -0.589443 -1.78973 -0.481016 C
18 1 -0.00846822 8.30363 2.77125 1.88788 -0.0691755 2.1809 0.485794 0.492708 1.39802 C
5 2 1.34311 1.37773 4.18187 -0.460461 0.812663 -2.30297 1.08999 0.463456 -1.14107 C
12 1 2.68263 2.7771 5.5899 4.62565 -1.80465 1.31476 1.08497 0.0925963 -1.09359 C
15 2 4.0823 1.35001 6.91235 2.72432 0.105998 1.88404 0.338655 0.725909 0.240885 C
37 2 6.99018 1.39859 4.20898 1.3054 0.947863 -2.04689 -0.778038 0.77419 -1.18385 C
9 1 -0.0201476 0.0930885 5.58212 0.210781 -3.51938 0.106435 -0.248957 -0.566837 -0.387506 C
44 1 8.37828 2.82102 5.48088 0.905633 2.88511 -1.84818 -0.794075 -1.37217 1.49267 C
47 2 9.68164 1.43237 6.94703 2.0583 2.30655 0.528334 -0.183821 0.462565 -0.304422 C
14 2 1.27598 4.1487 6.91518 -1.66348 0.144569 1.2539 1.55739 1.34882 0.407464 C
21 2 1.46235 6.95061 4.16378 2.21804 -2.85882 -2.08701 -1.0239 -1.10893 -0.445345 C
8 2 4.21436 4.15413 4.22013 -3.00214 1.40922 2.12659 -0.83567 -0.734156 -0.14846 C
31 2 4.14572 6.93924 6.91182 0.491754 -4.03662 0.436443 0.168154 -0.23357 0.664447 C
46 2 7.00358 4.18188 6.8399 -0.152794 1.63195 -1.12572 -1.10417 -0.990831 1.49376 C
53 2 7.00026 6.91247 4.13663 -1.37401 0.375676 -0.345371 -0.885273 0.637594 1.14011 C
57 1 5.58175 5.55756 5.60298 -2.71801 -0.387198 2.15368 0.0935478 0.634262 -1.80979 C
25 1 -0.0423244 5.57955 5.55686 2.46183 0.171786 -1.69392 1.09462 -0.111991 -1.24183 C
40 2 9.72967 4.10025 4.14981 -0.104627 0.276638 -0.236044 0.547737 2.49722 -0.846007 C
63 2 9.75919 6.99905 6.94266 -4.4753 -0.339831 1.02904 -1.41016 -0.649178 -0.937065 C
28 1 2.81804 8.33446 5.53595 -0.332593 -0.136367 -0.623919 -0.397257 0.658289 -0.232418 C
30 2 1.35616 9.76273 6.84625 3.77922 -1.53845 -0.12798 0.613559 -0.991788 1.9304 C
41 1 5.56832 0.0591272 5.53686 -2.50902 -7.95466 1.81077 -0.448682 -1.38695 0.125649 C
24 2 4.21513 9.67743 4.12037 1.10972 0.593022 -1.11667 0.836064 -0.0130981 1.63287 C
62 2 6.97095 9.74903 6.92311 -4.02964 1.69675 0.321121 -1.48883 -0.745559 0.529383 C
56 2 9.73059 9.79091 4.20891 1.87524 0.322093 -0.430775 -0.010116 -1.08675 -0.950652 C
60 1 8.3523 8.36069 5.55943 -2.22842 3.14531 -0.302785 -0.0308962 -0.203517 -0.482691 C
4 1 2.67674 2.69786 0.0144871 -4.27277 1.75114 -1.64861 1.04932 0.53402 -0.475781 C
11 1 2.71076 0.0235808 8.35419 -4.16296 -1.79503 -2.53262 -0.612473 -0.385544 -0.344569 C
13 2 1.22075 1.40299 9.68344 2.66743 2.2197 -0.684367 1.6393 -0.747363 0.466027 C
42 1 5.47579 2.78847 8.2371 2.53301 0.0649018 2.59611 1.55898 -0.62274 0.186368 C
45 2 6.85911 1.3449 9.70427 -0.177362 -0.472787 -0.465303 -0.201106 0.704971 -1.14987 C
10 1 -0.0426647 2.81894 8.29506 -2.96757 -4.55129 -1.7431 -1.18179 -0.154528 0.764348 C
43 1 8.31565 0.0421495 8.31195 -4.18836 3.71675 0.309564 -1.02169 0.207358 -0.194749 C
27 1 2.73625 5.56413 8.28695 -1.33396 1.8124 -4.90422 -0.993338 -0.367706 0.425109 C
29 2 1.28891 6.95643 9.72173 0.184241 -0.378396 0.634251 1.95834 0.138164 -1.2044 C
16 2 4.09725 4.09532 9.66078 1.41234 0.939829 -2.75983 -0.902275 0.3239 0.150046 C
61 2 6.99586 6.85502 9.68154 -0.636522 -3.74848 0.220945 -1.03178 1.32096 -0.242751 C
48 2 9.65722 4.17923 9.71042 0.886175 0.841765 2.28448 0.293994 -0.24198 -1.13933 C
59 1 8.36062 5.54923 8.20834 2.40848 -0.418483 1.91372 0.0972037 0.0811403 1.38719 C
32 2 4.07278 9.69662 9.76196 0.32684 1.49676 1.27089 0.51312 -0.809026 -0.32567 C
58 1 5.50388 8.29048 8.33097 -3.07516 -0.228347 1.24973 1.14656 0.941208 0.262528 C
52 1 8.35288 8.31509 0.0294276 -5.23051 -0.205912 -0.806062 -0.353758 -1.59621 -1.15537 C
26 1 -0.0411287 8.35492 8.30351 1.59645 3.62762 -2.30001 1.0874 1.10948 0.141879 C
64 2 9.59671 9.70281 9.64917 1.94683 0.0775379 -0.0906411 1.62519 0.0289498 1.05327 C
ITEM: TIMESTEP
17800
ITEM: NUMBER OF ATOMS
64
ITEM: BOX BOUNDS pp pp pp
0.0000000000000000e+00 1.1085848640000000e+01
0.0000000000000000e+00 1.1085848640000000e+01
0.0000000000000000e+00 1.1085848640000000e+01
ITEM: ATOMS id type xu yu zu vx vy vz fx fy fz element
3 1 2.67959 0.0120349 2.71243 -2.51671 -6.92171 -0.32005 2.06985 -0.330897 0.574982 C
7 2 4.13203 1.36399 1.32369 2.75314 -1.97546 -0.397265 0.571181 0.522578 1.61784 C
34 1 5.51074 2.79589 2.7442 -3.69098 -2.07648 -2.99385 0.221235 -1.32895 0.482436 C
2 1 0.0502607 2.819 2.8528 -0.509218 3.94918 2.7783 -1.09561 -1.12035 -0.98186 C
36 1 8.35303 2.85386 0.078438 -0.818897 -0.305608 -1.90085 -0.17726 -0.959939 -0.975547 C
39 2 9.71448 1.41598 1.43735 2.17306 -0.0869706 1.99898 1.34518 -0.0785106 -0.410118 C
6 2 1.35606 4.15573 1.35331 -3.3363 1.99064 2.6676 0.517751 -0.118449 0.492676 C
19 1 2.68216 5.53047 2.79946 0.618181 -2.12941 -0.655369 0.974642 0.877098 -0.631238 C
23 2 4.06667 6.99003 1.40808 -2.45481 2.70879 6.35219 0.266481 -0.881965 0.209132 C
38 2 6.89855 4.18988 1.42806 4.4007 1.8489 -0.770271 0.357125 0.464076 -0.288242 C
49 1 5.54529 5.63606 0.0906445 -4.9125 3.26666 -5.51436 -0.0335491 -0.21137 -1.33875 C
17 1 -0.0442934 5.55921 0.0175731 -0.495027 5.18991 -7.00475 0.861396 -0.0809765 -0.603078 C
51 1 8.26846 5.60698 2.76872 0.305271 6.19658 0.145228 0.0561198 -0.659286 0.43477 C
55 2 9.64426 6.95701 1.31504 -0.0545199 -1.59222 -0.704628 0.726605 0.0655673 1.95447 C
20 1 2.77123 8.31416 -0.0743962 -4.51006 -1.71414 1.02098 0.338467 0.62367 0.39067 C
22 2 1.41435 9.70152 1.31521 0.777549 -1.08682 1.79194 -1.15799 -0.577067 0.416843 C
33 1 5.58547 0.0452765 0.000235154 -1.20041 1.10457 1.12226 -0.595646 0.351267 -1.41791 C
50 1 5.4993 8.35497 2.73725 -2.11491 0.291089 -1.71447 -0.536696 0.0892848 0.316856 C
54 2 6.86172 9.74784 1.33735 1.59081 -0.304728 2.49459 2.13928 -0.921903 1.20244 C
1 1 0.0687536 0.031283 -0.0378535 -2.86821 3.52128 -1.73829 -1.1596 -0.0809578 0.375309 C
35 1 8.35932 -0.0372026 2.76948 5.90582 2.81755 3.68945 -1.97293 0.828295 -0.261538 C
18 1 -0.0134245 8.33327 2.75707 -4.32433 -0.35056 -7.03678 -0.442435 0.018124 -0.965398 C
5 2 1.39149 1.33959 4.18665 -3.45179 -1.9331 1.63514 -0.452174 0.865829 -0.176667 C
12 1 2.75004 2.81994 5.4925 -3.93248 -3.58368 2.32937 0.926732 -0.808347 0.646914 C
15 2 4.16193 1.42996 6.88735 0.196249 -2.94681 -1.27145 0.16288 -0.0969318 0.0397764 C
37 2 6.90121 1.34606 4.17371 0.867478 -3.12131 2.08291 0.697865 0.707694 -1.02278 C
9 1 0.0214776 -0.0682336 5.55234 -2.40362 3.52586 -0.727306 -0.763485 0.0719028 -0.66984 C
44 1 8.32485 2.66743 5.62583 0.907165 -0.428101 -0.249454 -0.563948 1.07051 -1.37284 C
47 2 9.72827 1.27785 6.91555 1.44168 -0.10571 2.51027 1.12659 1.6257 0.996983 C
14 2 1.42286 4.14107 6.96091 -1.85614 -2.12485 0.39996 -1.1236 0.305847 -0.384875 C
21 2 1.33481 6.96559 4.16778 -1.93963 1.62416 0.0833955 -0.0219414 -0.764426 -0.267687 C
8 2 4.1782 4.19309 4.13238 1.41522 2.05852 -2.61256 -1.50184 -0.661537 -0.426664 C
31 2 4.1353 6.93685 6.90655 -0.113235 2.58157 -1.24158 0.450924 -0.366031 1.03453 C
46 2 6.94506 4.1371 6.95736 2.83535 1.21651 -0.542056 -0.120255 0.415049 -0.492902 C
53 2 6.79782 6.92582 4.1492 0.563759 -0.872626 -2.36455 1.58011 0.452996 -0.606953 C
57 1 5.51641 5.51842 5.50437 0.95458 -2.06806 2.94295 0.19895 0.0818902 1.8304 C
25 1 0.000245262 5.51866 5.5241 -3.74074 -0.360107 3.87365 -0.298818 -0.322119 0.816354 C
40 2 9.63095 4.13139 4.17044 -1.05962 -3.76364 1.78269 0.298826 0.4892 0.432893 C
63 2 9.71029 6.87706 6.95665 3.71762 -1.9908 3.44461 -0.63256 -0.147937 -0.178255 C
28 1 2.72217 8.31304 5.53777 -2.08865 -2.54611 0.432612 0.243083 0.327723 0.38049 C
30 2 1.3455 9.68392 6.96408 -1.71463 1.78802 -0.395593 1.58033 -0.213422 -0.284668 C
41 1 5.51854 0.00268858 5.52228 2.06717 6.59519 0.591781 0.159951 -0.987184 0.716583 C
24 2 4.1026 9.69911 4.14437 -2.1672 0.782377 -1.19205 -0.265116 0.675289 -0.419101 C
62 2 6.98407 9.68226 6.93149 5.22094 1.26658 -2.2878 -0.818299 0.59974 -0.837962 C
56 2 9.64684 9.67072 4.16032 -1.12636 1.39355 -0.920081 1.08254 -0.691404 0.528071 C
60 1 8.26947 8.22734 5.5335 -0.113613 -1.9909 0.379026 0.486676 0.478263 0.190126 C
4 1 2.84536 2.79074 -0.00771638 -2.32139 -4.95515 1.45767 -1.74886 -0.204633 -0.216108 C
11 1 2.8469 -0.0162527 8.27225 2.57043 1.72052 -0.0466561 -0.523407 -0.0555195 -0.266144 C
13 2 1.49706 1.35449 9.65862 -5.24529 -0.456093 -3.16647 -0.604864 1.10137 0.51803 C
42 1 5.59062 2.75368 8.31737 -7.18918 3.43865 -3.00258 -0.679485 0.317629 0.636965 C
45 2 7.03369 1.40015 9.70081 2.60713 -1.24643 2.30928 -0.339769 0.213721 0.379258 C
10 1 0.0130949 2.76284 8.36075 2.33857 2.00743 -3.94193 0.544661 -1.25797 -1.47207 C
43 1 8.38051 -0.031514 8.29398 5.94915 -2.45417 -2.33208 -0.372135 -0.570795 1.00779 C
27 1 2.76405 5.51231 8.3794 3.55822 -0.817185 1.33676 0.96115 0.504202 -1.15884 C
29 2 1.38976 6.89615 9.7082 -1.94801 -1.19779 0.253796 -0.404043 0.00647367 0.214089 C
16 2 4.19274 4.17662 9.75183 4.00893 1.59132 2.15743 1.24817 0.31422 -0.524065 C
61 2 6.99112 7.02077 9.73623 1.89858 -2.44988 -0.686841 -1.43879 -1.85888 0.0913408 C
48 2 9.74842 4.15998 9.69811 0.558336 -0.957175 -2.44475 -0.949205 0.0277542 1.07431 C
59 1 8.29235 5.51991 8.40637 -1.60481 -2.55865 -3.48125 0.65514 0.453189 -1.31789 C
32 2 4.22163 9.72941 9.68665 0.434924 1.6642 -2.07232 0.0241325 -0.403466 -0.053579 C
58 1 5.62054 8.3344 8.31807 -0.172454 -0.861562 -1.94223 -1.29572 -0.360972 -0.47784 C
52 1 8.32833 8.35533 -0.0176364 2.03501 5.44987 3.74576 -0.503677 1.01119 0.674095 C
26 1 0.0362503 8.26089 8.31619 -3.02386 -4.82998 2.07037 -0.806333 0.0193791 0.250605 C
64 2 9.74477 9.65082 9.70478 -0.420972 2.5563 -2.44224 0.526004 1.14547 -0.42662 C
ITEM: TIMESTEP
17900
ITEM: NUMBER OF ATOMS
64
ITEM: BOX BOUNDS pp pp pp
0.0000000000000000e+00 1.1085848640000000e+01
0.0000000000000000e+00 1.1085848640000000e+01
0.0000000000000000e+00 1.1085848640000000e+01
ITEM: ATOMS id type xu yu zu vx vy vz fx fy fz element
3 1 2.84273 0.0549192 2.80166 -3.88763 1.84713 0.571939 -1.51042 -1.73877 -0.131131 C
7 2 4.12696 1.40862 1.41192 -0.811388 -2.70983 0.167403 1.47256 0.303104 -0.603085 C
34 1 5.55238 2.75715 2.80329 1.7828 3.64863 0.177424 -1.53981 0.884557 -1.02918 C
2 1 -0.0219237 2.73487 2.71219 4.27525 3.3946 0.206906 0.493604 0.878298 0.515117 C
36 1 8.28945 2.73843 -0.0161507 -1.70542 4.38182 -0.789003 -1.15054 0.623242 -1.12398 C
39 2 9.61459 1.39413 1.3556 -2.2859 -1.84571 1.46252 1.19077 -1.4143 0.283897 C
6 2 1.43784 4.1418 1.36796 1.58189 1.49709 -1.05621 -0.699083 0.455024 1.6713 C
19 1 2.83461 5.5696 2.7409 -2.50947 -2.03476 -0.965427 -0.186192 -1.10566 0.00454471 C
23 2 4.2528 6.89493 1.34456 2.38723 -3.50725 -1.74342 -0.501098 0.578572 0.962279 C
38 2 6.89033 4.10706 1.38547 -3.68731 -0.00696025 1.15605 1.37863 0.0169376 0.314537 C
49 1 5.56325 5.46063 -0.0152988 1.42362 -1.02296 7.06718 -0.759161 0.462326 -0.99923 C
17 1 0.0629085 5.50461 0.0485414 -2.07431 -3.8391 3.37099 -0.55463 1.03055 -1.61333 C
51 1 8.36494 5.47119 2.76821 -2.34109 -0.61661 -3.9214 -1.50869 1.67536 -0.993411 C
55 2 9.7263 6.89323 1.36548 1.70365 0.609619 -0.829207 0.286519 0.154607 1.13496 C
20 1 2.80513 8.31365 0.0513546 3.0177 -3.64792 -0.536952 -0.489808 -0.412551 -0.436915 C
22 2 1.3921 9.70681 1.40526 2.55861 0.787623 0.435233 0.640679 0.234096 0.798806 C
33 1 5.51919 -0.0250158 0.0300237 2.38182 -3.18465 2.40186 -0.752053 0.234146 0.306117 C
50 1 5.59901 8.28085 2.81278 -0.401298 -0.881269 -2.09736 -0.297231 -0.127838 -0.679943 C
54 2 6.9199 9.66159 1.35714 -4.64943 0.750979 -1.52849 -0.0193128 -0.393264 0.359917 C
1 1 -0.0134392 -0.0291053 0.00369534 3.27477 -1.43648 -0.457492 -0.349335 0.671699 -0.151811 C
35 1 8.23798 -0.022506 2.74174 2.12457 -0.776812 -2.03367 1.59793 0.361112 0.647055 C
18 1 0.0446649 8.29018 2.82008 4.26067 -0.26452 6.83561 -0.41608 -0.0267034 -0.749006 C
5 2 1.41392 1.41319 4.13557 3.10752 -0.266797 -1.09702 -0.202673 0.043481 0.315368 C
12 1 2.82951 2.76391 5.53959 -3.2892 8.07621 -3.16523 -0.719935 -0.433173 0.528648 C
15 2 4.15193 1.3678 7.00082 -2.08695 -0.144909 0.127353 0.482734 -0.219364 -1.25797 C
37 2 6.92792 1.46256 4.10366 -1.19894 -1.79011 0.323435 0.112231 -2.0796 1.57193 C
9 1 0.0310096 0.0379666 5.54066 4.92725 -1.88031 4.56771 0.0349774 0.239537 -0.0367531 C
44 1 8.25929 2.87487 5.49271 2.64218 -1.0928 2.03355 0.728457 -0.509231 0.404085 C
47 2 9.65915 1.42001 6.86305 -1.27239 -1.02731 0.455749 -0.131807 0.143647 1.36543 C
14 2 1.4706 4.16613 6.90904 -1.07647 -0.714391 3.56542 -1.42683 -0.519912 0.454665 C
21 2 1.45743 6.88238 4.15977 5.31186 0.67108 -2.18329 -0.386592 0.962956 0.451179 C
8 2 4.14497 4.14783 4.17631 3.20905 1.28433 1.67033 1.1134 0.605106 -0.791315 C
31 2 4.18706 6.86217 6.88884 -0.6397 -1.15502 -0.240273 -0.621096 1.9147 0.297628 C
46 2 6.81724 4.17916 6.92957 0.937959 0.279531 2.12473 2.07517 0.0972335 0.314392 C
53 2 6.98237 6.89627 4.1955 -1.59826 -0.594604 -0.0709263 0.83328 0.443068 -0.710621 C
57 1 5.55274 5.56195 5.51902 -2.28275 1.1312 -5.0816 -0.494644 -0.894651 -0.273748 C
25 1 0.0283657 5.53109 5.55746 2.53257 2.86727 -5.42002 -0.102636 0.785285 0.0438181 C
40 2 9.73681 4.20911 4.1136 1.48338 0.21208 -2.70726 0.529015 -1.7755 0.921576 C
63 2 9.6681 6.97776 6.93382 0.021522 0.863555 0.686993 1.62831 -0.497918 -0.286056 C
28 1 2.82271 8.33272 5.54566 1.97652 2.82986 -1.58461 -0.686286 -1.00889 0.210085 C
30 2 1.39335 9.71179 6.91701 -1.23043 1.9848 2.58976 0.0949658 0.153417 0.446375 C
41 1 5.56018 -0.0148003 5.53494 -3.65805 -1.08199 -5.10643 -0.217866 1.40603 0.215846 C
24 2 4.1889 9.67746 4.17429 5.45569 -0.794976 -0.805107 0.326842 0.550174 -0.618522 C
62 2 6.87648 9.71194 6.9655 -3.13503 0.609946 2.73894 0.872126 -0.514754 -0.57568 C
56 2 9.76089 9.73804 4.1799 -0.444386 2.09128 -1.26017 -1.05816 -0.0780086 -0.992711 C
60 1 8.35816 8.36923 5.55512 -2.57191 -0.160255 0.0745642 -1.16232 -0.0317774 0.0554766 C
4 1 2.78013 2.83167 0.0323087 2.50373 2.6834 -1.65993 0.387541 -1.49535 -0.19993 C
11 1 2.75156 -0.003766 8.3648 -2.89119 -0.516633 2.09719 0.176049 -0.0236986 -0.136977 C
13 2 1.45339 1.42793 9.76582 0.308238 -3.05642 -2.36023 -1.82763 -0.822354 -0.462927 C
42 1 5.53659 2.76166 8.35614 6.03622 -4.86519 0.047159 -1.50659 0.356096 -0.730417 C
45 2 6.80878 1.33416 9.68474 -2.66472 -0.662376 -2.64553 2.04298 0.871007 1.31114 C
10 1 0.0258911 2.77072 8.33019 -3.15248 3.983 7.29944 -0.205463 0.511742 -0.453799 C
43 1 8.24423 0.0162706 8.34812 -3.75656 5.85922 -0.650568 0.924744 -0.166522 -1.00989 C
27 1 2.78325 5.58474 8.2802 -6.58106 0.104088 0.474222 -0.277872 -0.574371 0.472728 C
29 2 1.40471 6.95359 9.69198 -0.668141 1.0639 0.433704 -0.150966 -0.119198 0.619305 C
16 2 4.06749 4.13117 9.66819 -2.68317 0.462629 -1.15658 1.8925 0.960481 0.347088 C
61 2 6.88233 6.93027 9.69058 1.29615 0.718797 -0.732791 0.177011 -0.449299 -0.284093 C
48 2 9.68519 4.21279 9.71135 1.04799 2.05171 -2.44776 0.310528 -0.991593 -0.269645 C
59 1 8.29955 5.59468 8.27723 -2.44322 -0.0260346 4.60998 -0.874622 -0.829091 0.495812 C
32 2 4.129 9.70346 9.75269 -1.33967 0.343917 3.44519 0.134896 -0.320131 -0.736898 C
58 1 5.46843 8.30633 8.30016 1.29234 0.529516 3.81254 0.520833 0.0178905 0.590923 C
52 1 8.30789 8.2468 -0.00824917 -0.293965 -4.81562 -5.14219 -0.334356 0.368293 0.2175 C
26 1 -0.00930414 8.3564 8.32809 2.77018 3.39419 -3.7647 0.0538555 -0.675281 -0.414461 C
64 2 9.63615 9.65166 9.704 -0.246456 -2.87312 0.216333 0.60863 1.25499 0.103886 C
ITEM: TIMESTEP
18000
ITEM: NUMBER OF ATOMS
64
ITEM: BOX BOUNDS pp pp pp
0.0000000000000000e+00 1.1085848640000000e+01
0.0000000000000000e+00 1.1085848640000000e+01
0.0000000000000000e+00 1.1085848640000000e+01
ITEM: ATOMS id type xu yu zu vx vy vz fx fy fz element
3 1 2.78579 0.00606134 2.75153 4.88772 5.56519 -2.32132 -0.991231 0.813752 -0.0570802 C
7 2 4.18832 1.41197 1.32942 0.318894 0.93124 1.11695 -0.407962 -0.775597 1.41913 C
34 1 5.54634 2.77161 2.7778 -0.012264 -3.11384 2.14951 0.778791 0.195513 -0.069955 C
2 1 0.00171155 2.7452 2.79451 -4.24339 -3.4656 -0.633189 -0.076294 0.937521 -0.09569 C
36 1 8.33979 2.71367 0.0358343 6.28005 -2.44816 7.3175 0.293356 0.68573 0.39152 C
39 2 9.76533 1.38536 1.43038 -1.01781 2.03176 1.49972 -1.37281 -0.628546 -0.152992 C
6 2 1.34777 4.11902 1.38128 -0.1086 -0.163719 1.53744 0.944101 0.781799 0.206908 C
19 1 2.77722 5.52416 2.82679 1.73197 4.31078 1.31078 -1.37142 0.196085 -0.647625 C
23 2 4.09241 6.95013 1.40488 0.357505 1.43612 1.03272 1.53217 -0.426587 -0.971461 C
38 2 7.01839 4.15309 1.41354 -2.08704 0.397263 0.602172 -1.78803 0.320864 -0.56662 C
49 1 5.5675 5.5338 -0.0755772 1.14506 -0.618651 0.00959326 -0.494009 -0.231581 2.0417 C
17 1 -0.0279832 5.5889 0.00465721 2.69023 1.38922 2.71498 -0.258545 -1.3637 0.953134 C
51 1 8.33034 5.57934 2.81293 5.53508 -2.01157 6.17947 0.0642978 -0.792708 -0.201191 C
55 2 9.67145 6.94756 1.4075 -1.30467 -2.27992 -0.837408 0.273656 0.00391601 -0.308671 C
20 1 2.71885 8.34939 -0.0258776 -3.27349 3.63631 1.1822 0.318115 -0.600106 -0.336187 C
22 2 1.35901 9.69627 1.40843 -1.13768 -0.067367 -1.25106 0.383283 0.610826 -0.678621 C
33 1 5.53968 0.0423052 -0.0426817 1.38879 2.16785 0.349427 0.833442 -1.21485 0.55482 C
50 1 5.56959 8.33324 2.77588 0.660254 1.13983 1.94368 -0.769589 0.307697 -0.270677 C
54 2 7.01515 9.7356 1.38755 -0.0785893 2.2216 0.343366 -2.18554 0.432833 0.241032 C
1 1 -0.0166557 0.00431296 0.0297662 0.26978 0.634417 -1.56998 0.546296 -0.150824 -0.663774 C
35 1 8.37055 -0.0167397 2.81821 -4.87029 -2.43115 -0.641694 -0.0136913 0.682511 -0.848834 C
18 1 -0.053964 8.34816 2.73057 -1.60783 -0.929187 -3.29883 0.650725 -0.584019 1.48291 C
5 2 1.30056 1.36348 4.1704 -1.33645 -0.93706 -0.0756701 2.27516 -0.0574283 -0.344615 C
12 1 2.76233 2.71684 5.57244 4.07488 -3.91285 0.199572 -1.22446 1.73374 -1.06158 C
15 2 4.14593 1.42875 6.93173 2.17928 -1.6389 2.92848 0.547803 -0.986824 0.507716 C
37 2 6.99181 1.37606 4.1539 -0.58743 2.46479 -3.3781 -1.39862 -0.146151 0.375877 C
9 1 -0.0624735 0.00262625 5.50311 -3.10804 2.10746 -2.15939 1.25177 -0.888234 1.0785 C
44 1 8.35256 2.72154 5.54572 -5.1813 2.11296 -1.28132 -0.151484 0.565497 -0.193916 C
47 2 9.70218 1.32143 6.91847 2.73247 -0.578051 -1.7106 -0.462381 0.473919 0.122699 C
14 2 1.33629 4.23201 6.88889 3.71701 -1.2277 -1.28616 1.21775 -1.78388 0.750746 C
21 2 1.31202 6.94551 4.18299 -2.63088 -3.50584 -1.19738 0.762897 -0.12147 -0.928974 C
8 2 4.16532 4.1549 4.19306 -4.28324 0.7014 -2.61359 0.109913 -0.561448 0.352446 C
31 2 4.16591 6.92677 6.97044 2.41297 -3.76412 -1.72851 0.273852 -0.0886578 -0.187845 C
46 2 6.97195 4.16914 6.85906 -3.66729 1.68605 0.536125 0.254789 -0.5582 1.61192 C
53 2 6.91873 6.9223 4.16881 -3.57334 -0.867698 0.521626 -0.00075188 0.39461 0.176617 C
57 1 5.57283 5.53954 5.58557 2.94378 0.632206 0.526456 -0.900956 0.49717 -0.943805 C
25 1 -0.0431869 5.56868 5.55183 -2.6657 -5.02472 4.652 -0.169235 -0.262889 -0.978125 C
40 2 9.69997 4.12978 4.15801 -1.65497 1.80461 -0.791088 0.0971925 0.495745 0.27766 C
63 2 9.70911 6.95724 6.89298 -2.57321 -0.958216 4.19624 -0.37594 -0.0192519 0.707858 C
28 1 2.73904 8.27702 5.5798 -0.669942 -0.297164 -1.34247 0.461399 0.195294 -0.903394 C
30 2 1.37695 9.68842 6.87674 -0.0142591 -1.57028 -0.00515254 -0.784854 0.440965 0.799727 C
41 1 5.57765 0.0261033 5.62344 2.33908 -0.0633225 1.41594 -0.610937 -0.573934 -1.91743 C
24 2 4.08405 9.71096 4.15613 -3.99266 0.42044 0.989341 2.08365 -0.195915 1.14992 C
62 2 6.99187 9.67619 6.9221 0.82163 1.50801 -0.0698813 -0.880503 0.161552 0.431823 C
56 2 9.70127 9.70203 4.18273 1.01642 -0.411074 0.336883 -0.233826 -0.603676 -0.813188 C
60 1 8.31917 8.32182 5.51839 3.30941 -0.69559 -1.43879 0.0124192 -0.459914 0.0731168 C
4 1 2.74859 2.69452 -0.0039142 1.29872 4.92886 3.14529 0.154971 1.99317 -0.235713 C
11 1 2.76902 -0.00542167 8.26104 4.83741 2.01923 -1.39505 -0.602322 0.587573 0.57281 C
13 2 1.35951 1.39578 9.71008 3.91843 2.48526 -1.39521 -0.131895 -1.14003 -1.27218 C
42 1 5.52419 2.82614 8.27109 -0.821087 3.14665 1.81128 1.68197 -1.12888 0.208807 C
45 2 6.95293 1.40046 9.71691 -1.17266 -3.12833 -0.507919 -0.283312 -0.0458763 -1.70166 C
10 1 -0.0283678 2.7457 8.23934 2.671 -1.69092 -2.07717 0.130752 1.18081 1.75234 C
43 1 8.35357 -0.0590856 8.31743 2.82261 -4.57764 1.64639 -1.0813 1.54919 0.000511993 C
27 1 2.78409 5.52636 8.333 4.22229 0.709265 1.11885 -0.831567 0.0721922 -0.290111 C
29 2 1.31661 6.8849 9.68556 -0.597189 -0.802907 -2.05314 1.60142 1.108 0.0726435 C
16 2 4.15034 4.09477 9.66575 1.04371 0.484506 0.145352 -0.462603 0.869143 1.05644 C
61 2 6.98979 6.92635 9.69858 -0.581382 -1.29656 0.741052 0.00545176 0.347841 -0.180807 C
48 2 9.67345 4.15664 9.76878 1.49461 1.053 -1.30416 0.921087 -0.666279 -1.68929 C
59 1 8.3764 5.53706 8.2869 2.51112 2.37998 -2.64938 -0.799767 0.0477433 0.206057 C
32 2 4.16649 9.72539 9.63742 1.75885 3.24572 -2.4902 -0.171366 -0.410754 0.893908 C
58 1 5.59412 8.31407 8.32085 -1.92044 -0.711366 -4.66573 -0.166365 -0.0666098 -0.174777 C
52 1 8.33236 8.35304 0.0461667 1.52678 1.18021 3.28899 0.294418 -0.642296 -1.46762 C
26 1 -0.0075663 8.30474 8.31348 -1.67098 -2.32796 4.9644 0.000910009 0.52947 -0.543455 C
64 2 9.70066 9.72225 9.6818 0.147892 -1.12051 -1.74071 0.695731 -1.03556 1.22658 C
ITEM: TIMESTEP
18100
ITEM: NUMBER OF ATOMS
64
ITEM: BOX BOUNDS pp pp pp
0.0000000000000000e+00 1.1085848640000000e+01
0.0000000000000000e+00 1.1085848640000000e+01
0.0000000000000000e+00 1.1085848640000000e+01
ITEM: ATOMS id type xu yu zu vx vy vz fx fy fz element
3 1 2.70008 -0.0579555 2.78834 1.75107 -2.26241 2.55555 1.58872 1.18349 -0.713373 C
7 2 4.11422 1.35149 1.34525 1.23645 -0.671197 -2.74591 0.258089 -0.0129419 1.01404 C
34 1 5.55031 2.77072 2.7234 1.71619 2.19812 1.05753 -0.298511 -0.425291 0.565549 C
2 1 0.0038586 2.82379 2.78742 4.20171 -1.24186 0.312774 -0.429478 -1.14689 -0.433118 C
36 1 8.27213 2.84041 -0.07257 -4.13659 -2.89772 -5.51608 1.41792 -0.932288 2.02479 C
39 2 9.69586 1.40301 1.37779 2.11541 -1.32878 2.77754 0.14661 1.52637 -0.919042 C
6 2 1.35438 4.18019 1.34064 -1.96177 -0.764313 -0.341074 0.209753 -0.968645 0.283724 C
19 1 2.69169 5.52236 2.74526 3.18314 -2.97922 3.49751 1.4599 0.806227 1.05733 C
23 2 4.10075 6.96651 1.42071 -2.68899 -3.23608 1.74237 0.48968 -0.740097 0.191746 C
38 2 6.92566 4.18263 1.37175 2.68452 0.410183 1.97061 -0.976998 -0.134407 -0.802281 C
49 1 5.50613 5.61851 0.0474964 3.86693 0.516501 -4.68034 0.705578 -0.275776 -0.810326 C
17 1 0.0119258 5.52301 -0.0445288 -1.6748 1.44256 -0.822373 -0.0151696 1.2052 0.442515 C
51 1 8.25437 5.54442 2.71899 -0.791811 0.444432 -3.12168 1.84159 -0.0203566 1.2177 C
55 2 9.69891 6.92576 1.33839 0.872457 1.94916 0.520426 -0.172155 0.146932 0.313657 C
20 1 2.84876 8.31016 -0.0346079 3.32248 0.422545 2.06942 -1.73224 0.633571 1.2161 C
22 2 1.38028 9.69965 1.37978 -2.51998 -0.722483 3.68964 -0.154373 -1.25047 -0.583028 C
33 1 5.5556 -0.0369181 0.000651373 -1.33341 2.50569 -3.20629 0.0234502 1.32144 -0.255183 C
50 1 5.51611 8.32329 2.77713 4.4221 -1.96027 0.812324 0.572271 -0.74079 0.0432662 C
54 2 6.88539 9.68804 1.38295 4.7502 1.0409 0.463075 1.35751 0.446558 0.380043 C
1 1 0.00575392 0.00444385 -0.00370912 -2.14847 -0.914123 3.86636 0.113247 0.100895 0.306547 C
35 1 8.31965 0.0717046 2.73809 2.524 -0.934828 3.21514 -0.774389 -1.71092 0.458203 C
18 1 0.00261079 8.29858 2.79908 -2.04288 2.5017 1.19896 -0.724264 0.544563 -1.29726 C
5 2 1.37825 1.36356 4.14701 -4.95065 0.586666 -1.32878 -0.275307 0.473539 0.478587 C
12 1 2.76224 2.79836 5.51678 2.4099 -2.49004 1.476 0.933561 -0.680106 0.269483 C
15 2 4.16609 1.39197 6.93198 -3.64878 1.78088 0.394204 -0.405104 -0.826443 -0.271235 C
37 2 6.91601 1.37529 4.16918 2.93604 -1.86517 -1.84971 0.00654572 0.527926 -0.33899 C
9 1 0.0592819 -0.0873933 5.55801 -1.14396 -0.226448 -2.12714 -1.97616 2.06311 -0.892575 C
44 1 8.31581 2.77079 5.57293 3.40571 -3.33299 1.12926 -0.799445 -0.407172 0.139295 C
47 2 9.70628 1.35784 6.91825 -0.961358 -2.32963 1.28575 1.20539 0.424789 0.36464 C
14 2 1.44614 4.15439 6.96857 -3.74772 4.70987 0.506051 -1.20073 -0.0192059 -0.825811 C
21 2 1.38143 6.97975 4.16911 -0.724098 1.04817 -0.489361 0.240735 -1.2694 -0.264954 C
8 2 4.21529 4.18332 4.16143 3.12717 0.764555 1.67123 -1.96455 -0.599561 -1.22272 C
31 2 4.11385 6.97167 6.89382 -0.0894254 0.17246 1.98786 0.908744 -0.444404 0.894557 C
46 2 6.87846 4.13825 6.96618 0.0804913 1.68797 -2.44513 0.178815 -0.167992 -0.396294 C
53 2 6.92675 6.90764 4.15761 2.45451 -2.58265 0.752439 -0.87932 0.23267 0.189605 C
57 1 5.4888 5.54622 5.56924 1.70339 -0.611966 3.03586 1.40513 0.478488 0.00307456 C
25 1 0.0443377 5.53444 5.51387 3.11172 4.65314 -0.732699 -0.378689 -0.511413 0.914915 C
40 2 9.66555 4.13498 4.19301 2.31841 -1.29457 -3.06201 0.178262 1.30428 -1.09851 C
63 2 9.72194 6.86623 6.92984 1.94254 1.66078 -1.9023 -0.512336 0.021871 0.550964 C
28 1 2.76259 8.3305 5.54249 -0.175591 1.50796 5.35522 -0.305789 0.802379 -0.139878 C
30 2 1.37136 9.72214 6.95055 -1.23374 1.96674 0.350705 1.27392 -1.4318 0.179086 C
41 1 5.51628 -0.0627522 5.49841 1.4568 0.421646 5.35306 0.642389 0.867246 1.18457 C
24 2 4.15413 9.67783 4.12261 0.179438 0.759456 -2.37494 -0.952621 0.0289509 0.507432 C
62 2 6.94731 9.66907 6.93953 1.05172 -1.22089 0.240434 -0.480316 0.911981 -0.330113 C
56 2 9.67648 9.70735 4.13629 0.5133 2.78262 0.0105651 -0.00272523 -0.441255 0.620242 C
60 1 8.30872 8.26337 5.57853 1.97897 1.94293 0.821559 0.633953 0.445637 -0.866112 C
4 1 2.77269 2.78578 -0.0248213 -3.21694 -9.20067 -0.669696 0.0611465 -0.000764126 0.806583 C
11 1 2.76157 -0.0274332 8.34336 -4.19163 -3.47657 -0.491698 1.39808 0.1573 -0.556411 C
13 2 1.46747 1.34856 9.7267 -1.81794 -1.34389 1.28945 -1.59452 0.487407 -0.0743321 C
42 1 5.57259 2.70815 8.36873 -0.734766 1.29537 -0.986411 -1.21367 1.40146 -0.614089 C
45 2 6.96467 1.4103 9.70734 -2.87313 0.0782842 1.01837 -0.985878 -1.18692 0.565798 C
10 1 0.0566273 2.75449 8.37081 -1.87674 -2.3348 -2.81672 -0.491059 -0.378865 -0.970351 C
43 1 8.28943 0.0550551 8.31497 -0.864991 -0.475565 2.30394 0.890631 -1.56133 0.0157264 C
27 1 2.81298 5.54224 8.29199 -0.465596 0.171485 -1.52434 0.251633 0.178898 0.709089 C
29 2 1.47092 6.91096 9.71804 -4.26666 -1.25527 -1.60746 -1.16407 0.274955 -1.02731 C
16 2 4.16931 4.16859 9.7331 -1.88436 -3.5732 -3.54902 0.629368 0.0394401 -0.633804 C
61 2 6.92176 7.01079 9.67735 2.05525 -0.519521 -2.47741 -0.613202 -1.67004 0.67082 C
48 2 9.72108 4.16357 9.70914 -2.2272 3.19846 1.13633 -0.341828 -0.177998 -0.936956 C
59 1 8.24496 5.50098 8.35892 4.27919 0.747024 0.389469 1.34979 0.947187 -0.681259 C
32 2 4.19814 9.68589 9.72468 -0.957981 1.05182 -0.299153 -0.245002 0.425094 -1.15143 C
58 1 5.53985 8.3303 8.30331 3.17975 1.82169 4.31156 -0.443971 -0.0526039 -0.450745 C
52 1 8.29929 8.35344 -0.0470855 -0.868464 0.192768 0.957153 0.204625 -0.358853 1.29932 C
26 1 0.025066 8.30226 8.29434 1.89839 3.6275 -3.08467 -0.280508 -0.411898 1.09084 C
64 2 9.70058 9.70533 9.7172 -0.559216 0.5104 -2.72461 0.207338 0.547026 -1.41234 C
ITEM: TIMESTEP
18200
ITEM: NUMBER OF ATOMS
64
ITEM: BOX BOUNDS pp pp pp
0.0000000000000000e+00 1.1085848640000000e+01
0.0000000000000000e+00 1.1085848640000000e+01
0.0000000000000000e+00 1.1085848640000000e+01
ITEM: ATOMS id type xu yu zu vx vy vz fx fy fz element
3 1 2.82878 0.00727448 2.76905 -3.69379 -3.45854 0.0221403 0.0399539 -0.749188 1.42155 C
7 2 4.14817 1.40287 1.44879 -0.746649 -0.240988 -1.84002 0.0391047 -0.0811902 -1.70303 C
34 1 5.48916 2.74737 2.80181 -1.37821 -3.75408 -3.25261 1.33647 0.793163 0.321194 C
2 1 -0.0165064 2.75577 2.72265 -1.19116 2.75988 1.44344 1.02792 -0.111052 0.722263 C
36 1 8.32693 2.73352 0.0456655 -1.12116 2.10349 -1.26848 -1.40581 0.417388 -2.53933 C
39 2 9.63773 1.38463 1.34185 -0.147543 -1.13456 2.6876 1.7865 -1.67188 1.31634 C
6 2 1.44294 4.15954 1.36781 -0.677556 1.32621 0.509502 -0.885432 0.334566 0.624641 C
19 1 2.87252 5.54189 2.72771 -5.26585 -1.13069 -4.35573 -0.367609 0.130394 -0.0625598 C
23 2 4.28046 6.93057 1.35108 -1.06861 1.58926 0.834871 -2.51709 -1.25291 -0.854188 C
38 2 6.93412 4.08089 1.38003 -0.439488 0.0369887 1.1292 -0.25107 1.04283 1.13372 C
49 1 5.52572 5.42889 -0.0422592 -4.98882 -0.63976 1.35425 0.912881 0.950507 0.445554 C
17 1 0.00759755 5.53929 0.0186761 4.03976 -1.96959 -2.67655 0.215499 -0.689514 -0.123569 C
51 1 8.34614 5.55379 2.79502 -5.31347 1.2064 -0.138963 -1.35048 -0.425946 -0.87981 C
55 2 9.75126 6.87431 1.42075 0.946963 -1.9614 0.506034 -0.20763 0.978505 0.0208378 C
20 1 2.69407 8.26174 0.0530932 1.28532 -0.891918 -6.29676 2.87311 0.272151 -0.658987 C
22 2 1.49777 9.71811 1.39012 0.975256 1.5902 0.0953534 -2.6967 0.270269 0.213884 C
33 1 5.49651 -0.0122545 0.0381255 -0.302031 -5.72207 3.54708 0.023322 0.0565321 -0.549289 C
50 1 5.53038 8.2736 2.73017 -1.46201 3.19788 -0.0186158 0.798052 1.00003 0.91339 C
54 2 6.87188 9.64295 1.36351 -4.20914 0.974407 -0.932527 1.18208 0.259721 0.197155 C
1 1 0.0109139 -0.0141525 -0.0274392 0.0319262 -0.497194 -0.939652 -0.42177 -0.00275082 0.816513 C
35 1 8.2897 -0.0508643 2.75628 1.50244 6.72778 -3.44095 -0.123034 0.830396 0.298359 C
18 1 0.0700471 8.30372 2.76326 4.16106 -2.18307 2.23469 0.427378 0.324894 0.832132 C
5 2 1.45292 1.37062 4.18617 -0.396753 -1.5288 -1.14178 -1.48091 0.908422 -1.2312 C
12 1 2.72876 2.81132 5.5654 -1.7896 2.42216 0.362184 1.30518 -0.747159 0.320439 C
15 2 4.15672 1.36915 6.95623 2.28875 0.685174 3.57954 -0.781713 1.38567 -1.30844 C
37 2 6.9388 1.42778 4.18719 -1.17435 -1.36403 -1.93794 -0.137245 -0.787998 -1.33178 C
9 1 -0.00677718 0.100063 5.57491 6.64604 -7.4227 2.45383 0.986096 -1.52946 -0.367317 C
44 1 8.30518 2.84287 5.48828 1.19609 4.56976 -0.461914 0.747333 -0.454625 0.410684 C
47 2 9.66412 1.44921 6.88849 0.793518 -2.14308 -1.73384 -0.266188 0.286616 0.716103 C
14 2 1.339 4.14842 6.93433 3.00108 0.0100844 1.35454 -0.291848 0.959494 0.196714 C
21 2 1.53315 6.90026 4.15949 0.637716 1.26105 -0.95212 -2.39424 -0.185372 -0.547035 C
8 2 4.14447 4.17509 4.17441 2.7334 3.53227 -0.813183 0.326681 -0.518501 -0.066535 C
31 2 4.18217 6.86898 6.92825 -1.05517 -1.13548 -2.22539 -1.03166 0.0501051 -0.326351 C
46 2 6.96332 4.16317 6.90444 -3.97162 2.00609 2.72783 -1.15882 0.3679 -0.360215 C
53 2 6.90113 6.96235 4.12478 -2.17663 -0.923791 -0.835245 1.03889 -0.370031 0.00535336 C
57 1 5.57719 5.55096 5.49119 -2.89028 -0.361684 1.15726 -0.165237 -0.386432 0.961041 C
25 1 -0.0292912 5.5471 5.53282 0.924987 -0.00551174 -2.15512 1.2842 0.979277 0.0141618 C
40 2 9.72406 4.19608 4.12494 -0.769672 -0.678558 0.449631 -0.00406457 -0.86159 0.0201598 C
63 2 9.67135 6.97702 6.92056 -1.10607 -1.92699 2.17136 -0.163118 -0.185008 -0.708635 C
28 1 2.84776 8.28788 5.50885 1.56544 -3.98598 -1.02657 -0.0290679 0.13948 1.28173 C
30 2 1.44548 9.70684 6.87779 -1.69189 1.32411 1.53693 -0.936762 0.125149 1.34427 C
41 1 5.52603 0.0727926 5.52916 -1.19297 -3.10249 -2.26684 0.226366 -1.38489 0.505503 C
24 2 4.21281 9.6495 4.16459 -0.258557 -0.706063 -1.00638 -0.159658 1.38308 -0.779765 C
62 2 6.84742 9.75395 6.98828 -0.737074 -1.02829 2.32332 0.0775897 -1.05766 -1.41733 C
56 2 9.75605 9.74352 4.18527 0.638889 1.00306 -2.92323 -0.435364 -0.545716 -0.7668 C
60 1 8.25676 8.38216 5.51207 -3.29646 -2.22463 3.51531 0.344806 0.0490783 0.95954 C
4 1 2.79714 2.81031 0.00971874 3.86903 4.62029 -2.22223 -0.532102 -1.37502 -0.448459 C
11 1 2.80994 0.043101 8.34533 1.87046 1.74927 1.72361 -1.64444 -0.81929 -0.0245982 C
13 2 1.32757 1.43933 9.69811 5.84254 -0.340974 -1.47007 1.11262 -0.0902943 -0.126531 C
42 1 5.49764 2.79654 8.25042 0.484093 -2.96877 2.11693 1.00555 -0.148083 1.09652 C
45 2 6.8746 1.35654 9.67726 0.651251 0.743718 -0.960932 0.417716 0.909408 0.39681 C
10 1 -0.0694805 2.8313 8.31768 3.82926 -0.113489 3.2813 0.44198 -0.994398 -0.205806 C
43 1 8.2987 0.0165137 8.26635 -0.881086 3.07983 -1.31065 -0.118059 0.302943 0.99128 C
27 1 2.70404 5.55182 8.33786 2.86721 -0.98459 1.40617 0.334733 0.118564 -0.787672 C
29 2 1.35602 6.93778 9.74785 2.64001 -1.45401 0.584027 -0.558771 -0.414274 -0.751154 C
16 2 4.10017 4.16087 9.65067 1.4886 0.902348 1.2564 0.443834 -0.456718 0.0261518 C
61 2 6.9102 6.86852 9.7148 -0.691287 2.60028 -1.48337 -0.300042 0.304954 -0.500934 C
48 2 9.68464 4.16592 9.72539 0.607553 0.809045 1.28792 -0.777687 0.588568 -0.00970088 C
59 1 8.29838 5.56249 8.26797 -7.43047 -3.31486 1.28083 0.544596 -0.349207 1.10963 C
32 2 4.10109 9.67945 9.73902 2.13047 1.6878 -1.11621 -0.0732558 -0.414098 0.223429 C
58 1 5.45719 8.26119 8.32765 -0.607068 -1.27168 -1.15362 1.38398 0.842678 0.808064 C
52 1 8.32138 8.22024 0.038674 -0.12989 3.87159 -2.19263 -0.506852 0.793883 -0.320808 C
26 1 -0.0273588 8.3018 8.34169 0.456566 -2.48504 1.79724 0.614289 1.25205 -0.607566 C
64 2 9.62448 9.69783 9.71797 -0.88531 -0.80525 1.2312 0.87502 -0.348403 -0.299708 C
ITEM: TIMESTEP
18300
ITEM: NUMBER OF ATOMS
64
ITEM: BOX BOUNDS pp pp pp
0.0000000000000000e+00 1.1085848640000000e+01
0.0000000000000000e+00 1.1085848640000000e+01
0.0000000000000000e+00 1.1085848640000000e+01
ITEM: ATOMS id type xu yu zu vx vy vz fx fy fz element
3 1 2.73205 0.0413956 2.753 0.00730195 2.13148 -3.37901 -0.404501 -1.14975 -0.504728 C
7 2 4.17621 1.35569 1.37453 0.968529 0.576202 2.90421 0.481712 1.49132 0.148847 C
34 1 5.60928 2.839 2.7718 -4.29153 2.55398 0.844391 -1.18662 -1.40185 -0.386848 C
2 1 0.00405601 2.77501 2.82535 -0.878772 0.174421 -3.41727 -0.528795 0.509854 -0.0744041 C
36 1 8.36728 2.82261 -0.0036506 2.20886 -1.15416 5.25584 0.0349662 -0.104659 0.579235 C
39 2 9.73903 1.42026 1.4057 -3.58859 2.15533 0.0104535 -1.09324 -0.488108 0.30337 C
6 2 1.33038 4.17968 1.38175 -0.176061 0.532033 0.00524094 0.440324 -0.18523 0.924227 C
19 1 2.66756 5.61659 2.82833 3.44699 -0.575622 0.441033 0.456734 -1.2035 -0.654859 C
23 2 4.07244 7.01774 1.45896 3.9659 2.83411 3.33946 1.24917 -0.685603 -0.0239267 C
38 2 6.96966 4.23203 1.41383 1.16486 -1.92639 -0.353689 -0.146916 -0.932031 -0.90473 C
49 1 5.58055 5.6626 0.0992979 -0.543642 -1.69794 -0.773729 -1.26006 -0.839006 -1.06775 C
17 1 -0.0658015 5.51605 0.00266561 -4.16996 1.72762 1.65578 1.11546 0.695518 -0.679512 C
51 1 8.32528 5.51818 2.79298 5.20784 1.40663 1.51572 0.0101295 1.31001 0.337072 C
55 2 9.6177 6.93606 1.2898 0.885669 -2.57788 0.0594251 0.231173 -0.432261 1.59696 C
20 1 2.80078 8.3467 -0.011448 -6.91659 -1.34776 5.79274 -1.19633 -0.197216 -0.588244 C
22 2 1.32782 9.6874 1.35096 3.49158 -0.0662729 1.57808 0.662516 0.590146 0.538889 C
33 1 5.6147 0.0592666 -0.0648675 1.02838 3.07324 -0.817261 -0.292663 -1.33784 1.44505 C
50 1 5.51544 8.37272 2.8225 -3.79717 -4.77073 -3.4451 -0.13831 -0.141206 -0.463538 C
54 2 6.9729 9.72581 1.44458 -1.23937 0.521161 1.75636 -1.72752 -0.0580241 -1.54183 C
1 1 6.06048e-05 0.0531479 -0.00903889 2.56982 2.00689 -3.64374 0.234522 -0.550624 -0.160501 C
35 1 8.30312 -0.0234247 2.80373 1.52363 -6.48228 1.92611 1.42818 1.27477 0.146292 C
18 1 -0.117087 8.3122 2.72121 -4.47013 -1.00453 -3.10936 0.710653 -0.222825 0.170463 C
5 2 1.34214 1.34148 4.17173 -1.09391 -2.80549 0.529293 0.357856 0.676704 -0.391469 C
12 1 2.79793 2.69982 5.4866 -4.05492 -0.251708 -2.1072 -0.939595 0.789939 0.696049 C
15 2 4.17906 1.38048 6.86973 2.10286 -3.35162 3.39923 0.55743 -0.580786 1.44683 C
37 2 6.95257 1.39992 4.17153 1.84724 1.66001 1.35962 -0.962786 -0.850108 -0.468379 C
9 1 -0.0784942 0.00927187 5.51338 -4.99023 7.50716 0.157534 1.13068 -0.781631 0.996624 C
44 1 8.29389 2.65899 5.61747 -3.31567 -2.19346 -0.170589 0.641296 1.25088 -0.538666 C
47 2 9.71885 1.35081 6.96654 0.555655 0.162448 -1.28806 -0.417492 -0.302351 -0.253617 C
14 2 1.43434 4.12655 6.9214 -0.557164 -0.856652 1.56626 -0.163197 -0.598784 -0.631535 C
21 2 1.21165 6.91669 4.18765 2.13627 -1.55261 -0.0991058 1.07065 0.961191 -0.38773 C
8 2 4.11052 4.12276 4.12925 -0.553266 2.70875 0.593613 0.418687 1.33787 -0.0781387 C
31 2 4.16845 6.9797 6.91808 3.68582 -1.33684 0.0919056 -0.358333 0.0619378 -0.495299 C
46 2 6.97274 4.11573 6.91494 1.82908 0.227732 0.486617 -0.374838 1.27543 0.899787 C
53 2 6.88812 6.92115 4.15375 -3.86036 -0.616686 -0.232914 0.537384 -0.293362 -0.158682 C
57 1 5.5253 5.52289 5.53123 -0.446248 -0.550607 -3.9181 -0.154609 -0.327631 0.315886 C
25 1 -0.0235189 5.4793 5.5881 -4.36605 -3.54719 2.5709 -0.313027 -0.312215 0.102082 C
40 2 9.62995 4.11174 4.2424 0.605711 0.418596 -1.8576 0.837665 -0.379643 -0.581413 C
63 2 9.72099 6.85745 6.96976 1.18539 -0.830298 1.95327 0.225226 0.948202 -0.37205 C
28 1 2.65754 8.35167 5.52196 -0.850947 -0.905327 -2.66897 1.01772 -1.2584 -0.142909 C
30 2 1.3272 9.69329 6.90129 2.1694 1.44879 -3.37286 -0.400517 0.826544 -0.67767 C
41 1 5.55031 -0.0515098 5.50039 -0.351312 6.71385 -2.19436 0.265758 0.890493 0.222263 C
24 2 4.06505 9.73791 4.14803 0.441473 -2.55903 -0.837045 0.45917 -0.39882 0.158644 C
62 2 7.05579 9.7115 6.85219 -0.275838 3.14291 2.53297 -1.10048 -0.4229 0.639004 C
56 2 9.67746 9.66791 4.20056 0.663639 3.42185 0.92768 -0.423108 0.115313 -1.34798 C
60 1 8.36574 8.21996 5.5204 0.801652 0.875243 -4.79529 -0.509098 0.174895 0.645906 C
4 1 2.71044 2.73851 0.0240044 -0.250063 1.88651 2.94151 1.38303 0.890502 -0.139925 C
11 1 2.71657 -0.0421372 8.23794 3.94127 -0.486596 0.603061 1.61921 0.919036 0.930623 C
13 2 1.39374 1.38964 9.67485 -2.10908 0.45395 0.0658273 -0.219163 -0.513613 -0.409785 C
42 1 5.6134 2.78159 8.34746 -1.29275 -0.250162 -3.86984 -0.919648 -0.756123 -0.435881 C
45 2 7.05579 1.38757 9.7033 -1.749 -2.23637 -1.01243 -0.896252 0.667557 -0.340339 C
10 1 0.00930424 2.73935 8.27001 -2.56865 4.11938 0.22045 0.958275 0.432473 0.494339 C
43 1 8.3772 -0.0392867 8.34399 0.745621 -0.423388 -2.23443 0.0709991 0.379008 -0.799153 C
27 1 2.77733 5.54982 8.27733 -1.75734 -0.362588 -0.130164 0.794914 -0.283237 0.907018 C
29 2 1.37884 6.88502 9.69614 -1.01984 0.0852911 0.914505 0.102387 0.990782 0.169109 C
16 2 4.1731 4.16089 9.74421 -1.71611 0.178565 -3.37514 0.225442 0.713004 0.306723 C
61 2 6.98935 6.97385 9.72308 1.15121 -1.88793 -1.77728 -0.920674 -0.502531 -0.863394 C
48 2 9.76842 4.13259 9.65754 2.76452 1.42457 -0.921348 -0.567913 -0.346857 0.651322 C
59 1 8.38651 5.51783 8.36657 1.4456 0.740962 -2.64599 -1.61838 -0.113412 -0.711222 C
32 2 4.20537 9.71041 9.66749 -0.546487 1.37177 0.0276347 -0.271013 0.614165 -0.4177 C
58 1 5.63355 8.3717 8.26918 -5.19789 -2.87105 -0.845915 -0.25804 -0.670485 0.124287 C
52 1 8.29255 8.37361 -0.0286972 1.5433 -6.91471 2.15968 0.927008 0.490584 0.205296 C
26 1 0.0206522 8.33113 8.27837 -0.502917 -2.27522 -1.94799 -0.191517 -1.45391 0.859214 C
64 2 9.77375 9.70739 9.68063 -1.31938 0.497134 -1.22902 -0.701699 -0.201612 0.732405 C
ITEM: TIMESTEP
18400
ITEM: NUMBER OF ATOMS
64
ITEM: BOX BOUNDS pp pp pp
0.0000000000000000e+00 1.1085848640000000e+01
0.0000000000000000e+00 1.1085848640000000e+01
0.0000000000000000e+00 1.1085848640000000e+01
ITEM: ATOMS id type xu yu zu vx vy vz fx fy fz element
3 1 2.82215 -0.0317672 2.81847 0.926162 2.76599 2.68675 -0.568689 0.953684 -0.54473 C
7 2 4.11684 1.38004 1.38195 -0.166517 -5.68771 -0.332425 0.269568 -0.468606 0.503841 C
34 1 5.53136 2.68862 2.78867 7.11859 0.670836 0.826549 -0.408177 1.45536 -0.548715 C
2 1 0.0126549 2.75182 2.73783 0.0919445 -1.60131 1.12383 0.326337 0.271265 -0.541327 C
36 1 8.23946 2.74554 -0.0550361 1.97043 0.747124 -3.22584 0.73279 0.0634477 1.6045 C
39 2 9.70265 1.33698 1.33614 2.35251 -0.00914053 2.36131 -0.676372 1.33353 0.267551 C
6 2 1.4385 4.15286 1.33265 -1.40378 2.36446 -1.46428 -0.505076 -0.436485 0.552354 C
19 1 2.86102 5.46804 2.73857 -6.69124 4.83883 1.44217 -0.468392 0.318739 0.642158 C
23 2 4.18343 6.80506 1.31394 -1.34288 0.993209 2.65737 0.828271 2.03667 0.702432 C
38 2 6.87816 4.13368 1.38456 1.4612 1.91631 3.49407 0.302769 -0.327987 -0.336313 C
49 1 5.53853 5.47514 -0.107985 2.72964 1.14376 4.65452 0.298529 0.0305657 1.37987 C
17 1 0.0728734 5.59093 -0.0159371 -1.8585 -4.51644 0.574946 -1.77256 -0.818058 0.748565 C
51 1 8.29838 5.55591 2.7345 -1.08251 -6.30505 -0.467659 0.94274 -0.618021 -0.292974 C
55 2 9.74371 6.96226 1.41339 1.22693 0.922409 -4.5661 0.294046 0.159376 -0.346101 C
20 1 2.78814 8.29654 -0.00422619 3.27617 -1.0598 -2.40454 -0.703432 -0.580424 1.12631 C
22 2 1.4141 9.70158 1.43427 -0.123032 -1.00488 0.166118 0.697487 -0.541868 -0.438312 C
33 1 5.4746 -0.0466415 0.0573495 0.632459 -0.704722 -2.65951 0.734807 0.844938 -1.07768 C
50 1 5.63102 8.27546 2.75405 1.82256 3.14428 3.13586 -1.50306 -1.09478 -0.711824 C
54 2 6.90712 9.63697 1.3112 1.22193 -0.627239 3.55631 0.698082 1.65237 1.72901 C
1 1 -0.0284186 -0.108431 0.0496657 -3.17247 -0.495192 3.43989 0.630444 1.28589 -1.26706 C
35 1 8.26448 0.0563444 2.73021 -5.80352 -0.489416 -3.81407 0.448201 -2.06106 0.0976311 C
18 1 0.0835993 8.35216 2.82705 1.46914 -0.103167 1.42136 -0.779163 -0.883024 -0.155226 C
5 2 1.44272 1.43338 4.16195 -1.4474 -2.39916 1.04019 -0.294416 -0.729001 0.517013 C
12 1 2.77018 2.85499 5.60646 2.83947 0.022002 -1.68624 -0.757586 -0.343333 -1.27504 C
15 2 4.06626 1.43223 6.92625 -2.92966 1.59313 -0.62317 1.43499 -0.934917 0.694988 C
37 2 6.89153 1.3754 4.15191 2.81263 -0.693167 -1.03875 1.03527 0.0494627 1.3408 C
9 1 0.0747234 -0.0476372 5.55098 -2.48802 0.711297 -0.823972 -0.995873 1.74447 -0.0668236 C
44 1 8.36792 2.84103 5.48007 0.306378 -1.88513 0.156659 -1.04001 -1.3476 0.655387 C
47 2 9.68504 1.37512 6.92901 0.163282 -2.09679 1.92275 0.371696 -0.107273 -0.719934 C
14 2 1.31854 4.20847 6.92713 -2.09582 2.4133 2.04747 0.461124 -0.237262 0.631639 C
21 2 1.55789 6.96403 4.14298 0.186026 0.18992 -0.65154 -0.755567 -0.215733 -0.0835831 C
8 2 4.21914 4.12744 4.20007 2.64208 -0.693751 -0.42374 0.0677722 0.50345 -0.0651438 C
31 2 4.09675 6.91467 6.97111 1.42171 -0.303038 1.33281 1.94748 0.242964 0.519509 C
46 2 6.92941 4.17369 6.90441 1.29161 -0.652649 -1.04279 0.373429 -0.504693 0.622259 C
53 2 7.00888 6.91829 4.14777 -1.66562 -0.0430929 -1.95922 -1.07561 0.515597 1.12294 C
57 1 5.57883 5.57965 5.60352 1.48079 1.95833 -1.20379 -0.617984 0.0945707 -1.38155 C
25 1 0.0616455 5.62809 5.47775 1.87153 2.34228 -5.23483 -0.724059 -0.203185 0.010132 C
40 2 9.73997 4.19324 4.09931 -0.235214 -0.0854601 1.20539 0.34331 0.51899 -0.107504 C
63 2 9.70795 7.00735 6.86108 0.0783052 -1.44492 2.30804 0.083799 -0.810903 1.05826 C
28 1 2.8799 8.35952 5.58582 -2.85093 5.36923 -0.472574 -1.10712 0.106596 -0.583805 C
30 2 1.40416 9.69958 6.97351 -3.42942 2.36879 1.72598 0.544707 -0.305957 0.252772 C
41 1 5.53264 -0.015548 5.61905 -2.79542 -7.51069 -1.77742 -0.513538 0.889876 -0.998577 C
24 2 4.24886 9.69053 4.12507 1.58075 0.534337 -1.62196 0.118349 -0.24454 1.0129 C
62 2 6.84867 9.66602 6.99408 1.74231 1.00056 0.267926 0.886674 0.930915 0.0643715 C
56 2 9.71145 9.73022 4.16083 4.06521 2.70047 2.5566 -0.584125 0.329251 -0.192643 C
60 1 8.27147 8.39182 5.58392 -1.03189 -1.97189 -1.08142 0.673988 -0.485377 -1.20213 C
4 1 2.79025 2.74904 -0.0482542 -5.09248 -2.98334 -1.72265 -0.558287 -0.0502727 0.813786 C
11 1 2.76025 0.0411914 8.36811 -9.57343 -0.937667 -3.55085 0.137728 -1.07315 -0.33788 C
13 2 1.37566 1.36118 9.73518 -0.766064 0.218411 -3.36101 -1.04616 -0.326267 0.359988 C
42 1 5.48838 2.78842 8.2948 3.21883 3.58578 1.20811 0.573324 -0.215064 -0.47444 C
45 2 6.84183 1.38638 9.70196 1.16965 -0.647311 -1.52637 -0.463856 -0.668252 -0.120969 C
10 1 -0.0103072 2.73978 8.33375 -5.84083 -2.4761 -2.47771 -0.860315 1.15192 0.423647 C
43 1 8.25153 0.0212166 8.32471 -1.16305 -0.519201 1.72515 0.0130626 -0.31732 -0.126221 C
27 1 2.73083 5.54669 8.34332 -5.68757 1.82279 -1.73078 -0.347759 -0.334616 -0.40597 C
29 2 1.37432 6.95418 9.69096 -3.07187 -3.3015 0.775585 0.567512 0.307035 0.0739817 C
16 2 4.12172 4.12621 9.6758 -1.58823 -2.99843 -0.85737 -0.0487413 0.356046 -0.655252 C
61 2 6.91942 6.92638 9.70851 3.90777 1.07656 0.559042 0.558818 0.165908 -0.150098 C
48 2 9.62707 4.19565 9.75545 0.18153 1.65999 -1.60173 1.44436 -0.091932 -1.53791 C
59 1 8.28961 5.59368 8.27364 3.99697 -0.250287 1.70378 0.787707 -0.173713 0.11173 C
32 2 4.13088 9.68042 9.76592 -0.147773 -0.443139 0.770364 0.0215652 0.65061 -1.20526 C
58 1 5.52125 8.30597 8.38688 3.95399 3.74389 -1.00891 -1.03373 -0.538766 -0.437169 C
52 1 8.32942 8.33669 -0.00463972 -4.28784 3.45407 -3.69576 -0.154865 -1.63468 -0.0955989 C
26 1 -0.0269057 8.32736 8.35988 0.278627 5.11049 -0.0568606 0.0591973 0.212446 -1.16932 C
64 2 9.6354 9.6926 9.69229 1.19687 0.232363 -1.87821 0.654581 0.548178 0.0127465 C
ITEM: TIMESTEP
18500
ITEM: NUMBER OF ATOMS
64
ITEM: BOX BOUNDS pp pp pp
0.0000000000000000e+00 1.1085848640000000e+01
0.0000000000000000e+00 1.1085848640000000e+01
0.0000000000000000e+00 1.1085848640000000e+01
ITEM: ATOMS id type xu yu zu vx vy vz fx fy fz element
3 1 2.74871 0.000858964 2.7367 0.784178 -3.11902 -0.724507 0.263955 0.820344 -0.0577032 C
7 2 4.1703 1.45433 1.36977 0.340842 2.72426 0.558822 -0.0771926 -1.95783 0.488207 C
34 1 5.48538 2.84174 2.72165 -5.64735 -3.65487 1.06472 1.42195 -0.830483 0.906902 C
2 1 0.0102959 2.80247 2.81893 -0.893215 -1.16474 0.942776 -0.896881 -0.709733 -0.0935829 C
36 1 8.31027 2.76496 0.0528305 -4.48712 0.482366 -4.42415 0.433228 -0.367736 -1.3109 C
39 2 9.7117 1.39547 1.40108 0.524507 -1.32221 -0.33553 0.981226 0.202733 0.211596 C
6 2 1.38219 4.1194 1.43338 0.120369 1.85415 -1.26086 0.24866 1.40716 -0.76065 C
19 1 2.7762 5.54926 2.77974 8.10014 -3.52668 -3.06442 -1.4497 0.85637 -0.319783 C
23 2 4.14803 6.98759 1.39042 -1.31109 -0.309886 2.05117 -0.574761 -0.740473 0.107011 C
38 2 6.9406 4.14744 1.36254 -2.15881 0.271955 1.12293 -0.394911 1.26493 1.01422 C
49 1 5.54375 5.58737 0.0560131 -2.50161 3.85068 -5.91867 -0.0226847 -0.219271 -0.38112 C
17 1 -0.00124773 5.53612 -0.00232427 4.64698 6.59977 -2.68567 0.643532 -0.110328 0.310354 C
51 1 8.28934 5.57747 2.78565 -3.36331 6.41558 -0.698764 -0.481534 -1.65677 0.459316 C
55 2 9.65925 6.86344 1.43505 -0.638631 -3.58207 0.534847 1.19394 0.702281 -1.28276 C
20 1 2.78122 8.35694 -0.0169143 1.06999 4.86466 -1.40375 0.0966225 0.128198 -0.784999 C
22 2 1.36496 9.7472 1.33742 1.02182 0.992618 1.54214 -0.440027 -0.630873 0.031027 C
33 1 5.55272 0.0256165 -0.00823416 -3.26272 0.605486 1.95611 -0.609373 -0.329164 -0.0686373 C
50 1 5.48909 8.34235 2.76864 1.25409 0.596994 -1.50209 1.07678 0.875442 0.993202 C
54 2 6.94187 9.74876 1.36262 -3.47146 -2.30097 -2.16317 0.33498 -0.667382 1.47524 C
1 1 0.030669 0.0911427 -0.0865758 -0.333016 -3.38289 -0.172956 -0.983532 -1.35181 1.86625 C
35 1 8.41422 -0.00709376 2.83571 -2.44918 4.21283 2.52486 -2.80437 0.788979 -1.55601 C
18 1 -0.0292337 8.27717 2.72978 -3.64722 3.54735 -3.56556 0.264691 0.544627 -0.0775855 C
5 2 1.39461 1.37926 4.14515 -0.555636 -0.703651 -0.503347 -0.424213 -0.549438 -0.0218282 C
12 1 2.80154 2.69697 5.49982 1.51431 -0.0851895 3.22626 0.944163 0.47227 0.352691 C
15 2 4.2523 1.38015 6.9349 1.26632 -0.499638 2.04689 -1.54168 0.268455 -0.101932 C
37 2 6.90085 1.42339 4.14684 -3.28525 1.01331 -2.67194 0.79244 0.392819 -0.923124 C
9 1 0.0293677 -0.0162772 5.55389 2.03183 -5.73756 -2.98145 -0.98662 -0.573109 -1.22618 C
44 1 8.25632 2.78747 5.58306 -0.574148 2.68229 -0.742957 -0.22126 0.57456 -0.983191 C
47 2 9.6895 1.42063 6.85906 4.07457 -1.9277 -0.332135 1.46543 -0.050035 1.81231 C
14 2 1.52752 4.11991 6.89072 1.85376 -1.1885 0.379075 -1.17593 0.615625 1.01286 C
21 2 1.2635 6.88632 4.17648 1.43131 -2.27655 -0.252 1.22941 -0.479019 -0.267667 C
8 2 4.10159 4.16143 4.1095 -0.346676 1.992 -1.77894 0.496923 -0.439319 0.686066 C
31 2 4.15472 6.89608 6.87465 -3.08955 -1.90663 -1.72499 0.295519 0.158508 0.232638 C
46 2 6.82827 4.16152 6.94624 -3.00806 2.34336 1.14705 0.801927 -0.327476 0.0877982 C
53 2 6.93438 6.9298 4.18485 -3.06768 -1.70729 -1.80888 -1.00498 0.601489 -0.422637 C
57 1 5.48725 5.51257 5.49377 -0.276606 -1.8506 4.50033 0.612306 0.267945 0.156934 C
25 1 -0.0346098 5.50748 5.66037 0.560819 -1.64412 5.15784 0.372593 -0.453064 -1.45554 C
40 2 9.65626 4.17488 4.18777 -1.79641 -0.625553 -0.00156687 0.23679 -0.0223505 0.445736 C
63 2 9.66418 6.9082 6.96502 0.789501 -1.54757 2.46713 -0.0536324 -0.374691 0.745315 C
28 1 2.70314 8.21546 5.54437 2.90517 -0.572229 1.51711 0.0247317 1.07979 -0.353278 C
30 2 1.39461 9.65596 6.92244 -0.0368483 0.01861 0.495079 0.377457 0.551472 0.837402 C
41 1 5.59389 0.075128 5.54744 2.79833 2.04385 2.87171 -0.741519 -2.52454 -0.493062 C
24 2 4.04268 9.72078 4.20575 -0.665641 -0.630884 -5.2147 1.85963 -0.173726 -0.190269 C
62 2 6.98425 9.6903 6.90006 -1.0998 -0.556912 3.02564 -0.746738 0.362717 0.485396 C
56 2 9.66697 9.62257 4.11212 -0.794951 2.04805 -0.731926 2.31253 0.788395 1.78197 C
60 1 8.36009 8.29525 5.56033 -0.575784 1.77025 2.80011 -0.961805 -0.361259 -0.426322 C
4 1 2.8256 2.80975 0.0585095 2.28542 1.84441 -0.121744 -0.958692 0.404777 -1.1577 C
11 1 2.8748 -0.0124057 8.311 5.98073 2.1955 1.99979 -2.20478 0.761491 -0.961753 C
13 2 1.45386 1.41882 9.73483 6.23255 0.530509 0.182826 1.10683 0.364436 -1.58805 C
42 1 5.53956 2.72887 8.36341 -4.06587 -1.18162 0.654432 0.176337 1.16668 0.383111 C
45 2 6.93508 1.35529 9.72944 0.437611 -0.998094 0.58382 1.05054 0.572538 -0.57037 C
10 1 0.0897926 2.81416 8.31366 5.86727 -4.48605 -2.01755 -0.746465 -1.06076 -0.672016 C
43 1 8.37047 0.0108219 8.29171 1.06532 0.930542 -0.56634 -0.781269 -0.198444 0.439101 C
27 1 2.90416 5.51374 8.30805 4.91438 -0.207697 0.641226 -1.8645 0.403573 -0.292093 C
29 2 1.44589 6.9145 9.65494 0.476623 -0.984727 -0.815186 -0.333596 -0.367172 0.679636 C
16 2 4.19707 4.21127 9.74861 2.3409 1.14103 -0.000128675 0.514577 -1.42812 0.204024 C
61 2 6.85377 6.93661 9.70288 -1.05973 0.502259 -0.725973 1.4106 0.133594 0.551401 C
48 2 9.72115 4.13263 9.70766 1.12874 2.6776 3.22641 -0.641535 0.236785 -0.0245703 C
59 1 8.2431 5.51461 8.34881 -3.70059 0.642449 -0.61829 0.456289 0.149183 -0.112746 C
32 2 4.19863 9.72026 9.61659 2.85947 2.13977 0.263213 0.371656 -0.907351 2.0828 C
58 1 5.52043 8.27777 8.2626 -1.31522 -0.146114 0.670217 0.713155 0.860972 -0.492843 C
52 1 8.33547 8.26627 0.0579189 1.8271 2.56846 3.99674 -1.17868 0.613292 -1.01998 C
26 1 -0.00315346 8.27527 8.3095 -2.24062 -4.4187 3.45646 -0.122321 0.67569 0.568945 C
64 2 9.68925 9.6936 9.74374 -1.71152 -1.30866 -1.92435 0.843766 -0.206402 -0.958581 C
ITEM: TIMESTEP
18600
ITEM: NUMBER OF ATOMS
64
ITEM: BOX BOUNDS pp pp pp
0.0000000000000000e+00 1.1085848640000000e+01
0.0000000000000000e+00 1.1085848640000000e+01
0.0000000000000000e+00 1.1085848640000000e+01
ITEM: ATOMS id type xu yu zu vx vy vz fx fy fz element
3 1 2.74703 0.0379819 2.76535 0.536814 -1.69326 3.028 0.360348 -1.45921 0.395128 C
7 2 4.1565 1.34439 1.3744 1.13221 1.55784 -0.372871 0.91904 1.79063 0.135583 C
34 1 5.6298 2.77585 2.83037 -1.28559 4.97545 -4.13497 -1.70163 -0.280808 -0.650257 C
2 1 -0.0160992 2.75684 2.72795 3.24011 3.30803 -0.610535 0.401833 -0.297058 0.17584 C
36 1 8.37078 2.781 0.036468 -1.0279 -1.26732 3.74554 -1.62476 0.327668 -1.14121 C
39 2 9.67894 1.39023 1.37933 -1.08365 -1.66937 3.0879 0.523428 -0.475548 0.502979 C
6 2 1.36859 4.13425 1.37809 -0.602214 -1.84735 1.20352 0.167084 -0.161938 0.125844 C
19 1 2.64959 5.54795 2.81295 0.550776 -1.4377 2.87154 2.87079 -0.572548 -0.529185 C
23 2 4.16616 6.85275 1.34007 2.72138 -1.24882 1.37314 -0.470719 0.479515 1.78036 C
38 2 6.95974 4.19915 1.39522 1.62677 -3.09087 1.34667 0.446388 -1.58392 0.456582 C
49 1 5.56274 5.46338 -0.0131371 2.34862 -3.10566 1.41576 -0.2785 1.13483 -1.30042 C
17 1 -0.028358 5.52743 0.08266 -2.43853 -3.03939 -0.894677 -0.376381 0.956878 -1.67006 C
51 1 8.37604 5.48459 2.80835 0.835775 0.445727 -0.125025 -0.99854 2.28995 -1.13062 C
55 2 9.66952 7.02339 1.39987 0.0866014 -1.43206 2.00717 0.289525 -1.50329 0.375603 C
20 1 2.71828 8.25232 0.0296682 0.885483 -3.57803 1.82782 0.558547 1.2325 0.0646068 C
22 2 1.3227 9.69431 1.43006 0.457784 2.58039 2.04626 1.6725 -0.360489 0.12349 C
33 1 5.59959 0.0102448 -0.0145518 1.97986 -0.0414796 1.61884 -1.0481 0.302628 -0.211391 C
50 1 5.57084 8.29962 2.7933 -0.804406 -0.437834 -1.3262 -0.27877 0.0325932 -0.859162 C
54 2 6.96778 9.75211 1.37689 1.15359 1.86013 -1.00728 -0.695115 -1.95106 -0.555603 C
1 1 -0.0197104 -0.0265808 0.0851859 -1.0203 5.49046 -4.71603 -0.369708 0.344693 -1.13573 C
35 1 8.32179 -0.0117971 2.73061 9.25905 -1.75223 0.728033 0.860287 0.209834 1.68539 C
18 1 0.0033303 8.33321 2.83739 5.91178 -4.52239 5.84669 -0.973648 0.321208 -0.861006 C
5 2 1.36268 1.39349 4.13002 -1.23442 -1.08504 0.22373 -0.281608 0.570876 0.671141 C
12 1 2.70568 2.81103 5.56365 -2.6846 -1.31138 -1.5017 -0.188853 -0.671066 0.202631 C
15 2 4.09889 1.39221 6.90125 -0.358758 1.81703 2.23679 0.995017 -0.153896 0.635165 C
37 2 7.0014 1.35603 4.19838 1.17294 -0.33521 -0.23934 -1.0179 -0.460445 -0.746549 C
9 1 -0.0345053 0.035046 5.55613 4.675 3.65912 7.80089 0.229123 -0.375793 -0.0811097 C
44 1 8.38713 2.73983 5.51203 3.52091 -0.840716 1.48971 0.181856 -0.182857 0.495023 C
47 2 9.63625 1.33695 7.00061 -4.33003 -1.65955 -4.23228 1.00672 0.718705 -0.600903 C
14 2 1.29739 4.19556 6.94548 0.513794 2.41608 -0.936079 0.129962 -0.637291 -0.499459 C
21 2 1.36752 6.99161 4.16064 -1.31923 0.252064 -1.1823 0.448368 -0.781712 0.513 C
8 2 4.14527 4.14488 4.24928 2.15563 0.645014 0.686867 0.12049 0.92127 -1.69727 C
31 2 4.18965 6.98522 7.01024 2.84217 -3.50824 1.24826 -0.630783 -1.11019 -0.888805 C
46 2 7.06261 4.10908 6.90178 -1.77719 0.768515 -1.21724 -1.17289 1.61356 0.0482974 C
53 2 6.9741 6.9061 4.18426 2.29293 -1.98685 -0.269712 -0.619116 -0.55216 -1.00532 C
57 1 5.58147 5.55953 5.58047 -0.398521 0.713671 -2.45983 -0.0887981 -0.449116 0.831566 C
25 1 -0.00738353 5.5202 5.42951 0.0580111 5.36191 -1.72364 -0.0269191 0.963589 1.49928 C
40 2 9.73156 4.12546 4.10049 2.04453 1.60017 -3.52187 0.170941 -0.733102 0.68089 C
63 2 9.72728 6.975 6.82197 0.529456 2.92656 -1.28548 0.812922 -0.803053 1.11 C
28 1 2.81322 8.32794 5.53229 -0.505693 -3.36109 1.3337 -0.302545 -0.325039 0.70294 C
30 2 1.39993 9.71729 6.86379 -2.63395 2.72738 -0.887849 -0.0922248 0.147478 0.0378027 C
41 1 5.51028 -0.0541163 5.50775 0.334601 5.73768 1.78051 0.97628 1.95451 1.42913 C
24 2 4.16231 9.71259 4.19216 -1.01499 -0.423416 0.0536306 -0.592168 -0.562595 -2.28536 C
62 2 6.9281 9.69215 6.90367 1.73384 -0.0172492 1.77041 -0.0555 -0.0625187 0.31794 C
56 2 9.69821 9.67744 4.20726 0.614268 0.917484 -1.67483 -0.479574 0.998258 -0.987307 C
60 1 8.29399 8.28885 5.51822 0.503035 1.4375 1.63282 0.213429 1.00457 0.489619 C
4 1 2.75079 2.76074 -0.0523443 2.73158 -2.92622 2.97504 -0.203203 -0.927504 0.586064 C
11 1 2.68846 -0.0134112 8.30524 0.881296 -3.22278 1.21507 1.45059 0.0373029 0.349522 C
13 2 1.29376 1.31451 9.71132 -3.42652 -0.730617 1.68109 0.979652 1.11691 0.368804 C
42 1 5.61344 2.8011 8.27789 0.857652 -2.48195 -1.20014 -1.58846 -0.585899 -0.612224 C
45 2 6.95358 1.43162 9.66494 -5.92824 -1.97493 -1.22445 0.102138 -0.307544 1.46699 C
10 1 -0.0414309 2.76582 8.35705 -2.91209 6.4583 2.96983 0.0413229 -0.674502 -0.89863 C
43 1 8.27189 -0.0430769 8.36984 0.479916 1.20747 -0.679068 0.561337 0.145666 -0.841485 C
27 1 2.65777 5.57141 8.31946 2.9199 -0.494075 1.19941 1.79347 0.165924 -0.268756 C
29 2 1.33515 6.95093 9.70345 -3.67548 -1.45907 -1.66757 -0.657154 -0.598514 0.505947 C
16 2 4.1025 4.1347 9.63047 -3.7229 -1.49218 -3.03744 0.858953 0.488205 0.292647 C
61 2 6.99402 6.92264 9.68457 0.342837 -0.961619 -2.67952 -0.950246 -0.95679 -0.275703 C
48 2 9.6998 4.14225 9.68905 0.331974 2.77611 -0.216276 0.448713 0.922117 1.23357 C
59 1 8.41815 5.56927 8.27616 -0.481436 -1.63648e-07 0.776586 -0.773973 -0.118504 -0.21711 C
32 2 4.12937 9.6928 9.74405 -1.68787 1.30722 -2.80901 0.0358894 0.090633 -0.479643 C
58 1 5.60127 8.34844 8.35302 0.636483 -2.02477 3.12444 -0.738482 -0.113798 0.279293 C
52 1 8.32274 8.34559 -0.0968301 1.35745 -1.59406 -0.127991 0.440148 0.571472 1.82334 C
26 1 0.0529873 8.36494 8.24916 2.82673 3.68657 -4.02291 -0.932365 -0.753689 0.132698 C
64 2 9.77633 9.72076 9.68463 -2.01632 -0.524776 0.270597 -0.858475 -0.310529 -0.0944086 C
ITEM: TIMESTEP
18700
ITEM: NUMBER OF ATOMS
64
ITEM: BOX BOUNDS pp pp pp
0.0000000000000000e+00 1.1085848640000000e+01
0.0000000000000000e+00 1.1085848640000000e+01
0.0000000000000000e+00 1.1085848640000000e+01
ITEM: ATOMS id type xu yu zu vx vy vz fx fy fz element
3 1 2.78416 -0.0333105 2.78207 -3.9238 6.41348 -4.7643 -0.501122 -0.461742 0.331919 C
7 2 4.09469 1.28873 1.38849 -0.899068 -4.81624 -1.89958 0.597998 1.56382 -0.697853 C
34 1 5.51917 2.68765 2.73924 6.16977 -2.50178 4.96496 0.217894 1.02189 -0.596634 C
2 1 -0.00460159 2.74215 2.79926 -1.05041 -0.552368 1.33267 0.229069 1.55408 -0.0815445 C
36 1 8.29659 2.75802 -0.0450087 6.45191 1.34192 3.02698 0.0655237 -0.0717278 1.00375 C
39 2 9.73723 1.40601 1.33699 -0.183491 2.01059 0.982319 -1.34742 -0.986058 1.12956 C
6 2 1.40189 4.17975 1.38928 -2.78422 0.9282 -0.186525 -0.670272 -0.0182717 0.515177 C
19 1 2.86742 5.57474 2.72557 -9.66622 0.809411 0.512639 -1.7145 -0.345575 0.323743 C
23 2 4.16727 6.96114 1.35982 -1.09744 0.311981 1.03052 0.278748 0.181044 0.0704671 C
38 2 6.9183 4.16535 1.34672 0.360598 4.08804 1.74359 -0.150345 -0.866947 0.582383 C
49 1 5.5262 5.57197 0.0216623 -1.90434 -2.31461 3.94067 0.0158872 -0.403677 0.74775 C
17 1 0.0186312 5.53621 -0.059223 2.41128 0.373927 7.56642 0.201419 -0.917231 0.173927 C
51 1 8.32238 5.55615 2.71375 5.48339 -3.78368 4.06054 0.249991 -0.137488 0.827284 C
55 2 9.77441 6.8937 1.3521 -1.29173 0.820979 -2.16071 -1.18185 0.0973483 -0.119004 C
20 1 2.80448 8.35204 -0.0103591 -3.33413 -0.358823 -1.7793 0.165716 -1.31946 -0.344067 C
22 2 1.44772 9.67577 1.33268 -4.52893 0.46688 0.235609 -1.0912 0.908488 0.908921 C
33 1 5.48021 -0.0419556 -0.017976 4.41913 -1.35378 -0.566195 1.47011 -0.140671 0.880895 C
50 1 5.53803 8.27708 2.77899 2.30216 -0.053708 4.22765 -0.276061 0.729465 0.360288 C
54 2 6.88799 9.64309 1.40332 -0.821383 4.22918 0.919443 -0.138317 0.88069 -0.312532 C
1 1 0.0229317 -0.0184213 -0.00419833 5.22488 -3.36116 5.45672 0.345577 0.809282 -0.540099 C
35 1 8.25134 -0.0223369 2.77197 -2.17587 -0.0324772 -1.2817 1.47142 0.604216 -0.552507 C
18 1 0.00347111 8.32396 2.67809 -3.85163 1.94055 -1.47268 1.63838 -0.640024 1.84199 C
5 2 1.46212 1.41858 4.15596 -2.62665 -2.52258 -2.51544 -0.854068 -0.715991 0.1748 C
12 1 2.85691 2.79215 5.54122 0.993819 3.44497 -0.306804 -0.884958 0.00676866 -0.0759717 C
15 2 4.17491 1.35602 6.92666 -0.434156 -0.725148 2.20638 -0.171228 0.860076 0.389451 C
37 2 6.89575 1.38198 4.17134 2.51798 0.346376 -2.43779 0.283461 -0.189607 -0.100669 C
9 1 -0.0224966 0.0183648 5.48287 -3.35513 -1.73614 -5.18862 1.47178 -0.0278562 1.98612 C
44 1 8.22468 2.82029 5.54704 -2.83455 1.32192 -0.508988 1.01412 -0.344283 0.3938 C
47 2 9.71861 1.47978 6.93808 -0.109058 -5.32273 2.21298 -1.48767 -2.04474 -1.93255 C
14 2 1.42519 4.15629 6.93789 1.81381 1.74304 1.24083 0.106558 -0.225843 -0.209656 C
21 2 1.49565 6.94339 4.17177 -3.75842 1.70962 -0.2669 -2.20502 0.0931675 -1.04194 C
8 2 4.1715 4.15283 4.07575 0.0211757 1.40429 0.260122 1.00921 -0.0710805 0.993183 C
31 2 4.09061 6.93314 6.89111 0.699409 2.91843 0.196515 1.16702 -0.221836 -0.229392 C
46 2 6.84666 4.17461 6.94075 -0.737695 -1.44381 1.88471 0.215486 -0.177597 0.249525 C
53 2 6.96646 6.9638 4.13762 -1.6401 -1.75956 0.689492 -0.0914392 -0.865025 0.187779 C
57 1 5.54462 5.55368 5.51381 -0.0854075 0.592501 -0.119657 -0.580409 0.45443 -0.466772 C
25 1 0.0356215 5.56713 5.59854 -0.944369 -6.60626 0.201313 -0.187267 0.187763 -0.735591 C
40 2 9.66438 4.19595 4.20727 -1.68149 -0.271049 -0.932945 0.675541 -0.30662 -0.850325 C
63 2 9.66028 6.90649 6.99539 -0.61458 -1.51654 1.12896 0.167057 0.345528 -0.79631 C
28 1 2.75304 8.36824 5.56736 1.52995 1.0426 0.192078 0.865192 -0.478826 -0.393729 C
30 2 1.407 9.63935 7.00936 -2.51832 0.106705 -1.11476 -2.16003 1.6723 -0.480947 C
41 1 5.56006 0.00369574 5.57799 0.0919244 -6.14007 -4.55148 -0.548055 0.0619542 -0.96443 C
24 2 4.18425 9.70794 4.18228 -2.27719 0.646961 1.17526 -0.0797733 -0.225428 -0.0867829 C
62 2 6.8825 9.71298 6.9159 1.04096 -0.750776 0.0291166 1.23708 -0.802396 0.355104 C
56 2 9.72588 9.68793 4.12262 2.08735 -0.18234 1.98962 -0.547563 0.364038 -0.648204 C
60 1 8.34674 8.34811 5.52637 3.14048 -3.83659 -2.19785 -0.426545 -0.472832 0.839609 C
4 1 2.73124 2.77671 0.0234062 1.15369 5.26497 -2.346 1.25491 0.0987689 -0.13272 C
11 1 2.79672 0.0258051 8.33316 -1.43077 1.99328 -0.00863497 -0.449238 -0.679344 0.237186 C
13 2 1.38202 1.44539 9.68032 2.31856 -3.29379 -1.20375 -0.165132 -1.37044 0.214157 C
42 1 5.47364 2.78913 8.34861 5.60637 1.9785 3.47397 1.30956 -0.738126 0.207575 C
45 2 6.92242 1.34488 9.72961 2.10602 0.33325 -2.52449 -0.969776 0.473636 -1.16901 C
10 1 0.000886621 2.75499 8.2624 5.50047 -1.07058 1.77105 0.493238 1.69977 1.34572 C
43 1 8.31058 0.0175225 8.27307 -0.244048 -2.07168 4.02066 -0.202237 0.361146 0.342289 C
27 1 2.81527 5.53853 8.30644 -3.70281 -0.331313 0.717984 -0.249703 -0.286971 0.478903 C
29 2 1.47027 6.90909 9.708 -0.078359 -1.52102 -1.70374 -1.11291 0.356514 0.0123506 C
16 2 4.1944 4.20925 9.77088 -0.399624 -0.79936 -1.17231 -1.65321 -1.13149 -0.755799 C
61 2 6.82552 6.91755 9.75256 1.26593 3.73554 -1.30625 1.69013 0.860672 -1.4113 C
48 2 9.64867 4.11244 9.67143 0.540095 -0.647933 -1.00715 1.14721 0.756689 -0.39396 C
59 1 8.24538 5.52552 8.33581 1.83648 0.261953 -0.900976 -0.404925 0.206516 0.363042 C
32 2 4.17368 9.6723 9.70365 3.27331 2.53246 -1.36118 -0.82035 0.657113 -1.007 C
58 1 5.46956 8.29896 8.27049 1.76223 1.62291 -2.95777 0.987795 -0.125038 0.562962 C
52 1 8.29532 8.2701 0.0659408 1.90602 0.230121 -4.10571 0.0513664 0.453381 -1.38351 C
26 1 -0.0710813 8.25607 8.42573 1.57486 -2.01665 2.41032 1.21301 0.895401 -0.853363 C
64 2 9.64547 9.75402 9.72834 3.06831 0.909514 -1.86261 0.0151435 -1.40573 0.332577 C
ITEM: TIMESTEP
18800
ITEM: NUMBER OF ATOMS
64
ITEM: BOX BOUNDS pp pp pp
0.0000000000000000e+00 1.1085848640000000e+01
0.0000000000000000e+00 1.1085848640000000e+01
0.0000000000000000e+00 1.1085848640000000e+01
ITEM: ATOMS id type xu yu zu vx vy vz fx fy fz element
3 1 2.80481 -0.0288059 2.78709 6.60842 -2.0086 2.99381 -0.305352 2.33249 -1.03638 C
7 2 4.20648 1.50906 1.43983 -1.68735 -1.24313 1.48988 -1.07015 -2.15893 -0.50793 C
34 1 5.52498 2.88796 2.78702 -4.54232 0.308675 -1.43351 0.613262 -0.975406 1.23373 C
2 1 -0.0187646 2.79368 2.74696 -0.423717 -4.55507 -2.35695 0.472667 -0.757411 0.343074 C
36 1 8.28071 2.77497 -0.0214518 -1.25446 -1.57707 -1.55284 1.85169 0.638254 1.01425 C
39 2 9.70822 1.35253 1.37274 1.65483 -0.376202 -1.40166 -0.918961 1.55109 -0.167404 C
6 2 1.39773 4.18008 1.39419 0.596695 0.733928 -1.48851 -0.400176 -0.21115 -0.949052 C
19 1 2.76728 5.54334 2.77261 9.38998 1.46566 0.434207 -0.22837 -0.0342818 0.302125 C
23 2 4.12834 6.9341 1.37317 0.850956 -0.327237 -0.567816 0.339216 0.278415 0.366682 C
38 2 6.89989 4.18406 1.35952 -0.56737 0.0781512 0.434814 -0.253953 0.239006 -0.25408 C
49 1 5.53907 5.61219 -0.0153687 3.51739 1.53774 -3.85299 0.134906 -0.937709 0.618184 C
17 1 -0.0127844 5.56601 -0.0319778 -1.19279 0.156484 -2.8549 0.54952 0.667431 1.92922 C
51 1 8.18809 5.53693 2.80869 -2.54785 -0.69804 -2.74912 1.70638 -0.569151 0.268143 C
55 2 9.62337 6.90113 1.46904 4.0604 -1.8731 2.14585 0.749131 0.428166 -1.45568 C
20 1 2.79609 8.33106 0.0103539 2.40666 2.70925 3.6536 -1.02357 0.0382775 0.290052 C
22 2 1.40177 9.7286 1.41216 3.36367 -0.0520769 1.10458 -1.1137 -0.418197 -0.925646 C
33 1 5.55085 0.0819304 0.0135045 -5.44878 3.5691 -1.85815 0.01483 -0.671038 0.0314079 C
50 1 5.48413 8.37601 2.72433 -1.00836 -3.41099 -3.59893 1.00628 -1.30891 0.286833 C
54 2 6.92498 9.7036 1.36124 -2.22584 -1.75282 -0.194005 -0.471827 1.27272 0.325669 C
1 1 -0.0595865 0.0268394 -0.059047 -2.3415 0.45104 0.639528 1.94667 -1.00046 1.15728 C
35 1 8.28316 0.0544197 2.76544 -4.00552 -3.68849 -0.630524 -0.622257 -0.847623 0.314704 C
18 1 -0.0070132 8.29476 2.81399 -0.127017 -1.21521 -1.9933 -0.840246 0.5394 -0.842283 C
5 2 1.39808 1.37597 4.14781 0.557071 0.190966 -0.987233 -1.17633 -0.832915 -0.385728 C
12 1 2.71797 2.69316 5.55455 3.62578 -2.62697 0.697531 0.766055 1.1741 -0.0724198 C
15 2 4.20577 1.37806 6.83528 1.26723 -0.63787 2.15939 -1.08732 -0.471787 2.06257 C
37 2 6.87314 1.40775 4.21943 -1.1288 0.441372 0.842146 0.805449 0.532343 -1.84187 C
9 1 0.0262776 -0.0384809 5.58848 -2.11993 2.25648 -2.67911 -0.934187 0.368969 -1.63394 C
44 1 8.38334 2.69441 5.55705 0.866056 -0.606247 0.216109 -1.25805 1.04116 -0.148241 C
47 2 9.7492 1.42341 6.94736 2.30561 2.83776 -0.178737 0.325884 -1.58618 0.225966 C
14 2 1.36354 4.07067 6.96004 -0.927586 1.51054 2.56147 0.253878 1.59076 -0.755603 C
21 2 1.31815 6.86601 4.14517 6.86928 -0.805241 -0.473741 1.14716 0.465868 0.171939 C
8 2 4.08883 4.14669 4.2148 0.328224 1.67457 -0.357178 0.236613 0.406906 -0.283724 C
31 2 4.13212 6.90054 6.92973 -1.52785 -3.4824 1.6876 0.563365 0.919401 -0.0320604 C
46 2 7.02884 4.13897 6.91482 -1.60036 1.82406 -0.957986 -1.22932 -0.260469 0.206549 C
53 2 6.86342 6.94439 4.16194 -1.45836 0.19805 -1.09502 -1.2459 0.234898 0.166709 C
57 1 5.51588 5.51828 5.58076 2.4353 -0.79423 1.21371 0.613089 -0.202564 -0.301143 C
25 1 -0.0306525 5.50502 5.53497 2.4878 3.24797 -1.48486 0.349969 -0.944064 0.48179 C
40 2 9.66404 4.11178 4.17082 -1.70531 0.891342 -2.51226 -0.200176 0.862141 -0.795 C
63 2 9.71846 6.90935 6.90137 -0.120406 0.945257 1.27132 -0.674256 0.291849 0.562574 C
28 1 2.7792 8.26784 5.45976 -3.41143 1.23389 -0.545665 -0.0224748 0.115538 0.540563 C
30 2 1.46391 9.68726 6.88509 4.55406 -2.49555 1.43927 -0.457496 -0.516323 -0.242558 C
41 1 5.52371 -0.0136638 5.50243 -0.274754 1.90624 5.99176 0.408909 -0.59078 0.23639 C
24 2 4.14652 9.7203 4.10117 1.78634 -0.380798 -3.1809 0.183317 -0.87017 1.24175 C
62 2 6.94862 9.74377 6.91956 -4.27218 1.66053 3.06832 -1.1622 -0.367396 0.669546 C
56 2 9.5927 9.66859 4.14521 -0.0111238 2.32998 -1.20465 1.38104 0.50432 1.17961 C
60 1 8.22092 8.28207 5.59421 -1.26536 2.62154 -1.96156 1.39583 0.0646245 -1.06868 C
4 1 2.79383 2.77002 -0.00539656 -3.0106 -2.33196 3.26295 0.0456965 1.20499 -0.0740062 C
11 1 2.78653 -0.0330491 8.27892 1.95463 -1.14522 -1.51396 0.880628 1.05189 0.46329 C
13 2 1.38988 1.39308 9.69264 0.365434 2.71691 0.405232 0.395722 -0.542698 -0.287404 C
42 1 5.57209 2.74643 8.28428 -4.72877 1.96303 -2.01871 0.364296 0.825224 0.160217 C
45 2 6.99118 1.40182 9.70511 -3.79512 -2.50239 0.810546 -1.30584 -0.49553 -0.957003 C
10 1 -0.000587921 2.77675 8.34789 -5.42586 -3.54099 -1.71131 0.443428 -0.519021 0.0602402 C
43 1 8.34946 0.0236985 8.29181 1.63039 0.101023 -2.64325 0.331811 -0.321275 0.556618 C
27 1 2.76737 5.53111 8.29684 2.5749 1.35328 -0.553993 -0.504653 -0.148267 0.481049 C
29 2 1.40476 6.96305 9.7038 0.511923 -1.55222 -0.309149 -0.288762 -0.0761313 -0.82758 C
16 2 4.20887 4.2227 9.6952 1.38596 1.39814 -3.11849 -0.693524 -1.54287 -0.427985 C
61 2 6.96283 6.87561 9.70369 -3.38987 -2.98716 0.109003 -0.102612 1.49134 -0.302993 C
48 2 9.78145 4.15687 9.72534 -0.614507 2.29333 1.65182 -2.07178 -0.342848 -0.230082 C
59 1 8.35732 5.51764 8.34189 2.90523 -0.790763 1.61769 0.74782 -0.00672818 -0.404547 C
32 2 4.16229 9.68963 9.74085 1.33607 0.708919 1.86017 0.756206 0.868799 -0.798241 C
58 1 5.57345 8.30322 8.33219 -4.61783 -2.15059 0.903735 -0.331403 0.0519653 -0.346004 C
52 1 8.28473 8.33058 0.00252024 -1.79755 -4.21095 6.69905 0.918826 -0.98286 0.014758 C
26 1 0.0364243 8.34689 8.22733 -1.77298 -0.295555 0.988617 0.0168563 -0.855728 1.19916 C
64 2 9.72359 9.66752 9.68639 -2.54109 2.19725 -1.65715 -0.721531 0.314535 -0.807378 C
ITEM: TIMESTEP
18900
ITEM: NUMBER OF ATOMS
64
ITEM: BOX BOUNDS pp pp pp
0.0000000000000000e+00 1.1085848640000000e+01
0.0000000000000000e+00 1.1085848640000000e+01
0.0000000000000000e+00 1.1085848640000000e+01
ITEM: ATOMS id type xu yu zu vx vy vz fx fy fz element
3 1 2.68619 0.0141748 2.76709 -3.52528 -6.64764 2.46876 1.98278 -1.1668 1.00587 C
7 2 4.16604 1.27721 1.38577 3.13221 -0.759064 0.720791 -0.304654 0.938395 -0.53697 C
34 1 5.58858 2.65981 2.76609 3.29037 0.0890171 -1.94421 -0.36721 0.915352 -0.612731 C
2 1 0.0317729 2.77556 2.81779 -0.358459 4.33012 2.44434 -0.45765 -0.376087 -0.490192 C
36 1 8.32667 2.80615 -0.00594635 -5.01973 -2.44811 -5.34524 -0.326275 -1.30093 -0.267458 C
39 2 9.68761 1.39967 1.40659 2.57624 -0.803131 3.38349 1.12186 -0.0290768 -0.195158 C
6 2 1.38415 4.12775 1.41686 -1.78368 2.21275 2.03488 -0.0999024 -0.0925626 -1.28252 C
19 1 2.74152 5.50834 2.7728 -3.69284 -1.39479 -2.93995 1.17989 0.730802 0.408861 C
23 2 4.21357 6.86371 1.38742 0.0602077 0.32986 4.06565 -1.32488 1.07663 0.561021 C
38 2 6.95819 4.13846 1.3905 2.13492 1.69493 0.374496 -0.0447037 0.100924 0.710054 C
49 1 5.51844 5.46568 0.0177063 -3.13492 2.8396 0.806035 1.26392 0.944248 -0.435497 C
17 1 -0.0208976 5.52916 -0.00184405 -0.064486 -1.96136 -4.73936 -0.162351 -0.690213 -0.636757 C
51 1 8.42897 5.57649 2.72521 -3.40993 1.77114 -0.399119 -0.881417 -0.97969 0.0179507 C
55 2 9.70897 6.98449 1.32498 -1.59586 -3.69165 0.83653 0.743847 -0.0384449 0.309392 C
20 1 2.71882 8.2366 -0.0295583 2.1096 -1.33976 -3.40018 1.18335 0.68659 1.27067 C
22 2 1.36816 9.6968 1.36905 1.07953 2.44799 2.31611 0.82583 -0.762977 0.0750635 C
33 1 5.5534 -0.13093 0.0176825 1.63599 -2.57931 1.60862 -0.344221 1.67787 -0.963186 C
50 1 5.60826 8.29831 2.81768 -1.22854 6.39833 2.05916 -0.698666 0.158043 -0.179103 C
54 2 6.97779 9.69656 1.40615 -0.375774 -0.122279 1.25831 0.468754 -0.715055 0.351933 C
1 1 0.0194784 -0.041257 0.0271307 -4.81743 0.341605 -2.4415 -1.82772 1.08415 0.0256765 C
35 1 8.39159 -0.0184299 2.81091 1.42546 5.40721 0.955826 -0.446364 -0.45854 -0.441991 C
18 1 0.0156001 8.34509 2.75537 1.50652 0.392282 0.763036 0.201592 -0.745238 -0.123247 C
5 2 1.41952 1.41599 4.19365 0.0807521 -1.39716 -0.398923 -1.12842 0.0540323 0.0755302 C
12 1 2.73824 2.87444 5.52875 -3.95039 -1.50211 0.100037 0.848493 -1.34429 0.014875 C
15 2 4.07695 1.39761 6.89405 1.38515 0.31617 -3.13918 0.741556 0.482124 0.526972 C
37 2 6.96758 1.32603 4.1461 0.407325 -0.505837 2.04079 0.143937 0.760572 0.486033 C
9 1 -0.0325265 0.0502113 5.56489 2.18958 -2.71597 3.44492 0.0699991 0.303639 0.220373 C
44 1 8.28558 2.8192 5.51167 0.672062 -1.53034 -1.14336 1.05297 -0.91018 -0.207658 C
47 2 9.58671 1.37863 6.97092 -1.40389 2.34076 1.01583 1.22764 0.965918 -1.25714 C
14 2 1.34606 4.20769 6.88073 0.355242 -2.43264 2.39299 0.146467 -0.0762476 1.12261 C
21 2 1.4081 6.99627 4.17277 -2.85659 0.199644 -0.896367 0.334846 -0.679588 -0.0919973 C
8 2 4.20308 4.11139 4.11686 0.82397 0.871894 -0.801339 -0.291679 0.701853 -0.0915771 C
31 2 4.19033 6.97815 6.94809 -0.714755 -0.520353 -1.96427 0.0750128 -1.49481 0.45601 C
46 2 6.94673 4.14082 6.91335 1.02315 -0.574059 -0.118829 -1.80325 0.715353 -0.331079 C
53 2 7.07632 6.91896 4.13312 0.999052 -1.12702 -2.43568 -1.33048 0.202862 0.320571 C
57 1 5.56687 5.56148 5.48354 -1.45491 0.698702 1.18527 0.446147 -0.0379461 0.710693 C
25 1 0.00931421 5.60125 5.54711 -2.1748 -1.02451 1.06788 0.265647 0.53264 -0.425157 C
40 2 9.78319 4.20612 4.16997 0.0675196 -1.47311 1.62861 -1.18276 -0.451143 -0.19026 C
63 2 9.7106 6.96624 6.90633 0.981647 -1.09745 2.25843 -0.373996 -0.350483 0.669864 C
28 1 2.79757 8.34652 5.63108 2.98788 -0.000611081 -0.916006 -1.30729 0.635244 -0.390696 C
30 2 1.28158 9.7478 6.96951 -2.8048 3.10914 -0.00074565 1.8036 -0.406742 0.195346 C
41 1 5.55804 0.0269979 5.54833 -0.199837 -1.038 -5.0269 -0.10235 -0.0776249 0.656026 C
24 2 4.16638 9.72307 4.25567 -1.42127 0.836383 -1.16841 -0.387235 -0.239316 -2.32204 C
62 2 6.97467 9.69301 6.87669 4.30127 2.33637 -0.994439 -0.726454 0.415539 0.613335 C
56 2 9.79254 9.67876 4.18276 1.28046 0.00775865 -0.935083 -0.725622 1.09671 -0.508491 C
60 1 8.39039 8.34989 5.51683 -2.78863 -2.2235 3.68413 -0.333345 -0.551285 0.161895 C
4 1 2.75386 2.71335 -0.0361691 -0.466991 -3.29136 -2.4663 -0.974372 -0.736267 1.31204 C
11 1 2.71322 0.0568915 8.3633 -5.7918 -0.536384 0.71978 -0.321746 -1.01876 -1.11605 C
13 2 1.23601 1.35963 9.67337 -3.10418 0.949714 -2.95382 2.01339 1.22698 0.612261 C
42 1 5.51278 2.76096 8.29953 0.906805 -2.52308 1.15125 -0.369503 0.29727 0.364524 C
45 2 6.9313 1.38053 9.69686 2.0287 -0.7769 -0.248956 -1.08091 -0.306664 0.88315 C
10 1 -0.0371417 2.80507 8.26815 1.85333 2.85852 -1.70605 -0.443268 -0.841361 -0.529749 C
43 1 8.26566 -0.0164198 8.32838 -3.23099 1.9676 -0.225418 0.549992 -0.226624 0.169754 C
27 1 2.71422 5.54276 8.32823 -0.0924632 -0.126381 -2.18659 1.09592 0.432627 -0.538707 C
29 2 1.34337 6.92674 9.68918 -1.04675 -2.10113 -0.550646 -0.320235 -0.83867 0.11056 C
16 2 4.08343 4.14612 9.75659 0.446872 1.8358 1.90501 0.86366 -0.329421 -1.89192 C
61 2 6.95136 6.94674 9.73671 1.15075 -1.56263 -0.0282692 -1.08293 -0.654126 -0.604368 C
48 2 9.64982 4.11792 9.61604 3.44312 0.38471 -1.75373 0.352403 2.0924 1.01595 C
59 1 8.2576 5.57719 8.2513 -4.54698 -1.47296 -1.47784 1.16563 -0.0975104 0.792556 C
32 2 4.08105 9.65934 9.68087 0.042857 -0.745384 0.203061 0.726964 0.284147 0.378296 C
58 1 5.59048 8.36522 8.32654 3.22796 1.25973 -1.5168 -0.402786 -0.687485 -0.141733 C
52 1 8.35084 8.36291 -0.0626684 -1.35943 5.06524 -2.89622 -0.674355 -0.480787 1.49067 C
26 1 -0.0336059 8.30936 8.35394 -0.528511 1.56062 -1.36264 -0.138207 0.469295 -0.592272 C
64 2 9.71027 9.726 9.71354 0.919479 -0.425186 -0.438368 -0.108885 0.210754 -0.700662 C
ITEM: TIMESTEP
19000
ITEM: NUMBER OF ATOMS
64
ITEM: BOX BOUNDS pp pp pp
0.0000000000000000e+00 1.1085848640000000e+01
0.0000000000000000e+00 1.1085848640000000e+01
0.0000000000000000e+00 1.1085848640000000e+01
ITEM: ATOMS id type xu yu zu vx vy vz fx fy fz element
3 1 2.83621 0.0581061 2.72403 -3.77076 5.98382 -5.63982 -2.08495 -1.21394 0.0448529 C
7 2 4.12427 1.47738 1.38836 0.879028 -2.90184 1.5807 1.46413 -0.0468755 -0.557063 C
34 1 5.46429 2.86667 2.77392 -4.70919 -2.17782 2.06695 0.590313 -1.24173 -0.0168931 C
2 1 -0.0293771 2.75823 2.71078 0.386597 -1.59749 -1.10145 0.0691899 0.324373 0.842232 C
36 1 8.32788 2.79888 0.0884401 2.4817 8.07831 2.88884 -1.44655 0.0518074 -1.89756 C
39 2 9.68541 1.36032 1.30839 -1.75413 -0.298569 0.240927 0.31683 -0.239401 1.89812 C
6 2 1.43 4.14983 1.39325 -0.846223 0.331688 1.66172 -1.00215 1.41413 1.07066 C
19 1 2.79002 5.60305 2.79137 -0.564647 -1.68818 0.212248 -0.656872 -1.13232 -1.01214 C
23 2 4.12268 6.94162 1.28132 2.58747 -2.66025 -1.03908 0.429669 -0.411769 2.0145 C
38 2 6.84442 4.19837 1.39349 -1.45376 2.14822 1.99632 1.65747 -0.315678 0.546543 C
49 1 5.57581 5.57969 -0.00182566 -1.88467 -1.59959 -1.00795 -1.43285 -0.358507 -0.502823 C
17 1 0.0298932 5.57313 0.0641761 -2.28765 4.2775 1.61028 0.131323 0.145095 -1.17819 C
51 1 8.27626 5.51155 2.81563 1.95243 4.61924 -0.298262 -0.799036 1.57835 -0.577515 C
55 2 9.6824 6.95455 1.4388 -1.83732 1.35354 0.030671 -0.332005 -1.81684 -0.194136 C
20 1 2.79625 8.39122 0.0382341 -5.32752 -1.03668 -1.49918 -0.0291209 -0.187488 -2.17458 C
22 2 1.34713 9.67465 1.3559 -0.967311 0.897065 1.71812 0.549041 1.45691 1.56866 C
33 1 5.55763 0.138273 -0.0398611 0.00741675 -2.46628 1.10221 -0.533686 -2.07384 1.45747 C
50 1 5.47878 8.26735 2.72718 0.00749477 -3.03008 -2.82852 0.983383 1.21003 0.44903 C
54 2 6.92006 9.70683 1.34483 -2.8158 1.71514 -1.34685 -1.4185 -0.415949 -0.212169 C
1 1 0.043874 0.0465014 -0.0316331 6.5201 -2.6668 -1.43687 -0.279708 -1.28895 -0.0665516 C
35 1 8.25824 -0.0288393 2.71784 0.977436 -1.94938 0.323229 0.348808 1.22832 0.644223 C
18 1 -0.0314293 8.27905 2.78147 -2.99095 1.21565 0.225832 0.0958117 0.974041 0.437009 C
5 2 1.41792 1.41062 4.11545 1.05107 -0.545485 -1.04542 -0.395314 -0.415325 -0.0472819 C
12 1 2.83554 2.71252 5.5429 -2.52393 3.66187 -0.210029 -1.00027 0.165032 0.450479 C
15 2 4.21351 1.34262 6.95571 -0.0872588 -0.978083 0.282638 -0.0841678 1.01407 -0.333287 C
37 2 6.85925 1.4264 4.12564 0.207578 -1.69243 -0.307991 0.822088 -0.344588 0.210454 C
9 1 0.029709 -0.00607561 5.49638 -1.44824 0.0840657 0.890522 0.416131 -1.49553 0.0911777 C
44 1 8.2999 2.76117 5.58351 -0.795347 0.638251 2.87979 -0.142912 -0.0969118 -0.120175 C
47 2 9.7969 1.35026 6.92997 0.238473 -4.24351 3.46725 -1.10804 0.509836 0.368919 C
14 2 1.45898 4.13302 6.92242 -1.87316 0.0158065 1.34313 -0.665368 -0.457406 0.523093 C
21 2 1.32419 6.85992 4.15913 1.08352 1.3275 -0.697524 0.195339 1.03935 -0.136142 C
8 2 4.08475 4.14215 4.16067 -0.673425 0.753815 0.968203 0.885638 1.26178 0.381807 C
31 2 4.12001 6.91338 6.94996 -0.119089 1.03543 1.8153 -0.348595 0.436348 -1.76788 C
46 2 6.8833 4.18498 6.97423 4.98239 -0.501453 0.39096 1.48221 0.00228369 -0.00675706 C
53 2 6.87061 6.92798 4.22382 -0.546133 -1.38288 -1.23163 0.119768 -0.408627 -1.50788 C
57 1 5.48692 5.52675 5.55345 -1.41534 -1.43145 -2.59406 -0.156451 -0.157386 0.412255 C
25 1 -0.0091583 5.49114 5.56446 -0.797501 -0.0766904 -0.296696 -0.304752 -0.234785 -0.0441823 C
40 2 9.63897 4.16608 4.14935 0.631866 -0.736706 -1.96038 1.2616 -1.39116 0.48311 C
63 2 9.67825 6.90118 6.91938 1.35716 0.61606 0.372539 0.944511 0.251446 0.493111 C
28 1 2.71414 8.29396 5.47247 0.246407 -1.36661 0.232767 1.7342 -0.77861 0.257151 C
30 2 1.4726 9.60767 6.92385 -1.72599 -1.29531 -0.299162 -1.9037 2.12246 -0.579779 C
41 1 5.53343 -0.00047223 5.55243 -1.35983 1.40135 0.58074 0.443256 -0.0457445 -0.638372 C
24 2 4.15153 9.74629 4.13533 0.2272 0.979212 0.0270294 -0.172129 -1.13987 -0.161312 C
62 2 6.86537 9.67371 6.9385 0.104765 0.131911 0.506223 1.42289 -0.0529839 0.269078 C
56 2 9.59511 9.66369 4.13853 -0.510954 -0.173537 1.0979 1.82427 0.748541 0.0573157 C
60 1 8.29918 8.28356 5.55323 -0.0632271 2.53632 -2.29067 -1.02016 0.320795 0.570825 C
4 1 2.80617 2.87413 0.0433803 2.4289 2.4905 -2.54959 0.862469 -0.740568 -1.64437 C
11 1 2.869 -0.0624166 8.2663 5.72383 1.96136 0.136968 -0.993593 0.495234 0.974314 C
13 2 1.55656 1.35464 9.76523 -1.90975 -2.9136 -0.51549 -1.01517 0.486267 -1.3873 C
42 1 5.55833 2.77608 8.35105 -0.4388 -2.01298 -4.50876 0.172035 -0.512681 -0.557212 C
45 2 6.95373 1.38224 9.70096 2.64854 -0.864211 -1.59501 1.63458 1.4124 -0.275058 C
10 1 0.0809237 2.72409 8.3763 -2.54145 -0.587628 1.75376 0.324504 0.371956 -0.261949 C
43 1 8.37746 -0.0393803 8.32907 1.26754 -0.368698 -2.02619 -1.30587 0.401189 -0.792064 C
27 1 2.821 5.54073 8.31758 -4.21908 -1.04619 2.5418 -0.817957 -0.0770235 0.0320023 C
29 2 1.47123 6.97398 9.68959 -1.74635 0.458002 -0.646946 -1.18567 -0.583933 0.799765 C
16 2 4.22524 4.2081 9.66672 -1.0128 2.73306 -1.08929 -0.650251 -0.428904 1.38952 C
61 2 6.85234 6.94013 9.70748 2.79286 0.816466 1.24541 2.00658 0.0271247 -0.292973 C
48 2 9.71336 4.13879 9.745 3.22466 -1.33964 -1.48036 1.06805 0.195317 0.463265 C
59 1 8.36662 5.56978 8.39617 -1.48255 0.687055 -0.0395066 -1.78304 -0.560671 -0.939107 C
32 2 4.22426 9.74291 9.69396 0.53759 2.56532 0.647247 -0.482252 -0.44872 0.700731 C
58 1 5.47177 8.26812 8.3067 0.169486 1.69195 3.34902 0.971723 0.988468 0.211091 C
52 1 8.29948 8.24934 0.0313268 1.65834 0.974152 -3.24975 -0.103908 1.52441 -0.95569 C
26 1 0.0214729 8.30329 8.29035 0.891109 -2.03153 -0.778726 -0.2159 -0.292747 0.428557 C
64 2 9.70961 9.68872 9.7178 2.70096 -0.442361 -1.66664 0.643108 -0.749887 0.297066 C
ITEM: TIMESTEP
19100
ITEM: NUMBER OF ATOMS
64
ITEM: BOX BOUNDS pp pp pp
0.0000000000000000e+00 1.1085848640000000e+01
0.0000000000000000e+00 1.1085848640000000e+01
0.0000000000000000e+00 1.1085848640000000e+01
ITEM: ATOMS id type xu yu zu vx vy vz fx fy fz element
3 1 2.76043 -0.0303735 2.83065 7.77498 1.21622 4.01122 0.447968 0.886565 -0.679406 C
7 2 4.13996 1.41579 1.40231 -2.81091 -2.05105 1.53333 0.18331 -1.28475 0.90864 C
34 1 5.63818 2.74173 2.77929 1.26315 4.51635 -3.07773 -1.77014 0.510614 -0.538733 C
2 1 0.0221988 2.77972 2.82222 0.181205 2.06541 -2.24691 -0.147212 0.0229618 -1.08273 C
36 1 8.30055 2.65582 -0.04787 0.827459 -6.04535 3.74005 0.551311 1.51092 1.39131 C
39 2 9.73937 1.37734 1.41867 1.84511 -0.58885 -0.924283 -1.0862 0.686353 0.427867 C
6 2 1.40032 4.12282 1.39072 2.27331 -0.89882 1.13758 0.032249 -0.2662 -0.162056 C
19 1 2.76273 5.49883 2.79344 1.26091 4.80831 0.863728 0.249101 0.236384 0.0108687 C
23 2 4.13087 6.88335 1.39458 1.78007 -0.91618 -2.2761 1.47615 1.04351 0.409992 C
38 2 6.97453 4.10959 1.33908 -2.58628 1.1468 0.175804 -0.134513 -0.170756 0.271599 C
49 1 5.5474 5.48789 -0.00811634 3.40462 -0.984491 3.17109 -0.178876 0.419646 0.352608 C
17 1 0.0220603 5.501 -0.00690841 1.07821 -3.62039 3.07993 -0.937911 0.457721 0.18676 C
51 1 8.31132 5.51013 2.75547 2.74551 -7.61552 0.681606 0.601043 0.43801 -0.0246701 C
55 2 9.73097 6.92085 1.44357 3.4488 -0.573436 0.549993 0.336985 -0.0651047 -1.07232 C
20 1 2.78802 8.313 -0.0233004 2.9404 -0.703056 6.36929 -1.08735 -0.849296 0.883158 C
22 2 1.38236 9.72672 1.37907 0.143437 -0.772938 -1.3341 0.773181 -0.533118 -0.032256 C
33 1 5.47327 -0.0434709 0.0416369 0.401362 6.33504 -3.43612 0.809075 0.343342 -1.03786 C
50 1 5.62555 8.35723 2.8164 -3.88774 -1.73054 0.936897 -1.46001 -1.05855 -0.871892 C
54 2 6.99867 9.72173 1.39603 2.03923 -0.335684 0.293773 -1.15748 0.219646 0.22397 C
1 1 -0.0661171 -0.0122168 0.0628345 -2.11736 6.32529 -1.21513 1.32681 0.546861 -1.38256 C
35 1 8.33317 0.0306729 2.80508 -2.73183 -2.7145 -3.58866 0.477395 -0.718435 -0.32281 C
18 1 0.0615574 8.34442 2.77908 3.98736 -4.60382 -2.10677 -0.583594 -0.863204 -0.243806 C
5 2 1.37271 1.39303 4.17592 2.49366 0.494107 -0.61364 0.553852 -0.22515 0.300426 C
12 1 2.77357 2.7866 5.55552 3.89446 -1.46916 -2.16107 -0.659566 0.340887 -0.615949 C
15 2 4.11416 1.41011 6.90482 -0.620052 -1.76652 2.40335 0.888023 -0.376065 1.49415 C
37 2 6.91916 1.35716 4.17061 -2.19002 1.56976 -1.29039 0.804453 0.0851706 0.22422 C
9 1 -0.0187726 -0.0131081 5.50895 1.03145 7.92025 -0.465751 -0.0141586 0.571975 1.28344 C
44 1 8.32819 2.79549 5.45771 -2.70832 2.8274 -3.40968 -0.596248 0.302255 0.94659 C
47 2 9.64211 1.44196 6.90383 0.487292 1.98921 -1.70682 0.832316 -1.08198 -0.101619 C
14 2 1.35211 4.21744 6.88472 5.02755 1.38899 0.369628 1.03965 -0.675347 0.625134 C
21 2 1.38535 6.92761 4.16431 1.93533 -2.34354 -1.10705 1.3584 0.493218 -0.135391 C
8 2 4.19748 4.12583 4.16328 1.00224 -2.48773 -3.18047 0.49863 0.483408 0.112015 C
31 2 4.19073 6.90389 6.95116 0.585903 -3.94915 1.2472 0.421971 0.137119 0.205439 C
46 2 6.92487 4.1617 6.89433 -7.66143 1.64182 0.513075 1.03212 -0.385955 0.0792475 C
53 2 7.00697 6.94197 4.15973 2.81609 -0.92947 1.05117 -0.997983 -0.525428 0.0151611 C
57 1 5.60674 5.55668 5.5657 -0.764646 2.80962 -1.67984 -1.02981 0.119149 -1.23645 C
25 1 0.0242735 5.56843 5.496 -0.00908013 1.11438 0.924117 -0.696689 0.392357 0.350741 C
40 2 9.74329 4.20513 4.14183 -1.9998 3.6213 -2.39926 -0.588724 -0.661406 -0.235902 C
63 2 9.71011 6.9603 6.83696 -1.09919 1.89943 2.2827 0.627564 -0.0582262 1.80699 C
28 1 2.82096 8.28592 5.59399 -3.57715 3.42753 -0.596328 -0.950095 0.349432 -0.292334 C
30 2 1.41844 9.74469 6.95179 1.37021 -2.34317 4.09434 -1.10286 -0.917954 -0.32479 C
41 1 5.57232 -0.00860539 5.58713 -1.00215 0.0571681 -0.0850553 -1.10124 0.590772 -0.290794 C
24 2 4.1761 9.69771 4.22562 1.12391 2.67054 1.09092 0.399065 -0.209758 -0.565209 C
62 2 6.92701 9.70331 6.92863 -1.70143 0.915868 0.785776 0.643846 -0.0031729 0.190353 C
56 2 9.73178 9.66761 4.13063 0.263426 -0.804844 -1.54694 -0.702488 0.704946 0.38736 C
60 1 8.31418 8.33304 5.5386 3.79288 -1.57471 -0.00343543 0.470452 0.504019 -0.401171 C
4 1 2.75724 2.7076 -0.0228706 -3.16423 0.99964 5.43073 -0.509961 0.854317 0.353728 C
11 1 2.69112 0.0607584 8.36038 -2.17239 -2.98664 -1.75325 1.64257 -0.63738 -0.712577 C
13 2 1.29012 1.4112 9.67945 0.944698 1.2174 0.991995 -0.163304 -0.30012 1.1068 C
42 1 5.5406 2.82839 8.3064 -0.869767 3.89249 6.43697 -0.518276 -1.12615 -0.530389 C
45 2 6.87127 1.41367 9.69847 -7.40546 -5.52524 -0.00950508 -0.955793 -1.72338 -0.145229 C
10 1 -0.0178806 2.82933 8.26991 0.91707 3.26499 -0.110107 -1.20058 0.10773 0.452751 C
43 1 8.25607 0.0268985 8.32256 1.7622 -0.679836 4.52591 0.489314 0.380885 -0.267553 C
27 1 2.77481 5.53533 8.3181 3.41299 1.09588 -2.25383 0.273703 -0.445315 -0.0580926 C
29 2 1.39622 6.91249 9.67821 2.1115 -0.351399 -3.43351 -0.325302 0.261416 0.657052 C
16 2 4.15412 4.10901 9.73155 1.83803 0.881027 -0.884961 -0.588236 0.759832 -0.696079 C
61 2 6.91636 6.87935 9.67158 -6.23328 -1.94075 0.966062 0.935995 0.710466 0.541965 C
48 2 9.58778 4.15599 9.71006 -2.96111 0.975797 -2.52877 2.15686 -0.208829 -0.612418 C
59 1 8.33559 5.54623 8.23679 3.94485 3.70579 1.64233 -0.638387 0.356817 0.340675 C
32 2 4.10722 9.63159 9.66373 1.89513 1.48379 -1.17384 0.865999 1.89864 0.0672895 C
58 1 5.59458 8.32409 8.30118 -5.47241 -4.25037 -4.25582 -1.1476 -0.730765 0.248825 C
52 1 8.32594 8.30579 0.0362414 -0.520002 -6.26315 3.20822 -0.000254121 -0.687701 -0.858182 C
26 1 -0.0137089 8.34587 8.36028 -0.920035 3.02967 0.696269 -0.0572999 -0.0345826 -1.25598 C
64 2 9.6575 9.75397 9.72555 -3.84177 1.20367 -0.20945 -0.111222 -0.903267 -0.0699142 C
ITEM: TIMESTEP
19200
ITEM: NUMBER OF ATOMS
64
ITEM: BOX BOUNDS pp pp pp
0.0000000000000000e+00 1.1085848640000000e+01
0.0000000000000000e+00 1.1085848640000000e+01
0.0000000000000000e+00 1.1085848640000000e+01
ITEM: ATOMS id type xu yu zu vx vy vz fx fy fz element
3 1 2.72205 -0.0410867 2.74307 -5.85746 1.44874 -3.18627 0.937413 1.2126 0.161016 C
7 2 4.18871 1.35703 1.36147 2.58802 2.19106 -1.02013 -0.800316 -0.829358 -0.157857 C
34 1 5.53155 2.71473 2.76974 4.99503 -0.59779 5.23556 0.897133 1.12789 0.24597 C
2 1 -0.0292207 2.75736 2.76361 0.676853 -2.12556 4.53547 0.146815 0.427159 0.109088 C
36 1 8.33055 2.8631 -0.0230806 0.953897 0.128169 -3.66619 0.9676 -1.28515 0.534656 C
39 2 9.67194 1.39401 1.35842 2.95906 -1.17915 2.29319 0.794769 0.224749 -0.299876 C
6 2 1.34417 4.1624 1.37343 -2.2109 -0.462582 0.726541 0.314542 -0.198806 -0.32172 C
19 1 2.77358 5.51901 2.76336 -3.04257 -3.77654 2.63706 -1.37972 1.19895 0.353764 C
23 2 4.14107 6.94451 1.41301 -3.97416 -4.30774 0.313331 0.266465 0.0202296 -0.463363 C
38 2 6.95629 4.15491 1.36566 0.31988 2.87136 0.456802 -1.30788 1.07646 0.704714 C
49 1 5.52931 5.60394 -0.0226215 1.07604 -0.0655364 -2.68287 0.400109 -0.723189 0.564807 C
17 1 -0.0380121 5.57401 -0.0424241 2.99063 3.03942 1.30932 0.579239 -0.466079 0.913312 C
51 1 8.34118 5.59867 2.75212 -3.05967 2.35828 1.34452 0.0552857 -2.02604 0.875666 C
55 2 9.66619 6.95401 1.36396 -3.91913 -0.140767 5.42753 0.374022 0.310036 -0.680053 C
20 1 2.75662 8.31775 -0.000255293 0.00197948 5.71611 -5.34684 -0.035595 -0.192335 0.809998 C
22 2 1.35636 9.67799 1.39292 -4.0166 3.36247 2.44697 -0.152722 -0.470519 -0.214432 C
33 1 5.59495 -0.0743205 -0.0147966 -2.96453 -1.81333 4.91405 -0.174089 1.49369 -0.511845 C
50 1 5.55977 8.30491 2.79068 9.22434 3.47129 1.91525 -0.198277 0.0654999 0.242208 C
54 2 6.95415 9.69565 1.43601 0.895541 4.42779 -1.67638 0.624427 0.197013 -0.243488 C
1 1 0.0203674 -0.0304076 -0.000962274 -1.11305 -5.86899 7.80945 -0.525068 0.72344 0.908166 C
35 1 8.3973 0.0193343 2.80845 0.632988 3.52159 3.97402 -1.72706 -0.373175 -0.913516 C
18 1 -0.069969 8.31812 2.77007 -3.97283 6.65141 1.99834 0.778448 -0.00370511 -0.268612 C
5 2 1.37009 1.39452 4.13969 -3.4534 -0.704713 -3.8047 -0.176569 -0.745884 0.552485 C
12 1 2.74765 2.78516 5.54887 1.83739 0.813998 2.13606 0.325161 -0.140663 -0.427094 C
15 2 4.18401 1.35879 6.87949 0.407391 0.381139 -2.62963 -0.927024 0.13006 0.306057 C
37 2 6.96447 1.33969 4.17382 -0.725785 -1.43634 -0.568837 0.118034 1.3238 0.0707202 C
9 1 -0.0103583 -0.0323162 5.58735 -2.01439 -7.91154 -7.04316 -0.81483 1.77503 -1.45171 C
44 1 8.34677 2.74957 5.62077 3.66891 -2.39612 -0.0472745 -0.392021 0.0729468 -1.26661 C
47 2 9.67383 1.36562 6.99191 -0.195928 -2.07851 3.45983 0.928981 -0.492158 -1.18169 C
14 2 1.33259 4.1479 6.9269 -3.07074 1.05101 0.842996 0.943625 -0.093925 0.767915 C
21 2 1.31353 6.9674 4.1744 -5.75657 -0.430352 0.0202986 1.37417 -0.741208 -0.6243 C
8 2 4.14167 4.18396 4.14689 -1.54331 1.34503 2.12403 0.490729 -1.16152 0.337224 C
31 2 4.13297 7.02795 6.92097 -1.65003 0.435551 1.23316 0.911158 -1.48583 0.435774 C
46 2 6.96191 4.13258 6.96282 2.37302 -0.764878 0.251747 -1.97588 -0.474517 -0.438549 C
53 2 6.97534 6.92354 4.1664 -0.576684 -1.4598 0.642337 -0.874355 0.233409 0.354303 C
57 1 5.53547 5.54205 5.56135 4.26423 -2.88095 4.54804 0.37828 0.471862 0.15823 C
25 1 -0.00519274 5.56737 5.57561 2.41496 -2.96977 -1.73706 0.388495 -0.760051 -0.529567 C
40 2 9.74647 4.15294 4.23261 0.27218 -0.970638 -1.93448 -1.27471 0.25833 -1.41032 C
63 2 9.68389 6.84389 6.9179 0.722855 -0.339386 -4.05611 -0.84753 1.30658 0.967626 C
28 1 2.73939 8.35521 5.54237 1.48349 -2.68296 0.931817 -0.450696 0.356034 -0.46916 C
30 2 1.33855 9.74606 6.91309 1.4596 0.880211 -1.06897 1.43381 -1.33065 1.13094 C
41 1 5.55485 0.000931053 5.52146 4.15197 -1.16217 2.79851 -0.0495042 -0.790055 -0.335056 C
24 2 4.1367 9.71495 4.13758 -2.47221 1.19187 -0.605727 0.266621 -0.309121 0.185919 C
62 2 6.95399 9.69583 6.87606 0.311481 0.0365102 0.447959 -0.448966 0.449855 1.1137 C
56 2 9.69504 9.70218 4.15206 -1.26986 -2.42349 -0.476946 0.580021 -0.136881 1.0352 C
60 1 8.34682 8.31789 5.55789 -2.45066 -0.554809 -0.258197 -0.00382293 -0.716111 -0.512042 C
4 1 2.76202 2.74361 -0.0140313 3.59626 -0.235421 -3.92905 -0.380001 0.319184 0.50322 C
11 1 2.80894 -8.558e-05 8.30748 -1.89898 4.7645 0.833732 -1.20719 0.00407391 -0.411523 C
13 2 1.35954 1.32921 9.71829 0.47801 -2.64644 -2.44071 1.23238 0.497414 -0.56824 C
42 1 5.52993 2.67219 8.29935 2.20375 3.10533 -2.07723 0.395274 2.43711 0.982604 C
45 2 7.05196 1.44612 9.7036 3.85885 2.9094 -1.39186 -2.55722 -1.81256 0.124036 C
10 1 -0.00965467 2.69414 8.32572 3.79621 -3.8645 -0.736464 0.547228 0.890339 -0.0101857 C
43 1 8.31154 0.00318146 8.29859 -0.350705 -0.359287 -1.36869 0.516163 -0.812702 0.807156 C
27 1 2.79052 5.54532 8.30233 -2.64579 0.76986 2.3971 -1.0523 0.622223 -0.331963 C
29 2 1.40624 6.9325 9.73347 -1.04173 -1.16594 -3.38745 -0.519043 -0.101275 -1.54087 C
16 2 4.10934 4.19147 9.71621 1.72034 0.121051 -1.09861 1.54197 -1.38839 -0.734815 C
61 2 6.94866 6.97315 9.67695 1.11085 -0.956941 -2.08571 -0.274834 -0.268292 0.664808 C
48 2 9.74711 4.12739 9.6704 -0.622856 0.266041 2.43254 -0.843259 0.976269 -0.113624 C
59 1 8.25584 5.50012 8.33987 1.87509 -2.42111 -1.67582 1.78118 0.459828 0.00619684 C
32 2 4.1045 9.65863 9.68092 1.4281 -0.667866 -1.03025 1.53157 0.827748 0.594649 C
58 1 5.57906 8.35987 8.33922 7.59311 4.09916 2.20818 -0.658225 -0.248348 -1.26602 C
52 1 8.33118 8.37835 -0.037247 0.856867 3.40001 1.27209 -0.119022 -0.611314 0.68116 C
26 1 -0.0166667 8.27625 8.26732 2.3738 -1.43393 3.10795 0.511317 0.260894 0.885852 C
64 2 9.76696 9.72561 9.70747 3.49257 0.600239 -2.40842 -1.1847 -0.560884 -1.39104 C
ITEM: TIMESTEP
19300
ITEM: NUMBER OF ATOMS
64
ITEM: BOX BOUNDS pp pp pp
0.0000000000000000e+00 1.1085848640000000e+01
0.0000000000000000e+00 1.1085848640000000e+01
0.0000000000000000e+00 1.1085848640000000e+01
ITEM: ATOMS id type xu yu zu vx vy vz fx fy fz element
3 1 2.83216 -0.00125106 2.77731 2.60772 -7.39343 5.3295 -1.14557 -0.401781 0.182844 C
7 2 4.09519 1.45562 1.44196 -0.748397 -3.21831 -0.00184767 1.46452 -0.836892 -1.71182 C
34 1 5.47337 2.81923 2.7603 -2.96975 -4.84656 -5.09772 0.711428 -0.847364 0.887214 C
2 1 -0.00805381 2.77358 2.71831 -0.844228 -0.172157 -1.46132 0.328778 -0.523398 1.0846 C
36 1 8.30235 2.76395 0.055455 -3.85562 1.47472 0.304042 -0.620059 0.681571 -1.68758 C
39 2 9.64186 1.35292 1.30996 -0.917692 -0.917003 0.0303363 1.29595 -0.125652 1.59138 C
6 2 1.44996 4.20214 1.40199 -1.4466 -0.698723 1.1584 -1.39982 -0.42878 -0.509884 C
19 1 2.79687 5.61168 2.7241 6.78807 -0.37396 -3.25104 1.21046 -1.20882 0.057962 C
23 2 4.18377 6.98663 1.29968 2.21257 0.22504 -0.275857 -1.09591 -1.75183 1.02202 C
38 2 6.8643 4.14422 1.39781 0.980065 -1.37438 -0.172913 1.02286 0.238215 0.268251 C
49 1 5.53031 5.51821 0.0202075 -0.191709 2.00603 -0.395719 0.505942 0.741973 -0.343603 C
17 1 -0.000372547 5.52392 0.00554016 -2.34363 -1.54492 -4.00349 0.574047 0.376648 0.149588 C
51 1 8.25415 5.53147 2.80344 2.89052 3.43031 -3.45222 0.0943436 1.1009 -0.791009 C
55 2 9.72327 6.93009 1.38925 2.02706 -0.0848554 0.511791 -0.799039 -0.624327 0.460039 C
20 1 2.77137 8.29097 0.00864752 2.03387 -2.81008 3.35783 0.8564 1.49376 -0.73761 C
22 2 1.44826 9.68836 1.3483 0.222243 0.0315316 0.522415 -1.11709 1.04556 0.591613 C
33 1 5.5467 0.0875375 -0.0243449 3.36835 -2.65172 -1.99187 -0.93691 -1.16896 1.36759 C
50 1 5.42091 8.32104 2.71789 -5.92785 -1.60592 0.236447 1.87933 0.310316 0.561318 C
54 2 6.85144 9.64256 1.38603 -0.398303 -0.83282 1.8135 -0.136093 0.87791 -1.38037 C
1 1 0.031601 0.0586122 -0.0792299 0.172572 2.38263 -5.83654 -0.105691 -1.31292 1.42138 C
35 1 8.21078 -0.034967 2.69211 6.51426 0.621109 1.30751 0.869791 0.787151 1.43656 C
18 1 0.086253 8.26702 2.76923 2.40604 -3.94399 1.12214 -1.2816 1.2782 0.250076 C
5 2 1.46398 1.36784 4.19603 0.725394 1.33583 -1.54029 -1.92702 0.172734 -1.6751 C
12 1 2.75315 2.7213 5.57216 -2.12485 -1.20129 1.59581 1.25503 0.893822 0.374696 C
15 2 4.18969 1.35837 6.95744 2.41435 -0.780571 1.57703 -0.259887 0.59523 -0.152064 C
37 2 6.8571 1.40211 4.16145 -0.147908 -3.61721 0.131241 0.314006 -0.358667 -1.08489 C
9 1 0.0480816 0.0422936 5.58739 4.39234 -1.2294 8.61491 0.0939884 -2.06255 -1.26674 C
44 1 8.28168 2.75852 5.52522 2.53473 1.33109 1.92696 0.864492 0.111903 0.410545 C
47 2 9.76562 1.39876 6.90692 -3.25513 1.18475 0.842202 -1.51964 0.477249 1.13769 C
14 2 1.38722 4.13904 6.92726 -0.83027 1.72029 0.112852 -0.394914 0.318764 -0.0579055 C
21 2 1.44253 6.85199 4.13686 -0.168335 2.33542 -0.789516 -1.15676 0.903524 0.77565 C
8 2 4.11244 4.13469 4.14838 1.17617 1.44566 -2.78682 -0.482468 0.957896 0.323511 C
31 2 4.17661 6.86864 6.95934 0.015973 0.327503 1.50803 -1.38087 0.205438 -1.03433 C
46 2 6.9834 4.20059 6.93983 -1.85306 1.27425 0.618925 -1.00312 -0.133934 -0.500264 C
53 2 6.80939 6.98712 4.12082 5.42085 -1.16335 -1.41427 0.863838 -0.876966 0.216582 C
57 1 5.49542 5.54886 5.51797 -0.833316 2.82151 0.144039 1.00546 -0.811268 0.394417 C
25 1 -0.0284 5.51051 5.53654 -0.955466 6.61678 1.46579 0.820213 0.468448 0.169286 C
40 2 9.66805 4.17778 4.15906 2.96432 2.35592 0.466429 0.0938874 -1.19839 -0.536471 C
63 2 9.69197 6.91272 6.94178 -0.411744 -1.23849 0.485344 0.0241239 0.754463 -0.46979 C
28 1 2.83708 8.24101 5.48591 1.18514 1.2402 2.79949 -0.0911248 0.442993 0.912098 C
30 2 1.47955 9.6444 6.91548 -2.79816 1.29307 2.41962 -1.12177 0.218044 -0.419922 C
41 1 5.4992 -0.0163305 5.51884 -0.644535 1.80235 0.462616 0.950117 0.573153 0.853636 C
24 2 4.19807 9.70469 4.14719 -0.695251 1.87452 0.128865 -1.50854 -0.478462 -0.160534 C
62 2 6.8561 9.71618 6.9559 0.198612 0.145485 -1.40996 0.318351 -0.76766 -0.219771 C
56 2 9.64711 9.71653 4.14224 1.25897 0.436737 -4.03688 1.23403 -0.231907 0.108835 C
60 1 8.23315 8.31479 5.55132 2.19362 2.40854 3.50217 0.538743 0.114741 -0.00991855 C
4 1 2.79899 2.82715 0.0113222 -1.80847 -2.62307 2.36919 0.128514 0.13694 -0.34989 C
11 1 2.81732 -0.0566936 8.30857 3.134 -2.83202 1.74728 -0.605038 1.35494 0.421056 C
13 2 1.4463 1.43857 9.70275 -4.38389 -0.351421 1.35877 -0.0505366 -0.315579 -1.07609 C
42 1 5.58358 2.80757 8.32734 -1.20919 -8.14733 0.75573 0.113839 -0.468461 -0.578094 C
45 2 6.95115 1.38938 9.69137 -0.468224 -0.269138 -0.121202 0.565065 0.552726 -0.180713 C
10 1 0.0037654 2.82696 8.34482 -2.81577 -0.572902 0.132567 0.640982 -1.4513 -0.703891 C
43 1 8.3328 -0.0296397 8.30435 -2.1736 1.9629 -0.139615 -0.17065 0.932791 -0.284136 C
27 1 2.75074 5.52484 8.31673 8.60009 -0.921156 -0.907757 0.436324 0.249244 0.523197 C
29 2 1.42913 6.95172 9.76238 1.27885 -1.23882 0.824232 -1.4202 -1.11777 -1.5668 C
16 2 4.21463 4.19334 9.69138 -3.07176 3.34624 -0.0539834 -1.26267 -0.650366 0.0109751 C
61 2 6.91048 6.89037 9.73726 -2.57274 -0.202945 -0.647763 -0.233472 0.433491 -0.815604 C
48 2 9.71346 4.12979 9.71146 1.60876 -0.61106 -3.15671 -0.75662 0.641444 0.907592 C
59 1 8.34833 5.56015 8.35896 -4.69547 -0.306385 0.397827 -0.28488 -0.396648 -0.0919926 C
32 2 4.15497 9.71401 9.72141 -3.3891 -0.652891 -2.50039 0.28558 -0.648711 0.192588 C
58 1 5.46221 8.25832 8.31283 -1.95264 -1.14309 1.29927 1.77072 0.948759 1.12623 C
52 1 8.28225 8.28478 0.00405268 1.6152 2.7903 -0.826803 0.249342 0.309242 0.548652 C
26 1 0.0224156 8.31478 8.31408 -3.55135 0.782608 -3.81813 -0.100801 0.0108678 0.568124 C
64 2 9.6671 9.70564 9.73529 0.590374 2.81066 1.42522 0.988272 -0.511681 -0.91098 C
ITEM: TIMESTEP
19400
ITEM: NUMBER OF ATOMS
64
ITEM: BOX BOUNDS pp pp pp
0.0000000000000000e+00 1.1085848640000000e+01
0.0000000000000000e+00 1.1085848640000000e+01
0.0000000000000000e+00 1.1085848640000000e+01
ITEM: ATOMS id type xu yu zu vx vy vz fx fy fz element
3 1 2.71344 0.03264 2.75744 1.06886 3.31629 -5.10822 1.47166 -1.5251 1.09316 C
7 2 4.17476 1.34978 1.43773 -1.3531 2.37109 4.38163 -0.429301 0.932508 -0.957923 C
34 1 5.62871 2.75652 2.78849 -1.19967 4.14726 2.20149 -0.869871 -0.077494 -1.49414 C
2 1 0.0409018 2.79144 2.82401 0.0184318 1.34904 -2.79471 -0.324515 0.271367 -0.657562 C
36 1 8.33106 2.75061 -0.0756675 2.89605 -1.38624 3.38128 -0.656934 -0.447685 1.52862 C
39 2 9.72428 1.41908 1.41589 -1.20416 -0.520351 -2.73416 -0.469538 -0.374836 0.159432 C
6 2 1.41648 4.15948 1.36546 2.24849 3.05915 2.12838 -0.854952 -0.629762 0.516775 C
19 1 2.74384 5.49229 2.81117 -5.3052 2.48073 0.169051 0.833909 0.647687 0.0741601 C
23 2 4.1573 6.90029 1.47701 1.76288 1.66198 -2.0827 0.256347 0.523744 -0.699593 C
38 2 6.97771 4.14323 1.34546 -2.38935 1.9106 -0.308913 -0.228379 -0.385559 0.274573 C
49 1 5.53529 5.53605 0.0384441 -2.54559 -3.63845 0.084 -0.0746794 -0.0384208 -0.414486 C
17 1 -0.000759621 5.50987 -0.00544721 1.13909 0.454124 0.358173 -0.271946 0.0371918 -1.14616 C
51 1 8.36444 5.50296 2.7359 -2.97732 -1.90069 4.58746 0.00584296 0.86769 0.294768 C
55 2 9.71913 6.91827 1.32891 0.569545 -1.61489 2.0072 -0.0958112 -0.332683 0.981766 C
20 1 2.77515 8.28839 0.00808231 -3.33659 -2.69973 -1.41255 0.0359323 -0.724905 0.412632 C
22 2 1.38333 9.6947 1.35435 1.66625 0.381106 0.772415 0.417522 -0.347238 0.942912 C
33 1 5.49776 -0.0884294 0.0462788 0.665654 1.86829 -0.260205 1.39513 0.636331 -0.275187 C
50 1 5.65286 8.28694 2.81688 0.512345 -0.0560496 -1.11783 -1.47047 0.404171 -0.306678 C
54 2 7.02077 9.67877 1.43892 -2.17292 -1.10473 2.12355 -1.26991 -0.33473 -0.975526 C
1 1 -0.0198305 -0.0485949 0.0778956 3.81338 0.70845 -0.824518 -0.578878 1.31281 -2.02531 C
35 1 8.32554 -0.00212044 2.82217 -5.02829 -2.43017 -3.75247 1.35204 0.274845 -0.415398 C
18 1 -0.0429577 8.3593 2.7291 4.33032 -0.178536 -0.170723 1.40124 -1.36133 0.898607 C
5 2 1.39722 1.39159 4.19447 3.40472 -1.97205 -0.96583 -0.0112721 0.857694 -0.640133 C
12 1 2.81633 2.84969 5.48765 -0.360525 -1.68421 0.51197 -1.28254 -1.4386 0.773889 C
15 2 4.05165 1.37241 6.8748 0.670818 -3.10587 -0.435038 1.54797 0.800445 0.760688 C
37 2 6.95519 1.39436 4.13918 -2.59775 1.71102 0.406042 -0.290539 -0.45596 0.948561 C
9 1 -0.0904571 0.0665733 5.47091 -1.93771 4.40025 -0.0204387 1.78583 0.37293 2.98026 C
44 1 8.25477 2.80647 5.52538 -4.89144 -1.59937 -0.0808081 1.23133 -0.318995 0.500988 C
47 2 9.65363 1.43979 6.95085 3.25802 0.482606 1.82809 -0.238125 -0.308628 -1.50743 C
14 2 1.39099 4.17861 6.88955 -0.389049 -0.215143 2.0922 0.209199 -0.864371 0.494182 C
21 2 1.3803 6.92057 4.20558 0.262249 -3.57871 -1.57737 -0.357333 0.98022 -1.36472 C
8 2 4.21583 4.10628 4.11831 -0.587303 -0.775814 -0.517676 -0.0687127 1.19615 -0.264544 C
31 2 4.1694 6.96916 6.89536 -0.0306409 -0.673724 1.0491 -0.43638 -0.780664 0.157971 C
46 2 6.90521 4.14178 6.93097 1.97295 0.95607 2.33694 -0.353539 0.669961 -0.249914 C
53 2 7.00504 6.92207 4.15858 -5.3107 1.23779 -1.8072 0.231401 -1.13338 -0.213389 C
57 1 5.5713 5.50568 5.48517 -3.08207 -1.2128 -1.72167 -0.294205 1.08931 0.849388 C
25 1 0.0366257 5.51083 5.55171 -1.37031 -6.68577 1.07091 -0.635542 1.13701 0.0840408 C
40 2 9.72065 4.18415 4.20436 -1.03581 1.27102 -0.733902 -0.257337 -0.827624 -0.845976 C
63 2 9.75139 6.91453 6.91862 0.978692 -1.89288 0.837592 -0.187402 0.412466 0.158567 C
28 1 2.71651 8.40352 5.56481 3.36868 -3.8522 -4.36066 0.975866 -0.827176 -0.0456244 C
30 2 1.32419 9.7835 6.94329 3.77953 -0.682296 -1.54916 -0.934909 -0.26355 -0.561749 C
41 1 5.55523 0.024633 5.54112 -1.329 -1.9805 -2.34085 0.0382273 0.268704 0.208147 C
24 2 4.22453 9.70066 4.18827 2.99415 1.67262 -1.16578 -1.42047 0.327285 -1.27543 C
62 2 6.96596 9.73187 6.90619 -2.92159 2.94529 1.24125 0.3527 -0.437114 -0.376065 C
56 2 9.76074 9.7161 4.20483 -2.52381 0.473049 -0.116744 -1.74534 -0.381569 -2.14184 C
60 1 8.39157 8.30326 5.50053 -3.6145 -0.160146 -1.15223 -0.560268 0.364183 1.51968 C
4 1 2.72061 2.7246 -0.0207555 4.06015 1.64323 -1.83415 0.726459 -0.640763 0.839074 C
11 1 2.66809 0.0623009 8.31843 2.5236 -2.60457 0.0890028 1.78991 -1.64353 0.273337 C
13 2 1.29296 1.38007 9.66107 0.491833 0.726147 -0.552568 -0.254159 0.222563 1.50317 C
42 1 5.47431 2.79619 8.28895 0.755051 4.37031 0.0360656 0.178191 -1.45444 0.353849 C
45 2 6.90221 1.36691 9.69758 0.80999 -0.593648 -1.77434 -1.32227 -0.0682833 0.0117483 C
10 1 -0.0269848 2.79296 8.26197 1.6168 5.04902 2.71011 -0.243528 0.720466 0.686857 C
43 1 8.30382 0.0403754 8.31361 0.320664 -2.93585 -1.07672 -0.111283 -0.430422 0.0452987 C
27 1 2.7 5.5497 8.30541 -6.70534 -0.759634 0.453844 2.31261 -0.0617731 0.0636975 C
29 2 1.3753 6.93399 9.67942 2.62627 1.46497 0.685895 -0.363643 -0.113424 1.03404 C
16 2 4.12736 4.11284 9.76167 3.31053 2.11178 -0.970465 -0.45356 1.4261 -1.26591 C
61 2 6.92728 6.91881 9.68846 -1.71043 -2.68634 0.387402 -0.578746 -0.475255 -0.192678 C
48 2 9.59492 4.15711 9.65572 0.924022 -2.34819 -0.717841 2.56391 0.457102 -0.209608 C
59 1 8.30032 5.5637 8.26156 0.0395057 0.282479 0.987264 -0.429348 -0.0674754 0.223077 C
32 2 4.14004 9.63202 9.69961 1.39056 0.940046 0.829836 -0.501791 1.5326 -0.85326 C
58 1 5.59793 8.33866 8.2863 -3.52211 -1.47699 -1.83801 -0.738305 -0.400895 0.111215 C
52 1 8.29975 8.24126 -0.0124148 -2.58618 -3.57111 -2.18387 0.424768 1.4752 -0.0431322 C
26 1 -0.0114658 8.33966 8.35946 4.33018 -2.11512 1.4923 -0.219561 0.221103 -0.977302 C
64 2 9.64769 9.71847 9.70716 -1.80576 1.36056 0.283925 0.347291 -0.466186 0.637531 C
ITEM: TIMESTEP
19500
ITEM: NUMBER OF ATOMS
64
ITEM: BOX BOUNDS pp pp pp
0.0000000000000000e+00 1.1085848640000000e+01
0.0000000000000000e+00 1.1085848640000000e+01
0.0000000000000000e+00 1.1085848640000000e+01
ITEM: ATOMS id type xu yu zu vx vy vz fx fy fz element
3 1 2.78455 0.00193324 2.79058 -3.35331 3.38287 0.373297 -1.11307 1.61695 -1.76775 C
7 2 4.18973 1.46694 1.33944 0.752186 -3.35807 4.24567 -1.14184 -1.58741 0.845538 C
34 1 5.49076 2.78525 2.76759 3.42956 -0.611993 2.11827 0.497059 0.311955 1.59124 C
2 1 -0.0624388 2.73911 2.74945 0.594106 -2.11673 3.8927 0.910701 0.281764 0.196979 C
36 1 8.31094 2.82582 0.0682451 1.54508 3.11117 -4.15997 1.1036 -0.0241632 -0.270293 C
39 2 9.68799 1.33132 1.36964 2.11159 0.158776 2.05155 -0.392547 1.60042 -0.100215 C
6 2 1.36292 4.12225 1.36461 0.0297165 0.213623 -0.655973 -0.298856 1.21277 0.94478 C
19 1 2.77953 5.55458 2.769 -1.94453 -0.73934 -0.389567 -1.62595 -0.421176 -0.0989446 C
23 2 4.09471 6.91412 1.32646 -0.863706 -0.944967 2.81741 1.05469 0.641828 0.249692 C
38 2 6.88112 4.16223 1.43675 0.737927 1.23106 0.726302 0.175656 0.775298 -0.781422 C
49 1 5.59076 5.60146 -0.0380812 0.408387 2.30876 4.32153 -0.676524 -0.837154 0.446779 C
17 1 -0.0214601 5.60577 0.0301188 -2.56502 -2.21835 3.41827 0.321926 0.122923 1.07154 C
51 1 8.26748 5.55234 2.79283 1.31741 -3.72667 -3.48359 0.217885 -0.229698 0.50633 C
55 2 9.60932 6.99882 1.43084 -0.546585 2.18962 -1.1047 0.936765 -1.07005 -0.619999 C
20 1 2.76476 8.38273 -0.00144984 1.25839 0.514249 0.802707 -0.682901 -0.826823 -0.571685 C
22 2 1.34087 9.70254 1.38821 -1.29037 1.0368 -1.74073 -0.143302 0.638125 0.337303 C
33 1 5.56993 0.0999395 -0.0535075 -3.04713 -1.43691 -1.2617 0.00391525 -0.98979 -0.119881 C
50 1 5.46224 8.33791 2.71369 0.280333 -1.70988 -0.220415 1.32375 -0.459884 0.226179 C
54 2 6.93629 9.74632 1.33388 2.00639 1.39501 2.89786 -1.19154 0.686562 1.01173 C
1 1 -0.0528418 0.0230262 -0.0467532 -1.45027 -2.59035 3.27441 2.2393 -0.821871 0.837051 C
35 1 8.32374 0.0265647 2.75292 -2.39596 -0.177581 1.65471 -1.00833 -0.96879 0.254295 C
18 1 -0.0537195 8.29523 2.79979 -6.39239 1.3447 -3.84977 0.0775571 0.95334 -0.665979 C
5 2 1.33793 1.39172 4.17315 -0.35483 -1.60563 1.52771 0.44486 -0.931875 -0.578156 C
12 1 2.70761 2.72913 5.56899 0.852913 4.64355 -3.21035 0.857668 0.790459 -0.278701 C
15 2 4.22142 1.42399 6.91196 -1.55932 -0.168456 -2.49325 -0.884033 -0.791184 -0.0880476 C
37 2 6.91341 1.35382 4.1596 -0.360675 -2.29271 -0.933209 0.489059 1.08438 -0.047409 C
9 1 0.0654423 -0.0952693 5.55818 -3.06214 -0.726595 -6.11952 -1.4284 0.398959 -1.24896 C
44 1 8.44218 2.70012 5.55136 -0.975329 0.0521156 -1.28949 -2.2248 0.205868 -0.0413487 C
47 2 9.75333 1.25372 6.9139 -0.0972129 -0.249131 3.76254 0.329288 0.831034 0.617756 C
14 2 1.33042 4.12499 6.91171 -1.96428 1.56439 -0.121399 0.424962 0.946151 0.773463 C
21 2 1.31136 6.93005 4.14554 -2.10292 -0.945675 2.54776 1.50569 -0.0435792 -0.382532 C
8 2 4.08821 4.17682 4.20978 1.47096 -1.99917 -1.50178 1.13138 -0.243205 0.126823 C
31 2 4.15794 6.93179 6.99587 1.82023 0.65617 2.29218 0.0955807 0.894245 -1.32162 C
46 2 7.00226 4.1486 6.92728 2.48237 -1.25314 0.356583 0.204714 -0.673734 0.296826 C
53 2 6.89822 6.9326 4.18476 0.886721 1.25252 -1.48613 -1.10636 0.440993 -0.675573 C
57 1 5.55372 5.56639 5.63136 1.89122 -3.00683 -2.30469 -0.425326 -0.817003 -1.10538 C
25 1 -0.0331698 5.59661 5.507 1.85433 0.0344688 -2.151 0.112239 -1.8284 0.77292 C
40 2 9.70548 4.15028 4.16865 0.479306 2.26647 2.09051 -0.177315 0.384227 -0.837073 C
63 2 9.65586 6.90192 6.8869 2.22209 -2.46968 -1.2437 0.364101 0.349392 0.673878 C
28 1 2.72831 8.2926 5.52332 -6.56277 5.53315 1.2788 0.750775 -0.159177 0.363059 C
30 2 1.40443 9.67433 6.94603 -1.59697 1.8251 2.25572 0.311722 -0.57001 -0.345892 C
41 1 5.54308 -0.0230041 5.55154 -1.7943 -1.69147 -1.46218 -0.102484 -0.568048 -0.405792 C
24 2 4.09146 9.71158 4.10707 2.26304 1.75756 0.861621 1.16832 -0.646985 1.69315 C
62 2 6.93485 9.65255 6.95522 1.0628 2.14351 0.0850206 -0.471628 1.06728 0.132731 C
56 2 9.6313 9.67797 4.14286 2.34692 -0.115942 1.16284 0.833215 0.0835261 1.09039 C
60 1 8.25754 8.28808 5.57983 2.98201 -3.19218 -3.07 0.588733 0.263381 -1.08702 C
4 1 2.76669 2.80287 0.00533948 -6.34209 1.62829 -2.35205 0.748743 0.0509498 -0.994057 C
11 1 2.8225 -0.00722009 8.24244 -6.87947 4.95918 -3.4924 0.0668911 0.162069 0.612359 C
13 2 1.49281 1.30896 9.73114 -3.45776 -0.912928 -3.7109 -1.35287 0.975599 -0.804971 C
42 1 5.59629 2.74892 8.31591 -0.865194 1.60967 -1.86753 0.404227 1.13052 0.0856414 C
45 2 7.05281 1.44416 9.70874 4.20894 -0.0313427 -1.38685 -1.03485 -0.763654 -0.557746 C
10 1 0.0130703 2.67022 8.33988 -3.41687 -5.07727 -3.69805 0.274239 0.775773 0.43349 C
43 1 8.36476 -0.0533474 8.32621 2.64808 2.20615 0.913502 -0.187853 -0.0292141 0.103258 C
27 1 2.81889 5.54796 8.30881 -4.59957 -1.10022 -1.17347 -2.37856 -0.504261 0.124748 C
29 2 1.3661 6.94032 9.71311 0.0299609 -1.3175 -1.73994 0.624519 0.362842 -0.773391 C
16 2 4.17645 4.18682 9.66194 0.735022 0.481744 1.7675 0.713042 -0.663039 0.877509 C
61 2 7.00652 6.97731 9.70178 1.78725 0.554729 0.324388 0.156097 0.0737196 0.328574 C
48 2 9.773 4.19811 9.76855 -2.69655 -0.24251 -2.70025 -0.779566 -1.66654 -0.850475 C
59 1 8.38282 5.52252 8.35008 3.92164 -0.338931 -0.489947 -0.599512 0.255692 -0.220087 C
32 2 4.14935 9.72066 9.66245 0.402347 -2.94669 -0.346188 0.951634 0.556613 0.702884 C
58 1 5.55906 8.31126 8.35009 3.46311 0.0035631 -0.993819 -0.0894445 -0.0383385 -0.111015 C
52 1 8.35578 8.43969 0.0202093 0.339254 -2.15208 0.605593 -0.280631 -1.74105 -0.963876 C
26 1 -0.0344749 8.28873 8.24616 -2.85279 0.774356 0.289826 1.16844 -0.64405 0.686669 C
64 2 9.80252 9.66659 9.67992 1.3185 2.32258 -1.29064 -1.78445 0.634555 -0.300271 C
ITEM: TIMESTEP
19600
ITEM: NUMBER OF ATOMS
64
ITEM: BOX BOUNDS pp pp pp
0.0000000000000000e+00 1.1085848640000000e+01
0.0000000000000000e+00 1.1085848640000000e+01
0.0000000000000000e+00 1.1085848640000000e+01
ITEM: ATOMS id type xu yu zu vx vy vz fx fy fz element
3 1 2.75407 -0.0385532 2.76008 2.95972 -6.17788 3.24655 1.09881 0.452498 0.941802 C
7 2 4.11584 1.38118 1.35871 1.71175 3.08035 0.103977 1.18415 -1.49409 1.30296 C
34 1 5.53566 2.74857 2.74026 -4.30055 -0.959723 -5.95161 -0.0242642 0.0778616 -0.861992 C
2 1 0.0348331 2.81157 2.75019 -4.73425 0.397305 -3.61134 -0.814152 -0.870125 0.230886 C
36 1 8.24855 2.68247 -0.0417216 -3.97631 -3.51396 1.25476 0.386325 0.769155 -0.256426 C
39 2 9.66428 1.38671 1.35052 -0.304243 -3.66257 -3.03259 1.35111 -0.159999 0.770652 C
6 2 1.43181 4.17456 1.42387 1.52144 -0.947136 0.130364 0.140501 -0.420626 -1.6176 C
19 1 2.83776 5.52057 2.75078 5.83796 0.379627 0.380889 -0.100576 0.718712 0.0657975 C
23 2 4.22189 6.93287 1.3742 2.07687 -2.0704 -1.74548 -0.327114 0.176427 0.50116 C
38 2 6.94067 4.10028 1.33504 -2.33762 -0.925049 1.37622 0.00784458 1.02311 0.950451 C
49 1 5.50828 5.47845 -0.0172413 1.70842 0.530898 -6.05537 0.560363 0.4279 0.563667 C
17 1 0.0671959 5.52096 -0.0549593 1.09322 1.61214 -6.60129 -0.600659 -0.764179 0.420704 C
51 1 8.34853 5.5888 2.73589 -1.14634 1.12424 -0.542015 -0.0209117 -2.02116 -0.282612 C
55 2 9.78955 6.85146 1.36569 -1.08566 0.737404 2.48345 -0.263136 2.12435 -0.300345 C
20 1 2.78438 8.29522 -0.023844 -1.31786 2.16975 1.60264 0.489448 0.217355 0.98066 C
22 2 1.41557 9.69791 1.37513 0.884115 -0.216123 1.45883 0.036161 -0.355035 -0.596002 C
33 1 5.50652 -0.103907 0.0598154 -0.742597 2.67887 1.21354 -0.647543 0.907013 -0.622513 C
50 1 5.61625 8.31875 2.83898 -2.03352 1.15967 -0.681014 -1.08359 -0.584338 -0.37428 C
54 2 6.939 9.64907 1.41011 2.60085 -3.3085 -0.219593 0.917461 0.271993 0.217906 C
1 1 0.0437621 0.000975215 -0.0030761 -7.73433 2.22616 -2.35771 -1.68334 0.00640581 0.427919 C
35 1 8.34429 -0.00719077 2.79875 2.38394 2.139 -1.94114 -0.701097 0.223585 -1.04251 C
18 1 0.0927384 8.32807 2.77016 1.7363 -1.9468 2.02629 -0.993743 -1.10467 -0.357171 C
5 2 1.43187 1.41478 4.14593 1.13981 1.31705 0.307403 -0.641056 -0.471373 0.438379 C
12 1 2.86012 2.74571 5.55743 -3.61219 -2.94927 1.39536 -0.492714 0.330918 -0.66298 C
15 2 4.13614 1.34537 7.01146 2.00081 -1.00568 0.150587 0.603151 0.396107 -0.425215 C
37 2 6.90959 1.42137 4.11377 -2.65207 -1.12315 -0.388329 0.539307 -0.547813 0.701896 C
9 1 0.00877053 0.0289417 5.57944 2.57102 0.729553 3.39524 -0.103268 0.488155 -1.00108 C
44 1 8.2117 2.86683 5.51119 7.14481 -0.997374 -1.87597 0.77659 0.159982 -0.121123 C
47 2 9.629 1.47747 6.87233 0.0667194 -1.56242 0.494406 0.764162 -0.0903705 1.62487 C
14 2 1.50675 4.21307 6.86978 -1.44808 -0.428229 -1.16251 -0.762374 -0.536263 1.17175 C
21 2 1.45255 6.89364 4.13996 -1.24042 -1.35198 -0.946257 -0.181048 0.371244 1.11388 C
8 2 4.19397 4.13562 4.10017 -1.04064 -0.756286 -1.51448 -0.198764 -0.224114 0.713039 C
31 2 4.17242 6.9122 6.88166 -0.332539 -0.549796 3.38311 0.887394 -0.530977 1.7151 C
46 2 6.77376 4.21036 6.93829 -2.76424 1.936 1.79806 1.09624 -0.852289 -0.597774 C
53 2 7.01495 6.9126 4.16064 4.22954 -1.49806 -0.44155 -0.381705 0.940628 0.484686 C
57 1 5.51566 5.56058 5.46377 -0.146495 4.44487 2.64901 0.353144 0.102019 0.273567 C
25 1 0.0119575 5.55944 5.61674 -1.18525 4.93794 -1.04054 0.27889 0.697219 -1.49448 C
40 2 9.74343 4.20779 4.14401 3.59519 3.08721 1.31753 -0.822637 -0.174817 0.42977 C
63 2 9.68015 6.97166 6.97492 -0.656747 -1.03179 0.457614 0.120898 -0.137047 0.0609922 C
28 1 2.85237 8.26069 5.5975 -0.923844 -1.00263 -2.48082 -2.46912 1.24676 -1.02345 C
30 2 1.3985 9.71671 6.94849 -0.667887 2.37227 2.64774 0.546456 -0.467397 0.596466 C
41 1 5.58638 0.0598862 5.58371 1.52801 2.91475 1.19687 -1.03752 -0.850098 -0.413599 C
24 2 4.17569 9.67727 4.24196 0.0768812 1.82403 -3.12376 0.56038 0.956154 -1.10375 C
62 2 6.90465 9.67412 6.91462 -0.918214 -0.153713 2.10385 0.222183 0.766238 0.218259 C
56 2 9.7561 9.71218 4.11568 0.932418 0.993434 -2.10193 0.514416 0.299667 1.00705 C
60 1 8.36891 8.39194 5.5377 -2.88548 1.02233 3.35676 -0.282378 -1.32208 -0.106107 C
4 1 2.8132 2.74238 0.0259916 0.577141 -3.20272 5.09732 -1.83904 0.906174 0.323236 C
11 1 2.77536 -0.0100129 8.42642 1.18787 -2.26238 0.377171 -1.40545 0.710497 -1.70232 C
13 2 1.37818 1.43498 9.75448 0.895495 -2.79246 2.40867 0.210572 -0.0291919 -1.04956 C
42 1 5.49239 2.77115 8.35956 -3.09325 -2.22453 1.21871 -0.753698 0.0748522 -0.349147 C
45 2 6.77097 1.34992 9.72993 0.718719 -0.304258 0.356665 1.43157 -0.510838 -0.121043 C
10 1 0.0708534 2.90562 8.30526 1.04783 0.158293 -2.28178 -1.2162 -1.8954 -0.701371 C
43 1 8.19957 0.0359105 8.30183 -2.08274 -1.51245 -1.95613 1.11705 0.108303 0.214121 C
27 1 2.82879 5.54285 8.33483 5.0527 2.34019 -0.982703 0.0729771 0.154887 -0.44892 C
29 2 1.44945 6.93045 9.69854 0.789341 0.966714 0.186251 -0.678654 -0.291915 -0.399055 C
16 2 4.12259 4.11353 9.7569 -0.999956 2.75264 -1.32019 0.315676 0.438663 -1.09657 C
61 2 6.8112 6.89861 9.67242 -2.34116 -0.579026 -0.294831 0.760351 0.528766 0.677052 C
48 2 9.62516 4.14647 9.68454 1.56325 2.66176 0.236483 0.145294 0.93527 -0.313509 C
59 1 8.16605 5.57647 8.27957 -0.917708 -0.0597003 0.0466845 1.81998 -0.49129 0.430589 C
32 2 4.11957 9.68317 9.67719 -2.95756 -1.51168 -2.15035 0.93258 -0.565773 1.43253 C
58 1 5.50217 8.33099 8.3087 -1.92867 0.793405 0.546924 -0.145308 -0.544229 -0.778062 C
52 1 8.28493 8.23179 -0.0175238 -0.0274017 4.90507 2.56845 0.0131246 -0.191712 0.797498 C
26 1 0.0240381 8.33564 8.3825 -3.15906 -0.197115 -0.774611 -0.993037 0.43066 -0.29403 C
64 2 9.59552 9.72631 9.75977 1.24339 0.31502 -0.0356771 1.40954 0.0596817 -1.2847 C
ITEM: TIMESTEP
19700
ITEM: NUMBER OF ATOMS
64
ITEM: BOX BOUNDS pp pp pp
0.0000000000000000e+00 1.1085848640000000e+01
0.0000000000000000e+00 1.1085848640000000e+01
0.0000000000000000e+00 1.1085848640000000e+01
ITEM: ATOMS id type xu yu zu vx vy vz fx fy fz element
3 1 2.80186 0.0860718 2.7366 -6.94533 3.43932 -4.22029 -1.21724 -2.24762 0.359335 C
7 2 4.16942 1.42 1.38415 -1.43565 5.36248 0.591944 1.11617 1.53365 -0.806616 C
34 1 5.60814 2.81836 2.84024 1.10474 1.46088 5.39226 -1.02117 -0.578052 -0.493152 C
2 1 0.0233794 2.74862 2.79497 5.75851 0.975732 2.25025 -0.592669 0.653189 -0.672337 C
36 1 8.39539 2.84141 0.0732227 -2.42744 2.00311 0.0211359 -1.59303 -1.56088 -0.57912 C
39 2 9.72354 1.39901 1.44185 -0.388456 -1.80591 0.0299848 0.486685 -0.513461 -1.00417 C
6 2 1.36335 4.14928 1.35165 0.968386 1.22475 3.98682 0.321173 -0.22247 1.31064 C
19 1 2.65434 5.56819 2.8214 -1.89422 -2.13 -1.65058 1.42005 -0.846917 -0.443473 C
23 2 4.05998 6.9086 1.4035 -1.26264 -0.274919 -2.29335 1.28118 -0.425072 0.292121 C
38 2 6.96322 4.19192 1.39781 -1.29435 -0.709361 0.209166 -0.415095 -0.371173 0.66635 C
49 1 5.5468 5.53853 0.0440286 -2.98887 -0.722692 1.25063 -0.198707 0.438899 -1.5071 C
17 1 -0.0528251 5.54579 0.113092 0.910492 2.56132 3.71351 0.096501 0.335841 -2.10202 C
51 1 8.29423 5.50939 2.84116 -3.09541 7.31869 -0.237811 -0.595197 1.97652 -0.728719 C
55 2 9.67526 6.98028 1.42903 -0.142571 -3.59086 4.19232 -0.85006 -1.1533 0.520112 C
20 1 2.77662 8.28967 0.00985175 0.573938 0.861952 -5.79914 -0.846451 1.20466 -0.680027 C
22 2 1.32055 9.68872 1.37562 -2.01013 2.82453 -0.303958 2.19468 0.00705151 1.17737 C
33 1 5.61271 0.0830071 -0.0527501 0.332844 -4.34552 2.00319 -0.708484 0.178248 0.708268 C
50 1 5.51826 8.29577 2.73226 2.45713 2.84242 0.18558 -0.0676317 0.830488 -0.105665 C
54 2 6.93092 9.79501 1.37875 -1.89425 2.38274 0.0127669 -0.0775018 -2.22593 -0.89507 C
1 1 0.0487982 0.000338699 0.021098 9.44257 -2.24878 -1.94781 -1.37261 0.436737 -0.395339 C
35 1 8.31381 0.00407487 2.75387 -0.358472 0.0065334 4.75136 0.334706 0.256265 0.808922 C
18 1 -0.0519507 8.32102 2.81085 0.733146 4.60904 1.26178 -0.232057 0.907058 -0.0379689 C
5 2 1.34419 1.36925 4.14494 1.39516 -0.900945 -2.47067 1.28168 0.497138 0.557061 C
12 1 2.72477 2.81519 5.54579 4.18532 -1.58468 0.8152 -0.764802 -0.616273 0.0526424 C
15 2 4.11216 1.41601 6.87247 0.919142 -0.802054 1.45203 1.3676 -0.207523 0.118439 C
37 2 6.99706 1.35436 4.18991 -3.76978 0.408843 -3.45611 -1.5174 0.15764 0.315174 C
9 1 -0.0159968 -0.0155778 5.52085 1.22842 -6.3541 0.699009 -0.233176 -0.526336 -0.0799038 C
44 1 8.35324 2.72391 5.60758 -7.07165 0.242829 1.93583 0.786293 -1.06246 -1.17389 C
47 2 9.73395 1.31895 6.96666 0.457346 -2.38503 -0.184194 -0.184016 0.366668 -0.2911 C
14 2 1.29978 4.15829 6.96148 2.28392 3.91191 -2.38353 0.125688 -0.942769 0.087952 C
21 2 1.31428 6.95793 4.17511 -4.99432 -4.67293 -1.21676 0.545314 0.0262039 -0.103321 C
8 2 4.13577 4.19418 4.23255 -0.199385 -0.75629 -0.851918 0.0789018 0.12437 -1.1903 C
31 2 4.14764 6.94908 6.94946 0.483467 -1.25485 1.5305 -0.582243 -0.466439 -0.0526146 C
46 2 7.08615 4.11748 6.92107 -0.237828 2.04217 1.55952 -2.01012 1.45384 1.07037 C
53 2 6.81936 6.93403 4.20367 -3.15929 -0.883919 -1.1859 1.41455 -0.836838 -0.899387 C
57 1 5.56513 5.51631 5.62286 -2.57313 -4.21462 -2.07866 -0.315345 0.00876485 0.152229 C
25 1 -0.00801634 5.48402 5.45907 -1.3041 -3.5358 4.18978 -0.867265 -0.02733 0.686434 C
40 2 9.63099 4.07953 4.12737 1.0114 2.20587 -1.54395 1.53771 0.17554 0.913386 C
63 2 9.72602 6.89743 6.82195 1.43692 -1.69474 -1.55636 0.553178 0.284397 1.31955 C
28 1 2.76138 8.34426 5.49991 7.29376 -6.01052 2.89816 0.85351 -1.13631 -0.15139 C
30 2 1.42196 9.69291 6.83415 1.83251 -0.347783 -1.04514 -0.407592 0.803261 1.15433 C
41 1 5.49696 -0.0590512 5.52844 1.97003 1.53331 1.41282 1.14673 1.77616 0.130345 C
24 2 4.17463 9.70905 4.12898 -0.231473 1.52586 2.59049 -1.06839 -0.197125 -0.983907 C
62 2 6.92467 9.69701 6.90299 -1.68529 -1.69032 0.388678 0.567473 0.00413086 1.13942 C
56 2 9.59269 9.68108 4.1985 -2.07689 -2.03282 -2.56283 1.30564 0.139899 -0.701777 C
60 1 8.2634 8.25776 5.54769 0.288111 3.96778 -0.882867 -0.329168 0.569243 -0.105649 C
4 1 2.76986 2.81395 -0.0736684 6.57363 2.01052 -5.70113 0.216013 -1.10431 0.726534 C
11 1 2.80535 0.000751223 8.23887 4.33361 0.374417 4.27046 -0.361552 -0.589101 0.911947 C
13 2 1.40157 1.33469 9.67228 2.13898 -0.114243 1.24309 0.585254 0.369158 0.403566 C
42 1 5.59846 2.77008 8.24635 4.44751 0.272286 -0.874986 -0.129536 -0.0798513 -0.0618037 C
45 2 7.01554 1.45417 9.66049 0.562578 2.11403 -1.53959 0.314591 -0.0955375 0.847796 C
10 1 -0.0631056 2.68639 8.40055 5.56041 4.80625 4.00384 1.10658 1.22762 -1.18667 C
43 1 8.39283 -0.0304922 8.35894 -3.22732 0.25017 -0.499821 -1.52704 -0.0538441 -1.08196 C
27 1 2.70936 5.52634 8.33 0.0563046 -2.81461 2.58112 0.622074 0.582531 -0.267541 C
29 2 1.32584 6.92376 9.72407 3.23903 -1.0263 -0.907566 0.361495 -0.156419 0.107129 C
16 2 4.18613 4.13415 9.62746 1.75453 -0.327705 1.6496 0.284325 0.949701 0.744787 C
61 2 7.01577 6.91898 9.67159 -2.26015 -1.05215 -2.25958 -1.18966 -0.544482 0.490093 C
48 2 9.69151 4.13538 9.74464 -1.03497 -3.5551 1.61474 1.55349 0.849075 0.412791 C
59 1 8.44821 5.53935 8.32266 -6.97438 1.57248 -1.58956 -1.22138 -0.0722983 -0.646825 C
32 2 4.21121 9.73884 9.72207 1.30867 0.3692 -4.30506 -0.50674 -0.696331 -0.796611 C
58 1 5.58175 8.30003 8.30972 2.35052 1.95426 3.48241 -0.222759 0.431795 0.470425 C
52 1 8.34494 8.32515 -0.0402179 -0.759028 -0.0970066 -4.76788 -0.371715 0.95817 1.0921 C
26 1 0.043425 8.3277 8.23026 3.12532 0.568173 -0.276128 -0.609157 -0.593512 0.314278 C
64 2 9.76901 9.69503 9.69343 -0.649739 1.80407 2.59906 0.347718 -0.363956 0.163529 C
ITEM: TIMESTEP
19800
ITEM: NUMBER OF ATOMS
64
ITEM: BOX BOUNDS pp pp pp
0.0000000000000000e+00 1.1085848640000000e+01
0.0000000000000000e+00 1.1085848640000000e+01
0.0000000000000000e+00 1.1085848640000000e+01
ITEM: ATOMS id type xu yu zu vx vy vz fx fy fz element
3 1 2.77442 -0.0896674 2.818 9.29538 2.15808 2.33292 -1.13005 1.39579 -0.576639 C
7 2 4.13247 1.26934 1.37143 -2.6334 -3.93225 3.66662 -0.51191 1.40204 0.747197 C
34 1 5.51394 2.72264 2.71511 3.78823 -0.511475 -2.25265 0.568028 0.143665 0.601765 C
2 1 -0.0588921 2.79066 2.7802 -2.64288 -1.20503 -0.397732 0.865571 -0.280326 0.357332 C
36 1 8.34487 2.73698 -0.0436879 6.37517 0.560031 3.85261 -0.485642 1.73146 -0.0899013 C
39 2 9.66429 1.4115 1.34762 0.295103 0.645589 0.828785 0.0528228 -0.442363 1.61065 C
6 2 1.34416 4.16886 1.37347 -0.573505 -1.49864 -2.38857 0.134826 0.310894 1.09448 C
19 1 2.8139 5.5682 2.75073 -4.30624 2.88414 4.22323 -1.3177 -0.0317383 -0.381481 C
23 2 4.17457 6.98704 1.4279 -0.835525 -1.99442 2.2299 0.0585607 -0.806673 -1.00435 C
38 2 6.93762 4.15716 1.35635 2.03464 -0.25347 -0.752754 0.245833 -0.716095 0.0898189 C
49 1 5.57748 5.60025 0.0186262 2.0462 -2.16528 3.13587 -0.898821 -0.350015 0.531198 C
17 1 0.0144611 5.50837 -0.0865857 -0.529599 -2.27483 2.1577 -0.139404 0.711234 1.0413 C
51 1 8.36141 5.51682 2.74435 6.42141 -9.08891 3.54834 -0.276135 0.771645 0.0517614 C
55 2 9.70986 6.92914 1.28443 3.45422 3.518 -0.0787456 0.694103 -1.36026 1.6634 C
20 1 2.76528 8.33536 0.0380593 0.873627 -5.1147 5.8281 0.441919 -1.00242 -1.04544 C
22 2 1.40546 9.6763 1.34907 -5.58513 -1.71369 -1.59199 -1.33946 1.37955 0.659578 C
33 1 5.52369 0.00387995 -0.0308138 4.65541 2.64306 -4.00725 0.492939 -1.75943 0.738002 C
50 1 5.5231 8.31309 2.81104 0.542763 -3.97435 2.65444 0.52929 0.356459 0.0992053 C
54 2 6.90515 9.66738 1.41907 3.94773 1.79084 4.30296 -0.479857 1.09715 -0.164808 C
1 1 -0.0622943 0.0459565 0.0144552 -1.80815 3.19359 3.57546 1.70714 -0.913556 -0.824705 C
35 1 8.31703 -0.0264954 2.76758 4.33539 -0.446501 -4.32261 0.182409 0.381254 -0.0305452 C
18 1 0.0043982 8.29692 2.69154 2.30097 -4.71264 0.162438 0.591159 -0.121032 0.983836 C
5 2 1.37437 1.38829 4.21263 -1.8873 -0.393778 -0.187304 0.16972 -0.0857004 -1.95155 C
12 1 2.78567 2.76704 5.52843 -0.274995 4.60688 0.753594 0.733666 -0.260598 0.356743 C
15 2 4.19941 1.35506 6.94018 -3.79547 -1.14534 -0.599912 -0.757813 0.782591 0.0904049 C
37 2 6.94847 1.35873 4.1754 2.74506 -2.93581 -0.724197 -0.393857 0.549268 -1.45651 C
9 1 -0.0291224 0.0348808 5.52979 -0.908348 7.6031 2.56741 0.840004 -0.804055 1.41173 C
44 1 8.3234 2.75946 5.50743 2.2382 4.37371 1.16861 -1.14615 0.825651 1.15948 C
47 2 9.69774 1.43998 6.88862 -1.55197 -0.669907 1.95633 -0.209948 -1.00279 0.32938 C
14 2 1.40915 4.08672 6.9433 -2.38469 3.36319 -0.292611 0.638137 2.01071 -0.708803 C
21 2 1.46219 6.97453 4.15419 -2.41996 1.73764 0.434938 -2.18836 -1.12287 -0.363757 C
8 2 4.13433 4.17378 4.09262 3.08239 -1.05369 -1.87087 1.25968 -0.549834 1.05266 C
31 2 4.1598 6.9418 6.86106 2.58007 1.99253 2.34664 -0.290491 0.177031 0.404122 C
46 2 6.88385 4.15449 6.93551 0.560017 -1.61102 1.24507 0.934637 -0.334948 -0.0159805 C
53 2 6.98951 6.97157 4.13029 4.70536 -0.741306 1.36775 -0.327914 -1.18896 0.047366 C
57 1 5.57202 5.57457 5.51864 1.94189 4.48417 0.443057 -0.359573 -0.478837 -0.914277 C
25 1 0.028938 5.55944 5.60468 3.17969 2.10402 -2.76868 0.144272 0.244052 -0.357899 C
40 2 9.69964 4.17555 4.22937 0.141783 3.22453 -0.850182 0.458676 0.315802 -1.18017 C
63 2 9.63792 6.90476 7.00924 1.27686 -2.8187 -4.72066 1.48936 -0.0585057 -1.16426 C
28 1 2.70807 8.34839 5.56777 -4.5264 7.00634 1.3111 1.01811 0.106988 0.534402 C
30 2 1.34174 9.69462 7.01547 -2.83766 3.10641 0.703751 -1.04648 -0.0922872 -1.24836 C
41 1 5.57451 0.000445765 5.52528 -3.09741 -5.23784 0.702964 -0.774558 -0.759226 0.190963 C
24 2 4.11365 9.66094 4.17448 3.32642 2.43509 0.280641 1.24352 0.414256 0.970299 C
62 2 6.96609 9.72804 6.91235 -0.695806 1.01448 -1.40072 -0.211296 -1.06935 -0.198659 C
56 2 9.76786 9.71198 4.14046 0.0775585 0.293181 -0.316485 -0.864736 -0.718275 -0.480636 C
60 1 8.37964 8.29202 5.52944 2.55503 -2.08309 2.32445 -0.418491 1.14925 0.415721 C
4 1 2.69903 2.73854 0.084893 -2.91944 0.848704 0.912101 1.42759 0.205484 -1.72867 C
11 1 2.73151 0.00165928 8.31637 0.918217 -0.933529 -3.09827 0.887112 0.135072 0.331644 C
13 2 1.35678 1.40603 9.66831 -5.51961 -3.43255 0.22125 -0.321608 -0.136705 0.83446 C
42 1 5.52168 2.79279 8.39305 -2.8818 -2.27016 1.54389 0.495409 -0.812718 -0.539668 C
45 2 6.95169 1.33597 9.744 -1.02011 -0.155756 -2.44741 -0.374862 0.988763 -1.44067 C
10 1 0.0128163 2.77539 8.24207 -6.37415 -4.36091 1.22253 -0.597705 -0.111643 1.34322 C
43 1 8.33832 0.0166506 8.29042 3.82357 0.207826 4.30582 0.00404897 0.212061 0.114489 C
27 1 2.79782 5.57517 8.27429 0.502974 0.230526 -0.739874 -0.272052 -0.797939 0.684484 C
29 2 1.39626 6.92146 9.71374 -0.855338 -0.272671 -0.0438079 0.84202 -0.111146 -0.0874812 C
16 2 4.1554 4.2051 9.75963 -2.12015 -1.00803 -2.20517 -0.904634 -0.543725 0.238702 C
61 2 6.92898 6.95082 9.73489 -0.696858 0.426358 -3.11634 0.447781 0.486632 -0.765554 C
48 2 9.72741 4.18783 9.63244 -4.49283 0.121857 -3.55132 -0.216291 -1.92039 0.474564 C
59 1 8.30956 5.51816 8.34393 6.67673 2.35399 1.44707 -1.56921 0.383499 -0.217756 C
32 2 4.1196 9.69155 9.70515 -1.01472 -1.26117 -1.38725 0.363299 0.0894525 -0.621225 C
58 1 5.51532 8.3068 8.26916 -1.33365 -2.33082 -5.4337 0.742544 0.564296 0.743557 C
52 1 8.31798 8.33038 0.0871985 1.77843 -2.65773 -1.98246 -0.39198 0.545426 -2.69661 C
26 1 -0.0404613 8.2383 8.3941 -0.157711 1.74214 -1.42221 0.338808 1.27579 -0.929822 C
64 2 9.70551 9.71707 9.68429 0.129971 4.13798 -0.241461 -0.826014 -0.398809 1.18829 C
ITEM: TIMESTEP
19900
ITEM: NUMBER OF ATOMS
64
ITEM: BOX BOUNDS pp pp pp
0.0000000000000000e+00 1.1085848640000000e+01
0.0000000000000000e+00 1.1085848640000000e+01
0.0000000000000000e+00 1.1085848640000000e+01
ITEM: ATOMS id type xu yu zu vx vy vz fx fy fz element
3 1 2.76273 0.0303607 2.78636 -3.59838 -2.93749 -1.6815 2.83635 0.440983 -0.215655 C
7 2 4.23587 1.44197 1.37169 1.32242 1.12247 0.259259 -2.06639 -0.94632 1.21112 C
34 1 5.5297 2.81176 2.80812 -1.61878 1.65357 3.47231 0.0156451 0.349801 -0.114111 C
2 1 0.0621698 2.75778 2.73027 0.526647 0.839856 0.105927 -0.59193 0.0677693 -0.244088 C
36 1 8.21779 2.78447 -0.0616717 1.49038 -3.3835 -1.71829 1.81553 -0.666572 1.47036 C
39 2 9.6846 1.33571 1.36307 -1.50733 -2.32621 -5.10339 -0.137266 0.882489 -0.582513 C
6 2 1.46254 4.21947 1.39648 -0.016891 1.83127 0.19276 -0.713604 -1.75976 -1.30374 C
19 1 2.86463 5.51138 2.72674 4.04487 0.125679 -1.02507 0.00990896 0.636803 0.96928 C
23 2 4.22057 6.88646 1.33799 0.110339 1.95816 -1.60648 -0.77629 0.88612 0.265177 C
38 2 6.88742 4.15219 1.36674 -2.59049 0.75372 0.32263 -0.184748 0.221406 0.0546554 C
49 1 5.50606 5.49715 -0.040308 1.4363 0.773713 -1.78779 0.79677 -0.160269 0.197326 C
17 1 0.0220283 5.56396 0.00959834 1.42465 -0.502513 -0.163488 0.108898 -0.0928708 0.481225 C
51 1 8.23339 5.58291 2.72809 -1.73772 1.31228 -0.11844 1.15732 -1.86892 1.37805 C
55 2 9.69518 6.87204 1.41779 -2.00325 -0.237188 1.75021 0.243964 2.23759 -0.5825 C
20 1 2.79398 8.29124 -0.0177982 0.187948 6.14451 -0.435298 -0.172667 -0.217916 1.45693 C
22 2 1.50008 9.72179 1.44139 2.12763 0.882995 -0.0980891 -2.33188 -1.42996 -1.2076 C
33 1 5.48258 -0.0902631 0.105153 -3.69796 2.91067 -0.270614 0.804701 2.00677 -2.13531 C
50 1 5.56066 8.3136 2.72786 0.605657 0.221225 -2.64318 -0.411055 -0.792732 0.0898104 C
54 2 6.89436 9.65722 1.34378 -2.69355 -0.6937 0.851927 1.45112 0.286808 1.43279 C
1 1 0.0138948 -0.0987881 -0.0242807 0.188057 -0.173284 2.27077 0.256466 1.30286 0.594102 C
35 1 8.24509 0.0247866 2.78891 -3.51666 -2.42903 2.74004 0.395162 -0.535135 -0.603447 C
18 1 0.023966 8.33306 2.82843 -1.46678 3.09059 -2.24505 0.267337 -0.533737 -0.817248 C
5 2 1.43971 1.40482 4.13514 0.673555 -1.60094 0.62958 -1.42247 -0.593927 0.719675 C
12 1 2.76735 2.73284 5.55452 -0.521652 -1.93042 0.0189413 -0.237643 0.95514 0.260085 C
15 2 4.13175 1.38447 6.92113 4.30412 -2.93389 0.0538018 -0.0576883 -0.422202 0.290674 C
37 2 6.89191 1.44609 4.17005 -3.30202 -1.26637 0.234827 0.37764 -0.727303 0.198604 C
9 1 0.0474893 -0.0182413 5.55884 -2.1624 -1.36796 -8.09617 -0.611037 1.69123 -0.251398 C
44 1 8.32466 2.78069 5.53889 0.596191 -5.36009 -2.3303 -0.0684303 0.341043 -0.237495 C
47 2 9.69693 1.45519 6.9482 2.3738 -0.329795 1.40426 0.503844 -1.50889 -0.227601 C
14 2 1.37784 4.14066 6.92838 -3.69803 -1.86845 1.18088 -0.440553 0.457827 -0.371519 C
21 2 1.49567 6.87216 4.12298 0.858547 -1.55475 -1.12745 -1.41653 0.680392 0.0285323 C
8 2 4.13017 4.15739 4.23135 -4.52565 1.5686 -1.62832 0.247779 -0.766441 -1.46727 C
31 2 4.1185 6.8994 6.92644 -0.580719 -0.134777 1.28724 1.5381 0.191633 1.2449 C
46 2 6.94575 4.19178 6.88525 0.445024 1.92138 2.20601 -0.546971 -1.30712 0.0820839 C
53 2 6.86377 6.92604 4.14898 -4.04333 3.47385 -2.72079 0.633578 0.275901 0.195622 C
57 1 5.52491 5.49746 5.5318 1.6427 -3.02478 3.80129 -0.0876303 1.49087 0.65832 C
25 1 -0.0120053 5.5663 5.50988 0.353925 -2.50243 2.73836 0.280512 -0.0501093 0.804979 C
40 2 9.72531 4.10877 4.12857 0.579567 1.92331 1.7544 -0.845403 1.45115 -0.706033 C
63 2 9.68743 7.00498 6.98733 -3.41159 -2.37783 1.07562 -0.365649 -1.0151 -1.63547 C
28 1 2.85584 8.27455 5.47994 -0.343545 -4.59136 -2.15165 -0.820467 0.521162 0.652082 C
30 2 1.46638 9.70193 6.87702 4.44526 -0.981307 1.80792 -0.288361 -0.399859 0.454746 C
41 1 5.51614 0.0315036 5.53708 4.76409 3.85984 -0.341788 0.22259 -0.610446 0.0315791 C
24 2 4.21052 9.67039 4.12276 -1.3153 -0.699104 -2.17112 -0.614655 1.15803 -0.108182 C
62 2 6.87341 9.70723 6.9534 -3.69675 2.0525 2.82443 -0.136331 0.3316 -0.253723 C
56 2 9.68519 9.75204 4.17968 0.395527 0.063246 -1.16788 -0.206651 -0.54702 -0.116006 C
60 1 8.24559 8.35981 5.53734 0.858965 -1.83703 -2.78657 0.737563 -0.628727 0.308089 C
4 1 2.81949 2.76707 -0.0423112 -1.35535 0.533788 2.56553 -0.683659 0.401502 1.23721 C
11 1 2.73531 0.0293464 8.34205 -1.76089 1.43487 0.871346 1.18098 -0.599908 -0.362399 C
13 2 1.39261 1.41855 9.69872 1.81402 -0.517263 -1.82301 -0.954441 -0.767944 0.528389 C
42 1 5.53213 2.77321 8.23696 2.47121 7.30208 0.764966 -0.0828516 0.436074 1.10351 C
45 2 6.8355 1.37436 9.7225 4.8263 -0.0451581 0.775324 -0.236421 -0.834641 -0.607615 C
10 1 -0.00174109 2.81407 8.34861 6.00296 1.10929 -1.13819 -0.113385 -0.246727 -0.127461 C
43 1 8.25558 0.0322977 8.28306 1.01861 -2.00198 -1.82783 0.784738 -0.259946 1.13676 C
27 1 2.71434 5.52671 8.34331 -2.6566 1.678 -0.572448 0.474691 0.358535 -0.638208 C
29 2 1.37694 6.95923 9.70865 1.17581 0.317474 0.0726644 -0.367414 0.0447224 -0.434004 C
16 2 4.13211 4.14812 9.68003 3.18304 3.38157 -1.09372 0.508139 -0.220405 -1.08241 C
61 2 6.92644 6.8472 9.71146 -1.86966 -1.46694 -0.121748 -0.402111 0.805166 -0.0307185 C
48 2 9.71423 4.1823 9.74818 1.89378 0.548515 0.836526 -1.02658 -0.0546513 -1.03484 C
59 1 8.26197 5.51652 8.29193 2.93742 -3.89169 1.42814 2.00136 0.66978 0.700199 C
32 2 4.118 9.70697 9.7788 -0.723253 -0.953365 -1.1021 0.143321 0.141935 -1.45537 C
58 1 5.55878 8.32614 8.42621 -1.26093 -0.710527 1.75576 -1.29209 -0.787874 -1.66156 C
52 1 8.27743 8.28045 -0.0288443 1.77931 -1.5129 9.1425 0.73799 -0.997135 0.890974 C
26 1 0.027335 8.38919 8.29781 0.87873 -6.07518 4.35417 0.276603 -0.880274 0.179449 C
64 2 9.65777 9.64093 9.69224 2.54467 2.53518 -1.57221 -0.0973531 1.50776 -0.691798 C
ITEM: TIMESTEP
20000
ITEM: NUMBER OF ATOMS
64
ITEM: BOX BOUNDS pp pp pp
0.0000000000000000e+00 1.1085848640000000e+01
0.0000000000000000e+00 1.1085848640000000e+01
0.0000000000000000e+00 1.1085848640000000e+01
ITEM: ATOMS id type xu yu zu vx vy vz fx fy fz element
3 1 2.76246 0.0157783 2.75574 -3.45606 -2.72309 3.89937 -1.62861 -0.458763 0.0696075 C
7 2 4.12996 1.35282 1.35603 3.06684 0.0785488 1.60962 0.999042 0.591305 -0.424314 C
34 1 5.54767 2.73223 2.73207 1.07797 -1.81473 -3.65395 0.438013 0.312345 0.642867 C
2 1 -0.032414 2.77755 2.83315 -0.45234 -0.765772 0.667966 0.842676 0.332904 0.597862 C
36 1 8.35357 2.81993 0.0781542 -6.74255 3.23347 -4.75566 0.141081 -0.580158 -0.813703 C
39 2 9.75757 1.43492 1.5034 0.894538 -1.99933 1.61519 -0.841103 -0.719221 -2.71372 C
6 2 1.31658 4.12551 1.41258 1.99625 4.26503 2.03992 0.216361 0.729119 -0.561062 C
19 1 2.66518 5.54592 2.8084 1.18881 -1.34536 -2.39263 0.616554 -0.215806 0.121812 C
23 2 4.05762 6.94435 1.44971 1.37556 -1.12598 1.64568 0.583578 0.164676 -0.649081 C
38 2 6.95263 4.20824 1.42059 -0.392742 0.335385 -1.03134 -0.71032 -0.330527 -0.0825331 C
49 1 5.54488 5.62153 0.0600902 -2.16934 2.47221 2.56247 0.343831 -0.206902 -0.158598 C
17 1 -0.0566378 5.55051 -0.0171112 0.0313846 -1.97765 -2.91002 0.76626 -0.796856 0.290221 C
51 1 8.33296 5.552 2.80927 -2.2382 1.3439 -3.49948 -0.300367 0.384531 -0.735259 C
55 2 9.66844 6.95426 1.32935 1.0103 -3.31465 0.193728 -0.759024 -0.216985 0.547418 C
20 1 2.73056 8.29655 -0.0340734 1.83375 -2.78602 -1.37729 0.635438 1.10059 -0.261367 C
22 2 1.30324 9.68914 1.339 2.19497 1.50605 0.513589 1.1551 0.687871 0.396804 C
33 1 5.62694 0.080787 -0.0849827 -0.690934 -7.1943 7.15962 -1.26127 -0.919405 1.84509 C
50 1 5.47113 8.36014 2.79456 -2.09361 2.42614 2.90665 1.27365 -0.14022 0.0639409 C
54 2 6.95209 9.78131 1.37519 -1.1619 -0.888912 1.87969 -0.898756 -0.769616 0.0371755 C
1 1 -0.00209416 0.0833619 -0.0461222 -2.55487 -3.65607 -1.2473 -0.326725 -0.988452 1.17023 C
35 1 8.36348 0.0184979 2.76476 1.14474 5.26784 -0.561636 -0.522202 -0.274679 0.64367 C
18 1 -0.0674032 8.2967 2.73295 1.50066 -2.05572 2.89182 0.0661687 0.66479 0.384698 C
5 2 1.34512 1.38993 4.20028 2.82966 0.452554 -0.515123 0.393207 -0.506836 -0.617859 C
12 1 2.74055 2.80625 5.50798 1.31036 -1.53463 -0.283342 1.04006 -0.464936 -0.262662 C
15 2 4.12733 1.43978 6.88969 -0.859682 -0.416501 -0.816011 1.00216 -1.33818 -0.0930327 C
37 2 6.98613 1.35923 4.16744 -2.71923 0.533537 -1.06177 -1.54492 0.0524252 -0.448203 C
9 1 -0.0242132 -0.0327167 5.57961 4.19478 -4.39381 6.42452 0.0488431 -0.541252 -1.82804 C
44 1 8.30555 2.73425 5.57472 2.90216 2.09307 1.21697 0.46701 -0.521308 -0.25085 C
47 2 9.72742 1.31112 6.89275 -1.49566 4.5226 2.64267 -1.04855 1.2878 1.2391 C
14 2 1.44803 4.13374 6.92248 1.91473 0.0537091 -0.498007 -1.62404 0.513297 0.461302 C
21 2 1.27898 6.96184 4.18233 -0.299565 -3.07405 -0.749994 0.753789 -0.522148 0.257396 C
8 2 4.18256 4.16131 4.12741 1.05902 -1.21406 -0.688463 -1.02811 -0.00258798 -0.214788 C
31 2 4.16844 6.92866 6.89631 -0.33181 -0.136113 0.445906 -0.575218 0.460262 0.302546 C
46 2 6.9702 4.12859 6.92328 -0.175958 1.52036 0.00687298 -1.54331 0.867546 0.61235 C
53 2 6.92967 6.89458 4.18963 0.219743 -0.741174 -2.02333 -0.666783 1.37791 -0.944503 C
57 1 5.51237 5.56831 5.52813 -0.69303 -1.12062 -5.11886 1.11981 -1.55381 0.452598 C
25 1 -0.0484693 5.49371 5.5642 -0.108546 0.972667 -3.64774 0.807058 -0.398232 -0.478908 C
40 2 9.6199 4.10282 4.16774 1.15083 -0.046832 2.54366 1.12669 0.842734 0.678281 C
63 2 9.74241 6.89394 6.93487 1.75655 -1.20503 3.20244 -1.21958 0.00792119 -0.288148 C
28 1 2.71818 8.3407 5.59221 2.09863 1.34999 -2.12794 -0.306541 -0.550722 -0.871705 C
30 2 1.29419 9.68296 6.94837 -0.76133 2.95261 0.146324 1.95015 0.326367 0.141761 C
41 1 5.54139 -0.0409304 5.53019 -4.03867 -2.18321 -2.36061 0.685209 1.13199 0.494622 C
24 2 4.08406 9.74665 4.19512 2.99137 1.21322 0.00961514 0.314348 -0.893397 -0.410851 C
62 2 7.06022 9.66673 6.85777 0.374574 0.413127 -1.50005 -2.34953 0.855343 1.40859 C
56 2 9.6431 9.66405 4.16214 0.986543 1.42229 -2.07235 1.15496 0.24341 0.00132858 C
60 1 8.33933 8.25051 5.56129 -2.32524 -0.248874 1.50694 0.538627 -0.49285 -0.904567 C
4 1 2.75677 2.77519 0.00731638 0.708592 -1.27355 -2.13198 -0.013843 0.144707 0.0461948 C
11 1 2.84205 -0.0477449 8.25776 -4.85278 1.9891 -0.182353 -1.82746 1.16576 0.18192 C
13 2 1.4217 1.37189 9.6706 -2.56761 0.952342 -1.91434 0.359211 0.288668 -0.787465 C
42 1 5.56804 2.7001 8.33764 -0.616173 -6.11323 -1.86621 -0.0194276 1.84396 -0.442779 C
45 2 7.00087 1.40334 9.69901 -1.52691 0.946616 -0.206435 0.997225 0.581594 -0.025929 C
10 1 -0.022353 2.73227 8.28225 -2.48921 0.117993 -1.7258 1.29178 0.155966 -0.128402 C
43 1 8.36315 -0.0260985 8.33547 -2.46116 4.21042 -2.46231 0.141222 -0.152248 -0.577175 C
27 1 2.84924 5.51696 8.29807 2.27198 -2.31869 1.53293 -0.85268 0.193699 0.813483 C
29 2 1.34625 6.88213 9.68799 2.32288 -0.945049 0.557677 0.799199 0.30824 -0.989046 C
16 2 4.21646 4.16094 9.75928 -1.04712 1.3252 2.83727 -0.0897029 -0.2207 -0.612224 C
61 2 7.00814 6.97813 9.73135 -1.79121 -2.83864 -1.26978 -2.21446 -0.157858 -1.1349 C
48 2 9.71545 4.14426 9.66354 -0.46763 -0.0968864 -2.87932 -0.624681 0.130632 0.512639 C
59 1 8.33175 5.57782 8.31559 -5.03841 -1.55897 -0.456142 0.0444913 -0.982678 0.058995 C
32 2 4.23627 9.77128 9.66229 -1.38846 -1.77843 0.32733 -0.557966 -2.13119 0.326092 C
58 1 5.56584 8.32375 8.22732 5.87803 2.08873 3.51753 1.20578 0.146995 1.28637 C
52 1 8.31237 8.40635 -0.046518 -3.78609 2.85969 -5.85927 0.400331 -0.710608 1.56932 C
26 1 -0.034239 8.28763 8.26575 -0.464509 5.85714 -1.90103 0.729744 -0.388105 1.68574 C
64 2 9.74927 9.67128 9.70412 -0.986935 0.724313 1.28687 -0.0934863 1.25188 -0.630342 C
