(written by ASE)

64 atoms
1 atom types

0.0      10.887404441833496  xlo xhi
0.0      10.887404441833496  ylo yhi
0.0      10.887404441833496  zlo zhi

Atoms # atomic

     1   1       5.443702220916748       5.443702220916748       5.443702220916748
     2   1       4.082776665687561      6.8046277761459351       4.082776665687561
     3   1       4.082776665687561       4.082776665687561      6.8046277761459351
     4   1      6.8046277761459351      6.8046277761459351      6.8046277761459351
     5   1      6.8046277761459351       4.082776665687561       4.082776665687561
     6   1      8.7503630204604974      8.8558410586863374      1.9983454488624375
     7   1      5.9963601839308467      8.0952121426422536      3.6119376909627476
     8   1      1.6870394193064584      10.837480848365146      4.8422436548867438
     9   1      8.2337614547412272      8.2528000527728977     0.48867249140994318
    10   1      9.4033198325637954      5.2778422742086377      5.9262623476508338
    11   1      3.4309529026047585      2.8727205460705818      10.005641164156657
    12   1       2.859663551330101      3.4053509266846049      3.9088380664845204
    13   1      9.3530607371804422      6.4836835293421586      2.9488652040991497
    14   1      1.6939673391693191      5.6561904444116067      6.4048918455663966
    15   1      3.4491748098046457      6.3571065089838044     0.21038454293677766
    16   1      5.0821723009655955      6.5758381830091253      4.4115620529922808
    17   1       9.770410193827729      1.2053080699093144      2.7483223413401277
    18   1    0.039865562820319944     0.67577094232353829      4.3880065089656739
    19   1      8.2451438601361247      7.5316396598826145      8.5786963597573163
    20   1      5.0464978047867817      8.8665959392228046       8.606528093085501
    21   1      10.631125106682248       2.706531100141305      9.2430511518124945
    22   1      4.6533284967950976     0.99452112341236898      8.1776580068500948
    23   1     0.72079568868093702       2.139870799224866      1.3612013546757566
    24   1      5.2179837357349754      5.3832035032571071      10.354723443909279
    25   1      4.8632608705950986      8.9942339762756092      6.8398762432972831
    26   1      8.3906874462001042       5.851607006633742      3.9988849634398207
    27   1     0.41760059637863378      3.1421243657092361      10.177231249954673
    28   1      10.012003370684113      3.3548750853832416      6.3057234497381955
    29   1      9.0887605051830747      2.0125466868362452      5.5557475306703168
    30   1      9.7060301667800104      10.183422785295193      9.4722703431460786
    31   1      8.1009838138841133      5.1173419219222183      3.4893003845811563
    32   1      3.9281563576020062      8.1295767536848302      9.7018101107775578
    33   1      8.6468447806549875       6.785892233035554      2.2178292442020506
    34   1      9.1729338473362532      8.5080255095683128      3.1898671967300629
    35   1       7.049919261345849      2.9866494038092526      2.8103188122296103
    36   1      4.7161523660242892      8.1217875283738294      9.6355273920184459
    37   1      7.2011378266104202      9.7292388524438138      10.424566895758574
    38   1      4.8898401499659201      4.9926380665109775      9.3429320836226566
    39   1      7.8317302238263551      1.8468896960738164      9.4540831542294654
    40   1      9.5465084158240074      9.6474931943603224      1.1802152684380189
    41   1      5.9003021569200769      1.4334854693922239       7.296144571024854
    42   1      9.7238059278163291      8.0806882193159595      10.053996269948868
    43   1      8.8367979180755469      6.6688422989715264     0.99774505670779945
    44   1      9.5221764152378228      4.2826929769979643      1.6337775168898361
    45   1      4.5145741196958511      8.7145597097166387      10.870509292206577
    46   1      8.1130398188685149      5.3238251802904131      7.4124092878410011
    47   1      9.0849019086905969      9.7208000383186572      7.9911520380417187
    48   1      8.7038534996707426      7.8326874101409203      1.8126287531761562
    49   1      1.0884266168601471      9.1618090710714455      7.9713236801830476
    50   1       2.363204105898717      7.6126773245632648     0.45080295610637222
    51   1       10.68426225040804      4.9697976542258289      10.630252931491214
    52   1      3.9704451734494342      8.7733075875954682      3.1221152780955777
    53   1      2.0680615462614043      2.0932410623234006      9.2034917770762945
    54   1     0.45282886527639477      7.5911532868130962      3.7611513564857262
    55   1      7.6321656379278124      5.6539016334750158      7.9665766850026785
    56   1     0.88322144557434967      7.2703537536012846      2.8511634123868248
    57   1     0.78907973801233311      5.3290436302894477      4.4328368978307253
    58   1     0.76797150848661033      3.0978997622168265      5.4269096037899658
    59   1      1.8050924521811567      10.204603533851866      2.1755514603324855
    60   1      4.0128495005944842      9.3033830919244451      3.8568878337887895
    61   1      3.2083483554097256     0.86022950582855628      1.1482926181423636
    62   1     0.46979592555313232       3.542283080616869      4.5442391081688811
    63   1      5.6989860823008485      4.2359946147047935      4.7232881088818885
    64   1      2.1547492059574864      4.3851784289935551      4.6709079535194462

Velocities

     1                       0                       0                       0
     2                       0                       0                       0
     3                       0                       0                       0
     4                       0                       0                       0
     5                       0                       0                       0
     6                       0                       0                       0
     7                       0                       0                       0
     8                       0                       0                       0
     9                       0                       0                       0
    10                       0                       0                       0
    11                       0                       0                       0
    12                       0                       0                       0
    13                       0                       0                       0
    14                       0                       0                       0
    15                       0                       0                       0
    16                       0                       0                       0
    17                       0                       0                       0
    18                       0                       0                       0
    19                       0                       0                       0
    20                       0                       0                       0
    21                       0                       0                       0
    22                       0                       0                       0
    23                       0                       0                       0
    24                       0                       0                       0
    25                       0                       0                       0
    26                       0                       0                       0
    27                       0                       0                       0
    28                       0                       0                       0
    29                       0                       0                       0
    30                       0                       0                       0
    31                       0                       0                       0
    32                       0                       0                       0
    33                       0                       0                       0
    34                       0                       0                       0
    35                       0                       0                       0
    36                       0                       0                       0
    37                       0                       0                       0
    38                       0                       0                       0
    39                       0                       0                       0
    40                       0                       0                       0
    41                       0                       0                       0
    42                       0                       0                       0
    43                       0                       0                       0
    44                       0                       0                       0
    45                       0                       0                       0
    46                       0                       0                       0
    47                       0                       0                       0
    48                       0                       0                       0
    49                       0                       0                       0
    50                       0                       0                       0
    51                       0                       0                       0
    52                       0                       0                       0
    53                       0                       0                       0
    54                       0                       0                       0
    55                       0                       0                       0
    56                       0                       0                       0
    57                       0                       0                       0
    58                       0                       0                       0
    59                       0                       0                       0
    60                       0                       0                       0
    61                       0                       0                       0
    62                       0                       0                       0
    63                       0                       0                       0
    64                       0                       0                       0
