(written by ASE)

64 atoms
1 atom types

0.0      10.887404441833496  xlo xhi
0.0      10.887404441833496  ylo yhi
0.0      10.887404441833496  zlo zhi

Atoms # atomic

     1   1       5.443702220916748       5.443702220916748       5.443702220916748
     2   1       4.082776665687561      6.8046277761459351       4.082776665687561
     3   1       4.082776665687561       4.082776665687561      6.8046277761459351
     4   1      6.8046277761459351       4.082776665687561       4.082776665687561
     5   1      6.8046277761459351      6.8046277761459351      6.8046277761459351
     6   1      9.9192880329657669      4.5259107748296117      2.0790432312839329
     7   1       7.638059309866037       3.931662255272812      10.580695989051833
     8   1      10.337849060358337      7.2983665411543939      10.507372272656767
     9   1      1.5616431450493593      8.3849806689456727      2.8739807873064365
    10   1       1.279920418659735      6.2196785649875892      9.8716506546745109
    11   1      1.1586601626913691      1.9550898748372987      4.5111701055853075
    12   1      6.3805390789042349      8.6537391178793541       4.713113380593029
    13   1      6.1887559310382017      6.6687579367878698      1.4282415485031237
    14   1     0.54861689274072134      8.7030838569798448      6.1594089231035696
    15   1      7.2601212696636139      7.8148487019367963      2.9679038021308202
    16   1      8.7873714125508968     0.17823036306160134      5.7959779337907094
    17   1      8.4789575457796218      1.7988363473231459       6.610283911535987
    18   1      8.8431731034004883      9.4220651097722907      3.9260745584853112
    19   1       8.509475890187332      7.9566589369040344      8.8728536664305011
    20   1      5.8235020696184847      5.3299209969994763    0.091025630101628785
    21   1      8.0158279767612726       1.918516596932605        0.83548518506975
    22   1      7.2051411366948628      10.813667999678387     0.75473183717151926
    23   1      5.5803923202759051       3.101653879389545      3.4754987313349375
    24   1      2.4318846574932991      6.6019463320312184      3.6536998921021961
    25   1      3.9430456340775208      2.0579491162004757      9.9444402935530434
    26   1      3.2196976648710347      8.9861657068186673       1.662539667762772
    27   1      10.092052699936232     0.51367732096953134      3.8000559508887761
    28   1     0.92333550166809175      7.3661937368142958      4.7427361879742307
    29   1      4.9077168211526896      9.9878284135475042       6.146684510048658
    30   1       10.40295265536588      1.2615078853717776      9.0051089106888185
    31   1      4.6377455035939761      10.561711901969602      2.1769937292030761
    32   1      2.8255221756042772      9.8311522639402256       6.634817083483199
    33   1      10.879210278040944      5.5216755915110411     0.32123582360103953
    34   1      1.3743964113744909      4.1421027489943754      1.6359214519994936
    35   1      8.7395257245599964      9.3392194986018922      10.659090521624535
    36   1      6.9486359704673646      9.4915724107667074       9.424564826168023
    37   1      9.5127920957158381       7.489838197880772      6.9441874876291649
    38   1     0.16847072307951461      2.4436148946608114       2.744931954966944
    39   1      4.7177065770231934     0.99834337927188699      3.7384326204270053
    40   1      2.7621509255911292      1.0435238711991133      5.2078262043527843
    41   1      2.8958409759114829      7.2023954720867778      9.4014703539220932
    42   1      6.6192159199655975      4.7413312331464113      8.8874113346302579
    43   1      1.0103839719342744     0.38875684131650701      9.9602906499823689
    44   1      4.3628101204669463      8.9874324374532648      8.1618284164967463
    45   1      3.2610799117140914      3.0453366058098368     0.85268046938852393
    46   1     0.72534832636895885       4.179123146472449      6.8445220038572643
    47   1      4.8808679072641041      7.4520666524982175      5.9720450557813933
    48   1      8.1268220039185053      6.1628956770480841      2.6149492981483604
    49   1      2.0823581783967313      2.8585976675865936      5.7556067352717832
    50   1      1.7283991154888838      10.121487314753892      1.2992927340217548
    51   1       4.930777872995094      2.8417453479913775      8.4185133390694205
    52   1      2.2980140396529265      1.1192450148422282      10.798582094420965
    53   1      7.0231388106140002      0.2586287408486001       7.020496327445926
    54   1      4.6324780586344332      7.7300024091339878    0.044341214945912366
    55   1       3.806748143342304      4.5788941198051987      2.7559788584468379
    56   1      10.319304954510869      9.6956847673042148      2.1140966920030593
    57   1      5.6245241253662925     0.42464070172226087      8.5383076398617845
    58   1      10.441268661302956      5.9734208083148701      5.7010393280630751
    59   1      6.1635199572071429      1.4885953903358313      2.1816904315431884
    60   1      9.9716912256937462      2.7562897006466187      8.1465523718561599
    61   1      9.2498202436411248      2.6848740297169087      10.123767040532243
    62   1      8.6912322680558418      4.9413958272180878      4.5346996920169431
    63   1      1.9189332163318937      5.3245948229813109      8.4379685565003797
    64   1     0.79386218153333488       10.17539994162945      8.2917877114798557

Velocities

     1                       0                       0                       0
     2                       0                       0                       0
     3                       0                       0                       0
     4                       0                       0                       0
     5                       0                       0                       0
     6                       0                       0                       0
     7                       0                       0                       0
     8                       0                       0                       0
     9                       0                       0                       0
    10                       0                       0                       0
    11                       0                       0                       0
    12                       0                       0                       0
    13                       0                       0                       0
    14                       0                       0                       0
    15                       0                       0                       0
    16                       0                       0                       0
    17                       0                       0                       0
    18                       0                       0                       0
    19                       0                       0                       0
    20                       0                       0                       0
    21                       0                       0                       0
    22                       0                       0                       0
    23                       0                       0                       0
    24                       0                       0                       0
    25                       0                       0                       0
    26                       0                       0                       0
    27                       0                       0                       0
    28                       0                       0                       0
    29                       0                       0                       0
    30                       0                       0                       0
    31                       0                       0                       0
    32                       0                       0                       0
    33                       0                       0                       0
    34                       0                       0                       0
    35                       0                       0                       0
    36                       0                       0                       0
    37                       0                       0                       0
    38                       0                       0                       0
    39                       0                       0                       0
    40                       0                       0                       0
    41                       0                       0                       0
    42                       0                       0                       0
    43                       0                       0                       0
    44                       0                       0                       0
    45                       0                       0                       0
    46                       0                       0                       0
    47                       0                       0                       0
    48                       0                       0                       0
    49                       0                       0                       0
    50                       0                       0                       0
    51                       0                       0                       0
    52                       0                       0                       0
    53                       0                       0                       0
    54                       0                       0                       0
    55                       0                       0                       0
    56                       0                       0                       0
    57                       0                       0                       0
    58                       0                       0                       0
    59                       0                       0                       0
    60                       0                       0                       0
    61                       0                       0                       0
    62                       0                       0                       0
    63                       0                       0                       0
    64                       0                       0                       0
