(written by ASE)

64 atoms
1 atom types

0.0      10.887404441833496  xlo xhi
0.0      10.887404441833496  ylo yhi
0.0      10.887404441833496  zlo zhi

Atoms # atomic

     1   1       5.443702220916748       5.443702220916748       5.443702220916748
     2   1       4.082776665687561      6.8046277761459351       4.082776665687561
     3   1       4.082776665687561       4.082776665687561      6.8046277761459351
     4   1      6.8046277761459351       4.082776665687561       4.082776665687561
     5   1      6.8046277761459351      6.8046277761459351      6.8046277761459351
     6   1      10.753073887857227      9.3484143276805867      5.2999789112001281
     7   1      2.8280919775064319      7.5951040327677219       7.779140785354457
     8   1      1.8582578247914796      1.4795769106679728      7.7151222178167131
     9   1      10.281355599602762     0.73867511786217221      1.0156866218819971
    10   1      6.3700093805041433      5.7444702780892385      8.5987791020467057
    11   1     0.87981597134908895      10.658573316544732      6.1451322458693767
    12   1      6.4808204066168287     0.47121296688611025       8.828438923554927
    13   1      3.8544354900038797      3.1629017981340439      7.9221580484878587
    14   1       4.680562232029132      8.5628044711760367      6.5458045966875034
    15   1      5.7887124029582537      9.2629651697345707      4.7053984588976334
    16   1      10.196988224427173      7.7715631144424719      4.0076080132299126
    17   1      1.0269662514243052      2.6395903563496717      3.3937816266059144
    18   1      3.7189949243726517      9.0086527713422697       8.569820160156894
    19   1      4.6361001165427353      6.7185244868066434      1.3724393709486264
    20   1      7.7453933161323221      5.9586126493236407      6.9824983020472473
    21   1      9.7837108654910026       9.928726214497317      7.0579479454704597
    22   1      5.8042266085327014      1.6155223515213919      10.620520780196614
    23   1      9.7896765697552723      1.6525060838965686      3.5092763762612265
    24   1      7.5049163158597025      9.2863146753510932      1.3877863122704781
    25   1      4.7280977267601259      10.477485995686607      9.4679873399758208
    26   1      1.2173561253802561      10.651495329335944     0.42033449895149744
    27   1       2.301035179237644      2.8673385632232282      1.7087034658345033
    28   1       8.403788244382099       4.219929783647018      8.4042347150156047
    29   1    0.089553378180909249       6.177414408855384      10.770765286709889
    30   1      10.161547671073038      5.4340245805715881      1.5157064759336265
    31   1      10.552891511198368      2.9371313977623288       5.027816123685966
    32   1      1.1537734832030608      8.6005630377611055      3.1922033802774763
    33   1      7.9691873701169129      4.6861567426853128       2.417121275353395
    34   1      9.9124845473237997      7.7155511670736132      9.5525662695504252
    35   1      7.9869572906943631      2.3155920362625579      4.8836249283199891
    36   1      3.0505894496222083      9.6962610259125768      10.260405873641332
    37   1     0.92134779883316753      6.9052789995868693      8.8818641965848997
    38   1      2.6021221903583438      5.6561138695064415      5.2115709118973257
    39   1       4.680525242456298      4.8689147592497761       9.236680509066673
    40   1      4.4292317123591545      10.699439007247861       4.156288899116106
    41   1      5.6670167083342449      5.9814352157622466      10.377250742705087
    42   1      8.2051295785480534      8.5562871680186277        10.6385522235434
    43   1      4.3411585660314813       1.846281477176646      1.6179514957057961
    44   1     0.89148269352640597      4.8006634813820313      6.0009838805351023
    45   1      9.0978975786129581      9.2413872699748367      8.5384374278366408
    46   1      9.9141315567247261      4.0712508445804474      7.2773856660789988
    47   1      1.7892172738016399      6.2531904690353599      6.9313800102703453
    48   1      7.8203257544757321      2.7238745049863837       10.49278280640317
    49   1    0.019819262560745621      1.3279933167241182      9.6579729243900942
    50   1      9.3571166113947015      6.3572064457244437      3.0194117823022282
    51   1       2.982498459903411      7.7384204571831674      2.2875690279064287
    52   1      1.1603408358482739      4.5777104534745092     0.65049984462178401
    53   1      2.6197514532180435     0.53523883499743974      5.4396466711724258
    54   1      2.1646797706186476      9.2979430289583433      1.1865963753393132
    55   1      6.9905068690357552      1.2535421484149722      6.6533728702484041
    56   1      6.5958670632889493      10.143448737979327      3.1417061239602617
    57   1      6.3609865204921334      7.6205535078174194       0.485952946631798
    58   1      6.5395754228342753      2.9460199272203624      1.4781231231146137
    59   1      8.0576508537789664       10.62329240239967      7.8000055001923556
    60   1      3.1517267290289794      1.4319364499123139      3.2529574557776471
    61   1       9.693845671700501      2.9348646507814635      9.3068536223721026
    62   1      8.6160668602975647       6.889484451986732      4.7590336639769362
    63   1      8.5303548817024648    0.070346380251862684      2.3420650517289658
    64   1      3.0985237179059482      3.8890152246147807      10.124005201466105

Velocities

     1                       0                       0                       0
     2                       0                       0                       0
     3                       0                       0                       0
     4                       0                       0                       0
     5                       0                       0                       0
     6                       0                       0                       0
     7                       0                       0                       0
     8                       0                       0                       0
     9                       0                       0                       0
    10                       0                       0                       0
    11                       0                       0                       0
    12                       0                       0                       0
    13                       0                       0                       0
    14                       0                       0                       0
    15                       0                       0                       0
    16                       0                       0                       0
    17                       0                       0                       0
    18                       0                       0                       0
    19                       0                       0                       0
    20                       0                       0                       0
    21                       0                       0                       0
    22                       0                       0                       0
    23                       0                       0                       0
    24                       0                       0                       0
    25                       0                       0                       0
    26                       0                       0                       0
    27                       0                       0                       0
    28                       0                       0                       0
    29                       0                       0                       0
    30                       0                       0                       0
    31                       0                       0                       0
    32                       0                       0                       0
    33                       0                       0                       0
    34                       0                       0                       0
    35                       0                       0                       0
    36                       0                       0                       0
    37                       0                       0                       0
    38                       0                       0                       0
    39                       0                       0                       0
    40                       0                       0                       0
    41                       0                       0                       0
    42                       0                       0                       0
    43                       0                       0                       0
    44                       0                       0                       0
    45                       0                       0                       0
    46                       0                       0                       0
    47                       0                       0                       0
    48                       0                       0                       0
    49                       0                       0                       0
    50                       0                       0                       0
    51                       0                       0                       0
    52                       0                       0                       0
    53                       0                       0                       0
    54                       0                       0                       0
    55                       0                       0                       0
    56                       0                       0                       0
    57                       0                       0                       0
    58                       0                       0                       0
    59                       0                       0                       0
    60                       0                       0                       0
    61                       0                       0                       0
    62                       0                       0                       0
    63                       0                       0                       0
    64                       0                       0                       0
