(written by ASE)

64 atoms
1 atom types

0.0      10.887404441833496  xlo xhi
0.0      10.887404441833496  ylo yhi
0.0      10.887404441833496  zlo zhi

Atoms # atomic

     1   1       5.443702220916748       5.443702220916748       5.443702220916748
     2   1       4.082776665687561      6.8046277761459351       4.082776665687561
     3   1       4.082776665687561       4.082776665687561      6.8046277761459351
     4   1      6.8046277761459351      6.8046277761459351      6.8046277761459351
     5   1      6.8046277761459351       4.082776665687561       4.082776665687561
     6   1      5.9476442675685348     0.65023795682376928      7.6807900537678506
     7   1      7.6591913879321396      1.7156918993406407       6.478951459778898
     8   1      5.7034436502972881     0.28963695374390852      7.0336029660867894
     9   1      7.1675662200942156       4.619042083007372      1.6033148190763455
    10   1      3.4605254171457034      1.7000991720414049      5.4038667222640413
    11   1      10.170432306891826      8.7882383962229369      1.8751633574563868
    12   1      3.7050433660154738      5.3849910081408154      2.6314760121616558
    13   1     0.42517372471149883      5.0204526029324938        6.17977525211802
    14   1      1.2090960130729798      9.7803292398061217       3.005484883660273
    15   1       5.982531275209908      10.421368920058114      3.6565172645663893
    16   1      2.7674865092374716      8.3346222857615544      4.5243711649778788
    17   1      8.7393913940060202      1.9334852063077506      7.1837423443404305
    18   1      9.9875772738161572      4.1930824921081182      2.1557795602428769
    19   1      8.3500196821586314     0.27015496754313517      4.3955063070927451
    20   1       5.285342072335709      1.0317326336834185    0.075789687917335868
    21   1      4.1801546364026194      2.9921060147421485      3.6009598995794647
    22   1      1.2120083741112708     0.81948005648040834      6.3618982810154989
    23   1      7.2533385500976237      6.2230063286629047      3.5084587120196318
    24   1     0.68740643426940551      4.9611070514294511      8.3072967255353092
    25   1      1.3737318969432266      10.286048732773565      5.1291474361151472
    26   1      8.5465991446354792       10.70707183804916      5.9533977684939146
    27   1      3.2306387911514207      1.5916048612799045        2.26539020982311
    28   1     0.05005619013609941       10.88479505459901      5.8547303542486588
    29   1      8.3412739194729397      9.6763833486234603      6.3426422881259441
    30   1      10.263045112110035      4.0401189275216041      9.0372223493075126
    31   1     0.20408769682228467      9.3248597570637912       8.905441480097295
    32   1     0.91814852525295976      7.2706438297250884      9.9576053367825921
    33   1     0.91627844277024906        7.68572653939151      7.1932713774543799
    34   1        1.27543056590455     0.76229669152098722      4.1071135333228028
    35   1      1.1241838528729318      2.9427898289961263      5.9326699799694893
    36   1      7.4307171795742306      2.9881825242622426      7.2307573892922505
    37   1      6.0946187660553051      8.2432580408614626      8.3279914181261461
    38   1       4.830987143827457        10.1752649621356      7.7896639943558057
    39   1      3.2370973652502073      6.2047996715500631      8.9550548803057382
    40   1      9.2262436090686037        10.5418666716742      4.0748719290789381
    41   1      7.2836751913405351      2.1600143796274693      5.5756401335765418
    42   1      3.6490194132589409      2.1081279052743866      5.2439072613628355
    43   1      9.2368992018043059     0.19428740684088552      3.9972567732952484
    44   1      8.7691569681595638      4.0426802932053931       3.039110352186043
    45   1      0.7428726232039935      2.7006554362845918      8.5946544402057725
    46   1      5.8321719063388855      0.5789025922035016      4.8355258293081818
    47   1      4.8255817991446293      2.4261738243646533      5.9854268449289521
    48   1      2.0813111139095781      8.8518760360544775      5.1062418053726333
    49   1      9.0691664146190192      6.6011864234384348      1.0625923204650007
    50   1      6.4969478603724724      8.9460008711797627      2.2784666727598193
    51   1      6.1720781762691672      4.6897379173815352      8.1542215432904186
    52   1    0.029165880196987404      6.8049139586304932      8.9801097999118724
    53   1      10.178929525605668      8.3423693299807269       4.143213085119271
    54   1      6.1878266491382306      9.3247987567156088      4.4037024177049204
    55   1      7.1959956270466137      2.0342084620747301      1.3633018108138373
    56   1      7.4433994115373139     0.18742356979061014      4.1382999613310858
    57   1      4.9464118079763466      7.4860873254074249      2.3694973625645304
    58   1      8.9576668632997212      1.0167096755938019      3.7002392641261679
    59   1      3.8283545964565064      2.4773576590688577      8.9152586425154254
    60   1      6.4847432481568603      7.9702509825708603      6.6242808956843646
    61   1      1.2441311412406577      8.0948415979740389      4.3900334726629922
    62   1      9.6130662850898148      9.2029791145756121      4.2831245220143614
    63   1      9.0901920665457396      5.8851422725169868      9.7128965995897829
    64   1      7.3193837568627487      10.659850430217318     0.98276160283302971

Velocities

     1                       0                       0                       0
     2                       0                       0                       0
     3                       0                       0                       0
     4                       0                       0                       0
     5                       0                       0                       0
     6                       0                       0                       0
     7                       0                       0                       0
     8                       0                       0                       0
     9                       0                       0                       0
    10                       0                       0                       0
    11                       0                       0                       0
    12                       0                       0                       0
    13                       0                       0                       0
    14                       0                       0                       0
    15                       0                       0                       0
    16                       0                       0                       0
    17                       0                       0                       0
    18                       0                       0                       0
    19                       0                       0                       0
    20                       0                       0                       0
    21                       0                       0                       0
    22                       0                       0                       0
    23                       0                       0                       0
    24                       0                       0                       0
    25                       0                       0                       0
    26                       0                       0                       0
    27                       0                       0                       0
    28                       0                       0                       0
    29                       0                       0                       0
    30                       0                       0                       0
    31                       0                       0                       0
    32                       0                       0                       0
    33                       0                       0                       0
    34                       0                       0                       0
    35                       0                       0                       0
    36                       0                       0                       0
    37                       0                       0                       0
    38                       0                       0                       0
    39                       0                       0                       0
    40                       0                       0                       0
    41                       0                       0                       0
    42                       0                       0                       0
    43                       0                       0                       0
    44                       0                       0                       0
    45                       0                       0                       0
    46                       0                       0                       0
    47                       0                       0                       0
    48                       0                       0                       0
    49                       0                       0                       0
    50                       0                       0                       0
    51                       0                       0                       0
    52                       0                       0                       0
    53                       0                       0                       0
    54                       0                       0                       0
    55                       0                       0                       0
    56                       0                       0                       0
    57                       0                       0                       0
    58                       0                       0                       0
    59                       0                       0                       0
    60                       0                       0                       0
    61                       0                       0                       0
    62                       0                       0                       0
    63                       0                       0                       0
    64                       0                       0                       0
