(written by ASE)

64 atoms
1 atom types

0.0      10.887404441833496  xlo xhi
0.0      10.887404441833496  ylo yhi
0.0      10.887404441833496  zlo zhi

Atoms # atomic

     1   1       5.443702220916748       5.443702220916748       5.443702220916748
     2   1       4.082776665687561      6.8046277761459351       4.082776665687561
     3   1       4.082776665687561       4.082776665687561      6.8046277761459351
     4   1      6.8046277761459351       4.082776665687561       4.082776665687561
     5   1      6.8046277761459351      6.8046277761459351      6.8046277761459351
     6   1      9.2386188924711519      3.8133410479950669       10.81258167432884
     7   1      6.7978872376717732      7.5467632036527448     0.24004947057169446
     8   1      2.6533008335435539      1.7885246927208129      7.0256287929116183
     9   1      6.2693334973479864      4.5683472244984387      5.6032973020785448
    10   1      8.2060608072676473       4.514103638286997      1.8800592843379036
    11   1      9.9980998338776317      7.3705072401586449      3.7976337828080204
    12   1      1.9211224149977824      3.8886930259671999      3.3642233887422037
    13   1       9.132876086776605      2.0789754170670705      5.4374986801885541
    14   1      4.6001374910597406      1.6367251640337912      3.5270583022263509
    15   1      10.819974397376654      3.1891446021800505      4.6554362535067639
    16   1      6.8502463024883014      9.1663918844636214      5.3832359502508211
    17   1       10.76676262556532      9.9360845437317948      7.7773847540546512
    18   1      5.5237976248999416     0.21302418699290193       9.851956627369816
    19   1      2.7476970877712574      4.4539845504538107      1.7584219943025801
    20   1      7.2982640086542574      2.9545168214642672      6.2375159753119647
    21   1       5.604660075814536      10.800445200800027      4.3120867086035446
    22   1     0.11649778762786944     0.95804307743422612      1.9660522538985674
    23   1      8.5363692564573057      9.2475301348247854     0.79074491772973943
    24   1      3.7094441517729138      10.385019850879985      10.596941549864596
    25   1     0.80222693539533907      1.4967501310310212    0.016789534662379424
    26   1    0.032225056277070507      5.3173876967375406      7.2434675256699279
    27   1      9.3968531467165803     0.17763384536153914      2.3985236319662988
    28   1      1.7644746565100036      6.1214050572460224     0.79364632790765199
    29   1      5.3131592045167224      8.2061626908279095       2.091836918670424
    30   1      8.7729883091773218      6.0100307513224607      8.1135842794230371
    31   1      10.026909519596359      4.6006047277692232       8.879126319255306
    32   1      9.0906177711032683     0.26622892186247427      8.3787612291905589
    33   1     0.19298539010062399      6.9339614930902371      1.5797717671423186
    34   1      7.2984333819614449       3.135526269537479     0.95088810973285121
    35   1      4.5338443892626401      4.5422721714099339      9.2202753090448368
    36   1      9.8720153588838571      9.2866294111901198      9.8593091161454254
    37   1     0.14425389918132936      3.0836091327753365      9.8302171415813859
    38   1      8.0910089590765324       1.521337327222767      7.2124157526855583
    39   1      4.4520974332994001      9.5799859260584412      9.0540954349787057
    40   1      5.5796259222843787      9.0678776200286961      7.2266813979418885
    41   1      1.3557457982701564      4.8317097383774694      5.4988257695977154
    42   1     0.31235573036137154      8.9512267839873516      4.9277917761635877
    43   1      3.5480453422305516       3.113517149231285      2.7332672607267341
    44   1      1.5978186228111184      6.9416021111700275        7.89447881603013
    45   1      6.6012448280271201      1.7498180249794189      10.711634534305233
    46   1       3.200561725858222      6.5699205002955523       5.563719757025865
    47   1      1.6290037529396528      10.595809798723849      5.9844391584402956
    48   1      3.4558462361821967        8.35265827168746      7.9034873993649057
    49   1      7.0497213346841932      9.8002036723958668      2.8858813711909477
    50   1       10.03967481586335      1.5463187543881389      3.5380727587125307
    51   1      1.8634824397193199      2.2779176696261771      8.8386525882362434
    52   1      7.2895234374875599      6.6574683297949946      9.2188327157043091
    53   1      3.8368596024488397     0.71245810917616836       5.384164583210918
    54   1      5.5021249799185625      6.1837396258100057      10.098555077476533
    55   1      3.5755866749649954      2.9778212257595271      8.0942893501410254
    56   1      7.2184379147188906        0.83570590574449      8.8932122081664602
    57   1       1.926671662097732      9.2668672451986254      3.7894938054949705
    58   1      1.8213310368902711    0.039550200855711592     0.82599452052586742
    59   1      3.0658700368419147      9.1980802674646611      1.9195110972899414
    60   1      0.9114554405071047      7.8222018396522799      10.231562443049143
    61   1      3.5618411550179019       5.212556002626485    0.015046857328424146
    62   1      8.9768404408252422      7.9736864702653065      5.4692938137989131
    63   1      9.2720483811548888      6.0505486102529744      2.6284258325175642
    64   1      5.5915813415882667      2.2937813293229254      1.8183851743309702

Velocities

     1                       0                       0                       0
     2                       0                       0                       0
     3                       0                       0                       0
     4                       0                       0                       0
     5                       0                       0                       0
     6                       0                       0                       0
     7                       0                       0                       0
     8                       0                       0                       0
     9                       0                       0                       0
    10                       0                       0                       0
    11                       0                       0                       0
    12                       0                       0                       0
    13                       0                       0                       0
    14                       0                       0                       0
    15                       0                       0                       0
    16                       0                       0                       0
    17                       0                       0                       0
    18                       0                       0                       0
    19                       0                       0                       0
    20                       0                       0                       0
    21                       0                       0                       0
    22                       0                       0                       0
    23                       0                       0                       0
    24                       0                       0                       0
    25                       0                       0                       0
    26                       0                       0                       0
    27                       0                       0                       0
    28                       0                       0                       0
    29                       0                       0                       0
    30                       0                       0                       0
    31                       0                       0                       0
    32                       0                       0                       0
    33                       0                       0                       0
    34                       0                       0                       0
    35                       0                       0                       0
    36                       0                       0                       0
    37                       0                       0                       0
    38                       0                       0                       0
    39                       0                       0                       0
    40                       0                       0                       0
    41                       0                       0                       0
    42                       0                       0                       0
    43                       0                       0                       0
    44                       0                       0                       0
    45                       0                       0                       0
    46                       0                       0                       0
    47                       0                       0                       0
    48                       0                       0                       0
    49                       0                       0                       0
    50                       0                       0                       0
    51                       0                       0                       0
    52                       0                       0                       0
    53                       0                       0                       0
    54                       0                       0                       0
    55                       0                       0                       0
    56                       0                       0                       0
    57                       0                       0                       0
    58                       0                       0                       0
    59                       0                       0                       0
    60                       0                       0                       0
    61                       0                       0                       0
    62                       0                       0                       0
    63                       0                       0                       0
    64                       0                       0                       0
