(written by ASE)

216 atoms
1 atom types

0.0      16.331106185913086  xlo xhi
0.0      16.331106185913086  ylo yhi
0.0      16.331106185913086  zlo zhi

Atoms # atomic

     1   1      6.4629776160668371       1.768135477508352     0.96050565453596448
     2   1      6.5149820337236406      1.8005463729955835      11.819164947027275
     3   1      13.270150011173314      11.254000306787816      2.4128519105873067
     4   1       9.199307468634629      12.747806640697831      3.6444058310480045
     5   1      7.7511063564679716      8.6055975865086793      10.539399743481681
     6   1      9.1491437688774795      15.328085277313676      0.9315506071308306
     7   1       2.344401004589372      14.065271031729253      15.925664463327053
     8   1      5.0459007950067303     0.41529734454363521      5.0503599852226557
     9   1      1.0085934362546425      15.481014768091541      14.551519394041293
    10   1      13.206645730340142       14.09940461917995      5.1120868197920686
    11   1      13.274231518393435       11.33717427910608      13.218016130015371
    12   1      6.4137250278665761      9.9678222795918145      9.1868663181980992
    13   1      0.9762262225314231       1.834858459465238     0.92409586998394389
    14   1      5.0569582434367248     0.41990236371267642      10.482648006313184
    15   1      11.896421561274678      4.5357391612606079      14.555631076964687
    16   1      16.031559766800115      8.6045579848604348      2.3364302385812721
    17   1      9.1007146853536369       15.43699523088469      6.4359781489157513
    18   1      10.561275181535052      14.056546359844219      2.3021788685468323
    19   1      13.212107532632558      3.1585616771483558       10.46725353059503
    20   1      6.4224482396369353      12.674341457555215       11.83491666413579
    21   1      2.3771854460808299       8.584831835607929      5.0559230221325038
    22   1      3.7254580133917727      9.9736452169137237      6.4094906953105237
    23   1       2.349570540594442      8.6357392204392909      10.519841994121634
    24   1     0.99230257180256842      12.714109140829919      11.858828475455198
    25   1      7.7706748133356314      8.5873062432763163      5.0377655227453033
    26   1      11.905704970375155      7.2002965902984215      6.4668639546254667
    27   1      5.0247529807661522       11.33653864251778      15.948613572371073
    28   1      15.945827673572126      14.035415580274844      7.8310203794229665
    29   1      7.7696420255558678      14.052842535619902      15.901547262543431
    30   1      7.7779612722662819      11.351121294476911      2.3172562560281733
    31   1      14.667272418386801      1.8165907214201127      9.1545306186166044
    32   1      2.3838525730370463      8.5394952749646791      15.928283909053107
    33   1      5.0975552718465451      14.084350836885847      13.217738708227216
    34   1      10.529106908436233      5.8559821505176046      5.0441447637581973
    35   1       14.55982355290007      1.7873250346179788      14.580139588481074
    36   1      2.3533408000364489     0.50225280093546587      7.7873210940347235
    37   1      5.0265805576337357      11.386345100884569      10.476798786927134
    38   1      5.1231982924650197      8.5699435329769358      2.3245780010634576
    39   1       13.24894525246043      5.8819064865633663      13.218552478805805
    40   1      1.0083548291815845      12.733077003861467     0.97168082471159067
    41   1      15.986587261415707      14.073191667133528      13.250391739397969
    42   1       1.065748043397079      15.412716444077091      3.6847787318552889
    43   1      6.4315033841432978       15.44950452000603      3.7147816548918229
    44   1      2.4291672319601787     0.44043741649485568      13.179723162561913
    45   1      5.0849768706306122       5.839422989994091        5.02084960753632
    46   1      9.1625038181491618      12.639486573455315      14.583840492476043
    47   1      14.615659311462764      9.9207141131435037     0.97740453507374525
    48   1      16.004443490475069      8.5850352782525761      7.8229912088278866
    49   1      6.4735634474569679       4.532282583121173      9.1548995409243616
    50   1      3.7398654515899636      1.8110408255423351      14.563287918317769
    51   1      10.540498723126689      5.9086553006953295       15.92012576166178
    52   1      11.896843047710718      15.411706044722337      3.6664951759011899
    53   1       5.116529462041683      3.1587607394489794      13.173102029217944
    54   1      1.0514324707471587      1.8287902228780126      6.3856645440520197
    55   1      2.3298356306538892      14.111743561589265      10.489070564061421
    56   1      5.0523764035881413      11.356938391340123      5.0406395151296124
    57   1      10.539243997916401      3.1400578872308529      7.7502672772350252
    58   1      7.8257639665947636     0.39140755662056748      2.3378521469217901
    59   1     0.99034559227195729      9.9415947263986482      3.6668808895277039
    60   1      5.0312485442481147     0.49857580631829279      15.867233594282879
    61   1      6.4029221260948361      12.713075379640372        6.44456167638225
    62   1      13.255893451491488      3.1738154951528657      5.0901992141164101
    63   1       1.039799615459188       7.242257852519117     0.94340193207697354
    64   1      16.007649902300273     0.50242040993247628      5.0800786726025535
    65   1      11.896215198400682      9.9860668991545936      3.7166155589229959
    66   1      1.0070853811483289      9.9542977240668051      14.587918106057032
    67   1      6.3818137349504696      12.656350897945799     0.97581465270754819
    68   1      2.3312687332069117       3.214030703575304      15.899990780300413
    69   1      5.0949207382688542      5.8930184459412089      15.939270785273834
    70   1      3.7265131895965453      1.7695781924829816      3.6432194878749726
    71   1      14.634167725076736      12.664966547935137      14.585200345942894
    72   1      11.972528578568358      15.410815374770891      14.579798895057024
    73   1      3.7273031116354503      10.014161452311555      11.841695489864605
    74   1      6.4479345412803468      9.9561092396729691      14.522079588564225
    75   1      10.546891105171653      14.078077210834408      13.192342446988732
    76   1      11.869987645207516      1.7981021410304692     0.98770412314956246
    77   1      14.580732395038922      9.9648806352275869      11.774374469272288
    78   1      11.866075511289637      7.2496435992476336     0.99467270294795185
    79   1      10.555815326062202      3.2016197288420472      13.186958517478956
    80   1      3.7071172696129224      4.5392161810054859      6.4610819005144435
    81   1      9.2088809538504393      4.4861531802096692      6.4227295550642225
    82   1      10.533376283744474      8.6325834259228031       7.812859959806417
    83   1      15.963664434435827      3.1878016902674631      13.210081866874134
    84   1      15.937543956318791      5.8682656085692884      5.0695166897521062
    85   1      13.222921141911911      3.1852798288721544       15.94762945508046
    86   1      2.3683208465394898      5.9139978602893279      7.8286914965171377
    87   1      15.970092832642763      11.371801385316758      5.0478403139993588
    88   1      10.528092615442347      5.8988759393104147      10.500858556533558
    89   1       15.96547887027134     0.48874315074775865      15.916358665801567
    90   1      15.995143533408282      3.1987029064272861      7.8199527101902504
    91   1      9.1727577168032894      1.8291676625213711      14.607582930493209
    92   1      13.255803897791452     0.42122206402597939      2.2901502005058489
    93   1      9.1260165258431698      10.001541194474953      0.9184888471195265
    94   1      2.3278900278501169     0.42059086861981498      2.2859168413595796
    95   1      9.2252790150548662      1.7742993516067571      9.0974839382838582
    96   1      10.552192294849874      14.106023805704353      7.8108318605235354
    97   1     0.96641881477713554      4.5034667333150082       9.166452941638795
    98   1      14.565952140893842      1.8020046625267412      3.6467303336098098
    99   1      1.0132971348404354      1.7919031025036531      11.884064124079487
   100   1      13.248140242569889      8.5837250686846573       15.96748701465367
   101   1      9.1703971980795131      4.5291676718155713      11.795620111196058
   102   1      7.8294994266370281      5.8688253191945137      7.7605985619669013
   103   1      13.277218913017464      14.010646194936612       15.98615993452097
   104   1      13.236866210463177     0.47381131844803193      13.237272122342688
   105   1      11.902274674299861      4.5309251631787788      3.6951966500578521
   106   1       3.708218196077496      15.419870032572362      11.865554737055731
   107   1      7.8428244331565224      3.1480425243283605      10.480129795204562
   108   1      14.604763935761639      7.2458716363385065      14.566474861947313
   109   1       15.94019065751877      11.332279974717153      10.493677712564363
   110   1      14.624704235166405      4.5259748877273296      6.4217936215578675
   111   1     0.97194656558234982      10.001011659553001      9.1921947633502441
   112   1        7.78818937556116      11.310699479828031      7.8421435330133136
   113   1      9.1398292106639474      1.7642520591790714      3.7237990797690941
   114   1      10.503543220715073     0.42749861030676684      10.532000855721094
   115   1      7.8221954463302836      5.9114095636763295      13.182713477415291
   116   1      11.891680082221683      4.5051896686309192      9.1290788730204895
   117   1      9.1984917512364746      7.2210715885921104      3.7015792980049866
   118   1      5.0774105563873491      14.077726783312528       7.797318985915922
   119   1      15.931109717653158      5.8970663705238167      10.485010471856526
   120   1      5.0782038853604945      8.6139718308718329       7.765466584291687
   121   1      6.4822277679354556      4.5437639515116643      3.6970093824262449
   122   1      2.3587113451617086      11.272185548353832      13.263286498793377
   123   1      3.7109758659927365      4.5810839958870133      11.833170366985087
   124   1      15.983363328214409      3.1111060034075138       2.331349282866455
   125   1      2.3711315672879039      14.050214329205801      5.0321961586718658
   126   1       10.55882510911124      11.370405515687935       10.53668393018711
   127   1      2.3318223600209933      11.334703765076824      7.7904330851109762
   128   1      13.232375871134195      11.284972259263327      7.7459706464528608
   129   1      2.3213219453393208      11.319540960887025      2.3356359361983436
   130   1      6.4348558074359516       15.38314912191845      9.1771117787626508
   131   1      2.4084905480545729      3.1181079833290823      5.0623621278470523
   132   1      14.611717001841612      15.443189037333923     0.90817861237420772
   133   1      9.1967386402172906        7.21945913528657      14.607106933109321
   134   1      5.0899777633907775      3.1707237023296102      2.3440306221669402
   135   1      6.4530366686579441      9.9677882102494095      3.6802170902597027
   136   1      1.0084745585848935      7.2033832727203162      11.872540899068326
   137   1      13.248002991790486      5.9134430167130176      2.3761059346314823
   138   1       9.190183698738565      4.5443022471216636     0.94137401530842624
   139   1      11.924180288056505      1.8279970155810901      11.821985888578411
   140   1      3.7313855922653545      15.378249950480608      6.4553149342550569
   141   1       13.22811136287487     0.46964761893935858        7.81645865577417
   142   1      3.7401097774454968      7.2240487624134175      9.1456667491326016
   143   1      3.6907603349718272      9.9181696199707403     0.97869594566522977
   144   1      1.0328470360841067      15.476575046071275      9.0831660537857033
   145   1      9.1671245943890654      10.000122936421121       6.410846168433352
   146   1      14.613510996071682      15.445902903808928       11.84347488294793
   147   1      6.4639466455058141      7.2068125953858271      11.809010336171013
   148   1      2.3416172959624362      3.1513871603427503      10.557608346882489
   149   1      11.878051371849892      9.9769966667965946      9.1448802340279371
   150   1      16.009181075888932      11.337591871902987      15.982746186411987
   151   1      7.7839876522328382      14.024777184756431      10.489076404520119
   152   1      3.7410566618119105      15.426899024615409     0.92286103883609627
   153   1      14.696005528361411      12.744345195509482      3.7040724438116968
   154   1      10.516848759038908      3.1777140013337828       2.348141818385443
   155   1      6.3975839468448612      7.2400389649187673      6.3877349866604618
   156   1      7.8476043618959466      5.8961426046397492      2.2876358830363586
   157   1      14.681534818527325      7.2033112403963742      3.6476750278042118
   158   1      10.532204298365741      11.361500762993046      5.0539066037670182
   159   1      5.0986927011779812      5.8787774608159111       10.43316082635522
   160   1      7.7685790620728312      14.028808074667836      5.0538024489202371
   161   1     0.99440227754261201      4.4957432133917905      3.6708409638773958
   162   1      16.008334209377722      14.122909545210064      2.3250873377324126
   163   1      7.7932569468914608      3.1810496333076799      15.920926877913189
   164   1      14.641136365713237      15.424045960541434      6.4160631581653433
   165   1      14.567726666928252      4.5189858054853858       11.83116319601254
   166   1      3.7312313068147489      7.2406191171494356      3.6612879202670285
   167   1      2.3598628889349982      5.8277435327127591      2.2643940210001006
   168   1      11.910561311782544      7.2627130856990902      11.839765218264915
   169   1      11.925321124322181      9.9169110011213206      14.519313157960937
   170   1       6.455619611517136      7.2049451087171406     0.98831384270238942
   171   1       14.62850150672989       9.915707866629532      6.3123590001138155
   172   1      7.8077914150663332      8.5985101898786525      15.896342440433727
   173   1      6.4047900994684142      1.7780104764044466      6.4020918075499367
   174   1      7.7721383349443727      11.359274574819324      13.199490195025305
   175   1       9.164715405176139       15.43797156089704      11.798915103311515
   176   1      3.8029041991944155      7.2099133922495753      14.568516102262265
   177   1      10.571046268936811       11.28125870094118       15.96484615391239
   178   1      3.6639553064248958      12.721439889905696      9.1325578395849334
   179   1      13.244817994980508      8.5517427168543918      5.0397269434580494
   180   1     0.99562719207829531       12.71558872370008      6.4186295530582242
   181   1      5.0999226044388024      14.121758974846557      2.2976802552346953
   182   1      15.918243187141456      8.5951859954697056      13.197166665873283
   183   1      11.840691904378332      1.7615178727748457      6.3909448054199061
   184   1      7.7703818169909482     0.42673661296101173      7.8076205816494166
   185   1      6.5059877273287157      4.5086997843084191      14.589126107597735
   186   1      13.235893774089959      8.6101297824583298      10.489492050497461
   187   1      14.624880422337128      7.2507425788926412      9.1196260906177713
   188   1      3.7433122956315685      1.8016696878851661      9.1580465747528024
   189   1      14.623097135614671      4.5276335779975625     0.95187205730375268
   190   1      9.1326483666947524      7.2796830251510301      9.1456570150347716
   191   1      3.7923371059426074      4.5091514464477314     0.92392527991947304
   192   1      11.947184881458156       12.67779803569465       11.88970990082089
   193   1      3.7292667225202081      12.756404769311075       3.623847659783479
   194   1      11.921341825129275      15.426453202934795      9.1808876353109099
   195   1      7.8187417884201977      3.1794325563056702       5.034442788451031
   196   1      11.924008967934697      12.707672955344719      6.4371345597379559
   197   1      7.8122963555420597     0.40937104327039364       13.26961658261223
   198   1     0.97946840716615213      4.5628773393057713      14.544475800851501
   199   1      5.0578318787169678      3.1610025021792296      7.7861427814924014
   200   1      2.3601332535022266       5.923237465949569       13.22833524712496
   201   1      10.497996731771536      8.6238636210866844      13.173890491142174
   202   1      9.1449113831409932      12.694056899300108      9.1349728692565577
   203   1      10.523181763087109     0.39492460784277128      15.947478576564095
   204   1      13.270814850055103      5.8605863787911971      7.8405763432626827
   205   1      3.6992039347820196      12.762766002242984      14.556965621777181
   206   1      6.4285262103219907      15.417629243251895      14.568837327490655
   207   1       9.190096091858095      9.9421223145010345      11.802529373835796
   208   1     0.98088417085741497      7.2068306034668126      6.3942042680782833
   209   1      13.312420331000112       14.03937541127209      10.497555777139837
   210   1       5.120994979421198      8.5773375536886078      13.150227872727214
   211   1      10.526976114421245     0.40198891640950762      5.0293654830229002
   212   1      14.593914310320315      12.641391536400647      9.0721567891399673
   213   1      15.966285826981448     0.42808706693964638      10.512208514603344
   214   1       10.46837587207483      8.6329581886892583      2.3701615644391438
   215   1      11.927756595599249      12.631234005315036      1.0266849871290447
   216   1      15.974058504098707      5.8838255639505519      15.927455537327774

Velocities

     1                       0                       0                       0
     2                       0                       0                       0
     3                       0                       0                       0
     4                       0                       0                       0
     5                       0                       0                       0
     6                       0                       0                       0
     7                       0                       0                       0
     8                       0                       0                       0
     9                       0                       0                       0
    10                       0                       0                       0
    11                       0                       0                       0
    12                       0                       0                       0
    13                       0                       0                       0
    14                       0                       0                       0
    15                       0                       0                       0
    16                       0                       0                       0
    17                       0                       0                       0
    18                       0                       0                       0
    19                       0                       0                       0
    20                       0                       0                       0
    21                       0                       0                       0
    22                       0                       0                       0
    23                       0                       0                       0
    24                       0                       0                       0
    25                       0                       0                       0
    26                       0                       0                       0
    27                       0                       0                       0
    28                       0                       0                       0
    29                       0                       0                       0
    30                       0                       0                       0
    31                       0                       0                       0
    32                       0                       0                       0
    33                       0                       0                       0
    34                       0                       0                       0
    35                       0                       0                       0
    36                       0                       0                       0
    37                       0                       0                       0
    38                       0                       0                       0
    39                       0                       0                       0
    40                       0                       0                       0
    41                       0                       0                       0
    42                       0                       0                       0
    43                       0                       0                       0
    44                       0                       0                       0
    45                       0                       0                       0
    46                       0                       0                       0
    47                       0                       0                       0
    48                       0                       0                       0
    49                       0                       0                       0
    50                       0                       0                       0
    51                       0                       0                       0
    52                       0                       0                       0
    53                       0                       0                       0
    54                       0                       0                       0
    55                       0                       0                       0
    56                       0                       0                       0
    57                       0                       0                       0
    58                       0                       0                       0
    59                       0                       0                       0
    60                       0                       0                       0
    61                       0                       0                       0
    62                       0                       0                       0
    63                       0                       0                       0
    64                       0                       0                       0
    65                       0                       0                       0
    66                       0                       0                       0
    67                       0                       0                       0
    68                       0                       0                       0
    69                       0                       0                       0
    70                       0                       0                       0
    71                       0                       0                       0
    72                       0                       0                       0
    73                       0                       0                       0
    74                       0                       0                       0
    75                       0                       0                       0
    76                       0                       0                       0
    77                       0                       0                       0
    78                       0                       0                       0
    79                       0                       0                       0
    80                       0                       0                       0
    81                       0                       0                       0
    82                       0                       0                       0
    83                       0                       0                       0
    84                       0                       0                       0
    85                       0                       0                       0
    86                       0                       0                       0
    87                       0                       0                       0
    88                       0                       0                       0
    89                       0                       0                       0
    90                       0                       0                       0
    91                       0                       0                       0
    92                       0                       0                       0
    93                       0                       0                       0
    94                       0                       0                       0
    95                       0                       0                       0
    96                       0                       0                       0
    97                       0                       0                       0
    98                       0                       0                       0
    99                       0                       0                       0
   100                       0                       0                       0
   101                       0                       0                       0
   102                       0                       0                       0
   103                       0                       0                       0
   104                       0                       0                       0
   105                       0                       0                       0
   106                       0                       0                       0
   107                       0                       0                       0
   108                       0                       0                       0
   109                       0                       0                       0
   110                       0                       0                       0
   111                       0                       0                       0
   112                       0                       0                       0
   113                       0                       0                       0
   114                       0                       0                       0
   115                       0                       0                       0
   116                       0                       0                       0
   117                       0                       0                       0
   118                       0                       0                       0
   119                       0                       0                       0
   120                       0                       0                       0
   121                       0                       0                       0
   122                       0                       0                       0
   123                       0                       0                       0
   124                       0                       0                       0
   125                       0                       0                       0
   126                       0                       0                       0
   127                       0                       0                       0
   128                       0                       0                       0
   129                       0                       0                       0
   130                       0                       0                       0
   131                       0                       0                       0
   132                       0                       0                       0
   133                       0                       0                       0
   134                       0                       0                       0
   135                       0                       0                       0
   136                       0                       0                       0
   137                       0                       0                       0
   138                       0                       0                       0
   139                       0                       0                       0
   140                       0                       0                       0
   141                       0                       0                       0
   142                       0                       0                       0
   143                       0                       0                       0
   144                       0                       0                       0
   145                       0                       0                       0
   146                       0                       0                       0
   147                       0                       0                       0
   148                       0                       0                       0
   149                       0                       0                       0
   150                       0                       0                       0
   151                       0                       0                       0
   152                       0                       0                       0
   153                       0                       0                       0
   154                       0                       0                       0
   155                       0                       0                       0
   156                       0                       0                       0
   157                       0                       0                       0
   158                       0                       0                       0
   159                       0                       0                       0
   160                       0                       0                       0
   161                       0                       0                       0
   162                       0                       0                       0
   163                       0                       0                       0
   164                       0                       0                       0
   165                       0                       0                       0
   166                       0                       0                       0
   167                       0                       0                       0
   168                       0                       0                       0
   169                       0                       0                       0
   170                       0                       0                       0
   171                       0                       0                       0
   172                       0                       0                       0
   173                       0                       0                       0
   174                       0                       0                       0
   175                       0                       0                       0
   176                       0                       0                       0
   177                       0                       0                       0
   178                       0                       0                       0
   179                       0                       0                       0
   180                       0                       0                       0
   181                       0                       0                       0
   182                       0                       0                       0
   183                       0                       0                       0
   184                       0                       0                       0
   185                       0                       0                       0
   186                       0                       0                       0
   187                       0                       0                       0
   188                       0                       0                       0
   189                       0                       0                       0
   190                       0                       0                       0
   191                       0                       0                       0
   192                       0                       0                       0
   193                       0                       0                       0
   194                       0                       0                       0
   195                       0                       0                       0
   196                       0                       0                       0
   197                       0                       0                       0
   198                       0                       0                       0
   199                       0                       0                       0
   200                       0                       0                       0
   201                       0                       0                       0
   202                       0                       0                       0
   203                       0                       0                       0
   204                       0                       0                       0
   205                       0                       0                       0
   206                       0                       0                       0
   207                       0                       0                       0
   208                       0                       0                       0
   209                       0                       0                       0
   210                       0                       0                       0
   211                       0                       0                       0
   212                       0                       0                       0
   213                       0                       0                       0
   214                       0                       0                       0
   215                       0                       0                       0
   216                       0                       0                       0
