(written by ASE)

216 atoms
1 atom types

0.0      16.331106185913086  xlo xhi
0.0      16.331106185913086  ylo yhi
0.0      16.331106185913086  zlo zhi

Atoms # atomic

     1   1      2.3788845328570574      12.783983415283046      4.2233228047016951
     2   1        10.5247684210334      10.117911360622884      4.2653770275566671
     3   1      6.4383995057509651      5.9730609589875598     0.16439560401191322
     4   1      13.208096110916813      4.6775401446943192      6.9402603875725504
     5   1      11.886295179302124     0.58734299124967748     0.20933980446497458
     6   1      7.7625716635970434      15.526524595676165      7.0099346263152711
     7   1      3.7199270990047637      11.438606498724084      2.8935537839558094
     8   1        7.75351943932003      1.9661226470266371      15.122213001848195
     9   1      3.7028921844498086      11.483629621417208      8.3227908954339682
    10   1     0.98134806145712616      8.7242406644999164      8.3348232137616378
    11   1      15.965322151296277       1.937890478061604      12.443502194565554
    12   1      3.7248316241964119     0.61018885801858858      2.9056717623443831
    13   1      15.907720627387221      15.568484397782186      4.2422298296218059
    14   1      9.1255668105234236      6.0868535360301053      2.9029396444359463
    15   1      9.1353855950045499      8.7795069783395547      5.5948620559983624
    16   1      14.603568588548114      3.3130425397678778        11.0644151238115
    17   1      14.584096499248972      14.213073573180054      5.6064967364296763
    18   1      7.7795722654571478      4.6428658281091657      1.5332314986173259
    19   1      0.9896403568841734      3.3465477912036476      8.3179384476657106
    20   1      11.910453263296631      11.466992101406163      11.069830202434332
    21   1      11.846417500721941      11.507574528669238      5.6512166419753953
    22   1      14.629449607858533      11.484854170924223      13.807871309400639
    23   1      14.633580758977587      11.493043467428606      8.2954049845990312
    24   1      1.0108312445076493      11.424763638200034      5.5990009943956807
    25   1      5.0794279481626177      4.6926503847558365      4.2410106338685978
    26   1      3.6904155045561993       6.060900484395745      13.683547411915811
    27   1      11.900874911031906      6.0522468714248703      11.078629826872657
    28   1      10.538782601679259       12.80438705774452      12.395425485383157
    29   1      3.6819079030527746      8.7496846228177674     0.12880632785932278
    30   1      2.3279092526933312      12.871880371868428      9.6862956223817491
    31   1      0.9414183662916642      8.7561120476149199      13.761865042826685
    32   1      16.014001401134351      7.3722601359730788       1.518406224269782
    33   1      1.0300542017404553       3.358961199461362      13.771023855474937
    34   1       9.181016125402266      14.212341569023238     0.16098587121828523
    35   1      6.4358881085108237      3.2958000455766978      13.775242613474461
    36   1      9.1562233782292424      6.0518959571980986      13.764543866549502
    37   1      13.244771271310924      10.094171842835067      12.428150548877852
    38   1      14.591597595036774      8.7136947429108886      5.6192508381114408
    39   1      10.528419681129435      10.149187016950691      9.6718949980520392
    40   1      13.221702432863594      4.6583503442322467      12.465427276517858
    41   1       2.356420181884971      7.3531866579800749      9.7172189043681101
    42   1      6.4063470684163235      0.5958479158761989      5.6180700920446611
    43   1       10.55796558827285      12.884493815836549      1.5828370695401475
    44   1      11.899232768727984      14.251900942604379      8.3258250137275809
    45   1      13.226045787315343      15.585344828633538      6.9466663973544769
    46   1      6.4559500841384647       8.754558485601251      2.8884869426828459
    47   1      3.7151809962552989      14.192433392141311      5.5973053145536937
    48   1      11.915489685513876      14.265503370912029      2.9042661586177303
    49   1      10.568160108930215      1.9366634950301318      12.397589375330767
    50   1      13.228889117291487      10.143028253253647      1.5156812852584949
    51   1      15.976315841385485      15.515781071901188      15.125343487710325
    52   1      3.7631340823952542      3.3343592406058065      5.6537820634584932
    53   1     0.98908107212572816      6.1078811341624828      0.1051558238333028
    54   1      14.654932502567704      3.2861321396119365     0.14722197856288055
    55   1      10.571838624500174      15.580252922058662      15.139818091183542
    56   1      11.884107927519722      8.7501392051864286      2.8855314272292105
    57   1      15.955705836050015       12.82873398323693      6.8797965521965807
    58   1      2.3760701618219571      10.111536499954013      1.5883058073772673
    59   1       6.477458059998753      3.3101116029112632      8.4071105710668235
    60   1      11.833452655822157      3.3286772043499866      8.3166116901314808
    61   1      13.227088309192936      15.507237454235792      12.372789814289263
    62   1      5.0797131572290368      7.3719520517767592      1.5133128575802317
    63   1      13.252141930187804      4.6778346011536769      1.4635985081141598
    64   1      5.0801069014862605       7.353371605838845      7.0192136550717237
    65   1      6.4487599927763313        14.1605337801426       13.80216518125269
    66   1      3.7488685186729356      14.199918913372585     0.14388105367328841
    67   1      5.0625607034427844      15.466366897676949      9.6843595103233611
    68   1      9.1921071564697741      14.186774961072729      11.049088786778157
    69   1      7.7894981250144042       12.87451831238036      4.2252735179068281
    70   1      10.543956274675907      12.871333315570382      7.0135133673824726
    71   1      9.1484662756685111      11.477393958347307      2.8986045639673534
    72   1      2.3235556774388613      2.0011024926074299      9.6874481395648218
    73   1      15.997146810741697      1.9384091837997204      1.5678377981938922
    74   1      1.0750107675396663      14.232092053520319      2.9031937043893095
    75   1      3.6663228823695988      14.151672830887946      11.054443513994443
    76   1      3.7258975079087975      8.7608106966374635      11.030521968577204
    77   1        5.06263711611075      1.9706030089053428      1.5140272186847312
    78   1      6.3945624828784275      11.526446024132269      5.6496611331421605
    79   1       9.221191667376047      14.177438987843971      5.6385175379463703
    80   1      11.862506017615374      8.7579186961721689      8.3398966255506366
    81   1      6.4188524638985314       14.19448339314431      2.8939777039163062
    82   1      6.4704933130013842      6.0686269245483118      5.6392315340222012
    83   1      6.4550394592864677      8.7366039421538062      8.3147485838068178
    84   1      14.541016302482717     0.56950829888176457        13.7682545046423
    85   1      14.595315046998053     0.57789957791612068      8.2625962078629982
    86   1      14.584927791203654      8.7195546698045518     0.20429945818954209
    87   1      3.7061419130103559     0.61514095861338092      13.756949323422532
    88   1      11.977191211428931     0.64035075104030881      10.988614730599465
    89   1      14.611497011230654      8.7587947649768694      11.033271851214181
    90   1      11.866537880936562      8.7535685278519395      13.809147449626153
    91   1      14.588837978301967     0.61073177732505712       2.939766170051314
    92   1      13.212114346501039      7.3957032504819722      15.137885872764286
    93   1      7.8041713040833542      12.859733191186365      15.138204177763328
    94   1      15.979247751651883      10.117574560837966      9.6468024406658515
    95   1        14.6125307724202       3.291511688777689      5.6237523716529267
    96   1      14.616473082041352      6.0678900533425804      2.8641215224045595
    97   1      13.224879642395308      1.9353004779814853      4.2298378363793177
    98   1      6.4340848668878152      11.484732494701348     0.17143712870591621
    99   1      9.1917606225870259      3.3117936550162881      5.6107028401020216
   100   1      13.320420786006594      12.835703597283214      15.146913275091833
   101   1      14.553532405472538      11.509354895162346      2.8662343083385622
   102   1      11.892084047281628      3.3042475390260222      2.8272626309139071
   103   1      2.3509182264390063      4.6785675787202763      1.5052651921992748
   104   1      7.8340875936492012      4.6828496083556956      12.404337051946527
   105   1      9.1552937718864769      11.501883975077817      13.759891941196543
   106   1      9.2016008220833783      3.3134917683827325      11.065350570612964
   107   1      7.7904875960588242      10.073250346369036        12.3839421701731
   108   1       5.063685965151933       15.54978032880183      4.2509798101611977
   109   1      3.6632478808651001       11.47633099486427      13.743479278845371
   110   1      6.3804636155814478     0.54335825344256961       11.04248809503963
   111   1      7.7537837200761146      15.511722926515858      12.467179414127258
   112   1      2.3740323284412455      10.047007218619342      6.9878971155330305
   113   1      14.531136193185262        5.98157683447414       8.280433942136483
   114   1      9.1225959638657059     0.54540381326343379      8.3373385046409112
   115   1      5.0577316175093188      4.7268083074511082      15.087376612534172
   116   1      7.7682661108275965      7.3950340312561593      15.125696835461554
   117   1      7.8246372447709405      7.4002315527924907       9.678709839942826
   118   1      2.3595092978313232      7.3932906543348054      15.064899607234906
   119   1      1.0264828829228492      3.3849585412408487      2.8764341827497333
   120   1      2.3471177912937264      15.563017728440855      12.426335139632556
   121   1      13.279643676786918       15.57440954313131      1.5237148361975983
   122   1      2.3562096820193972      4.6728390621473181      6.9828441453494747
   123   1      13.193982642473088      12.857774690702968      9.6792714973876173
   124   1      15.951024708403565      10.124222949655859      15.148078446602085
   125   1      3.7725608260862771     0.63245810116729473      8.3413450593077414
   126   1      9.1622789604892887      11.495859541930827      8.3572534953913191
   127   1      0.9567837613925505      11.453090836295132      11.029750054619285
   128   1      5.0421074170823772      10.115508985278439      9.6910760378260647
   129   1      5.0660075474843893      7.4220972567480317      12.394487118352345
   130   1      3.6548743665592838      6.0252775799770575      8.3281514631089522
   131   1      7.7750089203944412      1.9331038571299217      9.7269169860361444
   132   1      10.455012902573799      10.145741146318869      15.115406920645455
   133   1      7.7606389584728959       12.89952715652521      9.6745232044661407
   134   1      16.017723720144545      1.9818876268434451      6.9444158739361797
   135   1      2.3861252415279068      15.556836576318801      1.4862068020579073
   136   1      10.514580714244516      7.3749740024480843      1.5078144307447303
   137   1     0.96131741745687549       6.000683408399766      11.089465824577019
   138   1      2.3438807170603582      7.3469485613857159      4.2760587398104235
   139   1      10.481188865048466      1.9279051188313616      7.0367506057222613
   140   1      14.583637049831395      14.183579256755138     0.19361286367734287
   141   1      6.4280472927087544      14.175921441992273      8.2905651911579525
   142   1      10.490224054654277      4.6371212502747881      15.144619921643084
   143   1     0.93921249804716211      14.222980937951434      8.3028184735063633
   144   1      5.0349411742599273      12.826878664190531      7.0038751504160928
   145   1      10.554359105026833      15.553231066482567      9.7286097456487823
   146   1      15.911263838997343      15.548684269386172      9.6779311121164255
   147   1      5.0969829068941408      1.9478390910725381      12.394118196044587
   148   1      2.3279119295702344      1.9765064958867953      4.2728051176107442
   149   1      3.7132531581800663      3.3056039855586334      11.032984695328196
   150   1      15.911216141917976      4.6819574782895756      9.6377312348980695
   151   1      7.7571088878948444      7.4087630028355989      4.2772073633543641
   152   1      11.906395117911302      14.201439379453632       13.78977270130531
   153   1      5.0568696631464718      4.6964262413040956      9.6827923205727302
   154   1      7.8025374357625878      4.6849609341750238      6.9684245395289963
   155   1      7.8122666665436782      1.9029457969092221      4.1913161176268545
   156   1      2.3338837985889427      1.9838833602510419      15.169621951919453
   157   1      5.1039904839219616      1.9194512982184477      7.0439421571990692
   158   1       11.83933205091148      6.0357539027666007      5.5524598391459676
   159   1      2.3327911461075246      12.855247718906298      15.144842832483391
   160   1      13.247098694102078      12.869404990790258      4.2826837667935251
   161   1     0.99948651851544668       8.707067769108221      2.9132650887091245
   162   1      3.7531215893673107      8.7306534881503239      5.6484614055846123
   163   1      10.483997152272423      15.516717492112434       4.267759448000561
   164   1      13.228616562552247      1.9296196584878942       15.16534868297208
   165   1      6.4115280419863439      6.0669166435595798      11.059342685432284
   166   1     0.99894505932365263      14.207979719785612      13.792174103239972
   167   1     0.99595237178392892     0.58485915367401731      5.5635980805879512
   168   1      10.521289454468956      1.9418891237739473       1.536247608829953
   169   1      13.229440067228666       7.397190620630397      9.6756445725361573
   170   1      9.1982532658396394      8.7686038153601658      11.021313512030019
   171   1       10.46411623086442      7.3976992272420148      6.9438362084104028
   172   1      13.226057468232739      10.149928755205337      6.9805206161974525
   173   1      6.3929471093435382       3.282528089890377       2.898751062139695
   174   1      13.260554137532495      1.9732244014509632      9.6340984695879115
   175   1      5.0738439829424351      10.139357524961952      15.129605075740301
   176   1      9.1268857807793893     0.59796934082202569      13.726161345396008
   177   1      9.1185806485108287      8.7328991445197062     0.13912687466453022
   178   1      9.0970643986673849      3.2824088471919595     0.18685350614418716
   179   1      15.939881113207775      7.3961471253430204      12.383314320863064
   180   1      6.3894048711431992      8.7921982950903157       13.76215219871267
   181   1      2.3834074814137693      4.6653657085383315      12.438032604994874
   182   1      3.7114265547222658      3.3056876987999715    0.099674591369046439
   183   1      15.873401118667971      10.140973385201733      4.1956000940818399
   184   1      1.0192323184779468      11.455955581286503     0.20358562941851766
   185   1       15.94213066321629      7.3639262881159198      6.9552713398362016
   186   1      10.536471726854415      7.3929017771264967      12.402380498282696
   187   1      7.8430157081788821      10.147189580075974      6.9686085139779834
   188   1      9.1750072668118037      6.0091024296129376      8.3681819670250661
   189   1      13.219728357823669      7.3756578228206422      4.2601045534670448
   190   1      15.981815606659438      12.822019402553792      12.357321359427601
   191   1     0.95901195722395016     0.58092335373078896      11.046797380148973
   192   1      15.923045991010781      4.6564487882211552      4.2526477478243692
   193   1      14.608534925260983       14.20365778034909      11.056979246479159
   194   1      6.4333372881744708     0.58773278102965776     0.18229201664387951
   195   1     0.95528185093549212      6.0137811237349297      5.6201483219313673
   196   1      9.1284422630224071     0.53627456793734041        2.86449312158922
   197   1       5.137438790885426      10.141279035873595      4.2598027964343146
   198   1      7.7836766478071695      15.508481471938467      1.5437139052180129
   199   1      5.0614865457472433      12.835995620218114        1.56412740345354
   200   1      11.845918141503262      6.0099585435170866     0.14571705661930601
   201   1      5.0516497531851314       12.85705534087333      12.454084132316552
   202   1      10.508734415087815      4.6707593721459375      9.7586842143043668
   203   1      11.897819377723067      11.480749301869309     0.15473093767658597
   204   1      5.0848220984751151      15.592022419744922      15.056731725745749
   205   1      11.854313800881641     0.57144057813913207      5.6254178757916407
   206   1      11.874115876097221      3.2961784586298393      13.797953237121646
   207   1      3.7358713078978667      6.0612703801132852      2.8713006629066342
   208   1      15.986173562257932      12.797580003131998      1.5163799501302435
   209   1      14.528543029523348      5.9780730459602296       13.80761530262771
   210   1      15.982725744806544      4.6976975144806943      15.131967541283643
   211   1     0.97606725254623683     0.61568862329254159     0.17659290008827355
   212   1      10.494462280849461      4.6366627742669948      4.2043724630462407
   213   1      7.8487417912273827      10.131748380688236      1.5291678778019673
   214   1      2.3856378065790693      10.092949240147618      12.403388950817885
   215   1      6.4151111633975688      11.505777614209819      11.046538453146695
   216   1      2.3521274447419387      15.546136855984059      6.9536545061866377

Velocities

     1                       0                       0                       0
     2                       0                       0                       0
     3                       0                       0                       0
     4                       0                       0                       0
     5                       0                       0                       0
     6                       0                       0                       0
     7                       0                       0                       0
     8                       0                       0                       0
     9                       0                       0                       0
    10                       0                       0                       0
    11                       0                       0                       0
    12                       0                       0                       0
    13                       0                       0                       0
    14                       0                       0                       0
    15                       0                       0                       0
    16                       0                       0                       0
    17                       0                       0                       0
    18                       0                       0                       0
    19                       0                       0                       0
    20                       0                       0                       0
    21                       0                       0                       0
    22                       0                       0                       0
    23                       0                       0                       0
    24                       0                       0                       0
    25                       0                       0                       0
    26                       0                       0                       0
    27                       0                       0                       0
    28                       0                       0                       0
    29                       0                       0                       0
    30                       0                       0                       0
    31                       0                       0                       0
    32                       0                       0                       0
    33                       0                       0                       0
    34                       0                       0                       0
    35                       0                       0                       0
    36                       0                       0                       0
    37                       0                       0                       0
    38                       0                       0                       0
    39                       0                       0                       0
    40                       0                       0                       0
    41                       0                       0                       0
    42                       0                       0                       0
    43                       0                       0                       0
    44                       0                       0                       0
    45                       0                       0                       0
    46                       0                       0                       0
    47                       0                       0                       0
    48                       0                       0                       0
    49                       0                       0                       0
    50                       0                       0                       0
    51                       0                       0                       0
    52                       0                       0                       0
    53                       0                       0                       0
    54                       0                       0                       0
    55                       0                       0                       0
    56                       0                       0                       0
    57                       0                       0                       0
    58                       0                       0                       0
    59                       0                       0                       0
    60                       0                       0                       0
    61                       0                       0                       0
    62                       0                       0                       0
    63                       0                       0                       0
    64                       0                       0                       0
    65                       0                       0                       0
    66                       0                       0                       0
    67                       0                       0                       0
    68                       0                       0                       0
    69                       0                       0                       0
    70                       0                       0                       0
    71                       0                       0                       0
    72                       0                       0                       0
    73                       0                       0                       0
    74                       0                       0                       0
    75                       0                       0                       0
    76                       0                       0                       0
    77                       0                       0                       0
    78                       0                       0                       0
    79                       0                       0                       0
    80                       0                       0                       0
    81                       0                       0                       0
    82                       0                       0                       0
    83                       0                       0                       0
    84                       0                       0                       0
    85                       0                       0                       0
    86                       0                       0                       0
    87                       0                       0                       0
    88                       0                       0                       0
    89                       0                       0                       0
    90                       0                       0                       0
    91                       0                       0                       0
    92                       0                       0                       0
    93                       0                       0                       0
    94                       0                       0                       0
    95                       0                       0                       0
    96                       0                       0                       0
    97                       0                       0                       0
    98                       0                       0                       0
    99                       0                       0                       0
   100                       0                       0                       0
   101                       0                       0                       0
   102                       0                       0                       0
   103                       0                       0                       0
   104                       0                       0                       0
   105                       0                       0                       0
   106                       0                       0                       0
   107                       0                       0                       0
   108                       0                       0                       0
   109                       0                       0                       0
   110                       0                       0                       0
   111                       0                       0                       0
   112                       0                       0                       0
   113                       0                       0                       0
   114                       0                       0                       0
   115                       0                       0                       0
   116                       0                       0                       0
   117                       0                       0                       0
   118                       0                       0                       0
   119                       0                       0                       0
   120                       0                       0                       0
   121                       0                       0                       0
   122                       0                       0                       0
   123                       0                       0                       0
   124                       0                       0                       0
   125                       0                       0                       0
   126                       0                       0                       0
   127                       0                       0                       0
   128                       0                       0                       0
   129                       0                       0                       0
   130                       0                       0                       0
   131                       0                       0                       0
   132                       0                       0                       0
   133                       0                       0                       0
   134                       0                       0                       0
   135                       0                       0                       0
   136                       0                       0                       0
   137                       0                       0                       0
   138                       0                       0                       0
   139                       0                       0                       0
   140                       0                       0                       0
   141                       0                       0                       0
   142                       0                       0                       0
   143                       0                       0                       0
   144                       0                       0                       0
   145                       0                       0                       0
   146                       0                       0                       0
   147                       0                       0                       0
   148                       0                       0                       0
   149                       0                       0                       0
   150                       0                       0                       0
   151                       0                       0                       0
   152                       0                       0                       0
   153                       0                       0                       0
   154                       0                       0                       0
   155                       0                       0                       0
   156                       0                       0                       0
   157                       0                       0                       0
   158                       0                       0                       0
   159                       0                       0                       0
   160                       0                       0                       0
   161                       0                       0                       0
   162                       0                       0                       0
   163                       0                       0                       0
   164                       0                       0                       0
   165                       0                       0                       0
   166                       0                       0                       0
   167                       0                       0                       0
   168                       0                       0                       0
   169                       0                       0                       0
   170                       0                       0                       0
   171                       0                       0                       0
   172                       0                       0                       0
   173                       0                       0                       0
   174                       0                       0                       0
   175                       0                       0                       0
   176                       0                       0                       0
   177                       0                       0                       0
   178                       0                       0                       0
   179                       0                       0                       0
   180                       0                       0                       0
   181                       0                       0                       0
   182                       0                       0                       0
   183                       0                       0                       0
   184                       0                       0                       0
   185                       0                       0                       0
   186                       0                       0                       0
   187                       0                       0                       0
   188                       0                       0                       0
   189                       0                       0                       0
   190                       0                       0                       0
   191                       0                       0                       0
   192                       0                       0                       0
   193                       0                       0                       0
   194                       0                       0                       0
   195                       0                       0                       0
   196                       0                       0                       0
   197                       0                       0                       0
   198                       0                       0                       0
   199                       0                       0                       0
   200                       0                       0                       0
   201                       0                       0                       0
   202                       0                       0                       0
   203                       0                       0                       0
   204                       0                       0                       0
   205                       0                       0                       0
   206                       0                       0                       0
   207                       0                       0                       0
   208                       0                       0                       0
   209                       0                       0                       0
   210                       0                       0                       0
   211                       0                       0                       0
   212                       0                       0                       0
   213                       0                       0                       0
   214                       0                       0                       0
   215                       0                       0                       0
   216                       0                       0                       0
