(written by ASE)

216 atoms
1 atom types

0.0      16.331106185913086  xlo xhi
0.0      16.331106185913086  ylo yhi
0.0      16.331106185913086  zlo zhi

Atoms # atomic

     1   1      14.840865452038202      14.526870711516153      5.3923387968912948
     2   1       2.569137231592066      13.128639590559828      4.0439939539039642
     3   1      2.5991408846859372      4.9179718743905596       6.792766903727852
     4   1      12.088394518448695      6.3280401450130626      16.317278899945563
     5   1      6.6564656855680937      11.749971086012465      16.295673096402084
     6   1       5.387249810545768      2.1840407468805267      6.8087648935114657
     7   1      8.0294976607669923      7.6757805005251498      9.5158710375740156
     8   1      2.6101866521985357      7.7030544692350418      14.975988357655638
     9   1      14.829102768220423      11.824601440665333      8.1299452763894919
    10   1      2.6061479750088665      10.368856402680422      1.3693685474805761
    11   1      1.2413576170901877      0.9013370625524999      16.310804751478827
    12   1      5.3793179809289882       10.36215350291468      9.4998302177599498
    13   1      9.4297729422676184      6.3389608293685455      13.606949796091499
    14   1       10.71282048360149      15.853617538238268      4.0140693903549618
    15   1      1.2318777008897683      9.0494734209667058      2.6650940211806926
    16   1      9.4133125828370794      6.3015853006355655      8.1276689576119452
    17   1       3.902694519860944      3.5698956925033372      16.280685505973224
    18   1      13.514614090895634      2.2838892287815895      14.944339885380941
    19   1      10.710681902308238      13.068318359717068      1.3348594672060869
    20   1      14.853728088910771       6.301504020918685      13.602632723703891
    21   1      8.0480781067049065      7.6913657645607714      14.955239154721198
    22   1      1.2351411788635005      6.3408477842328921      16.321743930620187
    23   1      12.118885606491403      11.681512149383821      16.243660891467016
    24   1      6.6765062461805087     0.86170900274354523      10.876409784912994
    25   1      5.2710884407962908      7.6516735205442501      6.7954063043544579
    26   1      10.741405635289084      15.869681719887126      9.5251252443810017
    27   1      8.0200366043811187      13.157061209403878      9.4911804984282071
    28   1      9.4375611939414057      3.5757093824323078      10.892992793976191
    29   1      1.1594333812570738      14.462680176785966      2.6979200759403739
    30   1      3.9715841903185662      3.5827454316962815      5.4945833269732134
    31   1         16.225475649901      4.9601599410906942       4.036299149569345
    32   1      1.2943971343749894      3.6366747671989685      2.7241417886748422
    33   1      16.230446853662784      15.868974050974884      14.937382925661836
    34   1      12.098691247133274      14.486063426593205      2.7393775985983666
    35   1      5.3075684325289103      15.846273161425529      9.5079143860077693
    36   1      5.3244780205743041      7.6012596544728694      12.214666208909307
    37   1      14.919859602748261      6.3684751006940132       8.127338971695508
    38   1      8.0583548804889347      15.888720641832833      6.8004325057689812
    39   1      2.6469277611054451      2.1882814066001686      9.5290120696445229
    40   1      3.9423140014961859      8.9892028074326618      10.839565251216641
    41   1      12.113237882930434      9.0921574399512792      2.7019857652515213
    42   1      3.9483121525790352      11.755862162019184      13.571418392192413
    43   1       5.303388610920706      4.9632402963489994      9.4549355851581822
    44   1      1.2683428481231971     0.88759123881619217      10.905152628985434
    45   1      5.3437831700956622      13.103408808984454      6.7780095247126724
    46   1      12.157821024401642      3.5926459825991799      8.1666218968982776
    47   1      13.509917388692656      15.886525602772167      12.223930149814123
    48   1      12.109216727116859      3.6151246913655655      13.588683761513494
    49   1      10.745023799452497      2.2403727010801049      12.238111756942658
    50   1      13.463059388558577      15.866106385754165      1.4188760473677604
    51   1      6.7149272170204313     0.89408777570793774       5.433643980918248
    52   1      5.3018817725766212      10.424090593997221      4.0267074129201035
    53   1      9.3978412077460689      9.0404937157185259      5.4627104837435354
    54   1      2.5439295684990384      2.2412964669641724      14.913622966268576
    55   1      9.4216225821545549      9.1036417285711195      16.327588282957322
    56   1      6.6483815173202743      9.0030758436599854      13.569045219141458
    57   1      1.2545877161558394      9.0564741841260457       13.57704275391859
    58   1      12.052153498817802      3.6606980339385302      2.7243345238118764
    59   1      3.9663097694093779     0.86183031393775167      8.1411998403005441
    60   1      9.4015557394779989      9.0321807961717013      10.869860683892966
    61   1      13.538720584171642      4.9619617225990282      12.226852325982691
    62   1      12.190781653063823     0.91579511805940683      16.291028958327388
    63   1      16.242778008793834      4.9357088607515038      9.4920370990372476
    64   1      14.848642022794593      11.780029006701739      13.591035519549223
    65   1      3.9449400177382756      14.477396185885368  0.00081431146742294569
    66   1      4.0151338139526729      9.0342658399268885       5.399062624967371
    67   1      13.513619266097407      7.6894724825328353       14.95487315264279
    68   1      6.6872999005593101      14.448665996140107      13.551093595923362
    69   1      2.6211613607969753      4.9668127102526114       12.24488279539321
    70   1      16.180385361932849      10.384918637509713      4.0143441352662137
    71   1      8.0833374425696434      4.9270046304719131      12.268319582738513
    72   1      10.771173479863023      13.137558944401462      6.8103544716871056
    73   1      6.7131585314447193      3.5879458734619618      8.1566006431822871
    74   1      16.152133116391042      10.379358520829214      9.5155215834619185
    75   1      6.6583351190563462      8.9766166189384649      8.0847863630316397
    76   1      12.210683016077269       6.348812709782294      10.899031828269926
    77   1      6.6644758746724051      14.515625881702931      2.7127049537819232
    78   1      13.511006634239834      13.131721405932808      4.0709608118273195
    79   1      8.0481043887690475      13.091124377522988      14.909340936633157
    80   1      2.5608233386354584      7.6810412936973762      9.4731568428861692
    81   1      5.3073825112603572      15.841631943580182      14.917775532402857
    82   1      2.5639182950405086      15.863299071939991      1.3555473453241973
    83   1      9.3738184277113987      14.499232687547419      5.4199038151263039
    84   1      2.6035764697146249      10.359955543624665      12.206499300829933
    85   1      16.172971873025517      13.172684436421036      6.7689300449617349
    86   1      16.216433646426708      7.6661865737038966      1.3499007168492341
    87   1      3.9965419304498084      14.459416333783565        10.8929178414229
    88   1      10.752945408266555      7.6626754846166136      1.3127025920492059
    89   1       14.85373100914012      9.0113147840633019      10.869837322058174
    90   1      6.6370821765592041       8.989698273012209      2.7299077815244459
    91   1      9.4396676527118188      3.6526615627700778      16.270195068741828
    92   1      14.832697570549044        11.7588388491356      2.6798458030896199
    93   1      9.4070233822291129     0.85796551207057092      13.627524758674781
    94   1      13.540051235345004      7.6760885847214695      9.5111860162884341
    95   1      14.863118573087377     0.89594990862281776      13.597873723274802
    96   1      10.788376550957992      13.156268853840515      12.224623217579619
    97   1      5.2520855350125544      7.6340144069659459      1.3748726930985526
    98   1      9.4510555737631421      0.9461791310259855      2.6563440406413008
    99   1       12.12448368615344      14.517955251313651      13.521690780018048
   100   1      8.0399257997722771      4.9709462948961232      1.3575056024551486
   101   1      3.9547142687218297      14.506622814619959      5.4035193816588389
   102   1      16.282974965782842      2.2495546322107032      6.7576569862648057
   103   1      13.448650976950603      13.127420881511512      14.957994877816873
   104   1      6.6598385504661906     0.88033824084683232      16.288724897371026
   105   1      13.503583411234672      5.0029296201361717      6.8067888716519747
   106   1      9.4595359197926427      14.439540279424477      16.305665147824584
   107   1      9.3942405649587499      11.779607520265699      13.560370191155357
   108   1      3.9645912144374904      9.0417299461429366    0.036253556084230976
   109   1      6.6673109306653942      6.3709577823455561      5.4053124024791259
   110   1      10.787860643773001      4.9835339435049946      9.5516457939188513
   111   1      10.771645583607778      10.426388814494885      9.5032760883917717
   112   1      3.9460798805941693       11.70012666466414      8.1420155576986986
   113   1      9.4481110091695655      3.6149706492674056      5.4638965835641216
   114   1      16.223962971098217      7.6814919824269055      6.7192029194922611
   115   1      14.869496353985596      3.5848253650501078      5.4176085148579887
   116   1      8.0343165258977365      2.2354114747685969      14.944327231053762
   117   1      9.3685483871462338      11.727147546830452      8.1402468721229866
   118   1      16.265256960912666      2.2466402433203996      12.213711293912183
   119   1      16.190569175082601      4.9675057780181078      14.956364416430347
   120   1      16.243924685518209      15.883412638286131      9.5083864897525245
   121   1      10.743249273418087      2.2244725389796827      6.7877110133149472
   122   1      6.6809148190877181      6.3946539833980296       16.32150155158422
   123   1       2.583785102006658      13.038258492208229       9.463608666324717
   124   1      12.105529450858853       0.894110894190284      5.3843982065864679
   125   1      12.135346939331725      9.0714053167874908      8.1668097649863967
   126   1      8.0282142199681061      15.852324850046443      1.3506366146451825
   127   1      14.811140437494714      14.533003193149057      16.299848050961373
   128   1      3.9094047202000581      6.3104301886287999      8.1051729708219113
   129   1      13.483542850622257       15.86713333307523      6.8040122202459656
   130   1      9.4011089443876017      11.747858786783354      2.7079252683949449
   131   1      12.145976574162091     0.87501886057329159      10.884263255042242
   132   1      16.216093926412441      15.882058625277978      4.0333509346890821
   133   1      10.706995599460015      5.0304936649613978      4.0896911628718158
   134   1      12.119409300954658      9.0602821631971437      13.534568018037362
   135   1      13.451497227156096      4.9564128001310337      1.3409576361441395
   136   1      5.3550085317132243      13.144483781597728      1.4026726681199335
   137   1      8.0056977915726293      2.3140420569247055      9.5878838933203951
   138   1      14.848042402368264     0.94608288513369132      2.7071455671587614
   139   1      1.2287167959719199     0.89315269393514285       5.413735804036321
   140   1      1.2631348624316985      14.520499744486415      13.601126858769589
   141   1      6.7196969249571339      11.805865249162139      10.835955847741275
   142   1      1.2131517301892956      14.502090618670309      8.1968345897430481
   143   1      8.0150001821638739      15.871378373138896      12.251839755112314
   144   1      1.2283297439069543      11.749418189255721      16.291903080312522
   145   1      7.9546774912064393        10.4019718034981      12.245833816751201
   146   1      14.818797278847796      3.6191146980660847      16.312469282207758
   147   1       12.14443858670495      14.516815388457758      8.1668107383961797
   148   1      8.1194582460923357      2.2162761852543724       4.084662527932835
   149   1      10.726114341007928       7.742680521386319      6.8225108997621078
   150   1      13.438896437515155      7.7022368050173213      4.1004171652706987
   151   1      12.132577588499089      6.3524474219120179       5.470104017750316
   152   1      10.767139669722269      4.9859489731766189      14.983430075446677
   153   1       7.991542953213127       10.37928259486614      1.3742505625709924
   154   1      16.211081839439771      13.110349220737248      1.3144008270918732
   155   1      2.6145141887413104      10.368048472560531      6.6956731715126807
   156   1      13.475076132329718      2.2602166329163538      9.5207789696999043
   157   1      6.6882465415732781      11.682835013278918      5.4166472726972756
   158   1      16.250018230759792      2.2707340822692288      1.3159664350516067
   159   1      2.6214149340454469      13.135830168626853      14.938718443884113
   160   1      8.0192325679003602      13.088927391642756      4.0581436818621057
   161   1      1.2138138921941817      11.747808169474638      10.860985133491567
   162   1      8.0540903722296093      7.7373413687265611      4.0514276410642935
   163   1      3.9755508351842934      3.6209904587179267      10.895825416444723
   164   1      12.172566235794534      11.767255923529206      10.836420164207766
   165   1      5.2892381529052273      10.388973862665694      14.980277201159538
   166   1      10.774806245173181      7.7077428974548639      12.231051615786555
   167   1      10.752926913480678      10.372136793649133      14.956713870542444
   168   1       13.48708314200303      10.430067330064844      12.246787758338542
   169   1      6.6301480919699998      14.485113378644996      8.1493107773173961
   170   1      2.6191904493388449      4.9089293842113761      1.3744886829391589
   171   1      14.906966790172419      3.5950172088305692      10.860184017240158
   172   1      14.778605188907704      6.3564340216782966      2.6929676103169129
   173   1      2.5792877054567498      7.7270631348278584       4.043096226731592
   174   1       10.78042476644066       15.85561010806407      14.924603028620822
   175   1      6.7080257416589575      3.5865152044333968      2.7220822969264589
   176   1      6.6548795143266943      3.5967980620285687      13.634018375337178
   177   1      1.1511680371133934      11.758851503462779      5.3960367806569138
   178   1      1.1782085091515881      9.0928524545363416      8.1225098857620424
   179   1      2.6245186511385441      2.2198670939438614      4.0980595667762714
   180   1      12.125663458810436      11.788563863679087      5.3810146341807581
   181   1      3.9381256625523804     0.87536308260780515      13.567360246807084
   182   1       16.17923381815956      10.350126051635925      14.949864959309252
   183   1      8.0162709686355811      10.369770434466659        6.81007364296471
   184   1      2.5988617594306618      15.822057646253825      12.236606865418139
   185   1      14.871887048412646     0.92957908729158589      8.1332417286196232
   186   1      13.514435956905345      10.432913580270338      6.7662633888612049
   187   1      13.458478522119776      2.2854963283333234      4.0150391498512761
   188   1      10.737724199489776      10.409733773107746      4.0775337613870306
   189   1      14.832726772842534      9.0719932562964232    0.027162216703945141
   190   1      5.3158185671447313      2.2597194638696863       1.344753569269173
   191   1      5.3464177036733531      15.896797022802389      4.0539353880177487
   192   1      1.2856393665573336      3.5677743892337332      8.1952712936315493
   193   1      2.5688408283131423      15.803701084566001      6.7772711933922665
   194   1      5.3262248044298985      4.9281221049027977      4.1117719903893999
   195   1      16.235903788906285      7.7305489152607834      12.214766470116956
   196   1      9.3758976310078879       6.351684755347037      2.6992641114982519
   197   1       6.680690934837628      6.2923135724524855      10.816186868458317
   198   1      3.9506252175758902      0.9028791870012185      2.6501524243640802
   199   1      9.3580141464746021     0.85862043434019597       8.165593976167429
   200   1      9.3628286312613227      14.544555620453707      10.878005203547332
   201   1      5.3381661089428576      2.2202535376277126      12.256246381199958
   202   1      1.1883111642606821      6.2783835917528563      10.920735946201489
   203   1      16.183924679903839      13.120361713765192      12.222729935551683
   204   1      5.2842611086847455      5.0231901713595448      14.963194832877662
   205   1      8.0066585470284508      4.9768748471794879      6.7512310215823277
   206   1      3.9303335172394611      6.3483912233462547      13.577789359222152
   207   1      3.9882022421339514      11.781171789786981      2.7305422013505165
   208   1      1.2641294438774793       3.601423948669833      13.592337941838878
   209   1      14.828620930377838      14.524385596340153      10.841827455552334
   210   1      3.9631384003363621        6.28691358168129      2.7614890885241152
   211   1      1.2477743343797272      6.3082132478480162       5.412766774597344
   212   1      5.2944103657872006      13.073283723020154      12.222803914695191
   213   1      14.900781744411233      9.0465600054861852       5.374417349376472
   214   1      13.433560205084746      10.435900974894366      1.3760145027740123
   215   1      13.470006614179852      13.172444004204635      9.4955744701886715
   216   1      10.745432631561357      2.2970061689599675      1.3093592944732677

Velocities

     1                       0                       0                       0
     2                       0                       0                       0
     3                       0                       0                       0
     4                       0                       0                       0
     5                       0                       0                       0
     6                       0                       0                       0
     7                       0                       0                       0
     8                       0                       0                       0
     9                       0                       0                       0
    10                       0                       0                       0
    11                       0                       0                       0
    12                       0                       0                       0
    13                       0                       0                       0
    14                       0                       0                       0
    15                       0                       0                       0
    16                       0                       0                       0
    17                       0                       0                       0
    18                       0                       0                       0
    19                       0                       0                       0
    20                       0                       0                       0
    21                       0                       0                       0
    22                       0                       0                       0
    23                       0                       0                       0
    24                       0                       0                       0
    25                       0                       0                       0
    26                       0                       0                       0
    27                       0                       0                       0
    28                       0                       0                       0
    29                       0                       0                       0
    30                       0                       0                       0
    31                       0                       0                       0
    32                       0                       0                       0
    33                       0                       0                       0
    34                       0                       0                       0
    35                       0                       0                       0
    36                       0                       0                       0
    37                       0                       0                       0
    38                       0                       0                       0
    39                       0                       0                       0
    40                       0                       0                       0
    41                       0                       0                       0
    42                       0                       0                       0
    43                       0                       0                       0
    44                       0                       0                       0
    45                       0                       0                       0
    46                       0                       0                       0
    47                       0                       0                       0
    48                       0                       0                       0
    49                       0                       0                       0
    50                       0                       0                       0
    51                       0                       0                       0
    52                       0                       0                       0
    53                       0                       0                       0
    54                       0                       0                       0
    55                       0                       0                       0
    56                       0                       0                       0
    57                       0                       0                       0
    58                       0                       0                       0
    59                       0                       0                       0
    60                       0                       0                       0
    61                       0                       0                       0
    62                       0                       0                       0
    63                       0                       0                       0
    64                       0                       0                       0
    65                       0                       0                       0
    66                       0                       0                       0
    67                       0                       0                       0
    68                       0                       0                       0
    69                       0                       0                       0
    70                       0                       0                       0
    71                       0                       0                       0
    72                       0                       0                       0
    73                       0                       0                       0
    74                       0                       0                       0
    75                       0                       0                       0
    76                       0                       0                       0
    77                       0                       0                       0
    78                       0                       0                       0
    79                       0                       0                       0
    80                       0                       0                       0
    81                       0                       0                       0
    82                       0                       0                       0
    83                       0                       0                       0
    84                       0                       0                       0
    85                       0                       0                       0
    86                       0                       0                       0
    87                       0                       0                       0
    88                       0                       0                       0
    89                       0                       0                       0
    90                       0                       0                       0
    91                       0                       0                       0
    92                       0                       0                       0
    93                       0                       0                       0
    94                       0                       0                       0
    95                       0                       0                       0
    96                       0                       0                       0
    97                       0                       0                       0
    98                       0                       0                       0
    99                       0                       0                       0
   100                       0                       0                       0
   101                       0                       0                       0
   102                       0                       0                       0
   103                       0                       0                       0
   104                       0                       0                       0
   105                       0                       0                       0
   106                       0                       0                       0
   107                       0                       0                       0
   108                       0                       0                       0
   109                       0                       0                       0
   110                       0                       0                       0
   111                       0                       0                       0
   112                       0                       0                       0
   113                       0                       0                       0
   114                       0                       0                       0
   115                       0                       0                       0
   116                       0                       0                       0
   117                       0                       0                       0
   118                       0                       0                       0
   119                       0                       0                       0
   120                       0                       0                       0
   121                       0                       0                       0
   122                       0                       0                       0
   123                       0                       0                       0
   124                       0                       0                       0
   125                       0                       0                       0
   126                       0                       0                       0
   127                       0                       0                       0
   128                       0                       0                       0
   129                       0                       0                       0
   130                       0                       0                       0
   131                       0                       0                       0
   132                       0                       0                       0
   133                       0                       0                       0
   134                       0                       0                       0
   135                       0                       0                       0
   136                       0                       0                       0
   137                       0                       0                       0
   138                       0                       0                       0
   139                       0                       0                       0
   140                       0                       0                       0
   141                       0                       0                       0
   142                       0                       0                       0
   143                       0                       0                       0
   144                       0                       0                       0
   145                       0                       0                       0
   146                       0                       0                       0
   147                       0                       0                       0
   148                       0                       0                       0
   149                       0                       0                       0
   150                       0                       0                       0
   151                       0                       0                       0
   152                       0                       0                       0
   153                       0                       0                       0
   154                       0                       0                       0
   155                       0                       0                       0
   156                       0                       0                       0
   157                       0                       0                       0
   158                       0                       0                       0
   159                       0                       0                       0
   160                       0                       0                       0
   161                       0                       0                       0
   162                       0                       0                       0
   163                       0                       0                       0
   164                       0                       0                       0
   165                       0                       0                       0
   166                       0                       0                       0
   167                       0                       0                       0
   168                       0                       0                       0
   169                       0                       0                       0
   170                       0                       0                       0
   171                       0                       0                       0
   172                       0                       0                       0
   173                       0                       0                       0
   174                       0                       0                       0
   175                       0                       0                       0
   176                       0                       0                       0
   177                       0                       0                       0
   178                       0                       0                       0
   179                       0                       0                       0
   180                       0                       0                       0
   181                       0                       0                       0
   182                       0                       0                       0
   183                       0                       0                       0
   184                       0                       0                       0
   185                       0                       0                       0
   186                       0                       0                       0
   187                       0                       0                       0
   188                       0                       0                       0
   189                       0                       0                       0
   190                       0                       0                       0
   191                       0                       0                       0
   192                       0                       0                       0
   193                       0                       0                       0
   194                       0                       0                       0
   195                       0                       0                       0
   196                       0                       0                       0
   197                       0                       0                       0
   198                       0                       0                       0
   199                       0                       0                       0
   200                       0                       0                       0
   201                       0                       0                       0
   202                       0                       0                       0
   203                       0                       0                       0
   204                       0                       0                       0
   205                       0                       0                       0
   206                       0                       0                       0
   207                       0                       0                       0
   208                       0                       0                       0
   209                       0                       0                       0
   210                       0                       0                       0
   211                       0                       0                       0
   212                       0                       0                       0
   213                       0                       0                       0
   214                       0                       0                       0
   215                       0                       0                       0
   216                       0                       0                       0
