(written by ASE)

64 atoms
1 atom types

0.0      10.887404441833496  xlo xhi
0.0      10.887404441833496  ylo yhi
0.0      10.887404441833496  zlo zhi

Atoms # atomic

     1   1       5.443702220916748       5.443702220916748       5.443702220916748
     2   1      6.8046277761459351      6.8046277761459351      6.8046277761459351
     3   1       4.082776665687561      6.8046277761459351       4.082776665687561
     4   1       4.082776665687561       4.082776665687561      6.8046277761459351
     5   1      6.8046277761459351       4.082776665687561       4.082776665687561
     6   1      10.432768197889743      9.7281285163189182      3.1953526854873644
     7   1      2.4058642775892025      10.752251032096638      6.3009842418363178
     8   1      6.7459162389000653       4.797456096053395      8.7088594218609501
     9   1      2.9247674708075806      6.4250745245964254      9.4645966291326999
    10   1      3.5841160162026142      9.0386805172050231      2.1562800551209165
    11   1      9.0136619382318486      8.1910417428172764      4.2102547390613552
    12   1       5.776252757372049      6.8125409489729236      1.3212869287108404
    13   1       1.891011604831121       1.627358041418475      10.525950772317572
    14   1      6.5272241502070756      2.1490768225163919      8.8649833236352151
    15   1      9.2174316545157353      8.0774454667641749      9.4915445063521133
    16   1      9.1841728370189344     0.35523406752584208      7.5642216330905399
    17   1      4.8384918090035853      9.3922372373908161      8.7686378162601386
    18   1      5.0821151942566587      5.4666007133206449      10.445848878935635
    19   1     0.23282060484213574      5.7222836727274284     0.90004667192981458
    20   1      8.5536706424455247      3.3622655371414965      4.7038315935711807
    21   1      4.6283063486526146      9.7630505667135026      3.7331940532918679
    22   1      6.1021587984545818     0.64393585835216882      3.1201188145723506
    23   1      10.102884804317739      3.6667659720009169      5.7676374316010879
    24   1      1.2506635322501438      7.3213396616438331     0.43631350771089927
    25   1      4.6735134471146864      1.9164784390224554      7.4383396273375411
    26   1      6.5204784202139194      10.028919286387008      10.529639346562988
    27   1      2.0282378907614032      1.2528050338352728       5.013059879884679
    28   1     0.30361779551291335      4.2140747236313132      7.3380252036913589
    29   1       3.059457213004265      6.1228736081815214      4.3137655160583108
    30   1      5.3953961100850449      2.7351261489966134      2.5166211172223854
    31   1      1.0745202409417161      7.0322908096609922      5.2907101029757655
    32   1      7.8654640653111301      3.2788988272520498      9.9384557700324194
    33   1     0.15950682533889449      8.4608352508504368      5.1894803496369093
    34   1      3.2422382669342653      2.7707717673510217      1.3728376577964667
    35   1      2.0236685428716186      2.9996158714372712      3.1284683994647935
    36   1      9.5145903081074721      5.1267775076942712      2.0445421806327886
    37   1       10.56528561385727      5.8501209343216374      6.5436429779662717
    38   1      6.3090174685400484      10.281900060157284      4.7637624888408254
    39   1      3.4020981155647689      1.3695721923490822      5.8551936973188958
    40   1      4.7667615644698174      4.1557869441233493     0.92826509230558685
    41   1      5.0595856241712909     0.19400783543129663      9.5637896846761237
    42   1     0.27863241387018256     0.59193983483655899       9.009884459223656
    43   1      9.8661236337652554      9.8205719482299401       8.669518739862383
    44   1      1.2068153138848174       9.143950894671093      1.2476827080551161
    45   1      3.1151388499771144       10.77521701424746     0.20810972476622602
    46   1      8.0447531737776217       4.961116136587691      3.6785883586305772
    47   1      8.9156454106804972      2.0026080104266555     0.51782368173751081
    48   1      2.3499712484523059      4.3865217345333178      8.4974620662947586
    49   1     0.45441037230876091      1.2581643849045108      3.3362475907619284
    50   1      9.8925679336422263     0.72101535482838131      2.0089629163805256
    51   1      1.9349539194782182      8.8278795373832963      6.5785046769525479
    52   1      6.9362782084414221      8.7319435110688914      6.0374523546500996
    53   1      5.3516195995758267       8.236605758210203      7.4644438827203885
    54   1      3.5470492195235295      8.1667214231488288      8.1206992562046594
    55   1      7.4640331037799683      8.2618715832754788     0.22442222778289533
    56   1      8.7759572091021596      6.4081216193206956      8.1893175095713104
    57   1        7.70703253334392     0.11801894325192741      6.4467257545619532
    58   1     0.70694285030213422       3.137995161289183       9.582897070334468
    59   1      9.9512995880241988       3.849281285052399      0.1603199470013692
    60   1      8.7531268553850623      2.1513330242243001      5.9920239676908977
    61   1      7.7779272677895506     0.44866684883394825       1.305138222174314
    62   1    0.070074322349255702      8.6313318729602884      10.055985270663541
    63   1      8.3186492796959897      6.9527872388431433      2.4123900169649772
    64   1      1.3986044644446878      5.3103531885003292      2.7935086737262225

Velocities

     1                       0                       0                       0
     2                       0                       0                       0
     3                       0                       0                       0
     4                       0                       0                       0
     5                       0                       0                       0
     6                       0                       0                       0
     7                       0                       0                       0
     8                       0                       0                       0
     9                       0                       0                       0
    10                       0                       0                       0
    11                       0                       0                       0
    12                       0                       0                       0
    13                       0                       0                       0
    14                       0                       0                       0
    15                       0                       0                       0
    16                       0                       0                       0
    17                       0                       0                       0
    18                       0                       0                       0
    19                       0                       0                       0
    20                       0                       0                       0
    21                       0                       0                       0
    22                       0                       0                       0
    23                       0                       0                       0
    24                       0                       0                       0
    25                       0                       0                       0
    26                       0                       0                       0
    27                       0                       0                       0
    28                       0                       0                       0
    29                       0                       0                       0
    30                       0                       0                       0
    31                       0                       0                       0
    32                       0                       0                       0
    33                       0                       0                       0
    34                       0                       0                       0
    35                       0                       0                       0
    36                       0                       0                       0
    37                       0                       0                       0
    38                       0                       0                       0
    39                       0                       0                       0
    40                       0                       0                       0
    41                       0                       0                       0
    42                       0                       0                       0
    43                       0                       0                       0
    44                       0                       0                       0
    45                       0                       0                       0
    46                       0                       0                       0
    47                       0                       0                       0
    48                       0                       0                       0
    49                       0                       0                       0
    50                       0                       0                       0
    51                       0                       0                       0
    52                       0                       0                       0
    53                       0                       0                       0
    54                       0                       0                       0
    55                       0                       0                       0
    56                       0                       0                       0
    57                       0                       0                       0
    58                       0                       0                       0
    59                       0                       0                       0
    60                       0                       0                       0
    61                       0                       0                       0
    62                       0                       0                       0
    63                       0                       0                       0
    64                       0                       0                       0
