(written by ASE)

64 atoms
2 atom types

0.0      11.085848808288574  xlo xhi
0.0      11.085848808288574  ylo yhi
0.0      11.085848808288574  zlo zhi

Atoms # atomic

     1   1      5.5429244041442871      5.5429244041442871      5.5429244041442871
     2   2      6.9286555051803589      6.9286555051803589      4.1571933031082153
     3   2      4.1571933031082153      6.9286555051803589      6.9286555051803589
     4   2      4.1571933031082153      4.1571933031082153      4.1571933031082153
     5   2      6.9286555051803589      4.1571933031082153      6.9286555051803589
     6   1      3.6286075823183239      10.346259025279778       8.744907405832123
     7   1     0.20325952993431429      3.0399478011283065      4.2217827221847415
     8   1      6.1344783495258071      10.883265244100357      4.8825656697182751
     9   2      3.0226792881190079       6.979539933504384      5.5550283538383383
    10   1     0.41516479721867228      8.2975277694168881      8.2778276298722631
    11   2      7.4256713790160234      8.4147658675917114      9.5700078468743754
    12   1      8.7001238491930621      4.1603084942225621      1.5318303926121501
    13   1     0.16946983261448167      10.571678734321495      4.6331993950641959
    14   1      6.5181995890895905      1.1046619172556049      8.6517642157036789
    15   1      1.0713384744123999      4.3541458017165269      10.621860105408132
    16   2       4.549015559335885      5.3878622891356542      9.5139139230056458
    17   1     0.06511141037317314      1.3603087099164668      8.5241672563347493
    18   1      11.007412994090373      7.2836148317469451      1.8530439629362405
    19   1      8.3572261831633909      10.417129044959097      2.4370418601280619
    20   1      8.8688780699766312      1.9816210065602036       5.958647302602742
    21   1     0.92399801259357872      1.5764124149867342      1.9730551395518603
    22   2       5.710460168587872      10.681393327134572      6.5500479497896436
    23   1      3.1386245935448187      5.8966454513284816      8.2877589741184465
    24   1       5.920312842426938      4.7816240947067001      5.0744028322333179
    25   2       1.094325109196177       10.73409751075161      8.4510539290229758
    26   2      10.339499367818803      7.9676875414210713      6.4595564219672497
    27   2      1.1622481858335831      2.4059710582664451      10.610545773569982
    28   1      9.0416702444986186       6.939391664948289      10.628546417612199
    29   1      5.3271862690144189      5.4204900257863642      0.4836700105347802
    30   2      10.509095407136613      2.8086168608406581      2.3385484308538196
    31   1      2.6460839367246791       8.039174057719265    0.096244102457556657
    32   2      8.2551513908941843       4.753211397639916      1.1457308835355207
    33   1       8.987361715982729      4.0457451852365978      7.8269776394995461
    34   1       9.150327608383293      7.5658850441092795      5.2602220494574681
    35   1       10.84702211489855      10.251106439419289      10.566084010986003
    36   2      8.8993150300572665     0.29837106557781823     0.42639653304679115
    37   2      6.5526797890532862      1.9505328595364801      4.5221672306990968
    38   2      9.9335558369480736      8.8565620137288192      3.5716454091921435
    39   1      8.6286835866604861       9.379599595332877      7.4033387394396755
    40   1     0.26749872127930452      5.4421509946091362      6.9030956743000615
    41   2      6.1880659800661419      9.6589776258079496      2.9606232538621668
    42   1      2.5095801540179963      7.5343637636089511      4.6722392251656686
    43   2      4.5707178261636727      7.4505367426439761      1.1375692414002714
    44   2      4.4857965732578009      1.2435689960661733      1.7264814359969449
    45   1      3.8143514719813254      1.7629905243510535      11.084009890721234
    46   2      2.1723446096680021      9.8728120880986125      1.7446317440093395
    47   2     0.99255815225635757      5.1721961777265335      8.6237146106969931
    48   2       10.12983765595493      3.6554618578678344      6.1116547592658321
    49   1      5.3382270428673451      3.3801534979990322      9.1482111682222467
    50   2      4.7209725230044342      1.2969288268108414      9.2035557810879709
    51   1      3.5035691169561289      3.4725483682765912      5.9182842844205652
    52   1      6.5061570908270028      9.4736024447337286      11.085304996158527
    53   1      4.1482772290173386      10.221799392755884      2.4457798572213107
    54   2      9.0521064155581143     0.86945961938177163      7.2837080000462606
    55   2      1.3686297623510768     0.89467378596008729       4.883489423494467
    56   2       10.76509744523662      7.9138924297035373      10.612062897082239
    57   1      8.3973493425324364      2.3152281081895154     0.22616241236391943
    58   1      4.6301532542142354      8.6531822240038991      6.0072401872244541
    59   1      2.0593317929823485     0.30873277633427065      5.7745844069359009
    60   1       3.599184901240875      4.9956766104638461      2.7939279864166622
    61   1      5.4080167067354523      2.5956767481466159      3.3239161874568879
    62   1      6.3133522334584313      7.1967007023110341      8.1195432793202826
    63   2      7.7368541594978524      2.7401573231180976      9.4198912505623866
    64   2     0.90962465492790301      5.8923418688218021      1.4826583447680974

Velocities

     1                       0                       0                       0
     2                       0                       0                       0
     3                       0                       0                       0
     4                       0                       0                       0
     5                       0                       0                       0
     6                       0                       0                       0
     7                       0                       0                       0
     8                       0                       0                       0
     9                       0                       0                       0
    10                       0                       0                       0
    11                       0                       0                       0
    12                       0                       0                       0
    13                       0                       0                       0
    14                       0                       0                       0
    15                       0                       0                       0
    16                       0                       0                       0
    17                       0                       0                       0
    18                       0                       0                       0
    19                       0                       0                       0
    20                       0                       0                       0
    21                       0                       0                       0
    22                       0                       0                       0
    23                       0                       0                       0
    24                       0                       0                       0
    25                       0                       0                       0
    26                       0                       0                       0
    27                       0                       0                       0
    28                       0                       0                       0
    29                       0                       0                       0
    30                       0                       0                       0
    31                       0                       0                       0
    32                       0                       0                       0
    33                       0                       0                       0
    34                       0                       0                       0
    35                       0                       0                       0
    36                       0                       0                       0
    37                       0                       0                       0
    38                       0                       0                       0
    39                       0                       0                       0
    40                       0                       0                       0
    41                       0                       0                       0
    42                       0                       0                       0
    43                       0                       0                       0
    44                       0                       0                       0
    45                       0                       0                       0
    46                       0                       0                       0
    47                       0                       0                       0
    48                       0                       0                       0
    49                       0                       0                       0
    50                       0                       0                       0
    51                       0                       0                       0
    52                       0                       0                       0
    53                       0                       0                       0
    54                       0                       0                       0
    55                       0                       0                       0
    56                       0                       0                       0
    57                       0                       0                       0
    58                       0                       0                       0
    59                       0                       0                       0
    60                       0                       0                       0
    61                       0                       0                       0
    62                       0                       0                       0
    63                       0                       0                       0
    64                       0                       0                       0
