(written by ASE)

64 atoms
1 atom types

0.0      10.887404441833496  xlo xhi
0.0      10.887404441833496  ylo yhi
0.0      10.887404441833496  zlo zhi

Atoms # atomic

     1   1       9.092260886864949      7.9078320518232204      3.8590932559515352
     2   1       3.642140650591557      10.633694908584403      6.5122063836364532
     3   1      2.3506829732594241      6.6235780938005178      10.632650115386809
     4   1       3.711609339663454       2.427529621996996      9.2666115628881585
     5   1      4.9085049586300045       1.090155392685233      2.4149581965174463
     6   1      5.0162555842955783      3.8570604517953484      5.2278894784459453
     7   1      7.6400379275427213       1.037830802799526      5.2329622414432038
     8   1      3.6092510798832222      10.524474434103581      1.1284941926353937
     9   1      7.7372757272449348      6.5073237600223592      10.604737264574339
    10   1      5.0709595933478226        9.34878162764943       5.116990845450232
    11   1     0.93920289276911717      2.4414432173715284      1.1785732883211182
    12   1     0.93497066914402183      7.8958707920604638      1.1619489899742277
    13   1      4.9512094204669097      9.2504334918223208      10.674468449825383
    14   1      10.394894768946926      3.8304471030811271      5.1320530644022426
    15   1      10.508144511107162      3.8063941466408835      10.669369080293279
    16   1      6.4257649966226609      10.649305806200118      3.7017220917389011
    17   1      2.2823969771084052      3.8278409605460126      2.3955144977692555
    18   1      9.2109467983520403      7.8731007897516747      9.3183534858842449
    19   1      9.0239534756980788       5.075061542293156      1.0298249126879995
    20   1      7.7490254326086756      3.8357469950343841      7.9755911087963227
    21   1      5.0265432281225628      6.6282965356264185      7.8079069921016071
    22   1      7.8233407291316439      9.2900214199129891       2.450313252043145
    23   1      6.3953881211075441      7.9826295106727798      6.5007584353142533
    24   1      9.1387210882242584       10.74037608133716      6.5601396785103816
    25   1      6.3081160910546714      2.3649080597736116      1.0910068018002903
    26   1      6.3051270739937308      2.4242055897259576      6.5610540347932442
    27   1      2.3372369390643115      1.2332330072269428      5.1476324884340556
    28   1      10.514208205292448       6.560281147402975      7.9178445451435095
    29   1      3.6775662783285838      5.2209003959999336      1.1016951659996437
    30   1      6.4072137524365758      5.1518327517703426      3.8330736872222815
    31   1      7.7071843852745019      1.0610148287481067      10.573154009832933
    32   1      7.7731919535269185      9.2622708040690895      7.9022933499962278
    33   1      8.9491430380510337      2.4335722256363681      3.9102339361540999
    34   1       6.263087451058027      5.1932487434868619      9.1993872323714641
    35   1       3.702632554382518      7.9698058098171032      3.8707910461253334
    36   1      10.397703380722817      6.4805796499234702      2.4939126019666844
    37   1      3.6032623382534155      2.5528077891969758      3.7805345415906402
    38   1      2.2760965821039747       3.782710436989106      7.8615730218249382
    39   1      2.3167442290093447      9.3030385048512017      7.8023507688980089
    40   1      2.2012645672061097      9.3346165680736135      2.5034888454564879
    41   1      10.543794023100816      9.2866248686109998      10.657987323838256
    42   1      3.7178031462935337      7.9937795955926845      9.2389219473924413
    43   1      10.490119557159119       9.248110287072393      5.1985775132645244
    44   1      10.454442140750871      1.2633749665075698      7.9254533651694601
    45   1     0.85490170946070521      10.787137390798136      3.8685314374830853
    46   1      6.3567794432871665      10.540145683127605      9.2461809888261541
    47   1      10.343649284954665      1.1575746485166647      2.4355716093890294
    48   1      2.2793763242285934      1.0910592036951385      10.643741146778154
    49   1       5.003594118408472      3.8255459846806161      10.667422260670435
    50   1     0.99790940073096124      7.8422845819416693      6.5132751876093948
    51   1     0.95720359258935872      5.1599701333238954      3.7879402434359406
    52   1       3.619896614050873      5.1875675993574646      6.5728673362646646
    53   1     0.98063575692236782      5.2392602029231057      9.3526506071798963
    54   1      5.0620775532885318      6.5249989353781643       2.525439398939028
    55   1      5.0406203563454142      1.0165553901386915      7.9253222793148552
    56   1      2.3384188208103467      6.5616491126579604      5.1165573536142119
    57   1     0.89141658277671354      2.5672343715421277       6.458512449498528
    58   1      9.1211283282324871      5.1424270172325066      6.6233425286261536
    59   1      6.4003830113198887      7.9170028701265664      1.1508226724772186
    60   1      9.0666491768466813      2.5044385689624988      9.3184021563748161
    61   1      7.7521319077868611      6.5832542678924142      5.2442586623047589
    62   1     0.89901315406253701      10.691371386730793      9.2019278319792761
    63   1      7.6787439463442411      3.7825238667752501      2.4892927990016744
    64   1      9.0397064911462621      10.680641165909549       1.049056651449753

Velocities

     1                       0                       0                       0
     2                       0                       0                       0
     3                       0                       0                       0
     4                       0                       0                       0
     5                       0                       0                       0
     6                       0                       0                       0
     7                       0                       0                       0
     8                       0                       0                       0
     9                       0                       0                       0
    10                       0                       0                       0
    11                       0                       0                       0
    12                       0                       0                       0
    13                       0                       0                       0
    14                       0                       0                       0
    15                       0                       0                       0
    16                       0                       0                       0
    17                       0                       0                       0
    18                       0                       0                       0
    19                       0                       0                       0
    20                       0                       0                       0
    21                       0                       0                       0
    22                       0                       0                       0
    23                       0                       0                       0
    24                       0                       0                       0
    25                       0                       0                       0
    26                       0                       0                       0
    27                       0                       0                       0
    28                       0                       0                       0
    29                       0                       0                       0
    30                       0                       0                       0
    31                       0                       0                       0
    32                       0                       0                       0
    33                       0                       0                       0
    34                       0                       0                       0
    35                       0                       0                       0
    36                       0                       0                       0
    37                       0                       0                       0
    38                       0                       0                       0
    39                       0                       0                       0
    40                       0                       0                       0
    41                       0                       0                       0
    42                       0                       0                       0
    43                       0                       0                       0
    44                       0                       0                       0
    45                       0                       0                       0
    46                       0                       0                       0
    47                       0                       0                       0
    48                       0                       0                       0
    49                       0                       0                       0
    50                       0                       0                       0
    51                       0                       0                       0
    52                       0                       0                       0
    53                       0                       0                       0
    54                       0                       0                       0
    55                       0                       0                       0
    56                       0                       0                       0
    57                       0                       0                       0
    58                       0                       0                       0
    59                       0                       0                       0
    60                       0                       0                       0
    61                       0                       0                       0
    62                       0                       0                       0
    63                       0                       0                       0
    64                       0                       0                       0
