(written by ASE)

64 atoms
1 atom types

0.0      10.887404441833496  xlo xhi
0.0      10.887404441833496  ylo yhi
0.0      10.887404441833496  zlo zhi

Atoms # atomic

     1   1      3.3020072517052768      6.0693678666071378      7.8649377750730878
     2   1      4.7404564621958798      2.0079614399195407      3.8304516456602471
     3   1      8.7918244379682164      8.7143007827068004       10.63518292771613
     4   1      8.8046585218618816      3.4058869510207614      10.673097239871026
     5   1      7.3342451289236692      4.7016008627533381      3.8095314464630974
     6   1      6.0394484937033894      3.3268606754804466      2.4677651920821972
     7   1     0.67604775573866149      3.2553698897602885      8.0188014192652304
     8   1     0.68389420943482548      6.0653321095289812      10.602696997609598
     9   1      0.5564059963754957     0.67207628426680088       5.144415044537368
    10   1     0.65157266391019775      3.3907747636984311      2.4649770219123468
    11   1      8.7810001208652011      6.0118244211349747      7.9115556688218476
    12   1      6.0112721733019612      3.2033362682907125      7.9669193252562991
    13   1      7.3985803791200624       4.693153936879753      9.2611831808397937
    14   1      2.0334444976077322      4.7265571434985816      3.7839362844116238
    15   1     0.73670672098850787      8.7727066692718836      2.4933056809492626
    16   1     0.60899592155229954      6.0184754059064858      5.2063972387496165
    17   1      10.123777423570232      7.3705734320258216       3.773643449065645
    18   1      10.164472443086424      4.6242131603955841      6.6215826036871022
    19   1      1.9452960742546423      2.0082361037213303      6.4829262165088721
    20   1       10.13548884148139      2.0568217454038802      3.7924945034736481
    21   1      4.7931805556916913      10.089351163239598      1.1227297408496355
    22   1      7.4112360045483001      7.4381332644575195      1.1223207464938696
    23   1      2.0239086506251027      10.180102159958494      3.8147700135982348
    24   1      10.227749921287739      4.7016248735286865      1.1181383290041254
    25   1      8.7758696022191316      3.3415796052389624      5.2249484829357016
    26   1      6.1247756509530404      8.7993060657788078      7.8000171811100927
    27   1      7.3977017145302852      10.120318574040311      3.8489237191816699
    28   1      8.7610536559494108     0.60669469964061307      2.4791513288813718
    29   1     0.53636206880233672      8.8263584223179805      7.8506124273483238
    30   1     0.52411612722848133      0.5124407254803458      10.588698066641598
    31   1      4.7570810038952231      7.4262284624638255      9.1867523730192033
    32   1      4.6882888346422646      7.3439273118479491       3.918828495849084
    33   1      3.4142835840540897      8.8487987631706346      10.543919917436426
    34   1      10.132290865780931       7.400993137572641      9.2495424973749323
    35   1      1.9816696409130259      7.4540160678805591      1.0095684978647554
    36   1      10.188119163165368       10.04764574433915      1.1641541687845205
    37   1      4.5864140350683726      1.8373593650801183      9.3007256831392624
    38   1      8.7993560341491275      5.9909129826261278      2.4432996721168792
    39   1       5.967267560426933      8.7465492008193451      2.4792966914132109
    40   1      7.4483131842653734      2.0013698331465264      1.0628084985606208
    41   1      3.3324574574261874     0.56526459348182811      7.7724378853930034
    42   1      6.0782252469512059      6.0433375903699584      10.594639111190645
    43   1      1.9434704441533199      10.102080767813504       9.170807920308107
    44   1      4.7470120528058715      4.7328599720275406      1.2357287488659452
    45   1      1.9737405690591174      4.6876317830195546      9.2658931864473288
    46   1      6.1297640517666423     0.72579885287667878      5.1972682770681615
    47   1      8.7975623643366134     0.58440142478696799      7.8741040507973139
    48   1      3.3090686909472709      6.1521810307838223      2.4561652295944469
    49   1      7.4288832754895111      1.9826454842489767      6.5934906454693305
    50   1       3.415494505859499     0.63957003423045578      2.4202170430236549
    51   1      8.8180987155981256      8.7518205394181336      5.1065120888302715
    52   1      3.3839582992589783      3.4013096536175169      10.657686215736589
    53   1      3.3046737456486994      8.8129539202748219      5.1238511133311988
    54   1       3.334881896796503      3.4100145330911289      5.2033799928041446
    55   1      6.1011256861747256      5.9907403646195689      5.2488992313457459
    56   1      4.7355994717068199       4.651890770503627      6.6624904754820591
    57   1      4.7020723175720036      10.151642901771879      6.4961230577922606
    58   1       1.965455391449197      7.5317350540441339      6.5148527604437731
    59   1      10.149886870472073      10.168309624563051      6.5001497297121773
    60   1      6.0850709136850014     0.55912975926282371      10.614904205584708
    61   1      7.4639175924823462      7.3770725648667508      6.4390397106909631
    62   1      7.4146474814673979      10.179083973295747      9.1956006682050315
    63   1       1.959605685187455      1.9291996073779956      1.0303436590000032
    64   1      10.063512324265332      1.9846359450783666      9.2901421227296055

Velocities

     1                       0                       0                       0
     2                       0                       0                       0
     3                       0                       0                       0
     4                       0                       0                       0
     5                       0                       0                       0
     6                       0                       0                       0
     7                       0                       0                       0
     8                       0                       0                       0
     9                       0                       0                       0
    10                       0                       0                       0
    11                       0                       0                       0
    12                       0                       0                       0
    13                       0                       0                       0
    14                       0                       0                       0
    15                       0                       0                       0
    16                       0                       0                       0
    17                       0                       0                       0
    18                       0                       0                       0
    19                       0                       0                       0
    20                       0                       0                       0
    21                       0                       0                       0
    22                       0                       0                       0
    23                       0                       0                       0
    24                       0                       0                       0
    25                       0                       0                       0
    26                       0                       0                       0
    27                       0                       0                       0
    28                       0                       0                       0
    29                       0                       0                       0
    30                       0                       0                       0
    31                       0                       0                       0
    32                       0                       0                       0
    33                       0                       0                       0
    34                       0                       0                       0
    35                       0                       0                       0
    36                       0                       0                       0
    37                       0                       0                       0
    38                       0                       0                       0
    39                       0                       0                       0
    40                       0                       0                       0
    41                       0                       0                       0
    42                       0                       0                       0
    43                       0                       0                       0
    44                       0                       0                       0
    45                       0                       0                       0
    46                       0                       0                       0
    47                       0                       0                       0
    48                       0                       0                       0
    49                       0                       0                       0
    50                       0                       0                       0
    51                       0                       0                       0
    52                       0                       0                       0
    53                       0                       0                       0
    54                       0                       0                       0
    55                       0                       0                       0
    56                       0                       0                       0
    57                       0                       0                       0
    58                       0                       0                       0
    59                       0                       0                       0
    60                       0                       0                       0
    61                       0                       0                       0
    62                       0                       0                       0
    63                       0                       0                       0
    64                       0                       0                       0
