(written by ASE)

8 atoms
1 atom types

0.0       5.443702220916748  xlo xhi
0.0       5.443702220916748  ylo yhi
0.0       5.443702220916748  zlo zhi

Atoms # atomic

     1   1      1.4626596970853285       3.871271910572176      5.0184989694409694
     2   1      5.4228547029855179      5.2217294166893282     0.82412119334378531
     3   1      4.1334575719891973      1.1987781935418411      4.9098054341380646
     4   1      2.7613760913812371      5.2360414611466695      3.5954328786702092
     5   1      4.1229168416112429      3.8557888541116938      2.2635819388634246
     6   1      2.7670007777415719      2.4862641966084027     0.91450132092452918
     7   1      1.3385696576776738      1.1457447179609659      2.1877578571327518
     8   1       0.128124843355371      2.5468531169105688      3.6527440036673795

Velocities

     1                       0                       0                       0
     2                       0                       0                       0
     3                       0                       0                       0
     4                       0                       0                       0
     5                       0                       0                       0
     6                       0                       0                       0
     7                       0                       0                       0
     8                       0                       0                       0
