(written by ASE)

8 atoms
1 atom types

0.0       5.443702220916748  xlo xhi
0.0       5.443702220916748  ylo yhi
0.0       5.443702220916748  zlo zhi

Atoms # atomic

     1   1     0.15702952778788148       5.056471361714614      5.3515761206042498
     2   1      4.1854983317973904     0.91629539632446466      1.2032127241727437
     3   1      4.2525029961666405      3.6496758159417766      4.0211938939679328
     4   1      1.4303371375921472     0.94754201350608724      3.8730503302976445
     5   1      1.5071177566975109       3.646666032804859      1.2737970220060149
     6   1       2.800013322556083      2.3072659754405578      5.2738013256114868
     7   1    0.030040724660238993      2.2892092234386752      2.5381000536512914
     8   1      2.8854066716729108      5.0207861580278745      2.6350258755089442

Velocities

     1                       0                       0                       0
     2                       0                       0                       0
     3                       0                       0                       0
     4                       0                       0                       0
     5                       0                       0                       0
     6                       0                       0                       0
     7                       0                       0                       0
     8                       0                       0                       0
