(written by ASE)

8 atoms
1 atom types

0.0       5.443702220916748  xlo xhi
0.0       5.443702220916748  ylo yhi
0.0       5.443702220916748  zlo zhi

Atoms # atomic

     1   1      1.9428872094413094      2.9194987279682891      4.7049604244824934
     2   1      3.2861293153312943      4.3043591325806005     0.68367754463429975
     3   1      4.6461200726715788      2.9256808536806318      2.1026758369206107
     4   1      4.6336146768242372     0.22065138012904306      4.8137821254105688
     5   1     0.56796097921820987      4.3264276308852914      3.4067192164095275
     6   1     0.52301475458559921      1.5905446557602971     0.67811925293485231
     7   1      1.9019264490465986      0.2397776458818548      1.9933088642631702
     8   1      3.2949782594569967        1.53318664485721      3.3565074936369967

Velocities

     1                       0                       0                       0
     2                       0                       0                       0
     3                       0                       0                       0
     4                       0                       0                       0
     5                       0                       0                       0
     6                       0                       0                       0
     7                       0                       0                       0
     8                       0                       0                       0
