(written by ASE)

64 atoms
1 atom types

0.0      10.887404441833496  xlo xhi
0.0      10.887404441833496  ylo yhi
0.0      10.887404441833496  zlo zhi

Atoms # atomic

     1   1       5.443702220916748       5.443702220916748       5.443702220916748
     2   1      6.8046277761459351       4.082776665687561      6.8046277761459351
     3   1      6.8046277761459351      6.8046277761459351       4.082776665687561
     4   1       4.082776665687561       4.082776665687561       4.082776665687561
     5   1       4.082776665687561      6.8046277761459351      6.8046277761459351
     6   1      5.0264059773391523      10.057064457674471      6.9506703969732371
     7   1      8.2302935200530669      9.8765877892380445      5.7835111498658875
     8   1      4.2956370562003201      1.2530802654594524      10.123731997779032
     9   1      2.7575632451498961      6.9367279237742991      4.8750540549304162
    10   1      10.783418316378629      8.3432635691274868      2.5617983644502402
    11   1      2.7252788108743289      10.384357283268344      10.212534876995335
    12   1      2.6019507079965649      2.9841337883866004      2.5554765544299585
    13   1      8.4096027456556612      3.3779390574550803       9.095520511853465
    14   1      4.2990796822333834      3.8618019309867861      6.9768836742549638
    15   1      4.4224694343992041      6.9059435140181336      3.4149451782559197
    16   1      6.3307939439013126      7.5283157898465447      9.6773710351121167
    17   1      6.0659881877418798      1.5006719991612414      3.8466407487039476
    18   1      7.7942182543935132      3.0602025204498773      3.6727018250309698
    19   1     0.45037603478657928      10.224977650144808      3.5596211317079849
    20   1      2.1561591900693315      2.9887282826965134      7.3625408542619653
    21   1      7.9119437348666679      8.2478888758043354      10.395437282681826
    22   1      8.0785798136644189      5.1166193273722058      7.5125238380059045
    23   1      4.1041524206764564      3.9244541556192303      1.7535113040389234
    24   1      2.7964834141099288      8.6033398514831561     0.88649842970450266
    25   1      1.3543048272793143      7.5415457270635216      6.2371000048525502
    26   1      7.9632924002989398      4.7795528183317799      2.5049703751894725
    27   1      5.0816067498651591      2.7617544233279432      5.4178465095057504
    28   1      1.9471226777657762      10.829636463164832      4.3405034612283941
    29   1      6.0059891537854355      4.6725935748428924       1.085424945471658
    30   1      8.3827320922812874      10.464496815162988     0.77426727979443655
    31   1      0.5293180292607218      1.5577486946288275       7.171458561460156
    32   1     0.84858046726281344      10.135907407700302      8.9654508970917277
    33   1      2.6549361620267433      6.5946217476702031      10.061919825813845
    34   1      9.0934114572620501     0.59563948161857994      6.7540656258412923
    35   1     0.66202562517015551       2.616794883150817      1.1552142919589343
    36   1       2.967181856520682      8.9409462784989842      5.6509762125217549
    37   1      9.6625395142854131      1.5028532483136701     0.65441157306646858
    38   1      7.1491071253702785      10.774152752853638      7.6672953490821669
    39   1       10.06050189218854      3.1401548331907918      10.370102021050002
    40   1       7.720023011747287      1.1294697115014074      2.2674116575314969
    41   1      9.8086645504767489      4.7747029661813372      9.0510181620948629
    42   1      7.2707035321935223      6.1390218280131421      0.7064161544766705
    43   1      9.7840710271212288      2.3328638954864971      5.5229364816867701
    44   1      2.1217356877331639      1.0533373833304509      8.9327371890893232
    45   1      4.5659033169318946      6.8827770094461584      8.7422506230921044
    46   1      5.2942033463190228      3.0239309995867245    0.035907141123743713
    47   1      9.7007627218204675      4.3649240421074182      3.9680651864605068
    48   1     0.40875108443054131      3.6086414008713348       5.684590649069662
    49   1     0.77749575566898699      4.8150777338695718      10.542056811057364
    50   1      9.9403026529146246      6.6891372445998059      7.5391407558894343
    51   1      9.5672005126553472      6.0948108522580924      2.2008265327909697
    52   1      8.0132958133718262      8.2006681169123681      5.0099560004659907
    53   1      0.9286125184907803      6.8676742317520052      1.0808414020221235
    54   1      4.9709978685233125      8.6244459719542874      2.4356371523163318
    55   1      1.5043148231455206      1.0723523761741944      2.6275466812228814
    56   1      4.2462063325664872     0.39209523138226388      5.3791593099605848
    57   1      10.791980429079899      8.6605633695972983       8.161652553790816
    58   1      6.3925061791258599      10.563796296845794      2.2740436608116852
    59   1      6.6003862805734457      2.0236782769697328      9.3291382176549291
    60   1      4.2937632423133323      10.198519073590603     0.87794353645933398
    61   1      1.1962039301780507      5.8105764852025459      4.7102038586666879
    62   1      5.5299463302087588      8.6773611782430748      8.3297143534923634
    63   1      9.6767487017726808      9.2009751882438309      4.0033253345295918
    64   1      9.7204450682074253      9.6286888636232675      9.8327155600973697

Velocities

     1                       0                       0                       0
     2                       0                       0                       0
     3                       0                       0                       0
     4                       0                       0                       0
     5                       0                       0                       0
     6                       0                       0                       0
     7                       0                       0                       0
     8                       0                       0                       0
     9                       0                       0                       0
    10                       0                       0                       0
    11                       0                       0                       0
    12                       0                       0                       0
    13                       0                       0                       0
    14                       0                       0                       0
    15                       0                       0                       0
    16                       0                       0                       0
    17                       0                       0                       0
    18                       0                       0                       0
    19                       0                       0                       0
    20                       0                       0                       0
    21                       0                       0                       0
    22                       0                       0                       0
    23                       0                       0                       0
    24                       0                       0                       0
    25                       0                       0                       0
    26                       0                       0                       0
    27                       0                       0                       0
    28                       0                       0                       0
    29                       0                       0                       0
    30                       0                       0                       0
    31                       0                       0                       0
    32                       0                       0                       0
    33                       0                       0                       0
    34                       0                       0                       0
    35                       0                       0                       0
    36                       0                       0                       0
    37                       0                       0                       0
    38                       0                       0                       0
    39                       0                       0                       0
    40                       0                       0                       0
    41                       0                       0                       0
    42                       0                       0                       0
    43                       0                       0                       0
    44                       0                       0                       0
    45                       0                       0                       0
    46                       0                       0                       0
    47                       0                       0                       0
    48                       0                       0                       0
    49                       0                       0                       0
    50                       0                       0                       0
    51                       0                       0                       0
    52                       0                       0                       0
    53                       0                       0                       0
    54                       0                       0                       0
    55                       0                       0                       0
    56                       0                       0                       0
    57                       0                       0                       0
    58                       0                       0                       0
    59                       0                       0                       0
    60                       0                       0                       0
    61                       0                       0                       0
    62                       0                       0                       0
    63                       0                       0                       0
    64                       0                       0                       0
