(written by ASE)

64 atoms
1 atom types

0.0      10.887404441833496  xlo xhi
0.0      10.887404441833496  ylo yhi
0.0      10.887404441833496  zlo zhi

Atoms # atomic

     1   1       5.443702220916748       5.443702220916748       5.443702220916748
     2   1      6.8046277761459351       4.082776665687561      6.8046277761459351
     3   1      6.8046277761459351      6.8046277761459351       4.082776665687561
     4   1       4.082776665687561       4.082776665687561       4.082776665687561
     5   1       4.082776665687561      6.8046277761459351      6.8046277761459351
     6   1    0.025417393084662621     0.25665685592311149      8.8098390088782708
     7   1      6.5311859281395641      9.7492949881983577      2.7229685849218868
     8   1      1.0835216859378747      1.7502216655812219      1.0854658286837378
     9   1       3.774821599407403      4.6050389339301887      2.5084602115983898
    10   1      8.8199916732114048       4.253218776847973      2.7604257189353518
    11   1      10.243464649283339      5.2164246576870141      10.145469536747839
    12   1      10.330779509367915      7.6839153482023903       6.445660195288383
    13   1      2.9313769234271376     0.72786872772318389      6.3008005918518961
    14   1      4.6973837269803198      2.2828585355939879      3.2030591709643943
    15   1      6.6372557995307488      9.3329260797011102      7.5812251556764636
    16   1      3.6678214727064358        9.71224441501613      5.6157829052597208
    17   1       7.563348160019757      7.7626525210287127       2.949707528055967
    18   1      10.379375371853484      2.1555537291666269      8.0015655762043139
    19   1      1.1499838365722255      3.8757713351905068       4.749283991305731
    20   1      8.5737981615862395      2.9364328139876648      7.1770413911985997
    21   1      8.3932812588776073       6.118663286277183      3.4611049204534368
    22   1      1.3131166134586678      9.4551798626170012      9.3786120957904018
    23   1       9.568839085837908      2.6109545865172521      1.9792950076780613
    24   1      2.6482764165669295      2.2944137212304128      10.543172987641128
    25   1      5.6942806192724333      5.2717944790502713     0.90704686747117336
    26   1      1.3954913376327909      3.8885343601679381      10.687917728719867
    27   1     0.41478833431595064      9.8744722452478868      3.9216205596581801
    28   1      10.106845933310353      8.1189880017561791     0.92760633721570684
    29   1      6.5170604538960788      6.5768433908743873      9.9426615493576378
    30   1      10.740682380957821     0.94141902243978848      2.6487243473151523
    31   1      9.8119066540886593        10.1181614978982      10.478771545577558
    32   1      2.3417008342245254      7.4745997917528939      8.5024783715229546
    33   1      4.5880928425231389      10.496362358749707      7.0592717828139939
    34   1       1.295834614549193      6.8055804198813803      7.0756691955573388
    35   1      2.1114668631625335      2.3229490676172873       5.488607562337279
    36   1      4.8798581568197221      7.3790849274168977     0.01117734039462448
    37   1      8.2938597764984365      9.3160400152324314      1.0384990486350674
    38   1      2.4249711765426412      6.5010556497766743      2.2948029229200131
    39   1      9.4879039536573941       4.211174286863212      8.6004793245173232
    40   1      3.8156515984174462      9.6216673341835417     0.66269654788267829
    41   1      2.4209015123560533      8.3848508809708164      3.9249622755407927
    42   1      1.3486614838975939      1.1286174100940229      7.3072829750270216
    43   1     0.68430231149826426      6.3036143951467807     0.87723124382982576
    44   1      8.3953857708899022      6.0678759538361646      9.1053999724995265
    45   1     0.24115234388803586      5.5692396395965034      5.6904914593465037
    46   1      2.9711326024753077     0.44803835056570662     0.93610899080099585
    47   1      4.9601975621956456      4.2741006885925401      7.4274147245540121
    48   1      6.1379309600844749     0.60208049378201878      8.7234573243329123
    49   1      8.3759740324305199      8.6641513581622007      6.9837715220805876
    50   1      9.5120003890692146      9.3989258606750354      5.6199140564993968
    51   1      7.9935972434880114     0.14980790179379522      10.388471562071288
    52   1       7.466916343641401      7.6446246345741429      8.1654670223718426
    53   1      4.4854010276475265      7.6034137078578965      4.8450568092417541
    54   1      4.7371390815585528      2.5865625589926964      9.1479347365593071
    55   1      3.6425381262645544      8.4444806681387945      9.9514481952554092
    56   1      6.3942550720870486     0.92034526784488691      3.9454291902357568
    57   1      7.6574600163475566      3.4366927757927783       1.118214173851932
    58   1      10.157155646003901      4.9362169625513843      3.9863623706858107
    59   1      6.6462565955870332      2.0593646163012522      10.346258023249277
    60   1      8.7301284262405261     0.34780236752682825      4.3500775956636062
    61   1       4.844102218686686     0.12992705078310607      2.2497308039517918
    62   1      3.2043911200563571      4.0087407377804709      9.1077660072811568
    63   1     0.94741766040267805      7.8811002715819427      2.4150836041481512
    64   1      7.5567769948527825      2.0637589126599494      5.5767076396697348

Velocities

     1                       0                       0                       0
     2                       0                       0                       0
     3                       0                       0                       0
     4                       0                       0                       0
     5                       0                       0                       0
     6                       0                       0                       0
     7                       0                       0                       0
     8                       0                       0                       0
     9                       0                       0                       0
    10                       0                       0                       0
    11                       0                       0                       0
    12                       0                       0                       0
    13                       0                       0                       0
    14                       0                       0                       0
    15                       0                       0                       0
    16                       0                       0                       0
    17                       0                       0                       0
    18                       0                       0                       0
    19                       0                       0                       0
    20                       0                       0                       0
    21                       0                       0                       0
    22                       0                       0                       0
    23                       0                       0                       0
    24                       0                       0                       0
    25                       0                       0                       0
    26                       0                       0                       0
    27                       0                       0                       0
    28                       0                       0                       0
    29                       0                       0                       0
    30                       0                       0                       0
    31                       0                       0                       0
    32                       0                       0                       0
    33                       0                       0                       0
    34                       0                       0                       0
    35                       0                       0                       0
    36                       0                       0                       0
    37                       0                       0                       0
    38                       0                       0                       0
    39                       0                       0                       0
    40                       0                       0                       0
    41                       0                       0                       0
    42                       0                       0                       0
    43                       0                       0                       0
    44                       0                       0                       0
    45                       0                       0                       0
    46                       0                       0                       0
    47                       0                       0                       0
    48                       0                       0                       0
    49                       0                       0                       0
    50                       0                       0                       0
    51                       0                       0                       0
    52                       0                       0                       0
    53                       0                       0                       0
    54                       0                       0                       0
    55                       0                       0                       0
    56                       0                       0                       0
    57                       0                       0                       0
    58                       0                       0                       0
    59                       0                       0                       0
    60                       0                       0                       0
    61                       0                       0                       0
    62                       0                       0                       0
    63                       0                       0                       0
    64                       0                       0                       0
