(written by ASE)

64 atoms
1 atom types

0.0      10.887404441833496  xlo xhi
0.0      10.887404441833496  ylo yhi
0.0      10.887404441833496  zlo zhi

Atoms # atomic

     1   1       5.443702220916748       5.443702220916748       5.443702220916748
     2   1      6.8046277761459351       4.082776665687561      6.8046277761459351
     3   1      6.8046277761459351      6.8046277761459351       4.082776665687561
     4   1       4.082776665687561       4.082776665687561       4.082776665687561
     5   1       4.082776665687561      6.8046277761459351      6.8046277761459351
     6   1      1.2098684948758276      7.5252339743835819      7.0723790703947316
     7   1      10.576126154457143      7.3443231651712608      2.6507114012102022
     8   1      7.5871032530577054       5.146250246501836      1.0245125286421626
     9   1      4.6066213738136241     0.18466007961535347      6.2831604592493022
    10   1      8.4089927421738366      9.7286840088513031     0.76546700615930519
    11   1      5.3161440034684802      1.1688361888599772     0.19038593975796303
    12   1      10.571744512425994     0.88319305445484986      4.4331500113200661
    13   1      8.9510243147465758      1.0524085070179012       9.418464791349777
    14   1      8.3371914387238348      6.3969202681507227       9.794768152008885
    15   1      2.8410380035284106      6.5047727773765587       1.068602233758206
    16   1      9.4406624286894498      3.7991613872720791       1.196843135954218
    17   1      1.5567979977130051       5.002960104151299      4.7520614539676558
    18   1       6.074218692167392      9.7150698992287516      7.5833432954261184
    19   1      1.2342269397618892     0.99240687730195987      2.7162277219777877
    20   1      7.0667306977289854      7.4715004549133255      10.799522408298799
    21   1      6.7784268287218197      1.8725453717685667      3.7897764188102201
    22   1      6.5529552651622112      9.6233026626667311      1.8992305905738647
    23   1      8.8456708729765978      6.8927895027664476      3.7962466738267437
    24   1      3.2352475621385679       1.036052788661479      1.6526556645375905
    25   1       7.842339092891109      2.4933371545331653      8.1499943489493489
    26   1      8.4409264244473547      9.3041417026374802      6.7075269027571949
    27   1      10.429283390764851      5.6291205664958284      3.7975007501337927
    28   1      7.9707253576189601      3.1508156174454882      2.5688185960102174
    29   1      1.5726601972950363      10.048212268849397       4.126778358333155
    30   1      3.1064031458594741      4.1520360716500022       3.437883904932022
    31   1      10.857837443281483      10.658169675942929      9.1816393757497394
    32   1      2.4963144906763688      2.8621399058903592       8.177563910568324
    33   1      10.197467142054393      9.2757544767769105      1.3887814615676888
    34   1      1.1230589156008648      7.8294349234910214      1.2102056191405168
    35   1       10.35412641922494      4.3738605931161487      5.4987264817969503
    36   1      4.9887126292114488      10.541514946262339      1.7736800308616552
    37   1      10.419695304122342      8.6886851790492869      7.5639296101471132
    38   1      4.1788587034736793      8.7092805838393588      9.1079269443699786
    39   1      5.1794548775191345      5.1670387109045066     0.43550805165068951
    40   1      1.8503039309873799      1.1253703583155712      8.1932883726620389
    41   1      4.2981776558081322      5.9101861601452583      2.5034645102112023
    42   1       5.050468343407573      1.8188801532200785      5.4336248336090307
    43   1      2.5779053765998441      8.2118519467057354      10.844037087915012
    44   1       1.616940285146697      4.0469548601572853      9.5153813658142212
    45   1      3.8883468165442707      4.3964878286525959      9.1524098259323523
    46   1      9.7628545868714696    0.052848578415132685    0.026231447598206614
    47   1      1.8079430828139067      2.4861199697213436      2.0563645672624489
    48   1     0.65759198683158004       2.988084209871289     0.40991325462789518
    49   1      3.3885819958632339      1.6574433806950708      6.8033149707802636
    50   1      6.4483539447065255      7.4953483463532962      8.9372382360573397
    51   1      2.2752015317823719      8.4565191517465905      5.4092921840829717
    52   1      3.5556441036884507      9.7065545101984299      4.7060438296026064
    53   1      7.9399046072298347      8.1337838308897972      5.1170515213284773
    54   1      4.5806787044594728       6.415949132084279       7.830208459821165
    55   1      6.8498147574719042      1.6543734083848136      9.8104335605740403
    56   1      5.3849825719224498      3.0951836243730213      10.229447547998859
    57   1      10.801754112526453      2.3184983134895276      6.2861923063419454
    58   1      9.2045910812233274      3.9652062818443596      7.1784658142226476
    59   1      10.499413674038578       5.176203364279047      10.442075942506563
    60   1      8.4334285731399063       1.131885876888326      3.4751930806541509
    61   1      5.3111461930267012      8.7283782353995889      3.2350888963393061
    62   1      2.5733748028675478      10.258523299066042      9.5883702292341582
    63   1      8.3448320568036252      10.631794812632506      5.3277162237766049
    64   1      10.493719875581633       6.813738243040973      8.4040367883539489

Velocities

     1                       0                       0                       0
     2                       0                       0                       0
     3                       0                       0                       0
     4                       0                       0                       0
     5                       0                       0                       0
     6                       0                       0                       0
     7                       0                       0                       0
     8                       0                       0                       0
     9                       0                       0                       0
    10                       0                       0                       0
    11                       0                       0                       0
    12                       0                       0                       0
    13                       0                       0                       0
    14                       0                       0                       0
    15                       0                       0                       0
    16                       0                       0                       0
    17                       0                       0                       0
    18                       0                       0                       0
    19                       0                       0                       0
    20                       0                       0                       0
    21                       0                       0                       0
    22                       0                       0                       0
    23                       0                       0                       0
    24                       0                       0                       0
    25                       0                       0                       0
    26                       0                       0                       0
    27                       0                       0                       0
    28                       0                       0                       0
    29                       0                       0                       0
    30                       0                       0                       0
    31                       0                       0                       0
    32                       0                       0                       0
    33                       0                       0                       0
    34                       0                       0                       0
    35                       0                       0                       0
    36                       0                       0                       0
    37                       0                       0                       0
    38                       0                       0                       0
    39                       0                       0                       0
    40                       0                       0                       0
    41                       0                       0                       0
    42                       0                       0                       0
    43                       0                       0                       0
    44                       0                       0                       0
    45                       0                       0                       0
    46                       0                       0                       0
    47                       0                       0                       0
    48                       0                       0                       0
    49                       0                       0                       0
    50                       0                       0                       0
    51                       0                       0                       0
    52                       0                       0                       0
    53                       0                       0                       0
    54                       0                       0                       0
    55                       0                       0                       0
    56                       0                       0                       0
    57                       0                       0                       0
    58                       0                       0                       0
    59                       0                       0                       0
    60                       0                       0                       0
    61                       0                       0                       0
    62                       0                       0                       0
    63                       0                       0                       0
    64                       0                       0                       0
