(written by ASE)

8 atoms
1 atom types

0.0       5.443702220916748  xlo xhi
0.0       5.443702220916748  ylo yhi
0.0       5.443702220916748  zlo zhi

Atoms # atomic

     1   1       2.721851110458374       2.721851110458374       2.721851110458374
     2   1       1.360925555229187       1.360925555229187       1.360925555229187
     3   1       4.082776665687561       4.082776665687561       1.360925555229187
     4   1       4.082776665687561       1.360925555229187       4.082776665687561
     5   1       1.360925555229187       4.082776665687561       4.082776665687561
     6   1       5.408292167736704      2.7266435314299429      5.4327059347470481
     7   1   0.0057042093790695692      5.4318512809326194      2.7260896612472436
     8   1      2.7073619054153539       5.435024921387793   0.0013439795119856435

Velocities

     1                       0                       0                       0
     2                       0                       0                       0
     3                       0                       0                       0
     4                       0                       0                       0
     5                       0                       0                       0
     6                       0                       0                       0
     7                       0                       0                       0
     8                       0                       0                       0
