(written by ASE)

64 atoms
1 atom types

0.0      10.887404441833496  xlo xhi
0.0      10.887404441833496  ylo yhi
0.0      10.887404441833496  zlo zhi

Atoms # atomic

     1   1       5.443702220916748       5.443702220916748       5.443702220916748
     2   1      6.8046277761459351      6.8046277761459351      6.8046277761459351
     3   1      6.8046277761459351       4.082776665687561       4.082776665687561
     4   1       4.082776665687561      6.8046277761459351       4.082776665687561
     5   1       4.082776665687561       4.082776665687561      6.8046277761459351
     6   1      7.2595495536343719      9.3188616058058074      9.2719536359332437
     7   1      7.2678812926802721       1.139442213901944       1.317440094253584
     8   1      9.9755504711260983      6.5168339738799546      4.0706742615021483
     9   1      8.6537086177052629      2.8101264015568859      7.9078761797346715
    10   1      7.1359135287862614      6.6962243169668341      1.2419369132907434
    11   1      0.6056967923489367       7.882728461726515       5.216338997623609
    12   1      2.9685121832629591      2.3564395566492067      8.1687954349870324
    13   1      10.064994502938191      4.1418237048484343      6.4967337102139595
    14   1      6.0112559498051041       2.634551662695813      10.791815598351832
    15   1      1.8820499074022621      6.4031416547254594      1.2816753143147608
    16   1      8.7113760106934137      7.8956131629303741      7.9107529301973614
    17   1      1.7595860302020725      1.2346034871239411      1.1736582177133101
    18   1      5.6295229092178829      5.3441934561244864      7.9300588914572359
    19   1      4.4538567092985772      9.5597052571073959       6.845923065045838
    20   1      9.9837323050610394      4.1169683342536416      1.2513806919287092
    21   1      5.6422680883487715      8.0741410649243335      5.3477425082969319
    22   1      8.5048580340419448      2.7404539453644645      2.6649053386104242
    23   1      3.1448774931258754      8.1505673628583395      8.0967053532929754
    24   1      2.3424269979438463      6.7564777353539966      6.1795247613265474
    25   1      4.3831774228912082      6.7547191082946938       9.415214251519501
    26   1     0.30846918889555752      10.770836021156185      2.5138722079149289
    27   1      1.9077823202371462      1.3048646940173043      6.3933329285256946
    28   1       8.599609745085786      7.8434624078134902      2.6686064049484202
    29   1       3.131503491256808      2.4619336561369352      2.4682348623162085
    30   1       0.679705748692502      5.4621178366691083      7.6345485451461741
    31   1      4.5980576387626684      9.3363842802911563       1.179965832173842
    32   1      4.4468799567101769      3.7616400082110601      1.1615200407173276
    33   1      10.039890912841486      9.3173950016899312      6.5503367927694853
    34   1      7.3141396737386799      1.3153146539303435      6.5297660476946362
    35   1      4.5558307966732343      1.2549750076573858      9.4584154768301687
    36   1      0.5803038967445282      2.8683346859302503        5.23749962904418
    37   1       7.260153716657328      9.4573453749774785      3.8778485917280818
    38   1     0.50525379749016253      5.2644799532573074      2.7427125805969013
    39   1      1.9433315710202237      4.1328751484520296      9.1840430490440781
    40   1      2.0679324072264222      3.9549611435791405       3.848993155748218
    41   1      5.4538743534461105       5.310338911823095      2.8715449914883209
    42   1      8.6967067248352805      10.687747057532931      10.761429637678475
    43   1     0.56143154899690018      7.7672353344208886      10.676543759543335
    44   1      3.1390801887589816      10.724800226474656      10.704952400419756
    45   1      8.5350356850156572      10.627879109431092      5.2986881697901822
    46   1      5.5194873662549639      2.8452574105909889      5.3205094220027718
    47   1       3.230328273421577      5.2333139668550643      10.684528964696369
    48   1      7.2559161392782698      4.0331882496642777       9.352274222052813
    49   1     0.54528746615697798      10.809026132757651      7.8715056955406908
    50   1      10.014614704738221       6.602185141904954      9.1859794856289341
    51   1      6.0020922698403751    0.022815499077787571       8.000461729478161
    52   1      9.9046044704303995      1.2460077131221112      9.2546600372235162
    53   1      5.8550171856730913      7.9977705758195157      10.769676365600844
    54   1      9.9872255484042967      9.2339205677813538      1.2120623983558048
    55   1      1.8133506987862944      9.4619599864234942      3.9218376300461273
    56   1      4.5178558086400926      1.2095273147369241       3.811287153292966
    57   1      8.5485978794482662      5.3745511879133119      10.744224943731524
    58   1      2.9310995016308823      8.1953701717787339       2.406312695042331
    59   1      9.9962458126568094      1.3220094421433686      4.0069068336957514
    60   1      5.9017908249916786       10.67458461006288      2.6311366166074066
    61   1      3.2355412074316803      10.749080960810772      5.1594899178169271
    62   1      8.5336261876087178      5.4394682127069984      5.3824951853843288
    63   1     0.40944638294709179      2.6455997018204869      10.658172271702426
    64   1      1.7102052749385592       9.324478829357588      9.2753352616181246

Velocities

     1                       0                       0                       0
     2                       0                       0                       0
     3                       0                       0                       0
     4                       0                       0                       0
     5                       0                       0                       0
     6                       0                       0                       0
     7                       0                       0                       0
     8                       0                       0                       0
     9                       0                       0                       0
    10                       0                       0                       0
    11                       0                       0                       0
    12                       0                       0                       0
    13                       0                       0                       0
    14                       0                       0                       0
    15                       0                       0                       0
    16                       0                       0                       0
    17                       0                       0                       0
    18                       0                       0                       0
    19                       0                       0                       0
    20                       0                       0                       0
    21                       0                       0                       0
    22                       0                       0                       0
    23                       0                       0                       0
    24                       0                       0                       0
    25                       0                       0                       0
    26                       0                       0                       0
    27                       0                       0                       0
    28                       0                       0                       0
    29                       0                       0                       0
    30                       0                       0                       0
    31                       0                       0                       0
    32                       0                       0                       0
    33                       0                       0                       0
    34                       0                       0                       0
    35                       0                       0                       0
    36                       0                       0                       0
    37                       0                       0                       0
    38                       0                       0                       0
    39                       0                       0                       0
    40                       0                       0                       0
    41                       0                       0                       0
    42                       0                       0                       0
    43                       0                       0                       0
    44                       0                       0                       0
    45                       0                       0                       0
    46                       0                       0                       0
    47                       0                       0                       0
    48                       0                       0                       0
    49                       0                       0                       0
    50                       0                       0                       0
    51                       0                       0                       0
    52                       0                       0                       0
    53                       0                       0                       0
    54                       0                       0                       0
    55                       0                       0                       0
    56                       0                       0                       0
    57                       0                       0                       0
    58                       0                       0                       0
    59                       0                       0                       0
    60                       0                       0                       0
    61                       0                       0                       0
    62                       0                       0                       0
    63                       0                       0                       0
    64                       0                       0                       0
