(written by ASE)

64 atoms
1 atom types

0.0      10.887404441833496  xlo xhi
0.0      10.887404441833496  ylo yhi
0.0      10.887404441833496  zlo zhi

Atoms # atomic

     1   1       5.443702220916748       5.443702220916748       5.443702220916748
     2   1      6.8046277761459351      6.8046277761459351      6.8046277761459351
     3   1      6.8046277761459351       4.082776665687561       4.082776665687561
     4   1       4.082776665687561      6.8046277761459351       4.082776665687561
     5   1       4.082776665687561       4.082776665687561      6.8046277761459351
     6   1      1.9334139851565482       3.868484713812137      10.072055617710248
     7   1      8.7738481545107447      5.2547669456889992     0.36106519788368274
     8   1      8.7283490331052462      10.655908120481058      5.9620682541541896
     9   1     0.71239702771050162      10.321672936112122      3.3339393116291092
    10   1      4.5157230677432665     0.89339065787427785      4.4882985441861933
    11   1      1.8909261070026844     0.99358762340321505      7.2244295765781317
    12   1      6.0920256023176762      7.6925280782138543     0.48104728565216703
    13   1      5.9585425638172183      10.658677795864492      8.6729133443447495
    14   1     0.66653689294119189      10.444880660643207      8.7017132959653622
    15   1       8.653515233622727      2.6500869588161748      8.5270167349891608
    16   1      3.3860537261130332      5.1280838236611999      0.4835905621369605
    17   1      10.077860384885696     0.98987998654899201      4.5400417650620284
    18   1      1.8397721235326969      3.5954552670958719      4.3934232100963015
    19   1      4.5448517074102028      6.5412237301149503      9.9910166551498492
    20   1     0.56081963925419487      7.6920095752543034      5.8589192611371459
    21   1     0.60067699906891647      5.0751027499751729      3.2084301218338851
    22   1      4.7208315469877959      8.7458587287931095      2.1815092150832953
    23   1     0.46409340696662582       5.151909651145445      8.5888620028879359
    24   1      10.286608118945196      8.9967609481460613      2.0043896748514953
    25   1      5.6177712570345193      5.4763075559601475      3.0412294653455092
    26   1      4.6200002427317486      1.0013002738090506      10.002950659437886
    27   1      3.2816941357605174      7.7830071691254261      8.7314847105777744
    28   1        6.09913473864043      8.3167595667820819      6.0098737078728846
    29   1      3.0706494790159979      5.4347215419965664      5.5120790686501664
    30   1      5.8787742255306625       2.350627488900173     0.43939017221360999
    31   1      5.9998501825747326      10.434790294538004      3.3806811528938567
    32   1      5.8004484805846346      5.1738129942521311      8.6024644315927503
    33   1      3.4224806680760764      10.414625136884581      5.9449952950017177
    34   1      5.7547968583086799      2.3377307823086397      5.8720226550786379
    35   1      8.7413933735181786      10.454115723994107     0.57603204722835954
    36   1      10.095358399655822     0.99188691422769182      9.9527181705893781
    37   1      1.8045632417136801      6.5417052435016672      7.3828390445896162
    38   1      10.074426195070998        3.87461687115416      7.1608432029966593
    39   1      7.2831995184126868      3.8793320682806893      9.9413416056533492
    40   1      3.1664492279568037      2.2698872009169122      3.1572680266154691
    41   1       7.252504662359172      1.2087160587765879      7.2928245946280299
    42   1     0.75658399269020293      7.7958094549652515     0.59920731248863746
    43   1      2.0416062144065705      9.0475437380079597      10.200110923102216
    44   1      4.5175245248342719      3.5691079837301061      1.7487709604922657
    45   1      8.7019462653802293      7.8654549801528901      3.2386684486858428
    46   1      2.2227731926342642      8.8204920058544758      4.5633990579570423
    47   1      10.045864404384247        3.78869496050973      1.8533727676528571
    48   1     0.55411897002355914       2.311906057776639     0.48201213756899719
    49   1      8.5471455520096242       5.134340901929022      5.8406048800051735
    50   1      7.5215888791097427      9.3298520515166388      4.6031265081206811
    51   1      8.6006383147865222      2.4081650939134676      3.1490615329653053
    52   1      10.053349925834084      6.5185951966987545      4.5058105111636166
    53   1      2.1390239326889287      6.4720272713203144      2.0607131133600092
    54   1      7.6188059127359793      6.5104347777796647      1.7493936183016388
    55   1      10.153587125635227      9.1468023364786859      7.3053218787269429
    56   1      7.3257738678047986      9.2362703790661271       9.992028352413854
    57   1     0.58091957845025277      2.3854747489742465      5.7334856728372756
    58   1      10.210447886359646      6.5220086204374752       10.00204344149364
    59   1      7.2179531566328023     0.92856279347291348      1.9142464103248642
    60   1      3.1713101120851093      2.4221456923300195      8.7149847653342931
    61   1      3.3596908681902846       10.35187719362068     0.73566898501204747
    62   1      8.6227723560185154      7.7737227863440808      8.5727676450658805
    63   1      2.0164659592069683     0.80547536617102367      1.9687654715129383
    64   1      4.6248432810135114      9.2376123867261413      7.4964197460857349

Velocities

     1                       0                       0                       0
     2                       0                       0                       0
     3                       0                       0                       0
     4                       0                       0                       0
     5                       0                       0                       0
     6                       0                       0                       0
     7                       0                       0                       0
     8                       0                       0                       0
     9                       0                       0                       0
    10                       0                       0                       0
    11                       0                       0                       0
    12                       0                       0                       0
    13                       0                       0                       0
    14                       0                       0                       0
    15                       0                       0                       0
    16                       0                       0                       0
    17                       0                       0                       0
    18                       0                       0                       0
    19                       0                       0                       0
    20                       0                       0                       0
    21                       0                       0                       0
    22                       0                       0                       0
    23                       0                       0                       0
    24                       0                       0                       0
    25                       0                       0                       0
    26                       0                       0                       0
    27                       0                       0                       0
    28                       0                       0                       0
    29                       0                       0                       0
    30                       0                       0                       0
    31                       0                       0                       0
    32                       0                       0                       0
    33                       0                       0                       0
    34                       0                       0                       0
    35                       0                       0                       0
    36                       0                       0                       0
    37                       0                       0                       0
    38                       0                       0                       0
    39                       0                       0                       0
    40                       0                       0                       0
    41                       0                       0                       0
    42                       0                       0                       0
    43                       0                       0                       0
    44                       0                       0                       0
    45                       0                       0                       0
    46                       0                       0                       0
    47                       0                       0                       0
    48                       0                       0                       0
    49                       0                       0                       0
    50                       0                       0                       0
    51                       0                       0                       0
    52                       0                       0                       0
    53                       0                       0                       0
    54                       0                       0                       0
    55                       0                       0                       0
    56                       0                       0                       0
    57                       0                       0                       0
    58                       0                       0                       0
    59                       0                       0                       0
    60                       0                       0                       0
    61                       0                       0                       0
    62                       0                       0                       0
    63                       0                       0                       0
    64                       0                       0                       0
