(written by ASE)

64 atoms
1 atom types

0.0      10.887404441833496  xlo xhi
0.0      10.887404441833496  ylo yhi
0.0      10.887404441833496  zlo zhi

Atoms # atomic

     1   1       5.443702220916748       5.443702220916748       5.443702220916748
     2   1      6.8046277761459351      6.8046277761459351      6.8046277761459351
     3   1      6.8046277761459351       4.082776665687561       4.082776665687561
     4   1       4.082776665687561      6.8046277761459351       4.082776665687561
     5   1       4.082776665687561       4.082776665687561      6.8046277761459351
     6   1      4.1461329900836006      9.4401452236096475       6.918164998670477
     7   1      4.0519630536370528        9.54655578843483      1.5039634222035971
     8   1      10.885782092147792      2.7292399398669431      8.2355369542372614
     9   1      2.6799969220917461      8.1006333863520013      5.5267483545082996
    10   1      5.4580003131667922      8.1255526775244107      2.7932890075787782
    11   1      8.1419124517550472      2.6981993610954049      5.4798020971831534
    12   1      1.3544183106398293      9.4313079604016821      9.5825907707138072
    13   1      10.832121253943455      2.6417862066492717      2.7087712405873248
    14   1      1.4084926857790521      6.7476274933485456      1.4485510952785745
    15   1      9.4938696579216639      1.4021890460752502      9.6055950403172119
    16   1      2.6820073378222702      5.3556929951666916      2.8389198637787558
    17   1      2.7325871717384871      10.783624679258651      8.2806376265599511
    18   1       8.230367499198735      10.874160876879159      2.8774026472635228
    19   1      9.4450661346763241      3.9935084965813985      1.4444449282240583
    20   1      5.4327357859812651      2.6730544010817141      8.2067324600375287
    21   1      6.8662751173830543      1.4142070880770063      6.8820339732901061
    22   1      9.6620547561993249      6.6801150335276702      4.0873380640638857
    23   1      5.4133717446026424      8.1209030233251838      8.2702253862771045
    24   1      9.5393785134252767      9.4077799963197322      6.9758103277029022
    25   1      2.7353870228260746       5.368398588965249      8.1910521258552649
    26   1      8.2708379855184262      8.0809873805980033       5.534838687920967
    27   1      8.1500547003576571      8.0617294408888256     0.07188224348979011
    28   1      4.0890334194854461      1.2883837302651457      9.6000758066864478
    29   1      1.2701607685379628      3.9448730487634975      4.1752434594340571
    30   1      8.0959889236717686      2.6976990284523339    0.011124574738557658
    31   1      5.5033774338759258      10.877650875523045      5.6020954654313755
    32   1      6.7443003786131044      9.4539981431059346       9.605385432737819
    33   1      10.849101414693905      10.822887488472304      5.5563925769053526
    34   1      10.864823929967997      8.0741851928357846      2.7169673511995001
    35   1      9.4850596501884183      9.4903764145784066      1.4924938966305774
    36   1      10.875942216834062      5.4098097136327112     0.13235071953732103
    37   1       5.464454669156396      10.807268803578097    0.086315523097238334
    38   1      5.3108840213174915      5.4248680389454762    0.071208304220820473
    39   1      6.7551305361749883      4.0661962518996688      9.6447014550211634
    40   1      9.4708271008656766       6.712140216323462      9.6026916833196765
    41   1      6.7560974565876677       6.711928012984572      1.3657596705876784
    42   1      8.1434900245894255      5.4293866072900983      8.2237262485253382
    43   1      6.8140990536110735      9.4453672427779907      4.1734595237196572
    44   1      4.0312758238547701      3.9899399762127246      1.4548104448359567
    45   1      1.3363866239405908      6.7335208383614145      6.9054353940965711
    46   1      1.3869748129576891      1.3191404789591701      1.3160545265045087
    47   1      2.6919578573845655      2.6590460604855366      5.5255328901237704
    48   1      2.7002230800933518      2.6710611822578585    0.054984472754160407
    49   1      10.869078379783787      5.3666934994455744      5.4789059112167706
    50   1      1.3694440267239116      1.2803830316726135      6.9030453485395924
    51   1      2.6952058014553444      8.1722542845169528     0.17125066996439564
    52   1      9.5241206391011701      1.3403624351978607      4.2327408301751461
    53   1      4.0303854783472559      6.8036563131541357      9.6031121963582109
    54   1       2.669340193711264      10.854319540223003      2.9596259250944854
    55   1      8.1448703197020222      10.810993069516599      8.1685332632778227
    56   1      10.802394616182369      10.779388399759341     0.01862529811193403
    57   1      5.4203293534647514      2.6090364824838446       2.735517135270868
    58   1      4.0879571527039502      1.3629883728545593      4.2215479152235389
    59   1    0.030525639911453073      8.0636678242933044      8.3125998621879376
    60   1      1.4019919305884372      4.0896538060052592      9.6423496969167672
    61   1      6.7876287961391313      1.2744534246888506      1.4536921591976011
    62   1       1.231190225620189      9.3589991859699921      4.1890859958923556
    63   1      8.1887133465483544      5.4079339529261006      2.7213707327164371
    64   1       9.444674174992258      4.0765448960748358      6.8597883143997365

Velocities

     1                       0                       0                       0
     2                       0                       0                       0
     3                       0                       0                       0
     4                       0                       0                       0
     5                       0                       0                       0
     6                       0                       0                       0
     7                       0                       0                       0
     8                       0                       0                       0
     9                       0                       0                       0
    10                       0                       0                       0
    11                       0                       0                       0
    12                       0                       0                       0
    13                       0                       0                       0
    14                       0                       0                       0
    15                       0                       0                       0
    16                       0                       0                       0
    17                       0                       0                       0
    18                       0                       0                       0
    19                       0                       0                       0
    20                       0                       0                       0
    21                       0                       0                       0
    22                       0                       0                       0
    23                       0                       0                       0
    24                       0                       0                       0
    25                       0                       0                       0
    26                       0                       0                       0
    27                       0                       0                       0
    28                       0                       0                       0
    29                       0                       0                       0
    30                       0                       0                       0
    31                       0                       0                       0
    32                       0                       0                       0
    33                       0                       0                       0
    34                       0                       0                       0
    35                       0                       0                       0
    36                       0                       0                       0
    37                       0                       0                       0
    38                       0                       0                       0
    39                       0                       0                       0
    40                       0                       0                       0
    41                       0                       0                       0
    42                       0                       0                       0
    43                       0                       0                       0
    44                       0                       0                       0
    45                       0                       0                       0
    46                       0                       0                       0
    47                       0                       0                       0
    48                       0                       0                       0
    49                       0                       0                       0
    50                       0                       0                       0
    51                       0                       0                       0
    52                       0                       0                       0
    53                       0                       0                       0
    54                       0                       0                       0
    55                       0                       0                       0
    56                       0                       0                       0
    57                       0                       0                       0
    58                       0                       0                       0
    59                       0                       0                       0
    60                       0                       0                       0
    61                       0                       0                       0
    62                       0                       0                       0
    63                       0                       0                       0
    64                       0                       0                       0
