(written by ASE)

64 atoms
2 atom types

0.0      11.085848808288574  xlo xhi
0.0      11.085848808288574  ylo yhi
0.0      11.085848808288574  zlo zhi

Atoms # atomic

     1   1      5.5429244041442871      5.5429244041442871      5.5429244041442871
     2   2      6.9286555051803589      6.9286555051803589      4.1571933031082153
     3   2      4.1571933031082153      6.9286555051803589      6.9286555051803589
     4   2      4.1571933031082153      4.1571933031082153      4.1571933031082153
     5   2      6.9286555051803589      4.1571933031082153      6.9286555051803589
     6   1       0.344296222969529      2.0800817278144734      7.9448071251061947
     7   1      3.5078264456971908      2.5373195284110039      9.0631240625282317
     8   1      3.0833487005594407      6.5142805736056175       7.489115026241393
     9   1      5.9591157871716405       5.572997941780784      7.8101577880167383
    10   2      9.4639459800089298      9.6393845306923254      2.3955304270224076
    11   2      6.3562671379665403      1.5696245096903283       3.727982476211622
    12   1      10.264147358251137      1.6881383858360977      10.148647740895456
    13   2      10.965740994341218      2.5350504508234195      9.8575067170557418
    14   1      3.2866131862543568      10.941858192848599      3.1010420874443412
    15   1      10.611930743466189      5.3996272648045363       6.144192961841668
    16   1      3.0061468707511096       9.129677284339266       10.53024461108123
    17   1       4.784096358478962      3.2134433632717219       3.733618167168089
    18   2       8.245577522179417      3.4170375722386837      2.3320656352184699
    19   2      7.9232845871962354      10.431936857637538      6.2733916230371278
    20   1      10.445172703053061      8.4725764669329351      3.8769879909966676
    21   2      1.0140032977049174      8.3057338482055343        9.50290024064401
    22   1      1.5172308870710083      6.0660895139878335      3.3338224225160218
    23   1      6.4625966159044879      10.804509618151314      4.6491169677334199
    24   1      6.3911966602248071      6.9863048771100011      10.075591900406664
    25   2      7.6629518750982584      0.2226060759599946    0.097624519248711294
    26   1      2.3219999898599752      8.8603085687438465      5.4600277446363066
    27   1      9.6994212576959171     0.29962671077131908      5.9415519108304693
    28   1     0.18189720763481354      9.7639221338496895      8.6310464933154663
    29   2      10.566493026427679      3.2045900621484691      5.0551982687488817
    30   2      10.533596026784267     0.64063204026416187      7.8954715371622797
    31   1      7.8480779466062245      1.1452168885650948      7.4534745175287753
    32   1      0.0961214990051662      10.893296364326659      2.0996934896283648
    33   2      9.8108564905899698      6.8721697458400399      7.1184988000132421
    34   1      7.9740844372059883      4.0374033186074598      10.705872802203658
    35   2      2.8217007295977226      4.5016368360616354      9.0599001750646835
    36   2      3.7966207516998907      10.328523349237742      5.0035595736612493
    37   1      6.0852788798064239      11.073374828469582      10.333314578587647
    38   1      2.5734922858122644      3.3441759975654861      5.5562626686122485
    39   1    0.052034949445758372      6.7103463214502312      11.075228943702768
    40   1      7.9104789018009569        6.83232344829662      2.4898778669771104
    41   1     0.12659433672765896      2.1982805827779828      3.5367941879513864
    42   1       9.454055603383722      6.1212292887486797      8.8199349782723857
    43   2      1.5215352955377881      5.8389617194586663     0.94444077286439665
    44   1      5.1464374556540804      8.5294500971363618      1.8476473048328046
    45   1      8.1856194265773752      3.6424813993153293       4.465007487916921
    46   2      1.3873133102042345      1.0485703886711661      2.3736799829526234
    47   1      3.6814696895065424     0.81057361998993827      6.6003125776543925
    48   1      3.8687316938339222      5.5233934212282065      1.6322499608403263
    49   2      9.3110660515853283      6.7048189964589255     0.86052355705646733
    50   2      3.7212492494738569      9.5910764371132018      1.0139221884230665
    51   1      7.4556755360040938      1.5887899226660096      2.0704009798627254
    52   1      4.9378765834119065      9.0572465304543925      7.7872416902255281
    53   2      5.5201312092160038      6.0489181338863318     0.74414536594208158
    54   2      2.6866245363284236      2.1214729011295219       7.033364119017449
    55   1      1.1481042798837748      4.5729518830430038      10.465322825660337
    56   1      8.3603483123425804      9.3072349182560288     0.35153002282608981
    57   1      5.0614316244339363      3.2967467255330973     0.50967548818720232
    58   2      1.1791797897179634      7.6625957211030027      4.6744974000799289
    59   1      9.8258334598969554      4.6846054997875797      1.7125037132193199
    60   1      2.8712375214220742      1.6147443972822373     0.90070494661258493
    61   1      8.5698038645654151       8.759352456834506      6.8280026858198539
    62   2      6.5181599430047754      9.1913864153539748      9.5191987461114991
    63   2       4.343767117480013      1.4779829150242563      10.720620484986796
    64   2      7.6114496286191979      5.4170593179136972      9.4120875795346137

Velocities

     1                       0                       0                       0
     2                       0                       0                       0
     3                       0                       0                       0
     4                       0                       0                       0
     5                       0                       0                       0
     6                       0                       0                       0
     7                       0                       0                       0
     8                       0                       0                       0
     9                       0                       0                       0
    10                       0                       0                       0
    11                       0                       0                       0
    12                       0                       0                       0
    13                       0                       0                       0
    14                       0                       0                       0
    15                       0                       0                       0
    16                       0                       0                       0
    17                       0                       0                       0
    18                       0                       0                       0
    19                       0                       0                       0
    20                       0                       0                       0
    21                       0                       0                       0
    22                       0                       0                       0
    23                       0                       0                       0
    24                       0                       0                       0
    25                       0                       0                       0
    26                       0                       0                       0
    27                       0                       0                       0
    28                       0                       0                       0
    29                       0                       0                       0
    30                       0                       0                       0
    31                       0                       0                       0
    32                       0                       0                       0
    33                       0                       0                       0
    34                       0                       0                       0
    35                       0                       0                       0
    36                       0                       0                       0
    37                       0                       0                       0
    38                       0                       0                       0
    39                       0                       0                       0
    40                       0                       0                       0
    41                       0                       0                       0
    42                       0                       0                       0
    43                       0                       0                       0
    44                       0                       0                       0
    45                       0                       0                       0
    46                       0                       0                       0
    47                       0                       0                       0
    48                       0                       0                       0
    49                       0                       0                       0
    50                       0                       0                       0
    51                       0                       0                       0
    52                       0                       0                       0
    53                       0                       0                       0
    54                       0                       0                       0
    55                       0                       0                       0
    56                       0                       0                       0
    57                       0                       0                       0
    58                       0                       0                       0
    59                       0                       0                       0
    60                       0                       0                       0
    61                       0                       0                       0
    62                       0                       0                       0
    63                       0                       0                       0
    64                       0                       0                       0
