(written by ASE)

64 atoms
2 atom types

0.0      11.085848808288574  xlo xhi
0.0      11.085848808288574  ylo yhi
0.0      11.085848808288574  zlo zhi

Atoms # atomic

     1   1      5.5429244041442871      5.5429244041442871      5.5429244041442871
     2   2      6.9286555051803589      6.9286555051803589      4.1571933031082153
     3   2      4.1571933031082153      6.9286555051803589      6.9286555051803589
     4   2      4.1571933031082153      4.1571933031082153      4.1571933031082153
     5   2      6.9286555051803589      4.1571933031082153      6.9286555051803589
     6   1      5.5553131448809268      7.7290927776272156      9.2738767024926005
     7   1      9.6823159544024406      9.4833943669149789      6.8347438417745821
     8   1      2.0865831901480902      3.9759528782961695     0.43540829461528929
     9   2      5.7556897436811028      10.201853447485405         3.3709866624217
    10   2      1.5709609131326374      5.0567930325105692      6.0010666310506622
    11   2       6.205093973494229      7.9040364130185026      0.3467943805909357
    12   1      6.9668908501441251      8.9733600403621949      4.6186608453784572
    13   1      1.9112587871505582      9.4736024447337286      9.0287859277017901
    14   1      0.7323287677669299      8.0621284800591297      10.523803443834936
    15   1      1.5896908799434328      10.839168886264758      3.1238058781930533
    16   1      3.4109099394464693      6.5495959844227514      1.5910119205278761
    17   2    0.038850520046480597      2.8958161117031977     0.63291228678258094
    18   2      8.5914083377173256      1.1525657859616345      9.7350994301891092
    19   1      6.6435248277986148      6.3422945361415373      1.4907063347935434
    20   1      8.9032578331921286      6.4863466030129757      8.2115856298270273
    21   1      4.0623364109636384      7.8476054974288445      2.5846807413311268
    22   1       6.109113445229184      4.5717915742940818      7.4273232992166527
    23   2      1.9871917770527858      9.5478787238667451      10.197251858574532
    24   2      9.8288842261234777       8.732586063439669       10.89232767832101
    25   2      1.8955437398979313      9.7606592610694065      1.7617168938763683
    26   1      8.0536898109062349      2.6546730958078513     0.24783535760814601
    27   2      4.7904678146927893      3.0624284527546308      8.6370363559629482
    28   2      2.5101971462129313      4.2371756449982456      8.7309671816430523
    29   2      1.0466582084429277      1.0831149309266763      7.8371237333718113
    30   1      6.6027422218854781       0.695296516285282      6.4195317170421617
    31   2     0.96079040526209525      10.462924237529023      5.1308373820474173
    32   1      9.3456612251949878      1.6931995389467858      3.8104793710310503
    33   1      9.2418770259021699      2.9801747205887352      8.0783186195614576
    34   2      4.8802585979660762     0.54273478899032668      6.2074225202090361
    35   2      10.175349379018428      2.4984633918358412      5.3294312285670742
    36   2      2.7299514297345695      8.0739119572342588      8.6572948445353859
    37   1     0.36228266049802116     0.74031002021627046      6.0237811945773956
    38   1      10.736490151970202      4.3651165341529463      1.8353038267096622
    39   1      3.9173909856476996     0.29238223538046171     0.11195261430088976
    40   2      3.5995024003034359      1.8643359938516824      4.6995415014735897
    41   1     0.18912097207615552      4.1041960688475854        5.60015550987913
    42   1      5.3157695181238296      2.7577925624119359      10.589758009765262
    43   1      8.2731414626471178      10.007672870973749      9.8661621181389592
    44   1      4.9262473955835162      9.4245833647002542      7.3302531643872726
    45   1      8.6589665877784228      6.6206966121620781       3.656917529948629
    46   2      9.6467732393657002      5.1456518024066611      8.7807626641708225
    47   1      1.6538582334086982      8.9251708850375167       5.406590438834229
    48   1      6.0620429702643719      4.0828066757057968      4.4569583415473346
    49   1      1.7235928883341245      3.5982099379384636      6.4438169262956535
    50   1       10.19099834946303      9.4729707504490079      1.4568991271195841
    51   1      6.2005148506980845     0.34734343756761987      2.1597908421033196
    52   2      7.9414253140714663      4.5644210367429139      1.7197379673539359
    53   2      6.7063281907542205      6.4603751136186816      7.3543890400546275
    54   2      9.8884194301541584      7.6806941588210975      5.7197935177214276
    55   1     0.33776481958227578      4.5485748270263571      10.009336024231743
    56   2       10.91831436538115      5.9221801730217294      2.9637592591710415
    57   1      3.5976192112747185      2.5861180770976944      8.6378008646317994
    58   2      9.0921007251515107      11.034579812941843      2.3900898278416349
    59   1     0.41653221546274821      6.5619569729000204      4.3667529263036897
    60   1    0.039898498221759837     0.94205184846625656      9.8986012055027572
    61   1      1.9785416621142105      6.5515591263891793      7.5211622781336018
    62   1      4.6829046827490117      1.4506105972998284      5.3181403539957728
    63   2      5.7510689924959024       1.168419016339044     0.44521467109829516
    64   2      7.2085971708278862      10.070705520453203      7.1624180720033337

Velocities

     1                       0                       0                       0
     2                       0                       0                       0
     3                       0                       0                       0
     4                       0                       0                       0
     5                       0                       0                       0
     6                       0                       0                       0
     7                       0                       0                       0
     8                       0                       0                       0
     9                       0                       0                       0
    10                       0                       0                       0
    11                       0                       0                       0
    12                       0                       0                       0
    13                       0                       0                       0
    14                       0                       0                       0
    15                       0                       0                       0
    16                       0                       0                       0
    17                       0                       0                       0
    18                       0                       0                       0
    19                       0                       0                       0
    20                       0                       0                       0
    21                       0                       0                       0
    22                       0                       0                       0
    23                       0                       0                       0
    24                       0                       0                       0
    25                       0                       0                       0
    26                       0                       0                       0
    27                       0                       0                       0
    28                       0                       0                       0
    29                       0                       0                       0
    30                       0                       0                       0
    31                       0                       0                       0
    32                       0                       0                       0
    33                       0                       0                       0
    34                       0                       0                       0
    35                       0                       0                       0
    36                       0                       0                       0
    37                       0                       0                       0
    38                       0                       0                       0
    39                       0                       0                       0
    40                       0                       0                       0
    41                       0                       0                       0
    42                       0                       0                       0
    43                       0                       0                       0
    44                       0                       0                       0
    45                       0                       0                       0
    46                       0                       0                       0
    47                       0                       0                       0
    48                       0                       0                       0
    49                       0                       0                       0
    50                       0                       0                       0
    51                       0                       0                       0
    52                       0                       0                       0
    53                       0                       0                       0
    54                       0                       0                       0
    55                       0                       0                       0
    56                       0                       0                       0
    57                       0                       0                       0
    58                       0                       0                       0
    59                       0                       0                       0
    60                       0                       0                       0
    61                       0                       0                       0
    62                       0                       0                       0
    63                       0                       0                       0
    64                       0                       0                       0
