(written by ASE)

8 atoms
1 atom types

0.0       5.443702220916748  xlo xhi
0.0       5.443702220916748  ylo yhi
0.0       5.443702220916748  zlo zhi

Atoms # atomic

     1   1       2.721851110458374       2.721851110458374       2.721851110458374
     2   1       1.360925555229187       1.360925555229187       4.082776665687561
     3   1       1.360925555229187       4.082776665687561       1.360925555229187
     4   1       4.082776665687561       1.360925555229187       1.360925555229187
     5   1       4.082776665687561       4.082776665687561       4.082776665687561
     6   1   0.0039244930413132595    0.008364920533085185      2.7320861901555418
     7   1   0.0025036458407425577      2.7426875964117414   0.0085556847743707976
     8   1      2.7058076944164497      5.4348263457862629   0.0020562095606222047

Velocities

     1                       0                       0                       0
     2                       0                       0                       0
     3                       0                       0                       0
     4                       0                       0                       0
     5                       0                       0                       0
     6                       0                       0                       0
     7                       0                       0                       0
     8                       0                       0                       0
