(written by ASE)

8 atoms
1 atom types

0.0       5.443702220916748  xlo xhi
0.0       5.443702220916748  ylo yhi
0.0       5.443702220916748  zlo zhi

Atoms # atomic

     1   1       2.721851110458374       2.721851110458374       2.721851110458374
     2   1       1.360925555229187       1.360925555229187       4.082776665687561
     3   1       1.360925555229187       4.082776665687561       1.360925555229187
     4   1       4.082776665687561       1.360925555229187       1.360925555229187
     5   1       4.082776665687561       4.082776665687561       4.082776665687561
     6   1       2.748242521735591      5.4251918599427427      5.4279316840919591
     7   1    0.021413294639669678      2.7098231721235351      5.4330631761478401
     8   1      5.4164191662522683   0.0078432444856919581      2.7343532616063442

Velocities

     1                       0                       0                       0
     2                       0                       0                       0
     3                       0                       0                       0
     4                       0                       0                       0
     5                       0                       0                       0
     6                       0                       0                       0
     7                       0                       0                       0
     8                       0                       0                       0
