(written by ASE)

8 atoms
1 atom types

0.0       5.443702220916748  xlo xhi
0.0       5.443702220916748  ylo yhi
0.0       5.443702220916748  zlo zhi

Atoms # atomic

     1   1      5.2977971753427937      1.3531372222105134     0.78716374303351699
     2   1      5.3730570038527787      4.0457773587554016      3.5152407826457477
     3   1      1.2647573706747579      2.5918433072196621      4.8277794340288835
     4   1      3.9458912354262452      5.4364237112868068      4.8554602888362979
     5   1       2.512411930962827      1.2645896197172561      3.4436717996707387
     6   1      2.6331394072944079      3.9504815116269754     0.73667662640183806
     7   1       1.203061196712099      5.3275367919013661      2.0293527694654188
     8   1      3.9347015651740094      2.6322476016721765      2.1825699073078084

Velocities

     1                       0                       0                       0
     2                       0                       0                       0
     3                       0                       0                       0
     4                       0                       0                       0
     5                       0                       0                       0
     6                       0                       0                       0
     7                       0                       0                       0
     8                       0                       0                       0
