(written by ASE)

8 atoms
1 atom types

0.0       5.443702220916748  xlo xhi
0.0       5.443702220916748  ylo yhi
0.0       5.443702220916748  zlo zhi

Atoms # atomic

     1   1      1.0425802315044237      3.7147274957593766      4.8919394704592207
     2   1      3.7965403191198561       3.596211606519347      2.2120119849340227
     3   1      5.1078751870361998      2.2898476180399996     0.75187195914556071
     4   1      3.7138215756948796     0.92819370891941588      4.8568110571846148
     5   1      2.3469220422180257      2.3308473148271673      3.5322988161811111
     6   1      2.4619922229605891      4.9762662868926668     0.88122774004558835
     7   1      5.0802767475928192      5.0682729822682973      3.5766457448398228
     8   1     0.98438022111445633      0.9155356499666496      2.1027284010504275

Velocities

     1                       0                       0                       0
     2                       0                       0                       0
     3                       0                       0                       0
     4                       0                       0                       0
     5                       0                       0                       0
     6                       0                       0                       0
     7                       0                       0                       0
     8                       0                       0                       0
