(written by ASE)

8 atoms
1 atom types

0.0       5.443702220916748  xlo xhi
0.0       5.443702220916748  ylo yhi
0.0       5.443702220916748  zlo zhi

Atoms # atomic

     1   1     0.65183909428733244      3.9859613258435047      5.1352542848020732
     2   1      4.7673754615908877      5.3876717787614723      3.7975546121433581
     3   1      3.4263885839989996      3.9481667430954133      2.4634529866175967
     4   1     0.71568885634027879      1.2275751438155353      2.4500090614770755
     5   1      4.7362140177677645      2.6107253485066622      1.0537118216379113
     6   1      1.9937739919180615      5.2868407989753621      1.1058229103049797
     7   1       2.036330333228662      2.5784757947493375      3.8050849104445206
     8   1      3.3394643857187418      1.1661303529366762       5.224626608758058

Velocities

     1                       0                       0                       0
     2                       0                       0                       0
     3                       0                       0                       0
     4                       0                       0                       0
     5                       0                       0                       0
     6                       0                       0                       0
     7                       0                       0                       0
     8                       0                       0                       0
