(written by ASE)

8 atoms
1 atom types

0.0       5.443702220916748  xlo xhi
0.0       5.443702220916748  ylo yhi
0.0       5.443702220916748  zlo zhi

Atoms # atomic

     1   1      1.3018298455777426      2.8152173348706242       4.851677618309111
     2   1      4.0152122906767431       2.866143864914676      2.2387210522797005
     3   1      5.3642181182951276      1.4119114632717356      3.5785763409658102
     4   1      2.6927391809932004      1.5048982200924996     0.75899845460995152
     5   1       2.634291113336289      4.2308485215017413      3.5677244439181379
     6   1      1.3312359881584186     0.15647136851820065      2.1089029017192473
     7   1      4.0730351047647844      5.4178354775278876      5.0264254455353807
     8   1   0.0066175573969517454      4.0864866549488283     0.83977167629183214

Velocities

     1                       0                       0                       0
     2                       0                       0                       0
     3                       0                       0                       0
     4                       0                       0                       0
     5                       0                       0                       0
     6                       0                       0                       0
     7                       0                       0                       0
     8                       0                       0                       0
