(written by ASE)

8 atoms
1 atom types

0.0       5.443702220916748  xlo xhi
0.0       5.443702220916748  ylo yhi
0.0       5.443702220916748  zlo zhi

Atoms # atomic

     1   1      3.0082188673506209      3.9653792243208557     0.29084010855019748
     2   1      4.4362564864982517      2.6118939269852746      4.3891781699086891
     3   1     0.32460674177799476      1.2706018854175056     0.34172520783915061
     4   1      4.3108984996937352      5.3859754499301005       1.614842587003082
     5   1     0.22272847443164956      4.0161818068489197      2.9878324212000678
     6   1      1.6433255314951083      2.6292233796230562       1.728957528250703
     7   1      1.6460859594853332      5.2944437785424441      4.3582464508010617
     8   1      2.9435104767265159      1.2889171588418051      3.0953056250693862

Velocities

     1                       0                       0                       0
     2                       0                       0                       0
     3                       0                       0                       0
     4                       0                       0                       0
     5                       0                       0                       0
     6                       0                       0                       0
     7                       0                       0                       0
     8                       0                       0                       0
