(written by ASE)

8 atoms
1 atom types

0.0       5.443702220916748  xlo xhi
0.0       5.443702220916748  ylo yhi
0.0       5.443702220916748  zlo zhi

Atoms # atomic

     1   1      4.6697083881618369      1.1799403612837764      4.1834564424829637
     2   1      0.5269006065527968      5.2628692844893408     0.17367379117559167
     3   1     0.58676973085815831      2.5528627868513212      2.9291410010903007
     4   1      4.6483527503090443      3.8438451157255429      1.4977628017048374
     5   1      3.3520830215741455      5.2726215529200431      2.8350074052767127
     6   1      1.9593068483753484      1.1951095741975593      1.4924509043639063
     7   1      1.9383454414961818      3.9636475282663355      4.3098520841464563
     8   1      3.2468548251999039      2.4765232846255003     0.12813042018241561

Velocities

     1                       0                       0                       0
     2                       0                       0                       0
     3                       0                       0                       0
     4                       0                       0                       0
     5                       0                       0                       0
     6                       0                       0                       0
     7                       0                       0                       0
     8                       0                       0                       0
