(written by ASE)

8 atoms
1 atom types

0.0       5.443702220916748  xlo xhi
0.0       5.443702220916748  ylo yhi
0.0       5.443702220916748  zlo zhi

Atoms # atomic

     1   1     0.10307273244213011     0.76087956907052501      1.4539108519352339
     2   1     0.18008466819361857      3.4043522082180857       4.153870624674596
     3   1      1.5434859696019316      2.0724579516746928      2.8277843800060225
     4   1      2.8657525541704842      3.4867137102422703      1.4350972738049705
     5   1       4.296877180300072      4.8413851074330694      2.8113013071992725
     6   1       4.197146153600869        2.17595266740976    0.082630898259338448
     7   1       2.876972075656937      0.7247445689334242      4.2093364891392469
     8   1      1.5020148179960984      4.8318580211387427    0.036588502642525444

Velocities

     1                       0                       0                       0
     2                       0                       0                       0
     3                       0                       0                       0
     4                       0                       0                       0
     5                       0                       0                       0
     6                       0                       0                       0
     7                       0                       0                       0
     8                       0                       0                       0
