ITEM: TIMESTEP
10000
ITEM: NUMBER OF ATOMS
64
ITEM: BOX BOUNDS pp pp pp
0.0000000000000000e+00 1.1085848640000000e+01
0.0000000000000000e+00 1.1085848640000000e+01
0.0000000000000000e+00 1.1085848640000000e+01
ITEM: ATOMS id type xu yu zu vx vy vz fx fy fz element
3 1 2.79977 0.0610514 2.71568 1.30769 2.22906 1.40274 0.537229 -0.27046 1.21678 Si
4 1 2.83153 2.76473 0.0137093 -0.340584 2.52335 -3.09608 -0.853509 0.568301 -0.982287 Si
7 2 4.24588 1.39793 1.31702 -0.687793 -3.51088 2.20222 -1.11744 -0.000336784 1.42421 Ge
34 1 5.46541 2.79638 2.82023 4.7579 -0.10928 -0.692532 0.926868 -0.0342686 -0.661833 Si
2 1 -0.024944 2.76854 2.78982 -0.0366773 4.68269 3.97388 0.912074 0.917697 -0.354432 Si
35 1 8.27825 0.0565848 2.6868 3.65871 -1.69105 0.639332 0.93166 -1.8301 0.867398 Si
39 2 9.65081 1.44999 1.3574 -1.10656 -0.157347 0.93902 0.373792 -0.343107 -0.127521 Ge
6 2 1.44382 4.1872 1.38075 -1.8136 2.7857 0.31274 -0.980928 -0.698012 0.557778 Ge
19 1 2.74038 5.64383 2.78887 -1.41664 -2.5457 6.42107 0.88399 -1.15854 -0.461311 Si
23 2 4.28899 6.96302 1.46785 0.349912 -0.0288278 -2.5697 -1.78103 0.476904 0.291186 Ge
38 2 6.85866 4.17109 1.38104 0.239073 -0.461949 0.0531243 0.362264 0.10886 0.550252 Ge
49 1 5.5477 5.61404 0.00928064 -1.30353 -7.77687 -1.42837 -0.521779 -1.91599 -0.776026 Si
51 1 8.40217 5.5057 2.67678 0.387245 0.148037 -1.55189 -1.62186 0.367399 0.587432 Si
55 2 9.70518 6.8909 1.30077 -0.64544 -1.00588 0.0958223 0.63232 0.644475 0.533564 Ge
20 1 2.74797 8.3023 0.162221 -4.65949 3.85477 -1.31227 1.86474 0.28659 -1.45396 Si
22 2 1.3808 9.72701 1.46661 2.92714 0.860768 1.05547 -1.24169 -0.605213 -0.165036 Ge
33 1 5.57422 -0.0189635 0.00400767 4.05678 0.321282 -0.371293 0.431603 -0.264632 -0.851988 Si
50 1 5.66932 8.33729 2.84942 -0.991302 4.80989 4.42518 -0.846833 0.307941 -0.113001 Si
54 2 6.94689 9.65275 1.33901 -0.27923 0.495657 2.88394 0.607616 0.376551 0.118098 Ge
1 1 -0.0651139 -0.0489321 0.0383803 -2.09747 -0.133975 -2.1061 0.44171 0.935141 0.16312 Si
18 1 -0.0496922 8.26744 2.8121 3.95728 0.117749 2.86579 0.15445 1.02932 -1.5477 Si
5 2 1.40205 1.38688 4.17337 -0.407858 0.608511 -0.137779 -0.241975 0.319224 0.16732 Ge
9 1 0.0285855 0.0105913 5.59464 -4.25595 -2.13502 -3.47102 -0.0877929 -1.07277 -1.31755 Si
12 1 2.69976 2.78738 5.66067 -6.53046 -2.39255 0.866723 0.494381 -0.646912 -2.02476 Si
15 2 4.09 1.41807 6.98711 -1.7746 -0.104012 0.464636 0.551609 -0.541147 0.148217 Ge
37 2 6.93618 1.37125 4.10569 -0.42633 0.871255 -3.69693 -0.666312 1.40157 0.690391 Ge
41 1 5.48965 0.0828685 5.5401 3.89497 1.29281 -2.61038 0.567872 -0.614573 0.511386 Si
44 1 8.35507 2.82452 5.44819 -1.34998 1.61856 -0.927673 -0.694079 -1.56533 0.703972 Si
47 2 9.68891 1.36924 6.88778 -2.4005 -0.398269 5.7709 -1.4274 -0.237806 0.0673844 Ge
14 2 1.33964 4.10094 6.98188 -0.126738 1.21136 -0.20278 -0.413192 1.64916 0.063747 Ge
21 2 1.35618 6.97108 4.14812 -1.05755 -2.18293 -0.336006 0.387571 -0.466765 1.10063 Ge
25 1 0.0291073 5.57763 5.57733 1.08311 -3.10742 -0.442374 -0.0536851 -0.36623 0.00208556 Si
8 2 4.0263 4.15967 4.18388 -1.30626 3.05329 -1.39589 0.738372 0.766439 0.286107 Ge
31 2 4.18339 6.96425 6.91969 4.11293 -1.78426 0.726864 -0.54112 -0.45629 0.0101548 Ge
46 2 6.91278 4.13057 6.81937 -0.627009 2.01864 1.52741 -0.42868 1.26189 0.646273 Ge
53 2 7.07278 6.89753 4.13629 0.287948 1.36292 -3.17587 -0.599471 0.337086 0.486296 Ge
57 1 5.49797 5.62787 5.45858 3.33865 -3.91495 0.871934 0.928595 -1.72953 0.405533 Si
40 2 9.71287 4.23801 4.15719 0.782673 -0.101276 -2.04435 1.1839 -0.777724 -0.445342 Ge
63 2 9.77087 6.94767 7.00632 0.0192844 -0.468506 1.1969 -0.758678 -0.796326 -0.194675 Ge
28 1 2.784 8.30104 5.53143 -3.91025 1.71912 -0.448429 -0.147679 0.598894 0.00899195 Si
30 2 1.37482 9.61951 6.93987 0.722069 0.578942 0.755928 0.339433 1.20627 0.339217 Ge
24 2 4.16445 9.74467 4.18455 1.13483 0.761357 -1.69656 -0.0431003 -0.289718 -1.02768 Ge
62 2 6.84845 9.67767 6.90192 -1.32863 -0.210579 2.66978 0.407495 0.727579 0.976408 Ge
56 2 9.70597 9.70455 4.15388 0.186762 -1.18868 -2.25165 -1.21442 0.596435 0.847839 Ge
60 1 8.33325 8.28452 5.67432 6.26797 1.09272 -1.06507 0.595924 0.68796 -2.36577 Si
13 2 1.30821 1.40335 9.76413 1.14349 -0.71526 -1.51144 0.44629 -0.529719 -0.625098 Ge
42 1 5.55238 2.78537 8.31472 -0.934342 -1.07176 -1.83598 0.480138 -0.66231 -0.619663 Si
45 2 6.96424 1.34119 9.67217 0.360578 -1.80475 -1.59975 -0.913106 0.792515 0.366635 Ge
36 1 8.2394 2.82305 -0.00832042 -0.650611 -1.4931 -2.3408 0.416082 -0.696364 -0.357713 Si
10 1 -0.0998445 2.72295 8.27469 5.79945 -3.07879 -3.33216 0.835067 0.725902 1.86039 Si
17 1 0.00300658 5.50045 -0.0298235 0.5863 2.90276 6.1894 1.06548 0.4681 -0.399894 Si
27 1 2.81632 5.51227 8.27266 -2.5942 -3.18409 0.957444 -0.567031 0.504317 0.10786 Si
29 2 1.50964 6.91151 9.73628 -0.0242818 -2.05447 1.69424 -1.58317 -0.402417 0.155224 Ge
16 2 4.17023 4.16624 9.64853 1.00345 1.71389 1.56866 0.48969 0.258473 1.67232 Ge
61 2 6.90386 6.83633 9.61657 1.02273 -0.0854946 1.90382 0.255366 1.82715 1.16827 Ge
48 2 9.64477 4.17058 9.69105 -0.26798 -0.33488 -0.058088 0.151949 -0.510243 -0.597497 Ge
59 1 8.28451 5.54201 8.27308 1.30022 -1.34703 -7.97779 0.606835 -1.1501 -0.92177 Si
11 1 2.71145 -0.0199668 8.35697 -6.29613 4.17274 2.34013 0.265103 -0.100829 0.389973 Si
26 1 0.0407627 8.28702 8.38598 -2.40393 -1.88297 -0.956541 0.476547 -0.00542564 0.212633 Si
32 2 4.16148 9.67679 9.75582 -0.571148 -0.559536 2.4336 -1.15096 0.011311 0.326742 Ge
58 1 5.52776 8.29872 8.35822 -0.865339 4.57665 -7.81319 -0.10352 0.236097 -0.777007 Si
52 1 8.30518 8.23758 -0.0851095 4.6685 -0.528345 2.97218 -0.419741 0.220168 0.335529 Si
43 1 8.30547 -0.0653795 8.3165 0.796243 0.933508 -2.41809 0.0279657 0.546171 -1.36812 Si
64 2 9.6855 9.67189 9.69423 -1.46146 0.60242 -2.83278 0.248198 -0.422713 0.170281 Ge
ITEM: TIMESTEP
10100
ITEM: NUMBER OF ATOMS
64
ITEM: BOX BOUNDS pp pp pp
0.0000000000000000e+00 1.1085848640000000e+01
0.0000000000000000e+00 1.1085848640000000e+01
0.0000000000000000e+00 1.1085848640000000e+01
ITEM: ATOMS id type xu yu zu vx vy vz fx fy fz element
3 1 2.70293 -0.0495471 2.84837 -2.5579 0.667412 -2.58528 0.464839 0.712971 -1.57928 Si
4 1 2.71319 2.7546 0.0201052 0.599984 -2.62757 5.40082 1.04882 0.190057 -0.219301 Si
7 2 4.0987 1.40276 1.44779 2.49399 -0.0214582 -1.27563 -0.179133 -0.77296 -0.281979 Ge
34 1 5.60296 2.77769 2.72959 -4.34811 1.04469 3.80471 0.673162 -1.08028 0.435078 Si
2 1 -0.0144959 2.70399 2.73296 -1.82966 -5.55166 0.356136 -0.661766 0.849177 1.49187 Si
35 1 8.30975 -0.0232073 2.83324 -2.00126 4.27133 -2.77942 0.303569 0.847064 -1.08424 Si
39 2 9.73006 1.30778 1.33745 -1.44431 -0.138624 1.68343 -0.688944 0.366374 0.919638 Ge
6 2 1.36725 4.11073 1.41712 -0.213171 0.766646 0.468354 -0.422591 0.94081 -1.08032 Ge
19 1 2.80011 5.50557 2.71007 -0.0938928 2.38979 -1.94452 -0.164668 -0.504643 1.84093 Si
23 2 4.09274 6.89742 1.34075 1.84062 -0.62872 -1.18335 0.790671 0.153138 -0.855868 Ge
38 2 6.99815 4.17329 1.35339 -1.91001 0.118069 0.651345 -1.04132 -0.189242 0.536847 Ge
49 1 5.55777 5.54294 0.0282955 2.72851 10.6249 4.06024 -0.189507 0.00957957 -1.0008 Si
51 1 8.25557 5.56916 2.79137 3.6558 -0.625067 0.96198 1.02665 -0.487762 0.183672 Si
55 2 9.71915 6.95184 1.48785 -1.05145 -0.789358 1.11373 -1.04738 -0.322365 -1.77221 Ge
20 1 2.79947 8.26293 -0.134247 -2.74935 -3.74261 2.17946 -1.03825 1.21971 0.757613 Si
22 2 1.38551 9.66366 1.35009 2.36388 -1.22055 0.76512 0.763925 -0.240289 -0.039036 Ge
33 1 5.43612 -0.000434949 0.00740902 -2.11965 0.0829478 -0.422893 0.818428 0.798189 0.179629 Si
50 1 5.45995 8.29502 2.67762 0.620392 -5.29152 -2.3815 0.453815 0.55612 1.29001 Si
54 2 6.87835 9.78528 1.3792 -2.83135 0.0783338 1.36759 -0.215951 -1.00421 0.887347 Ge
1 1 0.106753 0.029556 -0.0367465 -0.34721 -0.493527 -0.203647 -1.16048 -0.930397 -0.0501375 Si
18 1 -0.0374444 8.35145 2.79586 -3.47171 -1.63799 5.05141 2.03135 -0.414887 0.570611 Si
5 2 1.40081 1.40364 4.1869 3.5139 -1.40969 -2.16355 -0.387409 -0.0136711 -0.397727 Ge
9 1 0.0247564 0.0230795 5.56425 2.05947 5.67124 4.01486 -0.00856642 0.0163212 -0.24698 Si
12 1 2.87113 2.80986 5.44518 2.47548 0.448085 2.67718 -1.36586 -0.978898 1.26374 Si
15 2 4.20591 1.39448 6.82327 1.57651 1.06891 1.5677 0.122938 0.365334 1.92139 Ge
37 2 6.94443 1.36077 4.22743 2.17159 -4.45769 -1.09014 -0.904769 0.118364 -0.703748 Ge
41 1 5.51231 -0.0968208 5.54163 -3.4807 1.73309 -0.474827 0.962791 1.00076 -0.615318 Si
44 1 8.26648 2.76269 5.64562 3.66266 3.54862 0.447987 0.943907 0.203038 -1.24767 Si
47 2 9.73907 1.39707 6.9198 2.49025 -0.88226 2.29794 -0.683418 0.184276 1.88829 Ge
14 2 1.4434 4.14823 6.87608 0.940313 -1.32682 -1.63743 -0.370811 0.698814 0.740019 Ge
21 2 1.46031 6.93227 4.16278 -2.33886 -1.60861 -2.73155 -1.27505 -0.125488 -0.488649 Ge
25 1 -0.0184499 5.57053 5.54851 -0.633936 1.1538 1.2903 0.85223 -0.992946 -0.955842 Si
8 2 4.26091 4.09722 4.11953 -0.570666 -1.43473 -0.134966 -0.672606 2.44935 -0.469963 Ge
31 2 4.10603 6.94783 7.01241 -0.0117762 0.0173003 2.31006 1.75799 -0.262677 -0.341381 Ge
46 2 6.94361 4.15836 7.01663 -1.33832 0.489569 1.75195 -0.566441 0.727121 0.0217037 Ge
53 2 6.82782 6.89369 4.13541 -0.0941873 -2.24012 0.227362 -0.227193 0.910555 -0.050337 Ge
57 1 5.51375 5.5312 5.62306 -4.45799 5.67564 -1.53232 0.0702068 -0.164395 -0.309954 Si
40 2 9.63621 4.1513 4.17864 -0.350281 3.57774 1.26228 0.659635 -0.514853 -0.248838 Ge
63 2 9.63989 6.90442 6.86186 1.25392 0.537617 -0.260654 -0.28609 1.01891 1.01452 Ge
28 1 2.81765 8.30153 5.57824 2.24517 -2.64853 0.144482 -1.50893 0.140968 0.0716046 Si
30 2 1.37179 9.70564 6.92134 -0.0258389 -1.19133 0.137924 0.988948 -0.173494 0.120825 Ge
24 2 4.08915 9.66422 4.15657 -1.97862 0.27957 -1.15838 1.4035 -0.468437 -0.32402 Ge
62 2 6.99377 9.70951 6.91194 1.64426 0.807364 0.746851 -1.43283 -0.717981 0.86455 Ge
56 2 9.72771 9.73435 4.18764 -0.499674 -0.230668 -1.54459 -0.658358 -0.476295 0.0426847 Ge
60 1 8.24802 8.31409 5.45177 -3.48368 -2.20064 5.74382 0.986372 -0.347296 0.749881 Si
13 2 1.41599 1.40128 9.65039 1.10422 -0.00434206 -2.61209 0.91979 -0.458103 -0.135084 Ge
42 1 5.5441 2.8046 8.37127 0.881233 0.93543 2.36158 -0.423649 -1.28449 -1.08439 Si
45 2 6.87812 1.38515 9.7639 2.57905 -1.03378 0.310081 0.0319219 0.100727 -0.255973 Ge
36 1 8.32137 2.74524 0.0172691 2.84377 4.22466 0.981966 0.903486 0.00897517 -0.6333 Si
10 1 0.0263578 2.82195 8.35624 -5.73799 1.14487 -3.74603 0.47459 -0.947318 -2.13672 Si
17 1 0.00364314 5.56688 -0.00638743 -3.54629 -4.15039 -1.85778 -0.110645 0.00639526 0.808894 Si
27 1 2.75046 5.5779 8.36307 -0.484236 1.36395 -3.75142 -0.468459 -1.14335 -0.959703 Si
29 2 1.28693 6.97508 9.59289 0.333286 0.546648 -2.4999 1.13159 -0.972203 1.74016 Ge
16 2 4.13192 4.14263 9.71441 -0.599517 1.19425 -3.41464 -0.119835 0.741972 0.997153 Ge
61 2 6.94486 6.99158 9.73465 -0.818912 -3.03956 -1.22725 0.413104 -0.815257 1.32922 Ge
48 2 9.74216 4.14562 9.70096 1.05688 2.29134 0.898904 -1.16134 0.518819 1.14423 Ge
59 1 8.31858 5.5597 8.38788 0.123673 2.60663 5.95334 0.260285 0.0962491 -0.807916 Si
11 1 2.86794 -0.0170751 8.26713 1.6637 -1.83825 -5.05373 -1.58197 1.04978 -0.68153 Si
26 1 -0.0526276 8.32709 8.26068 -0.394218 0.388273 -2.17946 -0.735558 0.359471 -0.782192 Si
32 2 4.22343 9.69893 9.60458 0.167345 1.52872 -2.3379 -1.24493 -0.203912 1.81478 Ge
58 1 5.58564 8.31184 8.3651 1.10857 -1.42359 7.15723 0.490221 0.176165 -2.3257 Si
52 1 8.31195 8.39648 0.0924108 -2.28658 0.00491123 -1.37454 0.741362 -0.771012 -0.915925 Si
43 1 8.2823 0.0274903 8.37032 0.345297 0.493044 2.40776 1.28594 0.134333 -0.738566 Si
64 2 9.74445 9.72681 9.71604 -2.10191 2.07569 -1.84279 -0.771323 0.109217 0.193693 Ge
ITEM: TIMESTEP
10200
ITEM: NUMBER OF ATOMS
64
ITEM: BOX BOUNDS pp pp pp
0.0000000000000000e+00 1.1085848640000000e+01
0.0000000000000000e+00 1.1085848640000000e+01
0.0000000000000000e+00 1.1085848640000000e+01
ITEM: ATOMS id type xu yu zu vx vy vz fx fy fz element
3 1 2.83923 -0.00138387 2.6848 -1.29456 -1.98948 4.15033 -1.24014 -0.237277 1.72703 Si
4 1 2.82986 2.78992 -0.0526816 -0.477727 0.952582 -3.60854 -1.0479 -0.837922 0.914071 Si
7 2 4.18126 1.37279 1.34809 -1.31655 -1.51421 3.5005 0.372068 0.614881 -0.517282 Ge
34 1 5.51284 2.73637 2.76754 0.00924456 3.8766 -3.97195 -0.661089 1.67381 0.2116 Si
2 1 0.0278989 2.83839 2.79187 1.06118 0.737565 -4.19897 0.760734 -1.82763 -1.41809 Si
35 1 8.29262 0.010869 2.76674 -2.27492 -2.16324 5.40332 0.420318 0.351508 0.581438 Si
39 2 9.70976 1.40875 1.40953 -1.3485 -0.40052 -0.770742 -0.501422 0.320387 0.628244 Ge
6 2 1.43039 4.17007 1.32776 0.773646 -0.46305 2.44291 -0.402658 0.023871 0.887337 Ge
19 1 2.72944 5.53871 2.81537 -2.32173 2.24111 -1.3029 0.169571 0.25436 -0.752805 Si
23 2 4.13649 6.91519 1.45576 0.779679 0.340628 3.99679 0.911085 0.299763 -0.467298 Ge
38 2 6.92907 4.17901 1.45107 2.20883 2.32638 -1.84328 -0.855825 -0.88924 -1.09717 Ge
49 1 5.50668 5.47749 -0.0266676 -3.03059 -5.56735 0.338294 0.77416 1.92469 1.69956 Si
51 1 8.29911 5.52434 2.81114 -2.06967 1.86352 -1.41696 0.869399 0.409751 -0.44277 Si
55 2 9.66393 6.87406 1.36271 2.86416 -2.63323 1.26131 0.162051 0.84547 -0.000440117 Ge
20 1 2.77086 8.37855 0.0881711 1.71203 -1.11081 -0.960211 -0.321975 -1.42655 -0.464381 Si
22 2 1.30759 9.75748 1.37694 0.368619 1.51639 3.00929 1.92733 -0.235945 -0.0349161 Ge
33 1 5.61866 0.0148084 0.0164778 -2.11585 -0.645862 1.80367 -0.487491 -0.62785 -0.652545 Si
50 1 5.59856 8.33294 2.83457 2.40396 2.81163 -1.78067 0.128983 -0.830877 -1.22819 Si
54 2 6.99626 9.67276 1.37597 2.70141 3.8243 -1.28844 -0.766776 -0.0956595 -0.109334 Ge
1 1 -0.0856988 -0.0180658 0.0462108 3.56406 -0.203444 1.18655 0.851037 1.07896 -0.662336 Si
18 1 0.0313426 8.30661 2.663 -5.15362 1.93921 -2.3273 -2.10256 -0.198059 1.71032 Si
5 2 1.38903 1.34354 4.14614 0.350549 1.32166 0.926636 0.317422 0.356367 -0.49024 Ge
9 1 -0.00638669 -0.07179 5.49455 -0.661401 -4.50569 0.708088 -0.160431 1.31199 0.328578 Si
12 1 2.70962 2.75136 5.5983 0.677645 4.92095 -1.25665 0.572717 0.0657725 -0.65271 Si
15 2 4.12777 1.37268 6.94654 -4.47796 -1.39956 -2.32394 -0.242891 -0.304558 0.112872 Ge
37 2 6.88175 1.44121 4.1515 -0.998318 -0.753752 -1.11854 0.903906 -1.73878 -0.179125 Ge
41 1 5.58136 0.0369642 5.57979 -2.37687 -3.16591 3.20018 -1.00938 -0.16238 -0.444866 Si
44 1 8.33084 2.73098 5.47813 -3.72995 -0.796724 -0.108418 0.145829 0.940629 0.458838 Si
47 2 9.70729 1.38521 6.86918 -0.00672915 -3.04878 -1.86802 0.627612 -0.601866 0.599552 Ge
14 2 1.37702 4.15063 7.00145 -0.97601 -0.861527 0.72684 -0.0900943 0.285908 -1.04242 Ge
21 2 1.34941 6.96656 4.12554 2.16822 1.21915 1.1929 -0.0349821 -0.601893 0.0853308 Ge
25 1 0.0136383 5.52001 5.51847 -0.958377 2.86409 2.57965 -0.622948 0.567103 0.976384 Si
8 2 4.0908 4.16459 4.17914 0.435872 -3.5369 0.337666 0.843191 -1.13041 0.0751732 Ge
31 2 4.14133 6.93874 6.84352 -2.64666 -0.830033 0.013902 -0.578381 -0.768829 0.200912 Ge
46 2 6.99236 4.15206 6.87018 0.972765 -0.281812 -1.25322 -0.873266 -0.648016 0.560113 Ge
53 2 7.01344 6.95019 4.19063 0.813423 -1.55798 -1.24401 -1.17316 -0.33935 0.281511 Ge
57 1 5.57763 5.51485 5.51228 1.13435 0.0531312 1.31023 -0.321171 0.736662 -0.114114 Si
40 2 9.70885 4.11874 4.1121 1.96256 1.44321 -2.17687 -0.250899 1.14017 1.3066 Ge
63 2 9.73197 6.96506 7.00109 0.605404 -2.75532 0.109302 0.29656 -0.602229 -1.05805 Ge
28 1 2.7013 8.34894 5.50088 1.98077 1.54303 -0.838142 1.719 -0.0521212 -0.239498 Si
30 2 1.37242 9.70788 6.90069 -0.754144 1.81721 3.07199 0.178034 0.327226 1.11399 Ge
24 2 4.23077 9.72356 4.15655 -1.00204 2.33955 -2.13324 -1.366 0.320281 0.36247 Ge
62 2 6.87193 9.69336 6.96274 2.57774 1.48845 -0.00926959 1.76139 0.550686 -0.511268 Ge
56 2 9.68801 9.67244 4.13712 0.686275 2.47006 -0.509584 0.229776 -0.288013 -0.907821 Ge
60 1 8.33982 8.33886 5.5937 -1.81564 1.95654 -3.14777 -0.0769336 -0.0823636 0.228908 Si
13 2 1.32342 1.38181 9.76745 -2.86209 0.194488 -0.903945 0.576137 0.0284159 -0.199136 Ge
42 1 5.54499 2.74018 8.26538 -0.548647 5.29805 3.64605 0.526562 1.30831 0.508664 Si
45 2 6.96449 1.42601 9.68864 -0.0192194 -2.2532 -1.61933 -0.181888 -0.816235 -0.101169 Ge
36 1 8.30033 2.77553 0.0417262 -7.66102 -1.83744 0.983898 0.202984 0.528022 -0.0830927 Si
10 1 0.00774957 2.76008 8.33696 0.652486 1.18389 5.70332 -1.09033 -0.259204 -0.15032 Si
17 1 0.0146067 5.57337 -0.000219992 1.90756 0.993079 -1.58818 -0.475745 -1.34566 -0.633567 Si
27 1 2.80649 5.52524 8.32017 3.44461 0.47947 6.79212 0.0293052 0.818786 -0.203471 Si
29 2 1.4459 6.9127 9.74138 0.746723 1.60614 -0.972626 -0.147071 1.26679 -0.292373 Ge
16 2 4.18064 4.16256 9.70175 2.42577 -0.445445 -1.49862 0.0888801 -1.08912 -1.71432 Ge
61 2 6.84955 6.91207 9.64268 -2.57639 -0.447738 -3.55037 0.305093 -0.366445 0.216398 Ge
48 2 9.66172 4.14177 9.69407 -0.054889 -1.80312 -2.25343 0.779763 0.585084 0.548994 Ge
59 1 8.30046 5.55029 8.30647 -3.0529 -0.446511 -0.675723 0.145791 -0.105062 -0.0225177 Si
11 1 2.71829 0.0153673 8.37832 2.85964 -1.38234 5.19189 0.597997 -0.682412 -0.449027 Si
26 1 0.0443425 8.36532 8.36552 2.39802 -0.786977 3.54402 0.571228 -1.2932 -0.382158 Si
32 2 4.15385 9.67469 9.76047 2.13879 -1.18888 -1.96802 0.561821 0.917946 -1.09561 Ge
58 1 5.49073 8.29004 8.23069 -1.25379 1.12899 2.6739 -0.523358 0.381742 1.77289 Si
52 1 8.30132 8.26053 -0.0818358 0.758183 2.02588 3.23319 0.170243 0.221253 0.734236 Si
43 1 8.34782 0.000435184 8.30439 -5.03477 -1.76629 3.58406 -0.430943 -0.0437996 0.0864325 Si
64 2 9.7395 9.69405 9.70613 1.6832 0.206757 -2.44058 -1.46026 0.0723651 -0.104009 Ge
ITEM: TIMESTEP
10300
ITEM: NUMBER OF ATOMS
64
ITEM: BOX BOUNDS pp pp pp
0.0000000000000000e+00 1.1085848640000000e+01
0.0000000000000000e+00 1.1085848640000000e+01
0.0000000000000000e+00 1.1085848640000000e+01
ITEM: ATOMS id type xu yu zu vx vy vz fx fy fz element
3 1 2.74587 0.0422216 2.85234 3.60915 1.25302 -4.59949 0.434078 -0.782394 -1.37718 Si
4 1 2.70027 2.76631 0.0599902 0.873123 1.89276 2.32657 0.98958 0.573637 -0.812837 Si
7 2 4.14936 1.41965 1.37915 0.0372875 -1.24868 0.978729 0.140317 -0.781122 0.925775 Ge
34 1 5.56142 2.79877 2.79761 1.12702 -5.10991 1.38289 -0.312415 -0.408981 -0.545796 Si
2 1 -0.0170108 2.74556 2.78661 -2.29386 2.69853 6.82872 -0.576867 1.34208 -0.082473 Si
35 1 8.39256 -0.0135769 2.72103 -0.356389 -0.0294798 -4.70613 -1.56178 -0.267523 0.648525 Si
39 2 9.73614 1.36526 1.32818 1.93035 -2.14704 0.451555 -0.00518628 0.638174 0.475298 Ge
6 2 1.38493 4.19646 1.41395 -1.15747 1.46452 -1.3522 -0.504396 -0.85043 0.619174 Ge
19 1 2.8491 5.54434 2.74527 2.25376 -1.92509 -0.112581 -1.26607 0.993099 -0.534292 Si
23 2 4.18294 6.9284 1.29982 -2.90494 -2.68305 -3.33889 -0.425182 0.159778 1.20095 Ge
38 2 6.93166 4.11391 1.36513 2.49849 0.505698 1.94076 0.802833 0.472655 -0.7066 Ge
49 1 5.61271 5.59399 -0.00367884 0.787339 0.1736 -2.19484 -0.671179 -1.58437 -0.876577 Si
51 1 8.32079 5.54832 2.69431 -4.69332 -2.7244 0.886083 -0.603438 0.0978461 0.512346 Si
55 2 9.72954 6.99764 1.4324 -1.04199 -1.42943 4.64758 0.580039 -1.08905 -0.417709 Ge
20 1 2.77842 8.2897 -0.0469276 1.88756 3.65287 0.911149 -0.499023 0.309275 0.302072 Si
22 2 1.4066 9.69502 1.37764 -2.0995 0.975899 -0.937275 -0.0330297 0.33944 0.515493 Ge
33 1 5.52321 -0.0199966 -0.0359454 0.703378 1.41197 2.26124 -0.369449 0.386872 1.3664 Si
50 1 5.4561 8.29614 2.78021 -5.74723 -0.542649 2.2578 0.616607 0.409436 0.0454013 Si
54 2 6.86004 9.67265 1.41054 -0.573409 0.826318 3.81292 1.05814 0.580326 -0.267864 Ge
1 1 0.0134308 0.0256234 -0.0363948 -4.53 -1.11089 1.35167 0.364729 -1.42777 0.66344 Si
18 1 0.0609853 8.31119 2.86068 8.14448 -0.750364 -3.93989 0.106748 0.25731 -1.32068 Si
5 2 1.34463 1.40104 4.19316 0.847267 -2.61056 -0.862736 0.141595 0.0634079 -0.40016 Ge
9 1 -0.0342106 0.0779393 5.57163 0.265097 0.114453 -1.57719 -0.130917 -1.55202 0.651119 Si
12 1 2.78435 2.73826 5.49337 -0.921808 -1.20575 0.471287 0.468335 1.66365 0.852538 Si
15 2 4.214 1.39921 6.90926 2.43529 1.41848 -0.0700476 -1.43805 -0.897179 -0.608447 Ge
37 2 6.97186 1.39725 4.1476 0.566461 0.554518 -1.76979 0.449711 -0.188585 -0.522923 Ge
41 1 5.56774 0.0212286 5.48371 2.82125 0.853411 0.0774193 -0.11612 -0.421261 1.01949 Si
44 1 8.29471 2.7929 5.59177 -0.526107 -2.57577 3.10172 -0.726957 -0.00988877 -0.411527 Si
47 2 9.65118 1.44408 6.99581 -0.314464 1.06695 2.03725 0.568999 -0.872405 -1.70325 Ge
14 2 1.40533 4.17226 6.91788 2.82427 -0.476379 0.526528 -0.656837 -1.27327 -0.799435 Ge
21 2 1.44232 6.89578 4.178 -0.833354 -1.14989 -2.09148 0.34682 -0.00475376 0.593584 Ge
25 1 -0.025291 5.529 5.53849 0.720342 -2.10168 -3.33181 0.00320286 0.270115 -0.221619 Si
8 2 4.17007 4.23024 4.12657 -0.586724 2.54559 -0.644316 0.23273 -1.86829 0.952358 Ge
31 2 4.24433 6.92512 7.0286 3.00147 -0.046179 1.78129 -0.921516 -0.146112 -1.48312 Ge
46 2 6.86735 4.14821 6.94957 0.826202 2.70476 2.28044 0.79406 0.0850222 -0.588695 Ge
53 2 6.9375 6.9241 4.08077 1.40395 -0.0848555 -1.23432 -0.285943 -0.0950187 0.836079 Ge
57 1 5.54978 5.55308 5.5373 -1.29179 -1.85712 0.812334 0.372779 0.572727 0.0680037 Si
40 2 9.58939 4.18538 4.16068 -3.02501 -0.349503 -2.72381 2.04343 -0.741892 -0.29133 Ge
63 2 9.65704 6.94102 6.90697 -0.132006 2.08597 0.501813 0.885022 -1.11021 -0.530173 Ge
28 1 2.82822 8.28471 5.63074 -4.5945 -1.55573 3.12146 -0.63027 -0.399006 -0.377789 Si
30 2 1.36472 9.65627 6.93373 -1.86214 -1.11018 -1.94622 -0.413397 0.754405 -0.158611 Ge
24 2 4.12269 9.69874 4.23358 1.4036 0.111638 -0.983489 0.193941 0.135242 -1.15655 Ge
62 2 6.87242 9.64265 6.87907 -1.58429 -0.622173 1.81827 1.44936 1.00731 -0.340224 Ge
56 2 9.73074 9.68382 4.16909 -0.240857 -0.412862 -1.23986 0.105592 1.03235 0.215784 Ge
60 1 8.34134 8.29087 5.50236 -0.185116 -0.529457 2.37528 -1.36091 0.320505 -0.145056 Si
13 2 1.40815 1.36504 9.72871 1.29173 -1.13582 -1.50226 -0.390343 0.546086 -1.20411 Ge
42 1 5.52183 2.74727 8.2978 -0.898716 -7.60051 -3.14897 -0.671365 1.14934 1.43241 Si
45 2 6.86847 1.35614 9.68199 1.59228 1.55609 0.0784461 1.85832 0.0613445 -0.605247 Ge
36 1 8.37611 2.74928 -0.0676809 3.50577 -0.445393 1.8593 -1.71704 -0.225768 0.609919 Si
10 1 0.00790889 2.73241 8.29565 1.99199 1.55587 0.670196 0.808031 1.37441 1.19679 Si
17 1 -0.0191151 5.5225 0.0237047 -0.894114 4.82173 2.43026 -0.0336449 0.881647 0.0962781 Si
27 1 2.73329 5.56819 8.26395 -2.33182 0.190778 -2.39577 0.973434 -0.547703 1.45658 Si
29 2 1.36718 6.87524 9.699 -1.71772 -2.83039 -1.98049 -0.236354 0.570792 -0.158804 Ge
16 2 4.08135 4.1773 9.73013 -1.20476 3.06765 1.69469 1.18791 -0.148303 -0.417215 Ge
61 2 7.03623 6.94122 9.71645 0.218962 -1.06993 0.173616 -0.594337 -0.25415 -0.916285 Ge
48 2 9.71296 4.16851 9.67868 0.0239586 0.45961 0.0247363 0.641213 -0.588925 -0.467045 Ge
59 1 8.35294 5.49712 8.24628 1.12833 1.76398 3.94738 -1.03558 0.7814 1.23767 Si
11 1 2.75162 -0.000214954 8.27859 -0.988069 1.83391 0.264851 0.845026 -0.0847513 0.392303 Si
26 1 -0.0315433 8.23328 8.28961 -4.56503 3.72813 -0.213003 0.231025 1.3731 1.0458 Si
32 2 4.15325 9.70339 9.6994 -1.97076 -0.212333 -0.281503 -0.467618 -0.0405622 -0.824293 Ge
58 1 5.57621 8.33308 8.35216 1.87528 -3.16595 -2.68688 0.411471 -0.47811 0.765633 Si
52 1 8.34286 8.32589 0.0468552 -2.91859 -0.500598 -2.4202 -0.272029 0.652725 -0.058727 Si
43 1 8.30961 -0.0233634 8.23672 2.51485 2.78307 0.268105 -1.15971 -0.492229 1.74112 Si
64 2 9.7034 9.70212 9.71568 1.71195 2.21 -2.21795 -0.0181382 -0.223481 -1.10569 Ge
ITEM: TIMESTEP
10400
ITEM: NUMBER OF ATOMS
64
ITEM: BOX BOUNDS pp pp pp
0.0000000000000000e+00 1.1085848640000000e+01
0.0000000000000000e+00 1.1085848640000000e+01
0.0000000000000000e+00 1.1085848640000000e+01
ITEM: ATOMS id type xu yu zu vx vy vz fx fy fz element
3 1 2.7611 -0.0751226 2.67194 -1.92285 1.27436 4.41485 0.604355 1.28807 1.24078 Si
4 1 2.84183 2.73856 -0.0784133 -1.15812 -1.45688 -1.11464 -1.06914 0.394848 0.919659 Si
7 2 4.16288 1.36364 1.34685 0.110233 -0.468173 -1.4348 -0.0667336 -0.146675 0.177102 Ge
34 1 5.53203 2.73203 2.76356 -0.206452 2.09206 2.298 0.170448 -0.285076 0.638797 Si
2 1 0.0314945 2.75758 2.71035 3.01936 -2.54638 -3.35063 -0.104953 -0.204875 1.55418 Si
35 1 8.2518 0.0167666 2.86427 5.50223 -0.376433 2.18468 0.45314 -0.356162 -1.52386 Si
39 2 9.67031 1.38125 1.41593 -1.92627 -0.0494458 -0.752244 0.114364 -0.52406 -0.525333 Ge
6 2 1.43021 4.10521 1.37253 2.94323 1.99827 -0.084534 -0.0952983 0.323824 -1.24437 Ge
19 1 2.67921 5.52432 2.80528 1.86802 -2.13484 2.95634 1.79451 -0.693515 -0.0994045 Si
23 2 4.11753 6.92893 1.48831 2.31033 0.27729 1.24172 0.0758879 -0.300195 -1.80148 Ge
38 2 6.89464 4.2157 1.47795 -2.10989 1.18632 3.3826 0.908943 -0.359013 -0.420023 Ge
49 1 5.49013 5.51166 0.0118917 -0.339312 1.135 1.68001 -0.109588 1.11634 0.485245 Si
51 1 8.38257 5.56158 2.89229 3.28418 2.22737 0.678394 -1.45763 -0.319048 -0.869796 Si
55 2 9.63308 6.89232 1.33711 0.0599019 -1.20382 -0.299185 1.10232 -0.0468476 0.438412 Ge
20 1 2.71727 8.30631 0.00109041 -0.582952 -0.714232 0.288164 2.30164 0.477779 0.156849 Si
22 2 1.35616 9.67259 1.35761 -0.10786 0.151784 0.665939 -0.561911 -0.625318 0.335911 Ge
33 1 5.55465 0.0229897 -0.0138253 2.4189 -0.642387 -5.48904 0.029359 -0.309271 -0.213443 Si
50 1 5.66119 8.28593 2.74689 2.37514 -1.38394 2.9221 -2.22671 0.544453 0.480923 Si
54 2 6.92606 9.71673 1.32591 -1.56973 -0.241737 0.754316 0.970893 0.213196 1.19728 Ge
1 1 0.0475104 -0.0258571 -0.00442078 -0.497482 5.12349 -0.828879 -1.5481 1.37221 0.475618 Si
18 1 -0.109042 8.32033 2.74047 -4.48434 0.957347 3.89947 0.872108 -0.228161 -0.487336 Si
5 2 1.44266 1.3734 4.12338 1.79334 0.0114329 -0.233644 -0.310971 -0.331837 0.0506826 Ge
9 1 0.0375157 -0.0486977 5.52023 -1.17239 2.79626 -1.16956 0.212535 1.19409 -0.669531 Si
12 1 2.8099 2.76845 5.59611 -0.929787 -6.66821 -0.795839 -0.866434 -0.717969 -0.789018 Si
15 2 4.17413 1.35597 6.94367 0.891123 0.201415 0.769397 0.921233 1.47071 0.482567 Ge
37 2 6.8844 1.36829 4.25941 -0.340488 -0.334863 0.292986 0.0218153 0.633313 -1.46053 Ge
41 1 5.51218 -0.0410785 5.57581 0.798819 2.16685 -1.73854 0.0880274 0.153122 -0.110894 Si
44 1 8.37437 2.78112 5.47426 2.31989 -0.643168 -1.4428 -0.420903 -0.921497 2.06144 Si
47 2 9.77197 1.36284 6.87385 -0.7877 -0.580741 3.06256 -1.25776 0.150453 0.853197 Ge
14 2 1.37902 4.16168 6.93581 0.872006 2.06905 2.02345 1.05504 0.322751 -0.136953 Ge
21 2 1.33131 6.94606 4.09377 -0.868816 -0.124375 -3.00789 -0.927732 -0.0431461 0.525397 Ge
25 1 0.0246605 5.55063 5.55637 -1.41235 -0.0863833 3.53961 -0.0898832 0.491336 0.306136 Si
8 2 4.14881 4.08015 4.14908 -3.03911 2.33989 0.17884 -0.0956656 1.77996 0.287971 Ge
31 2 4.0348 6.9548 6.88514 1.01615 -0.637079 2.28566 2.0146 -0.291053 0.0913377 Ge
46 2 7.00202 4.13562 6.93001 -1.46163 -0.198909 -0.82565 -0.731992 0.831132 -0.380506 Ge
53 2 6.88961 6.91954 4.23319 3.21902 -2.05171 -1.6999 1.4759 0.0427383 -0.858756 Ge
57 1 5.53261 5.54027 5.55712 1.17419 -0.83012 -0.948617 -0.947487 -0.954065 0.596442 Si
40 2 9.78466 4.13933 4.20821 -1.72024 2.76703 -1.86376 0.180278 0.17068 -1.6463 Ge
63 2 9.6854 6.91159 6.96082 -1.66873 1.78887 4.77302 0.433603 1.12656 -0.410337 Ge
28 1 2.73763 8.31974 5.40626 2.51493 3.05722 -0.247663 -0.190944 0.4217 1.45875 Si
30 2 1.44418 9.75383 6.89273 1.21114 -0.0504364 2.16617 -0.134798 -1.42101 -0.526461 Ge
24 2 4.16889 9.68546 4.10186 -0.533498 2.36588 0.30813 0.749866 -0.283306 -0.576567 Ge
62 2 6.95968 9.75776 6.96626 -2.70536 -1.09303 1.52358 -0.547938 -0.971094 -0.231545 Ge
56 2 9.67595 9.70254 4.17935 -1.13229 -1.00523 -0.934582 -0.418708 -0.258422 -0.0767968 Ge
60 1 8.27056 8.32647 5.55577 3.37075 0.0340203 -2.21134 0.828808 -0.133491 0.888037 Si
13 2 1.34789 1.42391 9.6864 -2.81682 -2.28443 2.49986 1.28235 -0.990508 -0.806697 Ge
42 1 5.58373 2.8388 8.3541 -0.286681 1.98222 -0.319914 0.6367 -2.61885 -1.59855 Si
45 2 6.9603 1.41642 9.76058 -0.661767 -1.22356 -1.19787 -0.379901 0.280323 -0.897681 Ge
36 1 8.28364 2.82732 0.0474145 2.76533 0.819383 -2.43309 0.678837 -0.0205709 0.467578 Si
10 1 0.007461 2.80384 8.2686 -2.96874 -4.30724 -1.06781 -0.615168 -0.575933 0.661935 Si
17 1 0.0269739 5.49699 -0.0251958 1.09003 -4.92026 -1.12002 0.168557 1.24366 0.420462 Si
27 1 2.80254 5.50576 8.33865 -0.375697 0.287654 -1.83889 -1.44081 1.15912 -0.68184 Si
29 2 1.39601 6.99259 9.67704 3.03666 -0.739055 0.85454 -0.340371 -1.98022 -0.0972168 Ge
16 2 4.18742 4.12375 9.6384 -0.62862 2.13154 -1.93229 -0.318808 1.02706 1.65952 Ge
61 2 6.82914 6.97073 9.68524 -1.96147 -0.921546 -3.15867 1.15478 -0.760587 0.623655 Ge
48 2 9.71494 4.16098 9.70516 -1.88769 0.940568 -1.44507 -0.731509 -0.210128 -0.332161 Ge
59 1 8.28612 5.56829 8.35438 1.57597 -5.21575 -7.61053 0.258356 -0.200503 0.054146 Si
11 1 2.79969 0.011157 8.27074 -4.35772 -0.363155 -1.4175 -0.433659 0.243373 1.71936 Si
26 1 0.0503369 8.38732 8.2861 4.18628 -4.93153 -0.511728 -1.16339 -0.503466 0.15438 Si
32 2 4.21481 9.70698 9.67449 1.49758 -0.708627 0.982457 -1.79339 0.0095742 0.609081 Ge
58 1 5.52542 8.34006 8.27043 -3.78235 3.88746 -2.95272 -0.50515 -0.298986 -0.680271 Si
52 1 8.31784 8.32863 -0.0361499 1.89731 -2.48366 0.559496 -1.18339 -0.629536 0.186179 Si
43 1 8.33926 0.00277637 8.3754 1.5019 -1.21437 -7.66509 0.566287 1.18908 -0.736631 Si
64 2 9.70288 9.71048 9.75422 2.32166 0.744589 -0.831291 0.96129 -0.157061 -1.36873 Ge
ITEM: TIMESTEP
10500
ITEM: NUMBER OF ATOMS
64
ITEM: BOX BOUNDS pp pp pp
0.0000000000000000e+00 1.1085848640000000e+01
0.0000000000000000e+00 1.1085848640000000e+01
0.0000000000000000e+00 1.1085848640000000e+01
ITEM: ATOMS id type xu yu zu vx vy vz fx fy fz element
3 1 2.77952 0.0666227 2.86686 -1.92484 -3.62423 -3.08131 -0.628463 -0.464941 -0.375906 Si
4 1 2.72147 2.79619 0.0733187 0.907489 -2.8998 -1.1133 0.849917 -0.378551 -0.324916 Si
7 2 4.16394 1.41005 1.44743 -2.41538 -1.19232 2.64671 -0.499066 -0.0711971 -0.601962 Ge
34 1 5.56224 2.83227 2.73164 1.83905 0.189569 -3.43132 0.290496 -0.576054 -0.0444736 Si
2 1 -0.0389298 2.77299 2.81485 -2.02611 -0.700031 -1.94877 -0.0817699 0.374654 -0.746531 Si
35 1 8.31957 0.00335681 2.66838 -2.75014 2.79648 2.61702 1.04384 0.26778 2.04923 Si
39 2 9.7481 1.38779 1.34789 0.737652 -2.78896 -0.172909 -0.940531 0.190875 0.102018 Ge
6 2 1.34646 4.18468 1.43302 -0.735299 0.835849 3.66552 -0.149607 0.365406 -0.345785 Ge
19 1 2.81135 5.59659 2.70958 -4.3632 1.88612 -0.277721 -1.02284 -0.745025 1.96445 Si
23 2 4.18142 6.94589 1.40584 -2.45509 -1.13212 2.41775 0.840846 0.259137 -0.954783 Ge
38 2 6.96538 4.10935 1.26468 2.86621 2.75247 -0.399484 -1.21636 0.494529 0.684241 Ge
49 1 5.57558 5.58418 -0.00412801 3.06117 -2.49812 -1.63831 -0.470832 -1.11375 -0.498193 Si
51 1 8.28013 5.51233 2.61483 5.50207 -1.77988 -0.206835 1.18349 0.683226 2.24662 Si
55 2 9.75823 6.97027 1.41714 -0.205169 -1.07884 5.10121 -0.849291 -0.686315 -0.931019 Ge
20 1 2.84724 8.30305 0.0214057 -7.07843 -1.20319 -2.37612 -2.42551 0.430485 0.120907 Si
22 2 1.39234 9.7474 1.45162 1.62214 1.67031 0.425508 1.31658 -0.588059 -1.08527 Ge
33 1 5.50632 -0.0435912 0.0561284 -2.73485 0.0854976 2.36399 0.300779 0.927662 -0.537007 Si
50 1 5.50365 8.39186 2.73463 4.32529 0.911297 -5.02717 1.48113 -0.644445 0.869117 Si
54 2 6.98483 9.70144 1.3523 -2.32836 4.2879 0.296158 -1.66101 -0.28876 0.286577 Ge
1 1 0.00142392 -0.013065 -0.00805147 6.9313 -7.7988 -3.67865 0.481187 -0.113982 -0.31165 Si
18 1 0.074683 8.28601 2.77809 1.67986 -0.479533 2.18605 -0.184749 0.80788 1.4607 Si
5 2 1.29502 1.40951 4.20329 0.178215 1.00067 0.636316 1.74819 0.590073 -0.248906 Ge
9 1 0.00101641 0.0163375 5.56138 0.24056 -2.35753 2.20485 -0.6176 -0.563661 0.571305 Si
12 1 2.71705 2.87879 5.49686 2.81477 6.14791 1.5534 0.176476 -1.7369 0.859207 Si
15 2 4.0803 1.39485 6.91582 -1.75803 -1.37559 -1.92662 0.130637 -0.181547 -0.520979 Ge
37 2 6.91833 1.4035 4.09065 -1.06176 -2.65654 1.89492 -0.011221 -0.400826 0.607366 Ge
41 1 5.51389 0.00795083 5.53293 -0.897092 -2.63155 -1.2295 0.574804 0.820271 0.00185884 Si
44 1 8.2534 2.77877 5.57279 -0.0217381 3.92004 -5.50079 0.835035 0.0405536 -1.92482 Si
47 2 9.64845 1.39902 6.88839 0.36146 -0.660217 -0.074356 0.325932 -0.538718 1.49593 Ge
14 2 1.33054 4.14412 6.97331 1.10604 -1.21871 1.47786 0.521004 0.969836 -0.462887 Ge
21 2 1.45134 6.93717 4.24467 2.57748 0.366685 -1.85548 0.395651 0.0136221 -1.83589 Ge
25 1 0.0294556 5.5526 5.50852 2.25497 -3.01521 -3.70408 -0.0746224 -1.36621 0.158273 Si
8 2 4.16917 4.17486 4.10568 1.7589 -2.44253 -2.7031 -0.275208 0.905887 0.0538261 Ge
31 2 4.18566 6.93036 6.9584 -2.55249 -0.604734 4.87343 0.444379 -0.383501 0.374001 Ge
46 2 6.92641 4.14786 6.9177 1.51656 -0.166322 3.45265 -0.614791 1.01089 0.470357 Ge
53 2 6.96568 6.95555 4.08667 -3.06778 0.17503 -1.42748 -0.806468 -0.215485 -0.0490191 Ge
57 1 5.53807 5.56333 5.50615 0.969688 1.52514 -0.623969 0.685682 0.00134855 0.0524463 Si
40 2 9.6623 4.18275 4.14653 -3.04933 0.675841 0.452755 -0.616429 -0.0375104 -0.0797466 Ge
63 2 9.74717 6.86521 6.84495 -2.36569 -2.34558 -1.7249 -1.22263 0.71351 1.84164 Ge
28 1 2.82063 8.31116 5.6266 1.26079 -3.05888 -3.84478 -0.632877 0.684844 -0.424174 Si
30 2 1.33111 9.65966 6.96828 -1.66907 2.44085 2.47353 1.01828 0.669267 0.771986 Ge
24 2 4.16038 9.7185 4.20325 -0.307995 0.883237 -0.59858 -0.615648 -0.206387 -0.34625 Ge
62 2 6.92523 9.68959 6.87372 2.50375 1.9423 -0.199084 -0.174419 -0.14641 1.51258 Ge
56 2 9.75533 9.71661 4.15112 1.22403 0.772849 -0.140019 -0.987994 -0.369212 -0.59567 Ge
60 1 8.35228 8.29352 5.55899 -2.11068 0.15556 -1.1844 0.0676053 0.385369 -1.53466 Si
13 2 1.41335 1.41546 9.71141 -1.38901 2.36455 -0.0209047 -0.750935 -0.734011 0.713399 Ge
42 1 5.55146 2.70775 8.24816 0.443813 4.81959 0.982987 -1.16251 1.14742 1.04834 Si
45 2 6.84677 1.3154 9.66367 -1.42845 -1.88985 1.16482 0.341188 0.391827 1.0123 Ge
36 1 8.28521 2.69514 -0.0538739 -2.85966 -1.48913 -1.71689 0.772521 -0.0353809 -0.678375 Si
10 1 -0.0335147 2.74257 8.34419 4.39781 0.839105 -6.12828 0.0817697 -0.174407 -0.864214 Si
17 1 -0.013508 5.58973 -0.00583526 -0.740086 -2.72264 0.631685 0.015832 -1.46663 0.219987 Si
27 1 2.77223 5.55612 8.32305 1.83616 -4.04085 0.963953 0.170785 -1.2271 -0.0877607 Si
29 2 1.39373 6.89146 9.69596 -1.59929 2.73298 -2.35691 0.24485 1.4837 0.550872 Ge
16 2 4.14415 4.11388 9.7264 -1.54426 -1.7641 -2.58798 0.676365 0.643628 -0.525062 Ge
61 2 7.0227 6.909 9.72325 -1.01549 0.314541 -1.54362 -1.31594 0.34721 0.0230362 Ge
48 2 9.68974 4.13169 9.68457 2.63263 -0.202731 0.143921 -0.168248 0.474933 0.820906 Ge
59 1 8.33279 5.55456 8.32171 -0.857485 2.40755 1.4178 0.438528 -1.00326 -1.2482 Si
11 1 2.79854 -0.0291047 8.41424 3.60644 0.537998 -3.70403 -1.47921 0.505854 -2.27358 Si
26 1 -0.0738153 8.24668 8.33312 -1.48586 2.13064 -3.06392 0.859157 0.381833 -0.18425 Si
32 2 4.15328 9.704 9.72964 3.65187 0.00422568 -2.40984 1.28859 -1.11263 0.335595 Ge
58 1 5.58869 8.27942 8.38025 5.60016 0.0793258 1.61082 -0.0770735 0.875583 -0.941569 Si
52 1 8.31617 8.29075 0.0376618 5.085 3.42654 -0.700923 0.964953 0.105876 -0.206847 Si
43 1 8.26667 0.00289434 8.33558 -1.77147 -3.43557 5.78836 0.56844 -0.791457 -1.2816 Si
64 2 9.64351 9.66898 9.71933 0.0384953 2.89136 1.33809 0.598931 0.397351 -0.207117 Ge
ITEM: TIMESTEP
10600
ITEM: NUMBER OF ATOMS
64
ITEM: BOX BOUNDS pp pp pp
0.0000000000000000e+00 1.1085848640000000e+01
0.0000000000000000e+00 1.1085848640000000e+01
0.0000000000000000e+00 1.1085848640000000e+01
ITEM: ATOMS id type xu yu zu vx vy vz fx fy fz element
3 1 2.82795 -0.0277657 2.68507 3.45729 1.00378 -1.94887 -0.67235 -0.393495 0.240218 Si
4 1 2.82054 2.79756 -0.0382761 0.326519 2.61154 0.449674 -0.93611 -1.04071 -0.15106 Si
7 2 4.20618 1.39086 1.32736 4.30233 -1.65138 0.0732889 -0.615502 -0.0201006 0.336057 Ge
34 1 5.51361 2.70386 2.80332 -3.23002 -0.531867 1.79748 -0.061097 1.33721 0.119227 Si
2 1 0.024623 2.82411 2.79028 2.90674 -1.42522 0.901789 0.655102 -1.76528 -0.401555 Si
35 1 8.30052 -0.0587278 2.80265 -0.895727 -2.35747 -7.5131 -0.538281 0.960532 -0.957803 Si
39 2 9.6809 1.42453 1.43903 1.20425 0.613766 0.688431 0.0858084 -0.319977 0.403823 Ge
6 2 1.40122 4.13306 1.34689 1.06304 0.892748 0.548586 -0.0291044 0.799851 0.531371 Ge
19 1 2.77107 5.50906 2.79479 2.81798 -0.224598 -8.21393 -0.20788 0.583363 -1.32388 Si
23 2 4.16055 6.89855 1.31737 -1.4444 -0.193509 4.70046 -0.763714 -0.0342535 1.46962 Ge
38 2 6.87723 4.13092 1.4745 0.303967 0.189819 3.18389 0.534154 0.865557 -0.687057 Ge
49 1 5.52517 5.50665 -0.0283997 -2.22816 5.02198 1.94708 1.62504 0.987062 1.20961 Si
51 1 8.25542 5.57285 2.88518 -6.02628 0.837637 -3.73438 1.62651 -1.21603 -2.09563 Si
55 2 9.62965 6.95416 1.33394 -1.36933 -1.7558 2.26988 0.210184 -0.584691 1.86823 Ge
20 1 2.77679 8.33591 -0.0222283 10.0187 -2.89784 0.324831 -0.522882 -1.06845 -0.590112 Si
22 2 1.35941 9.66348 1.34975 -4.7959 2.0397 2.26651 0.235959 1.37375 -0.0586889 Ge
33 1 5.59295 0.0524456 -0.0328885 1.16526 -3.10104 -0.221191 0.0104831 -1.3408 -0.0280332 Si
50 1 5.48373 8.23483 2.82944 -1.7252 -2.29219 -0.941895 0.63075 0.366893 -1.46839 Si
54 2 6.88278 9.61849 1.38334 1.3066 -0.560127 -0.865238 -0.355825 1.42503 0.878134 Ge
1 1 -0.0655289 0.0472292 0.0264414 -4.10077 4.31295 3.00643 0.971577 -0.990608 -0.727739 Si
18 1 -0.0224895 8.33367 2.73387 -3.66171 -2.21541 -7.16777 -0.498669 -0.984927 0.497071 Si
5 2 1.43293 1.31612 4.10697 1.17704 -2.79446 -1.15811 -0.610356 0.644848 0.211405 Ge
9 1 -0.0167413 -0.0138849 5.52674 2.75115 0.739261 -3.86946 0.540906 0.530824 -0.24897 Si
12 1 2.80652 2.65709 5.56835 -1.08052 1.86337 -3.41888 -0.0391351 1.71077 -0.607989 Si
15 2 4.26518 1.36721 6.96279 0.188774 1.70309 2.01636 -1.61321 0.0612958 0.0606612 Ge
37 2 6.95471 1.4164 4.1637 -0.125095 -0.0138303 -0.700778 -0.0260681 -1.48484 0.360034 Ge
41 1 5.58542 0.0111276 5.56295 -1.58817 -0.781529 1.6207 -0.387076 -0.971943 -0.912795 Si
44 1 8.33275 2.73571 5.58292 0.155583 -2.44174 6.83427 0.268753 1.08917 -0.0973215 Si
47 2 9.75555 1.41222 6.96972 1.38584 0.470573 -1.34478 0.148842 -0.0404714 -0.488321 Ge
14 2 1.40048 4.19289 6.86388 -0.639144 -1.40635 2.62859 0.186707 -1.40963 1.18431 Ge
21 2 1.33985 6.88801 4.14245 -3.18642 -2.06141 -1.325 -0.10441 0.699811 -0.176569 Ge
25 1 -0.0382713 5.55041 5.57169 0.223457 5.48557 1.11072 0.204958 0.35395 -0.299889 Si
8 2 4.14824 4.17416 4.17831 -5.25734 -1.3813 -0.0534386 0.291159 -1.55514 0.574734 Ge
31 2 4.14656 6.9472 6.88279 -1.63653 0.959565 -0.482201 -0.725014 -0.111546 0.753731 Ge
46 2 6.93118 4.16902 6.95508 2.73958 0.00281156 0.520854 -0.283935 -0.891308 0.552504 Ge
53 2 6.91305 6.91881 4.19929 5.4765 -1.46484 -0.0422426 -0.790346 0.45305 0.813298 Ge
57 1 5.54398 5.54327 5.58767 -1.12473 1.54635 -2.89448 -0.0518538 -0.205476 -0.67566 Si
40 2 9.74986 4.12335 4.18394 0.711486 3.08967 -0.535345 -1.77147 1.0115 0.538548 Ge
63 2 9.70164 6.96212 6.99225 3.17362 -0.413279 1.13069 -0.191025 0.355415 -0.875859 Ge
28 1 2.70526 8.30523 5.52607 0.960122 -0.973857 0.248755 1.33151 -0.93921 -1.21969 Si
30 2 1.42996 9.70222 6.8284 -2.02682 -2.11846 -1.41488 -1.8102 0.370808 1.81575 Ge
24 2 4.12907 9.65882 4.14772 1.17186 2.08673 -2.09664 0.435603 0.988631 0.680904 Ge
62 2 6.88845 9.68863 6.98932 -1.3478 1.38701 1.50062 0.986063 0.446358 -1.08674 Ge
56 2 9.67978 9.69644 4.16805 -0.353807 -0.261391 -0.378081 0.381878 -0.412719 -0.172906 Ge
60 1 8.28216 8.33424 5.5336 -0.462743 -1.27933 4.49439 0.306182 -0.330535 1.38302 Si
13 2 1.39913 1.3343 9.65017 -0.272061 0.0985371 -1.23414 -0.317192 1.55943 1.38444 Ge
42 1 5.50537 2.77813 8.41099 5.0127 -4.83721 -3.48854 1.56198 0.916718 -1.0267 Si
45 2 7.01141 1.46101 9.7304 1.19756 -1.21764 -0.1866 -0.26342 -0.620368 -0.234466 Ge
36 1 8.35904 2.84107 0.061756 1.55895 1.1287 2.42536 -0.716657 -0.106682 -0.070474 Si
10 1 0.0271071 2.83994 8.37182 -4.82269 1.8043 6.30515 0.462746 -0.638021 -1.47826 Si
17 1 -0.015456 5.57034 0.0147486 0.691047 4.52585 -4.32366 -0.137538 -0.63762 -0.399173 Si
27 1 2.75578 5.56228 8.28741 0.878205 4.93383 -0.479454 0.491045 -0.0476931 -0.450041 Si
29 2 1.36534 6.88447 9.6728 2.41165 -3.27529 -2.78035 0.521174 1.55279 0.702871 Ge
16 2 4.14806 4.23637 9.71927 0.132135 1.56248 -1.90783 -0.676445 -1.22696 -1.18767 Ge
61 2 6.94738 6.9586 9.72922 -1.10889 -1.22937 -2.26093 -1.53473 -1.03102 -1.09592 Ge
48 2 9.69001 4.19246 9.68617 -2.26208 1.13148 -1.66416 0.403513 0.224419 1.26088 Ge
59 1 8.31241 5.55214 8.33548 1.64397 2.1484 4.80243 -0.22861 0.571502 -0.0899703 Si
11 1 2.74038 0.00969089 8.23096 4.12637 -2.98246 4.76387 1.43956 -0.552888 0.45181 Si
26 1 0.0448187 8.37526 8.3413 0.851895 -1.83213 1.66752 0.0493063 -0.796931 -1.13171 Si
32 2 4.13385 9.73296 9.68141 -0.865091 2.24157 0.982892 0.244916 0.438942 -0.278286 Ge
58 1 5.48926 8.30426 8.30571 -2.46253 -3.34147 1.95688 0.525218 -0.0351294 0.869876 Si
52 1 8.26067 8.32565 -0.0117368 -5.51154 -3.22355 0.363263 0.969449 0.273869 -0.189604 Si
43 1 8.34574 0.0344982 8.28086 0.338435 4.88657 -0.265256 -0.479173 -0.456659 1.17212 Si
64 2 9.69118 9.68011 9.68579 -1.62811 0.965767 -0.742261 -0.377761 1.30877 0.660674 Ge
ITEM: TIMESTEP
10700
ITEM: NUMBER OF ATOMS
64
ITEM: BOX BOUNDS pp pp pp
0.0000000000000000e+00 1.1085848640000000e+01
0.0000000000000000e+00 1.1085848640000000e+01
0.0000000000000000e+00 1.1085848640000000e+01
ITEM: ATOMS id type xu yu zu vx vy vz fx fy fz element
3 1 2.69755 0.0299328 2.87839 1.95159 0.54898 2.15134 1.33404 -0.337221 -1.36988 Si
4 1 2.72997 2.72527 0.0108511 1.85543 1.58546 -1.00554 1.18621 1.01808 -0.255908 Si
7 2 4.09075 1.39524 1.42444 -1.14461 -1.60085 2.24338 1.08135 -0.630193 0.270226 Ge
34 1 5.56004 2.81623 2.7684 2.84948 -1.51294 -4.44309 -0.338916 -1.20186 -0.906012 Si
2 1 0.00220966 2.72761 2.72369 -3.97399 8.36865 1.01199 -0.335441 1.00651 -0.218931 Si
35 1 8.32645 0.0682991 2.82804 -0.260672 -3.62544 4.88136 0.128786 -1.33626 -0.820056 Si
39 2 9.66886 1.37295 1.37129 -1.02665 -0.947822 -2.11994 0.359425 0.0768468 -0.656784 Ge
6 2 1.41491 4.14408 1.3706 0.874647 1.70001 3.18357 -0.121755 0.072451 1.48443 Ge
19 1 2.76615 5.54912 2.87895 0.689715 1.6123 7.82807 0.612219 0.150526 -2.19742 Si
23 2 4.18548 6.93463 1.40286 2.07234 -1.57032 -3.18912 -0.99199 0.609467 0.748182 Ge
38 2 6.91514 4.1637 1.35914 1.68122 -0.622037 0.112481 1.29181 -0.158577 0.875839 Ge
49 1 5.57966 5.55252 0.0527446 -0.50056 -6.89869 -5.02254 -1.26546 -0.130472 -1.64358 Si
51 1 8.39601 5.5116 2.74156 -2.4839 1.13574 1.96374 -1.83831 0.999401 0.129525 Si
55 2 9.72695 6.93178 1.31856 1.23515 0.951513 0.750009 0.538975 0.01798 1.76861 Ge
20 1 2.72641 8.34484 0.0216601 -1.32598 5.70053 0.501838 2.25083 -0.683204 0.0025656 Si
22 2 1.4355 9.71413 1.40074 2.95868 -0.388277 2.32929 -1.74292 0.256015 1.04886 Ge
33 1 5.53246 -0.0220843 0.00483236 -0.357218 5.05569 0.213634 -0.225004 0.610705 0.342364 Si
50 1 5.56487 8.40917 2.76933 -4.65834 4.14618 3.3238 -0.369522 -1.31202 -0.179065 Si
54 2 6.99884 9.72917 1.39701 -2.43127 0.0619943 -0.0221611 -0.348661 0.512416 -0.138562 Ge
1 1 0.0196876 -0.0211046 -0.0158842 -0.922161 -1.10389 -0.171572 -0.352687 0.184242 0.86365 Si
18 1 0.0228691 8.31177 2.83355 6.5934 1.8285 0.614902 -0.0817982 0.21006 -2.42289 Si
5 2 1.30555 1.41857 4.15924 -0.478068 0.023994 2.08556 0.705094 -0.00932275 1.1169 Ge
9 1 -0.00709192 0.0270302 5.57351 -3.57083 -1.41174 3.27915 0.191241 -0.936832 -0.36241 Si
12 1 2.72436 2.78686 5.55798 0.155875 -3.20865 2.54033 0.959619 0.253602 -0.518304 Si
15 2 4.10727 1.33413 6.93613 1.32683 -1.46165 -1.89713 0.457867 1.1726 -0.416723 Ge
37 2 6.90184 1.40966 4.14673 -0.326643 1.8462 -2.63846 0.203466 0.436866 0.301818 Ge
41 1 5.53171 0.00417775 5.51072 2.74465 1.77381 0.915385 0.223138 0.171157 0.877476 Si
44 1 8.3256 2.7993 5.48831 -2.23609 -1.37828 -2.95218 -0.322132 -1.29536 0.914464 Si
47 2 9.66668 1.33983 6.92335 -1.55515 -0.622954 3.66453 -0.493556 0.755105 -0.30878 Ge
14 2 1.37547 4.20562 6.96726 1.11303 3.48672 -1.19476 -0.00192704 -1.01065 -0.830263 Ge
21 2 1.40537 6.99629 4.19221 3.5429 -1.23174 1.62557 -0.475323 -1.40768 0.962784 Ge
25 1 -0.0114729 5.52772 5.55835 -0.853208 -2.43907 -0.522892 0.137079 0.797378 -0.565812 Si
8 2 4.24082 4.16103 4.13831 0.300757 2.99583 -2.24068 -2.437 -0.592263 1.29449 Ge
31 2 4.1484 6.89849 6.9056 1.01913 -1.25308 4.74521 -0.092907 0.559691 0.651285 Ge
46 2 6.91276 4.13306 6.87603 -1.20338 0.486342 1.55826 0.409085 -0.0345444 0.242237 Ge
53 2 6.88367 6.94847 4.14842 0.859042 0.102887 -5.85372 1.63882 -0.680368 0.0629266 Ge
57 1 5.52752 5.49124 5.55674 1.20318 -1.0974 4.93127 0.631749 1.54561 -0.628298 Si
40 2 9.72965 4.11039 4.12912 -0.107449 -0.375396 -3.26536 0.577442 0.721587 -0.105435 Ge
63 2 9.66512 6.91612 6.93276 -2.5186 -1.96499 1.51229 0.699147 -0.325826 -0.0307251 Ge
28 1 2.78977 8.36192 5.5506 -2.84756 1.84479 2.70225 -0.0158493 -0.431831 0.797598 Si
30 2 1.43042 9.75212 6.97107 1.39838 1.84558 -0.40729 -1.09737 -0.705439 -0.743474 Ge
24 2 4.1555 9.71256 4.18333 -2.06335 -0.292304 0.510423 -0.227611 0.550383 -0.605576 Ge
62 2 6.95143 9.70143 6.88492 -1.80771 -2.32287 0.737299 -0.526422 0.180179 0.325742 Ge
56 2 9.73523 9.70194 4.14865 1.76795 1.47504 0.689851 -0.5322 0.673128 0.955728 Ge
60 1 8.35535 8.32142 5.55745 0.655651 2.12595 -6.37337 -0.888907 -0.302813 -1.16959 Si
13 2 1.38614 1.38703 9.72714 -1.85836 -3.55057 -2.5523 -0.899877 -0.132456 -0.781325 Ge
42 1 5.53732 2.78349 8.25808 -7.92337 -0.198457 6.51362 -0.46457 -1.06672 0.181174 Si
45 2 6.88652 1.37124 9.64962 -1.68805 -0.823465 -0.952696 0.140042 -0.236201 0.413291 Ge
36 1 8.25396 2.75314 -0.0291519 -2.82118 -1.50328 -1.95242 0.681594 -0.113095 -0.0568171 Si
10 1 0.0182888 2.71084 8.23242 5.67753 1.7414 1.71004 -0.54847 0.831627 1.91449 Si
17 1 0.00377216 5.47693 0.0257422 -0.469241 2.38392 4.99836 0.355014 1.09909 -1.14509 Si
27 1 2.75948 5.53216 8.34152 -2.35487 -2.54736 1.43784 0.67533 0.603023 0.568324 Si
29 2 1.39907 6.95619 9.75478 -1.6344 -3.7179 -1.65375 -0.982173 -1.14174 -0.887475 Ge
16 2 4.17467 4.10565 9.70363 -1.71189 3.30812 0.784406 -0.254132 0.951399 0.677822 Ge
61 2 6.91091 6.94427 9.70607 5.04661 1.3647 -0.0936133 0.409599 0.136131 -0.525976 Ge
48 2 9.70573 4.12272 9.69401 -0.139339 -1.71647 -4.80927 -0.363487 -0.327261 -1.01398 Ge
59 1 8.26346 5.50948 8.26581 -1.67276 -1.1272 -4.10094 0.540783 0.294553 1.28668 Si
11 1 2.74291 0.0220827 8.3702 -4.76212 3.41695 -0.295773 0.942386 -0.433339 -0.0467902 Si
26 1 0.00999036 8.29994 8.28374 -2.0721 1.77379 3.90701 0.289908 0.0547823 0.692841 Si
32 2 4.1593 9.68169 9.682 2.47338 -0.430299 -1.06505 -0.656728 0.485779 0.75064 Ge
58 1 5.53142 8.35882 8.27786 1.12175 1.39982 -1.29067 0.321393 -1.35938 -0.08126 Si
52 1 8.35923 8.33776 -0.0166403 0.378365 1.94163 0.627232 -0.88393 -0.598709 0.0770801 Si
43 1 8.30703 -0.0571218 8.3305 -1.08858 -3.08967 -1.82336 0.0822497 0.594728 -0.219641 Si
64 2 9.7318 9.6716 9.70681 2.25282 -1.42317 -2.6689 0.121337 0.338523 -0.747197 Ge
ITEM: TIMESTEP
10800
ITEM: NUMBER OF ATOMS
64
ITEM: BOX BOUNDS pp pp pp
0.0000000000000000e+00 1.1085848640000000e+01
0.0000000000000000e+00 1.1085848640000000e+01
0.0000000000000000e+00 1.1085848640000000e+01
ITEM: ATOMS id type xu yu zu vx vy vz fx fy fz element
3 1 2.7759 -0.0175517 2.71231 -5.08835 2.37458 1.63707 0.301152 0.376592 0.916133 Si
4 1 2.75635 2.80195 0.0472572 -3.02644 -2.36229 3.64298 -0.0349257 -0.0638285 -0.611384 Si
7 2 4.16304 1.45562 1.40465 0.342037 -1.22094 -0.299009 -0.383865 -1.37072 -0.231661 Ge
34 1 5.55299 2.75917 2.7852 -2.82644 2.12717 6.54943 0.811659 0.411784 -0.158993 Si
2 1 -0.0255928 2.73639 2.80196 3.67449 -8.57621 0.958329 -0.093989 1.36962 0.734401 Si
35 1 8.33459 0.0227702 2.72705 -0.311387 6.81778 0.0184561 -0.436161 -0.564949 0.504698 Si
39 2 9.77422 1.38013 1.42261 -0.449993 -0.7464 2.53922 -0.821046 -0.335205 -1.19146 Ge
6 2 1.29513 4.1352 1.38793 1.57956 0.237918 -2.62898 0.655465 0.125723 -0.448623 Ge
19 1 2.74748 5.52365 2.64432 -0.930664 -2.65489 3.43779 0.284292 -0.14329 2.56534 Si
23 2 4.13424 6.9466 1.37937 -1.15831 -2.61693 1.92816 0.626292 -0.699666 -0.54773 Ge
38 2 6.92147 4.13837 1.34203 -1.45687 1.64569 3.45172 0.435419 0.360252 0.640816 Ge
49 1 5.51883 5.57755 -0.0120944 1.87034 6.57428 8.52918 0.023793 -1.2175 -0.0157228 Si
51 1 8.29841 5.56242 2.77974 3.80874 -1.58739 3.23827 -0.24129 -0.501223 -0.139438 Si
55 2 9.72119 6.96055 1.41682 -3.47175 -2.3152 -0.801627 -0.191079 -1.1055 -0.371953 Ge
20 1 2.74623 8.25115 -0.00190188 -5.04579 0.257161 0.694183 -0.0469593 1.93987 -0.172459 Si
22 2 1.37256 9.69851 1.36876 -0.311741 1.2183 -1.79896 0.158271 -0.927992 0.124309 Ge
33 1 5.4958 -0.00359859 0.026384 1.39494 -3.01456 -1.27704 0.658418 0.0500964 -0.639705 Si
50 1 5.59054 8.22929 2.75692 3.12526 -0.489403 -0.142084 -1.06217 1.87366 0.443499 Si
54 2 6.95142 9.67036 1.37415 1.90507 0.342215 0.776063 -0.585281 0.318479 0.230591 Ge
1 1 0.0386004 -0.000927384 -0.00121418 -1.34364 2.26273 1.37538 -0.476508 0.32892 -0.477671 Si
18 1 -0.0384379 8.33797 2.79443 -3.73023 0.137 5.69726 1.30981 0.0151232 0.00177631 Si
5 2 1.39154 1.37307 4.12025 0.696401 -3.1759 -4.26113 0.734011 -0.10455 0.924127 Ge
9 1 0.00677043 -0.0153392 5.53919 1.71328 4.36724 -0.649394 -0.13881 0.152795 -0.251575 Si
12 1 2.81368 2.80455 5.52736 -3.21634 -2.49993 1.0919 -0.764349 -0.86345 0.103127 Si
15 2 4.1588 1.39605 6.96727 0.141035 -2.21808 2.32075 0.19484 0.240918 -1.28682 Ge
37 2 6.93709 1.35122 4.15571 -1.92865 -0.880126 -0.102351 -0.218357 0.55569 0.123299 Ge
41 1 5.51607 0.00826411 5.55883 -2.01272 0.186826 -1.68126 0.49932 -0.209208 -0.122422 Si
44 1 8.27853 2.77605 5.57028 3.01033 2.09636 1.42839 -0.436915 0.115 -0.635474 Si
47 2 9.6799 1.40877 6.87388 3.09179 -1.82098 -0.132933 0.275375 -0.696632 0.939434 Ge
14 2 1.34757 4.10572 6.94918 1.49746 1.60365 3.31718 0.692269 0.984894 -0.176565 Ge
21 2 1.41506 6.92062 4.14249 -2.37177 1.28374 -4.81133 0.0307191 0.0984043 -0.528065 Ge
25 1 0.025475 5.53391 5.50509 -1.12742 -1.14586 3.14706 0.100593 -0.501012 0.418012 Si
8 2 4.20492 4.17463 4.1299 1.82079 -1.21726 -3.00489 -1.0202 0.814366 -0.405917 Ge
31 2 4.19339 6.93789 6.92738 -2.54306 -0.927659 -1.65825 0.010775 -0.323 0.687387 Ge
46 2 6.91863 4.19751 6.9316 2.37127 0.341609 0.976334 0.418162 0.508609 0.103996 Ge
53 2 6.89264 6.9035 4.20061 -0.452577 -0.155877 1.2058 1.68274 0.834724 -1.70696 Ge
57 1 5.55287 5.62399 5.49955 -3.23696 -3.87028 -1.38442 -0.815386 -2.39879 1.61476 Si
40 2 9.64099 4.16545 4.20711 0.261634 -0.451845 -0.83457 0.84182 -0.379602 -1.13954 Ge
63 2 9.74434 6.91783 6.85771 0.185652 1.28927 1.89015 -0.972029 0.0394302 1.04683 Ge
28 1 2.80652 8.28386 5.58451 -1.45121 2.60235 -1.65726 -0.850138 0.720099 -0.822537 Si
30 2 1.35055 9.65771 6.95978 1.46729 1.62611 -0.578939 0.80294 0.49738 -1.0867 Ge
24 2 4.16537 9.68656 4.15237 1.29285 0.676707 -1.86665 0.182918 -0.48508 -0.431392 Ge
62 2 6.96054 9.73612 6.93356 1.10358 1.73207 1.75534 -0.951721 -0.821345 0.244781 Ge
56 2 9.66696 9.72151 4.13814 0.64975 -1.99343 -1.96777 -0.0940396 -0.262017 0.664425 Ge
60 1 8.27259 8.29682 5.53138 0.94455 0.520824 6.52528 0.905951 0.625994 0.0763877 Si
13 2 1.44115 1.41631 9.70058 0.665901 -0.233549 0.0925451 -0.926544 -0.803139 -0.479038 Ge
42 1 5.56703 2.78271 8.29608 4.41229 0.678731 -4.1185 -0.151147 -0.198777 0.746367 Si
45 2 6.94523 1.37516 9.6967 2.06944 1.13799 0.0560542 -0.302835 0.534397 0.641801 Ge
36 1 8.40482 2.75719 0.00408169 2.39556 3.34252 1.61046 -1.22425 -0.0428666 0.236368 Si
10 1 -0.0842064 2.75108 8.3372 -4.73399 -1.7081 -6.07856 1.53339 0.1961 0.0669658 Si
17 1 0.00612292 5.56229 -0.0262659 -2.24004 -5.57071 0.0673038 0.154737 0.792619 1.29664 Si
27 1 2.79903 5.54513 8.32053 -2.30945 0.889709 -1.74836 -0.892297 -0.354453 -0.469944 Si
29 2 1.3745 6.95337 9.68255 2.92659 1.03269 -1.19106 0.0762761 -1.01552 -0.395252 Ge
16 2 4.14375 4.11902 9.69495 1.28626 -0.217097 -4.26527 0.474586 0.939828 0.368776 Ge
61 2 6.96688 6.88902 9.72102 -4.01954 -1.09994 -1.10163 0.0499108 0.528512 0.0559827 Ge
48 2 9.74006 4.20307 9.75811 -0.150278 1.37118 1.71538 -0.531665 -1.18115 -0.996914 Ge
59 1 8.39003 5.54322 8.36142 -0.161452 -0.990373 2.57455 -0.754281 0.122231 -1.46501 Si
11 1 2.78846 -0.0266576 8.26119 -1.60318 -0.766448 -1.21685 -1.09357 0.632924 1.05968 Si
26 1 -0.0290568 8.30165 8.29783 2.10545 2.10273 -4.88566 -0.797795 0.566192 0.982183 Si
32 2 4.09729 9.69909 9.68051 0.49387 0.651795 -1.83742 1.26598 -0.93283 0.635921 Ge
58 1 5.58871 8.27601 8.34925 -3.85577 3.56446 -0.996534 -0.323264 1.2693 -0.427836 Si
52 1 8.3319 8.27933 0.0297944 -1.39144 0.749653 -1.36864 -0.52076 0.347344 -0.315524 Si
43 1 8.32041 0.0419024 8.30355 1.4463 2.72619 1.14205 0.022455 -0.331531 -0.12 Si
64 2 9.61782 9.72701 9.7419 0.100002 1.56527 1.00208 1.93929 -0.453028 -0.92853 Ge
ITEM: TIMESTEP
10900
ITEM: NUMBER OF ATOMS
64
ITEM: BOX BOUNDS pp pp pp
0.0000000000000000e+00 1.1085848640000000e+01
0.0000000000000000e+00 1.1085848640000000e+01
0.0000000000000000e+00 1.1085848640000000e+01
ITEM: ATOMS id type xu yu zu vx vy vz fx fy fz element
3 1 2.81892 -0.0570147 2.73068 0.0151053 -2.70491 -0.000671961 -1.47418 1.2266 0.377813 Si
4 1 2.82298 2.76056 -0.103334 0.00431277 0.811757 -0.717097 -0.815625 -0.280242 2.06884 Si
7 2 4.16044 1.37916 1.35788 0.193596 2.3809 4.1689 0.533752 -0.185101 -0.415281 Ge
34 1 5.55245 2.74943 2.76789 1.75701 0.788985 -1.94133 -0.966623 0.00765424 1.4294 Si
2 1 0.0213042 2.86412 2.73801 -3.30043 1.42507 -0.454842 0.191543 -2.36425 0.161964 Si
35 1 8.28405 -0.0705425 2.79038 3.0346 -0.22457 1.92798 0.557915 1.92172 -0.0771744 Si
39 2 9.66322 1.4137 1.41072 3.32927 -0.231102 -0.873254 0.25309 -0.548113 -0.212213 Ge
6 2 1.43248 4.13267 1.34261 -3.02776 1.11432 3.15815 0.328893 1.03954 -0.400085 Ge
19 1 2.76624 5.54649 2.79169 -3.30121 2.39818 -6.21338 -0.134673 -0.15467 -0.0483369 Si
23 2 4.16248 6.95788 1.41872 0.0706234 1.512 1.11953 0.282467 -1.09689 -0.834825 Ge
38 2 6.87173 4.16488 1.44842 0.0731625 -1.12038 -2.50954 0.426074 -0.159623 -1.19278 Ge
49 1 5.53114 5.4846 -0.0214284 -2.2458 -2.61591 -2.9409 0.323395 2.32173 1.45085 Si
51 1 8.30148 5.52772 2.74813 0.794424 0.405765 -2.66154 0.862087 0.36954 1.11321 Si
55 2 9.68216 6.91493 1.3113 2.3994 1.32909 1.86106 -0.579482 -0.24984 0.602125 Ge
20 1 2.83978 8.33769 -0.0166584 -1.70023 -5.153 0.907511 -1.91691 -0.701056 0.720024 Si
22 2 1.35693 9.66607 1.3932 0.665417 1.59127 1.49061 1.05278 0.583592 -1.45585 Ge
33 1 5.57743 -0.00938755 -0.0285537 -4.78695 2.64146 3.64881 -0.367843 0.100197 0.379767 Si
50 1 5.51959 8.34262 2.78487 1.15771 -2.19578 0.778907 1.02374 -1.10537 0.384508 Si
54 2 6.92767 9.67592 1.4053 0.69877 -0.83103 -0.399808 -0.338956 0.0797406 -0.802035 Ge
1 1 -0.0147287 -0.00367766 -0.0250833 4.36166 -1.04107 -1.72092 -0.0744954 0.441173 0.650401 Si
18 1 -0.0261291 8.26686 2.66497 -3.82352 0.202978 1.23294 -0.741866 0.62061 2.64783 Si
5 2 1.38609 1.38633 4.13038 -1.34973 -0.0127407 -1.26021 0.28035 -0.253494 -0.620232 Ge
9 1 0.0114071 -0.0417721 5.52009 -2.79349 -2.21454 1.61896 -0.142187 1.32901 0.649128 Si
12 1 2.77201 2.7711 5.53273 2.29113 5.28239 0.428827 -0.465929 -0.55832 1.00343 Si
15 2 4.1928 1.38521 6.95353 -0.784567 -0.928415 0.780215 -0.207074 0.137746 -0.3596 Ge
37 2 6.97635 1.39379 4.19221 1.14496 -1.4355 -1.67279 -0.952458 -0.840956 -0.844071 Ge
41 1 5.57179 -0.0335983 5.54884 -1.29167 0.896699 0.431327 -0.737987 0.866109 -0.298102 Si
44 1 8.33905 2.76464 5.54108 -2.23545 0.611266 -0.399886 0.775919 0.462079 0.421171 Si
47 2 9.71526 1.38534 6.96649 -1.4703 0.208958 -1.01222 0.978537 0.1254 -0.133438 Ge
14 2 1.36569 4.1869 6.91497 -1.81656 -0.967655 2.71198 1.14414 -0.16287 0.18453 Ge
21 2 1.32265 6.91163 4.16696 3.84671 -1.28141 -0.000649573 0.33249 0.255002 -1.62944 Ge
25 1 -0.0106011 5.58715 5.57138 -0.017204 1.34017 -2.25665 -0.417074 -0.540741 0.369839 Si
8 2 4.13237 4.15581 4.21599 2.21057 1.01028 -2.38554 0.857887 -0.317291 -1.577 Ge
31 2 4.14729 6.92977 6.86824 2.33388 -0.635938 3.07706 0.00215598 -0.0256804 0.64927 Ge
46 2 6.91825 4.14768 6.90098 -1.59367 1.38861 0.369962 0.632901 -0.652744 0.98772 Ge
53 2 6.93001 6.91609 4.20091 -0.895659 -2.77095 -1.02851 -0.361893 -0.0538811 -0.662733 Ge
57 1 5.54687 5.48066 5.59216 2.75071 7.67649 -0.43114 -0.356542 1.41414 -1.2842 Si
40 2 9.78471 4.1567 4.17314 -3.97734 1.97981 -0.603309 -2.01265 0.920038 -0.168177 Ge
63 2 9.67957 6.9317 6.98617 -0.0357263 -2.37597 -2.14952 0.550893 0.789331 -0.772124 Ge
28 1 2.74882 8.28048 5.44423 4.54158 -2.83267 2.61754 0.148242 0.654822 1.57935 Si
30 2 1.43532 9.7137 6.91162 -1.71081 -0.72498 4.04075 -0.437597 -0.945011 0.527994 Ge
24 2 4.14641 9.68499 4.13717 -1.3291 1.86118 0.33815 0.519777 0.348464 0.504931 Ge
62 2 6.91461 9.70607 6.93863 1.29721 0.776495 -0.898101 0.486723 -0.7152 0.00643136 Ge
56 2 9.66493 9.70867 4.17848 0.191898 2.42932 -0.756173 1.26011 -1.56892 -1.21299 Ge
60 1 8.32413 8.32111 5.56084 -1.6399 -0.450076 -2.74128 -0.391684 -0.241939 0.496644 Si
13 2 1.39568 1.3915 9.67523 1.00708 0.0655667 -0.782978 0.352443 -0.593444 0.903254 Ge
42 1 5.56734 2.78735 8.35141 -2.26559 4.07776 1.51042 -0.29501 0.0658973 -0.863155 Si
45 2 6.94875 1.3986 9.6763 -0.412793 -3.35557 -2.64738 -0.168584 -0.650714 0.508213 Ge
36 1 8.22326 2.78543 0.0389503 -0.872122 -2.90383 -0.00379501 1.60815 0.437323 -0.534496 Si
10 1 0.0911711 2.81998 8.38045 -0.557255 -2.97117 3.11028 -2.24053 -0.550474 -1.72675 Si
17 1 0.033745 5.5831 -0.00280383 0.618623 2.12614 -1.25065 -0.778963 -1.83353 -0.247124 Si
27 1 2.79547 5.5491 8.2988 3.94304 -0.877622 2.92815 -0.392378 0.0662065 0.110936 Si
29 2 1.39091 6.90771 9.72601 1.1247 -0.57564 -0.990632 1.37693 0.953775 -0.487192 Ge
16 2 4.17496 4.17288 9.71938 -0.979767 0.571357 -0.90415 -0.133338 -0.277082 -1.7991 Ge
61 2 6.90384 6.9757 9.70726 2.83286 -1.86617 -1.18583 -0.395392 -1.22572 -0.296259 Ge
48 2 9.68044 4.17465 9.67339 0.862141 1.50867 -0.144123 -0.368538 0.427873 1.10234 Ge
59 1 8.24941 5.58424 8.27245 1.38841 1.04152 -1.15577 0.451649 -0.810477 1.1624 Si
11 1 2.80166 0.0162031 8.35446 0.749513 0.899233 -1.23162 -0.50847 0.00589681 -1.43066 Si
26 1 0.014313 8.30915 8.37679 -2.13143 -3.50343 1.63962 0.552333 0.0430559 -1.6288 Si
32 2 4.13578 9.71477 9.69145 -2.16381 -0.133486 -1.98441 1.52421 -0.081096 -0.063668 Ge
58 1 5.52006 8.31131 8.29683 3.10021 -3.89345 1.70404 -0.392893 0.375488 -0.0695102 Si
52 1 8.30311 8.32264 -0.0245759 5.56373 -1.9836 3.61732 0.0794943 0.171989 0.242838 Si
43 1 8.31738 -0.0325712 8.31577 -1.46595 -1.53918 -0.609189 0.0589142 0.743623 -0.142324 Si
64 2 9.7024 9.68049 9.67285 -3.37019 1.25109 0.542244 -0.242161 0.439372 0.892556 Ge
ITEM: TIMESTEP
11000
ITEM: NUMBER OF ATOMS
64
ITEM: BOX BOUNDS pp pp pp
0.0000000000000000e+00 1.1085848640000000e+01
0.0000000000000000e+00 1.1085848640000000e+01
0.0000000000000000e+00 1.1085848640000000e+01
ITEM: ATOMS id type xu yu zu vx vy vz fx fy fz element
3 1 2.76618 0.0966228 2.84951 3.44436 -1.89674 -3.57816 0.0398302 -1.69934 0.195011 Si
4 1 2.71353 2.77602 0.103615 1.47233 0.744866 -3.60876 0.230155 -0.306679 -1.80635 Si
7 2 4.09377 1.37389 1.38505 -1.40451 -0.661004 0.0141368 1.29725 0.177985 0.199721 Ge
34 1 5.50909 2.77089 2.72016 -0.603892 -0.00687829 -1.32128 0.402715 0.853304 -0.448469 Si
2 1 0.00104755 2.7242 2.76674 1.7931 5.29077 -1.29457 -0.545976 0.902963 -0.0420444 Si
35 1 8.31046 0.0154299 2.72828 -5.09747 -5.48558 -2.33636 -0.215421 -0.5376 1.55694 Si
39 2 9.66437 1.34571 1.4007 -1.9074 -0.419775 2.61053 1.03637 1.05843 -1.08952 Ge
6 2 1.38992 4.17941 1.43721 2.38746 -1.15669 -0.178585 -0.252842 -0.0358405 0.654428 Ge
19 1 2.86063 5.55687 2.79652 3.4914 -1.30732 1.04421 -1.67832 0.720849 -0.180996 Si
23 2 4.18531 6.90431 1.31297 -1.18864 -0.404213 1.5163 -0.394971 0.974738 1.00916 Ge
38 2 6.98673 4.1459 1.32592 -1.32226 2.14622 5.7692 -0.37055 -0.0342912 0.0669657 Ge
49 1 5.5933 5.59354 -0.0300899 0.498052 -1.91636 -3.07358 -0.293487 -2.00364 -0.334627 Si
51 1 8.29914 5.57734 2.77745 -3.8065 0.485798 0.043384 0.693416 -0.495512 -0.492266 Si
55 2 9.73744 6.97837 1.41808 -0.692727 -0.597926 -0.851131 -0.0163394 -0.255852 -0.136772 Ge
20 1 2.78049 8.33939 -0.00341486 7.90623 2.88165 -2.10188 -0.128425 -0.650378 -0.19418 Si
22 2 1.47454 9.72725 1.43452 -1.37414 -0.578187 2.53904 -0.623283 0.539265 -0.21338 Ge
33 1 5.55398 0.000728102 0.00698227 2.81815 -3.18771 -2.30352 -0.719382 0.530331 0.497718 Si
50 1 5.5075 8.33514 2.71969 -1.61609 1.11171 -3.11066 -0.0645171 0.410835 0.0936907 Si
54 2 6.9344 9.74109 1.39598 1.00452 0.824605 2.05638 -0.436204 -0.714789 -0.591195 Ge
1 1 -0.0212008 -0.0256156 0.0479586 -3.0161 -3.21374 2.35147 0.747878 -0.344489 -0.724017 Si
18 1 0.146666 8.33491 2.82394 5.24653 -1.78968 -9.54775 -1.6193 -0.318308 -0.576811 Si
5 2 1.3301 1.4271 4.21661 0.058238 -1.72566 -1.71197 0.747146 -0.374409 -0.492435 Ge
9 1 -0.0180324 0.0450257 5.57156 3.6276 -2.80109 -1.52346 -0.657425 -0.76482 0.180606 Si
12 1 2.78156 2.74266 5.53902 0.840338 -0.0536489 -4.08409 0.0826608 1.63212 -0.209227 Si
15 2 4.1128 1.3665 6.92768 2.04657 -2.09778 3.50762 0.258791 -0.909206 -0.741432 Ge
37 2 6.88237 1.41216 4.08102 -0.515696 0.992342 0.949656 0.874097 -0.504352 0.832184 Ge
41 1 5.5575 0.0217265 5.52513 2.71929 -2.83788 2.20949 -0.206016 -0.321466 0.429447 Si
44 1 8.29456 2.74522 5.53187 -0.53975 -1.87076 -0.149208 -0.566894 0.346212 -0.32194 Si
47 2 9.61814 1.38091 6.96815 -1.35524 -1.63876 2.31662 0.866543 -0.167622 -1.3855 Ge
14 2 1.39466 4.19166 6.86987 -0.0051803 2.4455 1.19086 -0.036761 -1.19645 0.660074 Ge
21 2 1.42245 6.9424 4.25598 -3.51673 -0.110901 0.0838078 1.16441 -0.412899 -0.776814 Ge
25 1 -0.00445407 5.49092 5.50443 1.19062 1.16938 -0.176971 -0.0545472 0.992807 0.157522 Si
8 2 4.19777 4.19234 4.15353 0.332742 0.695281 1.58468 -0.458805 -1.65904 0.081209 Ge
31 2 4.17096 6.91289 6.96295 -1.99655 -1.73376 -0.817876 -0.0617484 0.0617407 0.120602 Ge
46 2 6.89511 4.12442 6.9344 -0.818574 0.274454 -1.22545 0.160444 0.103414 -0.280896 Ge
53 2 6.89578 6.99812 4.08603 1.09893 -0.3422 2.18182 0.144249 -1.10472 0.818175 Ge
57 1 5.54928 5.55324 5.50258 -0.635878 -6.18995 1.1218 0.581454 0.651893 0.881354 Si
40 2 9.70449 4.12462 4.14302 4.89342 -0.770938 -0.262303 -0.680201 0.0907683 -0.355978 Ge
63 2 9.71018 6.89964 6.87705 -2.0634 -0.471094 2.13165 -0.374565 -0.334173 0.396351 Ge
28 1 2.77984 8.36781 5.66808 -4.40049 -1.05102 -4.08131 0.506982 -1.06736 -1.55736 Si
30 2 1.38661 9.73395 6.94049 2.9318 3.91491 -1.15737 -0.491398 0.5331 0.166968 Ge
24 2 4.1584 9.69177 4.20095 0.198783 0.35433 -2.36294 -0.384172 0.621224 -0.514904 Ge
62 2 6.9344 9.67755 6.92252 -0.336862 1.81554 1.01309 0.31267 0.418285 -0.775654 Ge
56 2 9.74555 9.70337 4.12187 -2.23135 1.37224 1.09438 -0.257132 0.568132 0.316595 Ge
60 1 8.32779 8.30348 5.47947 -1.00672 -0.408877 0.171597 -0.0365662 0.418729 0.545673 Si
13 2 1.3902 1.37611 9.71439 -1.27942 -0.452385 -2.40479 -1.067 0.466571 -0.0366499 Ge
42 1 5.47898 2.68609 8.26907 2.80518 -2.96922 0.291758 0.1339 1.91106 1.15964 Si
45 2 6.86346 1.37106 9.67148 1.43521 2.12715 -2.39627 1.3529 -0.0797233 0.0624581 Ge
36 1 8.39507 2.73731 -0.108317 -1.36943 1.55341 0.940263 -1.87253 -0.455104 1.49745 Si
10 1 -0.0196538 2.7621 8.21525 3.84125 6.37127 3.63242 1.24949 -0.115249 1.44567 Si
17 1 -0.0319115 5.47607 0.0192953 1.75644 1.10613 -1.1775 0.00378202 1.08213 0.281572 Si
27 1 2.71111 5.55381 8.33003 -1.60915 1.65928 -1.83422 0.785107 -0.3672 0.55001 Si
29 2 1.30437 6.92427 9.74004 -0.811434 -2.34759 0.582952 1.01371 0.349957 -0.502148 Ge
16 2 4.10851 4.10286 9.74759 -1.00669 1.11832 0.0688889 0.616897 0.918256 -0.751132 Ge
61 2 7.01425 6.93908 9.72876 -0.268004 1.95671 -0.76843 -1.00757 -0.239792 -1.51172 Ge
48 2 9.73605 4.1071 9.65533 1.29 -0.11604 -3.18097 0.581989 0.248337 -0.065389 Ge
59 1 8.34909 5.47001 8.33711 -1.90738 1.25587 0.960811 -0.489178 1.25514 -0.998561 Si
11 1 2.76296 -0.0110362 8.32144 3.50823 -2.9316 3.73951 0.318508 0.147268 0.663285 Si
26 1 0.0195523 8.31672 8.24248 1.51132 1.78673 3.71037 -0.775566 -0.562425 1.0353 Si
32 2 4.18953 9.72253 9.72566 -2.33095 1.28342 -1.86791 -0.380916 -0.572956 -0.853998 Ge
58 1 5.57308 8.31683 8.31722 0.498064 -0.614626 1.20588 0.0388147 -0.454831 0.764334 Si
52 1 8.29233 8.34672 -0.00148462 -4.93076 0.203821 -3.69699 1.44175 -0.031931 0.899169 Si
43 1 8.29551 -0.0108912 8.31633 0.670334 -1.37215 1.49678 -0.501484 -0.581063 0.530817 Si
64 2 9.70817 9.66333 9.6728 1.36268 0.600703 -1.94067 0.0355732 0.687653 0.212265 Ge
ITEM: TIMESTEP
11100
ITEM: NUMBER OF ATOMS
64
ITEM: BOX BOUNDS pp pp pp
0.0000000000000000e+00 1.1085848640000000e+01
0.0000000000000000e+00 1.1085848640000000e+01
0.0000000000000000e+00 1.1085848640000000e+01
ITEM: ATOMS id type xu yu zu vx vy vz fx fy fz element
3 1 2.77617 -0.0666613 2.69795 1.41212 4.01148 0.819618 0.598004 0.505605 -0.847713 Si
4 1 2.85334 2.75514 -0.0681433 0.307795 0.147802 3.29776 -0.094864 0.874842 0.913537 Si
7 2 4.24009 1.38126 1.34723 -1.55286 -1.52198 2.56792 -1.23655 -0.0906555 0.995865 Ge
34 1 5.55757 2.75428 2.83707 0.940151 -4.68229 -1.28777 -0.347335 -0.471193 -0.273852 Si
2 1 0.0312653 2.75754 2.80493 1.48433 -4.17112 -1.13746 0.13402 0.892033 -0.128498 Si
35 1 8.34337 0.0367305 2.81098 3.98303 1.58036 -2.80672 -0.694778 -1.17905 -1.8138 Si
39 2 9.71724 1.45206 1.44191 -0.375358 -1.17444 2.63428 -0.0512551 -1.03601 -0.837383 Ge
6 2 1.34604 4.12366 1.30141 -0.893131 1.35955 0.965043 0.750873 -0.231084 0.70501 Ge
19 1 2.6461 5.51442 2.7725 3.49515 -1.46151 -1.63693 2.12584 -0.713705 -1.29202 Si
23 2 4.14875 6.94158 1.46266 -0.608506 -1.35156 -1.28365 -1.02968 -0.3094 -0.311648 Ge
38 2 6.85899 4.15121 1.42841 0.360733 -1.3928 0.790454 1.03453 0.268338 1.27793 Ge
49 1 5.50254 5.5127 0.0811091 -0.347785 2.95554 1.62744 0.0165374 1.07493 -0.770895 Si
51 1 8.36871 5.49307 2.79076 -0.900448 1.29327 -1.90078 -2.23115 0.585679 -0.12041 Si
55 2 9.62675 6.87964 1.33456 -0.881695 1.05432 0.94521 1.10384 0.336911 1.51699 Ge
20 1 2.6927 8.29935 0.0199613 -1.79402 0.256889 -0.502273 2.40595 0.317378 -0.157686 Si
22 2 1.30496 9.67671 1.31896 2.03061 1.20498 1.55327 -1.04502 0.272193 1.3504 Ge
33 1 5.57818 0.00967375 -0.0125525 2.61793 0.123714 -0.932475 0.448088 -1.04952 -0.0376766 Si
50 1 5.6017 8.2997 2.83508 -2.06229 -1.17229 1.63354 -0.658739 -0.365598 -0.807263 Si
54 2 6.94008 9.64028 1.37688 1.30773 0.982957 2.14184 0.621334 1.52496 0.764964 Ge
1 1 0.00711838 0.0960986 -0.079796 0.678208 4.05501 -2.30754 -1.02076 -1.16313 1.52398 Si
18 1 -0.16961 8.282 2.8034 1.42284 0.696928 3.30464 2.21484 0.0132347 -2.14644 Si
5 2 1.46411 1.33291 4.08952 -2.11792 -0.333129 -0.702367 -1.07472 0.202177 1.1126 Ge
9 1 -0.00295705 -0.0144172 5.4827 -2.0748 3.11505 -2.13386 1.23941 -0.613865 -0.100891 Si
12 1 2.72458 2.73989 5.59428 -0.1516 -6.19479 2.2677 0.395376 0.0553268 -1.21014 Si
15 2 4.15762 1.41371 6.9406 -1.46835 -0.100791 1.04103 0.745847 0.258213 0.347918 Ge
37 2 6.9901 1.34431 4.19152 -0.996672 0.840339 -3.41629 -1.04354 1.3467 0.34448 Ge
41 1 5.51231 0.00639197 5.52479 0.999928 0.0112854 -4.33952 0.550585 -0.430097 0.7062 Si
44 1 8.36252 2.8014 5.53853 2.11263 -1.11757 2.07919 -0.268308 -0.589802 0.835124 Si
47 2 9.812 1.40226 6.88053 -0.61578 0.63878 4.48986 -1.87048 -0.220405 0.555832 Ge
14 2 1.33735 4.11746 6.9485 -1.164 3.20367 -0.621772 0.708519 0.519273 0.400538 Ge
21 2 1.34281 6.89368 4.07274 -1.65995 -1.85319 1.40502 -1.37078 0.906227 1.57476 Ge
25 1 0.00215905 5.56423 5.59026 -1.19665 -2.46479 -0.526414 0.348887 -0.201291 -0.647859 Si
8 2 4.08148 4.12578 4.1559 0.729619 2.76508 -1.80021 0.361324 0.420248 0.689549 Ge
31 2 4.14227 6.97473 6.81577 0.87212 -1.00526 0.19652 -0.277271 -0.753515 1.25821 Ge
46 2 6.99964 4.20872 6.96051 0.46766 0.946919 2.2072 -0.784841 -0.541804 -1.07933 Ge
53 2 6.92553 6.88106 4.21598 -1.20418 1.51611 -2.41567 1.62185 0.55852 -0.0332575 Ge
57 1 5.52657 5.52797 5.56033 -0.0931793 -0.222768 -1.76986 -0.0833183 -0.777481 -0.470292 Si
40 2 9.7136 4.17917 4.19479 0.868503 0.0983335 -0.344487 1.18535 -0.520187 -0.283651 Ge
63 2 9.77938 6.95607 7.00141 1.17602 -1.38242 -0.484223 -1.31006 -0.00242052 -1.17748 Ge
28 1 2.77015 8.29167 5.3944 3.72374 2.17309 3.75917 -1.02749 -0.0035803 1.23279 Si
30 2 1.37312 9.62569 6.89121 0.545865 0.799109 0.498102 0.137988 1.13398 -0.767268 Ge
24 2 4.1542 9.67873 4.10766 -0.693513 1.08128 0.493651 0.526951 0.658266 0.0760548 Ge
62 2 6.92631 9.74291 7.00668 0.0563998 0.843347 3.0004 -0.450834 -0.0155602 -1.45899 Ge
56 2 9.64459 9.70186 4.14269 1.55224 -1.09883 -2.93237 0.0152524 0.0828301 1.49908 Ge
60 1 8.34185 8.33533 5.64208 2.50747 -0.37155 -2.35691 -0.752984 -0.485043 -0.801071 Si
13 2 1.44839 1.41634 9.69007 2.82228 -1.29769 -1.50015 -0.463276 -0.323226 -0.69124 Ge
42 1 5.6081 2.85212 8.34777 -1.71939 -4.24971 -2.52856 0.598157 -2.17206 -0.767075 Si
45 2 7.0023 1.39904 9.75811 -1.45835 -2.42128 -1.64428 -0.932661 0.648093 -0.974886 Ge
36 1 8.26 2.80536 0.1167 3.65956 -0.869166 -3.08663 1.192 0.212441 -1.08083 Si
10 1 -0.000891171 2.73274 8.35947 -0.670829 -4.99413 -5.28236 -0.501345 1.86136 0.633189 Si
17 1 -5.15435e-07 5.59729 0.00428353 0.198642 0.978027 1.90712 0.536467 -0.175429 -0.970201 Si
27 1 2.83834 5.497 8.27051 0.622791 0.182173 -0.0353113 -0.757836 1.16678 -0.337101 Si
29 2 1.4473 6.95718 9.65348 -1.3483 -1.77748 0.261853 -1.12072 -1.37111 0.0842346 Ge
16 2 4.24903 4.17712 9.66803 -1.18795 -0.472462 0.413258 -1.43462 0.0933011 0.938675 Ge
61 2 6.82489 6.90292 9.70023 2.05374 0.995936 2.74439 1.07581 0.935954 0.116498 Ge
48 2 9.64463 4.23418 9.78605 -0.554423 -0.0104993 -0.984202 0.374181 -1.41218 -1.35857 Ge
59 1 8.31978 5.61618 8.28735 1.71395 -3.19443 0.208177 0.0518077 -0.318519 1.83695 Si
11 1 2.72512 0.0247088 8.25687 -2.64615 2.94961 -0.120198 1.02482 -1.18039 0.658193 Si
26 1 -0.0120374 8.33216 8.3401 0.762243 -1.169 -4.11307 0.665202 0.531847 0.681508 Si
32 2 4.14746 9.70879 9.71227 -0.226777 2.52958 0.871716 -1.29022 0.475718 -0.152999 Ge
58 1 5.46633 8.35045 8.27804 -0.978412 1.22468 -5.65844 0.692965 -0.706414 0.579922 Si
52 1 8.33985 8.27951 0.0055445 -0.231554 -0.446894 0.344734 -2.31766 -0.113665 -1.03119 Si
43 1 8.34593 0.0512603 8.29649 1.19353 1.27623 -2.5689 0.265711 0.270969 0.269022 Si
64 2 9.6264 9.71192 9.71791 -3.17081 0.104044 -1.12147 1.7748 0.533068 -0.540383 Ge
ITEM: TIMESTEP
11200
ITEM: NUMBER OF ATOMS
64
ITEM: BOX BOUNDS pp pp pp
0.0000000000000000e+00 1.1085848640000000e+01
0.0000000000000000e+00 1.1085848640000000e+01
0.0000000000000000e+00 1.1085848640000000e+01
ITEM: ATOMS id type xu yu zu vx vy vz fx fy fz element
3 1 2.70574 0.0362773 2.87036 -2.83692 -1.26166 0.239311 1.03676 0.191314 -0.400448 Si
4 1 2.67937 2.79064 0.0686371 1.52789 -2.78913 -1.33276 1.04483 -0.430233 -1.0107 Si
7 2 4.08559 1.43555 1.42029 1.24151 1.89134 0.342759 0.0869656 -0.396951 0.816036 Ge
34 1 5.5597 2.84436 2.74387 -0.233784 3.67322 1.28346 1.04158 -1.33626 -0.769246 Si
2 1 -0.0697305 2.78965 2.77406 -1.18976 -0.255751 1.9176 0.205877 -0.835639 -0.479277 Si
35 1 8.29056 -0.0142488 2.76276 -0.0352534 3.39803 3.90052 0.90334 0.490241 0.0654649 Si
39 2 9.68378 1.31878 1.31343 -0.545087 1.87191 3.0352 0.0509921 0.805152 1.23919 Ge
6 2 1.39463 4.16561 1.45414 -2.7702 0.666781 0.207434 -0.96691 0.476032 -0.19513 Ge
19 1 2.83458 5.57082 2.76672 -6.95689 1.76707 6.2557 -0.00615374 0.110157 0.657085 Si
23 2 4.20179 6.93153 1.34488 3.27109 0.173988 2.13063 -0.159328 -0.119633 -0.0319624 Ge
38 2 6.98441 4.18421 1.26471 -2.36792 0.688308 -2.06069 -0.496415 -0.458023 1.09758 Ge
49 1 5.58014 5.58119 -0.0614244 2.10411 -1.88426 -0.478246 -0.463113 -0.904455 0.115243 Si
51 1 8.28788 5.56252 2.74858 8.04047 -3.19308 2.39333 0.850553 -0.113937 -0.885276 Si
55 2 9.79593 6.94932 1.42515 -0.129976 -0.261027 -0.734144 -1.15299 -0.135957 -0.579121 Ge
20 1 2.81762 8.28998 -0.0222793 -6.02127 1.10642 1.40207 -0.959303 0.384163 -0.00540227 Si
22 2 1.45711 9.68555 1.43578 1.56297 -0.399753 1.10343 0.312313 -0.139984 -0.474395 Ge
33 1 5.43327 0.00854749 0.040367 -1.79118 2.76682 -0.186501 0.822576 0.373667 -0.880954 Si
50 1 5.52534 8.34621 2.71373 6.61234 1.66427 -0.527293 -0.03805 -0.0784852 0.887379 Si
54 2 6.9028 9.7608 1.37577 0.331728 -2.98299 -1.71198 -0.202684 -0.776128 -0.227108 Ge
1 1 0.0216101 -0.11724 0.0620882 1.91478 -0.898326 -2.7536 0.707989 1.70031 -1.50322 Si
18 1 0.100524 8.35535 2.81449 -2.56433 0.248865 7.19563 -0.741084 -0.495719 0.763865 Si
5 2 1.32791 1.46639 4.22496 2.44173 -1.07384 -2.50298 0.216444 -0.404374 -0.262923 Ge
9 1 0.0332688 0.00218385 5.64956 -0.388491 0.0753597 2.73473 -0.76807 0.590449 -1.11942 Si
12 1 2.81247 2.88843 5.47147 -0.107872 2.63808 2.58184 0.0681993 -2.21191 1.35408 Si
15 2 4.15587 1.38309 6.90901 -1.99351 -2.09818 2.44056 -0.77097 0.804967 -0.179914 Ge
37 2 6.9363 1.36651 4.14184 0.793946 -3.20444 -2.12342 -1.2089 0.660126 -0.0696154 Ge
41 1 5.5289 0.0013332 5.58086 -1.5271 3.44665 0.680083 0.336301 -0.325319 -1.49321 Si
44 1 8.25017 2.78507 5.53501 -0.0013296 1.66777 -7.75413 0.416796 -0.292687 -0.33329 Si
47 2 9.60558 1.35889 6.90597 0.941349 -1.69917 -0.841965 1.03241 0.960412 1.31291 Ge
14 2 1.42457 4.15531 6.9055 -3.80457 0.261554 2.10726 -1.07004 1.03481 0.209542 Ge
21 2 1.49505 6.98207 4.23482 2.73297 -0.509418 -1.10757 -1.17325 -1.0074 -0.971583 Ge
25 1 0.0129517 5.54426 5.50734 1.83333 -1.47365 0.399566 -0.0444084 -0.13129 0.105503 Si
8 2 4.25127 4.18112 4.14408 0.702742 1.02436 -2.47459 -1.00159 1.41721 -0.286927 Ge
31 2 4.17779 6.92503 7.04654 -0.418291 0.304878 0.224281 0.145878 0.258033 -0.4676 Ge
46 2 6.85187 4.13338 6.91297 -0.5019 2.451 1.9351 1.08473 0.855271 0.673513 Ge
53 2 6.87831 6.90618 4.08531 -1.89093 -2.14495 -0.696461 0.003604 0.862024 0.265609 Ge
57 1 5.54036 5.5936 5.55869 0.336559 0.812916 -0.760648 -0.261444 -0.348048 0.152182 Si
40 2 9.64152 4.1642 4.13038 -1.45926 3.50319 0.0895614 0.181569 0.319166 0.622624 Ge
63 2 9.63694 6.89086 6.8719 2.81895 -2.42992 0.637888 0.533699 0.351529 0.565477 Ge
28 1 2.76155 8.3222 5.68963 -1.24844 -0.439633 -4.60757 1.47607 0.102348 -0.780859 Si
30 2 1.38557 9.69612 7.00645 -0.0471473 -1.07551 3.38666 -0.0630606 0.0151225 -0.0679617 Ge
24 2 4.13045 9.6707 4.19821 -1.3736 -0.201628 -1.15285 -0.0413405 0.548011 0.254759 Ge
62 2 6.95219 9.6613 6.84416 1.57817 1.3292 3.34142 -0.583069 0.0923621 2.21423 Ge
56 2 9.73461 9.75779 4.18625 -1.96608 2.03932 -2.41758 -0.0983416 -1.042 -0.31937 Ge
60 1 8.26183 8.28471 5.45506 1.26669 0.587591 1.55287 1.25955 0.0874925 -0.0384942 Si
13 2 1.36908 1.3947 9.70039 0.974114 0.465234 -0.279427 -0.340006 -0.981698 0.130041 Ge
42 1 5.51256 2.75757 8.30473 -1.02742 6.01646 2.71497 -0.789982 0.157975 0.203967 Si
45 2 6.84722 1.36214 9.67209 1.56844 -1.85129 -0.243496 0.410182 -0.341874 0.785386 Ge
36 1 8.33437 2.7299 -0.0994409 -2.19238 -1.80946 -0.387252 -0.252665 -0.10573 0.364161 Si
10 1 -0.0373339 2.83156 8.29608 -0.826432 -0.544077 -1.27702 1.01063 -2.55985 -1.40595 Si
17 1 0.000810088 5.4675 -0.0284387 -2.28491 -4.06017 -0.632819 0.31463 1.34395 1.12645 Si
27 1 2.70144 5.57319 8.35624 0.789142 -5.46116 -2.24194 1.06772 -0.935341 0.0911764 Si
29 2 1.31341 6.9536 9.70041 3.20836 0.331904 -0.767754 0.829699 -0.498566 0.620895 Ge
16 2 4.11319 4.12344 9.73823 1.43961 1.07439 -1.52245 -0.0493211 0.852508 -0.409263 Ge
61 2 7.02194 6.90424 9.69035 -0.271093 -3.206 -1.51246 -0.25473 0.496837 1.43264 Ge
48 2 9.73915 4.12851 9.65179 -0.0263349 2.86607 1.01388 -1.4098 0.572294 0.886344 Ge
59 1 8.3025 5.50379 8.34557 1.41974 1.17409 -4.95758 0.367295 -0.55351 -1.91926 Si
11 1 2.8301 -0.0458957 8.31153 -1.59093 -0.470243 -6.40796 -1.21767 1.52152 0.336737 Si
26 1 -0.0274984 8.29481 8.29358 -1.61434 0.768712 -0.49904 -0.329919 -0.639333 -0.628112 Si
32 2 4.18299 9.66325 9.64984 0.769861 -0.339657 -1.23316 0.277455 -0.0188853 1.53817 Ge
58 1 5.65623 8.27388 8.40778 0.299947 2.10187 3.31972 -0.838986 0.831203 -2.41901 Si
52 1 8.31722 8.35078 0.0269576 4.75807 -0.020465 -0.138864 1.14985 -0.678743 -0.00767509 Si
43 1 8.27516 -0.0357546 8.34912 -1.17893 -1.64187 -1.26317 0.383393 -0.432158 -0.842508 Si
64 2 9.77074 9.66045 9.68625 -4.98844 -0.447501 0.472401 -1.8763 0.463449 0.576949 Ge
ITEM: TIMESTEP
11300
ITEM: NUMBER OF ATOMS
64
ITEM: BOX BOUNDS pp pp pp
0.0000000000000000e+00 1.1085848640000000e+01
0.0000000000000000e+00 1.1085848640000000e+01
0.0000000000000000e+00 1.1085848640000000e+01
ITEM: ATOMS id type xu yu zu vx vy vz fx fy fz element
3 1 2.85511 -0.0242223 2.69813 -2.21206 -0.696515 3.91708 -1.73187 -0.0485633 0.701565 Si
4 1 2.82547 2.77356 -0.0887962 -4.9209 1.17986 0.93011 -0.663772 -0.94303 1.14434 Si
7 2 4.18888 1.33011 1.30438 -0.687757 -1.4441 0.829885 0.311299 0.932296 -0.0733369 Ge
34 1 5.50861 2.69269 2.77837 -0.503405 2.77278 2.81431 -0.729444 1.54211 0.854241 Si
2 1 0.0542072 2.77177 2.73526 1.21929 -1.12271 0.866067 0.505761 -0.495412 0.122004 Si
35 1 8.29986 -0.00627863 2.79481 -1.91439 -1.62938 -0.422753 0.273961 0.720376 0.557934 Si
39 2 9.68712 1.39978 1.43655 -2.09581 -2.85234 0.0247807 -0.480254 0.504791 -0.0271288 Ge
6 2 1.46665 4.13995 1.33542 3.43262 -1.34497 0.204519 -1.05289 0.369074 -0.207071 Ge
19 1 2.77255 5.52905 2.73357 1.53856 -1.46621 -5.67506 -0.988787 -0.172028 1.51717 Si
23 2 4.12125 6.91408 1.42302 -1.18894 -0.948177 0.840038 0.948972 0.288164 -0.296098 Ge
38 2 6.9069 4.17909 1.52446 -0.82773 2.295 2.05263 -1.52525 -0.147703 -1.68895 Ge
49 1 5.4718 5.50213 0.027571 -0.44639 3.06895 3.25963 1.58356 0.773537 0.403771 Si
51 1 8.27533 5.57216 2.78732 -4.03677 -0.131917 0.16586 1.89348 -0.951033 1.48864 Si
55 2 9.63429 6.87676 1.33031 -0.824952 -1.11401 -0.346865 -0.57695 0.871461 0.200968 Ge
20 1 2.7993 8.32195 0.0429652 5.37879 -4.54878 -2.27687 -1.36331 0.19946 -0.300869 Si
22 2 1.32003 9.74129 1.35966 0.0341534 -0.0852476 1.5768 1.12974 -0.489451 -0.202202 Ge
33 1 5.6335 -0.0174678 -0.0266185 -2.11649 -2.47237 1.88253 -0.457909 0.0814211 -0.137226 Si
50 1 5.5101 8.27908 2.84115 -3.35034 0.81354 -1.51662 1.83848 -0.0271208 -1.29874 Si
54 2 6.95727 9.70569 1.43472 1.32127 3.53492 1.92604 -0.938839 -1.24445 -0.463524 Ge
1 1 -0.0561103 0.0803879 0.0238962 -2.03325 -1.75353 3.3955 0.423957 -1.20468 -0.152454 Si
18 1 -0.0836562 8.27592 2.62458 -3.20073 0.107935 -4.14251 0.330639 0.847411 2.06767 Si
5 2 1.38989 1.3277 4.12562 -1.2587 -0.768859 -2.48923 0.570656 0.102683 -0.854218 Ge
9 1 -0.0371753 -0.0207071 5.45018 2.72933 0.498987 0.0360891 0.61473 0.302414 1.26558 Si
12 1 2.72817 2.66333 5.58614 -3.00854 5.06714 -5.76951 0.219288 1.01664 -0.673464 Si
15 2 4.17134 1.38819 6.9516 2.37317 -2.03792 2.18709 -0.405739 -1.36685 0.478957 Ge
37 2 6.93057 1.42341 4.18894 1.43379 -1.16013 0.192715 0.25613 -1.32002 0.00492659 Ge
41 1 5.55111 -0.0173951 5.53144 -2.37189 -3.39419 1.29417 -0.247628 0.997388 0.264573 Si
44 1 8.34917 2.7363 5.59868 0.907013 1.25585 7.86337 0.521405 0.454368 -1.87028 Si
47 2 9.7336 1.38882 6.91734 -0.803319 -2.59969 1.26656 0.401596 -0.933645 0.514055 Ge
14 2 1.42988 4.12853 6.92913 2.56341 1.15288 -0.719612 -0.847127 0.955106 0.863105 Ge
21 2 1.28995 6.9255 4.08971 -2.08509 0.428983 0.347499 1.14916 0.262622 -0.261059 Ge
25 1 -0.0309312 5.59776 5.58088 -0.563253 2.68772 1.11656 0.377367 -1.20759 0.149397 Si
8 2 4.05427 4.12625 4.21891 2.77209 -2.8527 -0.0746987 1.55389 -0.622005 -1.1123 Ge
31 2 4.13828 6.93614 6.79817 -1.71548 -0.819797 -0.0553644 -0.499478 -0.465459 1.42111 Ge
46 2 6.99109 4.13224 6.87173 -0.206137 -0.305608 -0.0277194 -1.30141 0.648814 1.65471 Ge
53 2 6.99136 6.9534 4.22982 -1.90327 -3.06345 0.299748 -1.26327 -0.184269 -0.0176655 Ge
57 1 5.54225 5.51525 5.54704 -0.337563 1.04565 2.05956 0.433046 -0.225153 -0.931563 Si
40 2 9.77492 4.08087 4.15337 3.47844 0.0196441 -0.57573 -1.66451 1.96312 0.414362 Ge
63 2 9.7173 7.00075 7.05178 -1.93454 -1.78565 1.6998 -0.269158 -0.932094 -1.21945 Ge
28 1 2.77267 8.31913 5.4514 -1.43518 -0.19519 2.07449 -0.8094 0.144227 -0.501614 Si
30 2 1.40264 9.72492 6.84271 3.5235 1.51123 -0.61203 0.0462916 0.124952 1.55115 Ge
24 2 4.20947 9.70857 4.12137 -1.27118 -0.786234 -2.50779 -1.13581 0.0586438 0.553367 Ge
62 2 6.87059 9.7216 6.95162 1.34598 2.46112 -0.338685 1.31272 0.167375 0.125291 Ge
56 2 9.68766 9.67928 4.13638 1.1365 2.09087 -0.424626 -0.318298 -0.734972 -0.608177 Ge
60 1 8.34208 8.35656 5.63463 -3.04249 0.0150995 1.82899 -0.183115 -0.0428679 -0.460827 Si
13 2 1.34519 1.36486 9.73362 2.42063 0.953375 -3.44375 0.433296 1.27408 0.692662 Ge
42 1 5.5681 2.75733 8.29612 5.42002 -1.44827 -3.15781 0.596551 0.843412 -0.201071 Si
45 2 6.99093 1.44581 9.69795 0.827102 -0.0793608 -1.58776 -0.0776354 -0.378843 0.774293 Ge
36 1 8.28844 2.84839 0.131992 -0.0930674 2.81146 2.38921 0.515765 -0.659428 -1.49846 Si
10 1 0.0356466 2.72847 8.35455 -1.77762 4.58826 2.20704 -0.841022 1.32011 -0.817302 Si
17 1 0.0342253 5.63535 0.0355588 1.74586 -1.40679 -2.21909 -0.550761 -3.09932 -1.11198 Si
27 1 2.83246 5.58449 8.33682 -2.77007 6.19151 1.11102 -0.8816 -0.582425 -1.13486 Si
29 2 1.39069 6.93599 9.72355 -2.48981 0.959011 -2.45651 1.36813 0.754922 -0.0449 Ge
16 2 4.18591 4.1459 9.67854 0.718824 -0.626326 -0.311673 0.166746 0.128104 -0.683327 Ge
61 2 6.84117 6.94491 9.6645 -1.07055 0.864367 -0.240654 -0.465389 -0.458181 0.220664 Ge
48 2 9.67129 4.16451 9.70325 0.960207 0.840679 -1.63475 1.02343 0.518485 1.11381 Ge
59 1 8.28195 5.56156 8.32587 -2.87796 1.8964 6.5149 0.147794 -0.150422 -0.037715 Si
11 1 2.7215 0.0483415 8.42901 3.39456 -1.94826 3.31788 0.941706 -1.34274 -2.84587 Si
26 1 0.0614964 8.34033 8.35675 1.28059 -0.301327 -0.793056 0.526379 0.590375 -0.913399 Si
32 2 4.13221 9.71392 9.73554 -1.23088 1.0959 -4.91921 0.786939 -0.302748 -0.663254 Ge
58 1 5.43688 8.30999 8.20658 0.200973 -2.94348 1.22387 0.593134 0.460972 1.81619 Si
52 1 8.27142 8.29223 -0.0312866 -3.52379 2.81076 1.8841 0.640542 0.949516 -0.409975 Si
43 1 8.35238 0.0177824 8.32804 0.190592 4.29899 2.85915 -0.406261 -0.118225 -0.529165 Si
64 2 9.77505 9.72665 9.67418 1.96467 0.414171 -1.91011 -1.75966 -0.317703 1.31299 Ge
ITEM: TIMESTEP
11400
ITEM: NUMBER OF ATOMS
64
ITEM: BOX BOUNDS pp pp pp
0.0000000000000000e+00 1.1085848640000000e+01
0.0000000000000000e+00 1.1085848640000000e+01
0.0000000000000000e+00 1.1085848640000000e+01
ITEM: ATOMS id type xu yu zu vx vy vz fx fy fz element
3 1 2.73234 0.000818026 2.77533 5.70719 0.914353 -5.40276 0.536944 -0.213326 0.328493 Si
4 1 2.76131 2.77515 0.0912332 4.39951 3.14931 -0.954861 -0.835066 0.843415 -1.23019 Si
7 2 4.12687 1.41907 1.41095 -1.69321 0.181454 1.50025 0.827375 -0.993075 0.588134 Ge
34 1 5.57072 2.78484 2.76384 0.23252 -5.75216 -4.52096 0.189121 -0.0200993 0.0498448 Si
2 1 -0.031986 2.79587 2.78541 -5.90767 5.47494 -0.728211 -0.28299 -0.00702599 0.764703 Si
35 1 8.36098 -0.00828159 2.73853 -0.911135 -1.4417 0.133338 -0.42645 -0.211906 -0.146703 Si
39 2 9.78376 1.36659 1.36111 1.96116 -1.43878 1.94324 -0.856838 -0.187668 -0.493592 Ge
6 2 1.29278 4.19754 1.39477 -0.499024 0.649962 2.15791 1.72983 -0.676332 0.776974 Ge
19 1 2.78078 5.53122 2.80134 1.06415 3.35985 -0.134245 -0.109599 0.305061 -2.36104 Si
23 2 4.134 6.91749 1.33578 0.904616 -0.802531 -1.40857 -0.315333 0.368376 0.104987 Ge
38 2 6.98255 4.10746 1.30293 2.25714 -0.922715 0.59575 0.211688 0.212949 0.629994 Ge
49 1 5.60724 5.56561 -0.0167854 -4.75135 -4.3964 -6.29467 -1.00736 -0.724978 0.0684001 Si
51 1 8.31042 5.544 2.76886 -5.0502 4.30204 -1.94552 -1.2 0.526232 -1.3209 Si
55 2 9.74693 6.97336 1.48634 2.35409 -0.213848 1.23153 0.0858481 -0.0424496 -0.911471 Ge
20 1 2.70084 8.35524 -0.0540951 -0.22545 3.38959 4.35995 1.39662 -1.50605 0.0787411 Si
22 2 1.37291 9.68998 1.32997 0.724683 3.06486 2.83971 0.152741 0.64618 1.40014 Ge
33 1 5.52265 0.00700231 0.0180971 0.877926 3.11544 2.42308 -0.450256 0.00688189 0.861972 Si
50 1 5.51773 8.29702 2.73213 -4.07164 -1.2879 4.84537 -1.31552 0.370249 0.75121 Si
54 2 6.87858 9.67298 1.4143 2.40187 0.465305 2.57885 1.21326 1.00884 -0.850852 Ge
1 1 0.0417564 -0.0204184 -0.0631959 -0.815217 0.693759 1.93112 -0.516463 0.174672 0.643335 Si
18 1 0.123423 8.35038 2.88408 5.11265 -1.05 -4.95325 -1.12523 -0.655061 -1.6754 Si
5 2 1.3977 1.4177 4.20413 -1.60998 -1.52149 0.578489 -0.590514 -0.346499 -0.596651 Ge
9 1 -0.0224005 0.0160959 5.59355 -4.09366 -2.94611 -0.0932598 -0.173363 -0.112506 -0.834738 Si
12 1 2.83813 2.78754 5.52422 3.64756 -3.35466 5.86093 -1.13618 1.29837 -0.473212 Si
15 2 4.17797 1.43675 6.85445 -1.65107 -0.181938 0.119359 0.557811 -0.937613 1.21514 Ge
37 2 6.9965 1.36636 4.15351 0.470037 1.03384 -4.02001 -1.12477 0.246772 -1.0252 Ge
41 1 5.59512 0.0333702 5.53826 2.66975 3.14673 1.80208 -0.361868 -0.843567 0.032176 Si
44 1 8.26383 2.78903 5.51074 -4.04058 -2.56177 -0.97938 -0.0805125 0.0461122 2.11244 Si
47 2 9.70177 1.4552 6.9362 -3.00051 0.184707 0.215008 -0.812429 -0.818129 0.00880169 Ge
14 2 1.37069 4.14562 6.91438 -0.139246 -0.971556 0.0244694 0.595505 -0.616811 -0.64876 Ge
21 2 1.49555 6.88801 4.16285 1.88682 -0.815405 1.08305 -1.65612 0.285457 1.64759 Ge
25 1 -0.0140648 5.46616 5.49857 -1.22949 2.96744 -3.06196 -0.118912 1.4057 -0.200375 Si
8 2 4.18022 4.23914 4.12396 -1.34741 4.21477 0.148835 0.45316 -2.27132 0.589954 Ge
31 2 4.23299 6.92168 7.01061 3.36167 -0.472966 -0.589443 -0.615424 0.118212 -0.698975 Ge
46 2 6.91725 4.18252 7.01588 0.232891 0.196628 -2.34405 -0.343738 -1.32006 -1.38531 Ge
53 2 6.88873 6.94875 4.08293 1.64053 0.173366 -3.07183 0.199556 -1.25248 0.771205 Ge
57 1 5.56443 5.51294 5.53862 -0.765274 2.97925 0.551321 0.323852 1.60093 0.574457 Si
40 2 9.54069 4.16744 4.14633 -0.499813 -3.04963 -2.12156 3.08661 -0.60668 -0.0599876 Ge
63 2 9.6855 6.93302 6.86164 1.89435 -1.12609 1.54087 0.304724 -0.540478 0.0252632 Ge
28 1 2.77835 8.29836 5.61247 -0.293773 -0.803443 4.03713 0.354809 -0.359586 0.3256 Si
30 2 1.29165 9.64873 6.96724 -0.802741 1.3033 -0.109913 1.31365 0.593624 -1.08403 Ge
24 2 4.14948 9.69038 4.22036 0.793018 1.51635 0.406936 0.165466 0.354616 -1.17994 Ge
62 2 6.9368 9.65008 6.91277 -2.45627 0.236744 0.816409 0.0176561 0.418241 -0.471661 Ge
56 2 9.69301 9.6872 4.14383 0.802084 3.17522 -2.86286 0.906178 0.863832 0.565595 Ge
60 1 8.29704 8.28682 5.43859 0.626393 0.546253 -1.22586 -0.211231 0.231762 1.28242 Si
13 2 1.44566 1.37201 9.71505 -0.680608 -3.02032 -0.293823 0.154538 0.19469 -1.40303 Ge
42 1 5.47619 2.77805 8.37674 -8.09059 -1.4701 3.69378 0.49193 0.177764 -0.836024 Si
45 2 6.85228 1.3545 9.70072 0.736935 -1.26274 -4.61407 1.21697 -0.379133 -0.907485 Ge
36 1 8.36835 2.67874 -0.110143 -0.140262 -0.549982 2.12194 -0.41246 0.72984 1.58582 Si
10 1 0.0217594 2.80001 8.3239 2.10214 -2.40216 3.07257 0.239982 -0.557118 0.564729 Si
17 1 -0.0498063 5.52273 0.00620592 -0.411749 9.23454 4.99675 0.209838 1.63732 0.317961 Si
27 1 2.74797 5.49886 8.27602 3.67992 -1.09065 4.83543 0.436288 0.904449 0.987801 Si
29 2 1.34894 6.89395 9.67155 -1.88416 -2.99557 0.865551 -0.123038 0.127627 0.0468413 Ge
16 2 4.11609 4.17214 9.74522 -1.80292 0.156086 1.55928 0.180754 0.0550316 0.206449 Ge
61 2 7.01082 6.91729 9.7262 3.80144 -1.90887 -1.56029 -0.178221 0.390525 -0.437592 Ge
48 2 9.71332 4.17256 9.70312 -0.00356248 -0.684084 -3.64892 -0.163847 -0.734289 -0.820486 Ge
59 1 8.35653 5.53096 8.29296 1.01352 0.24024 0.0633161 -0.0356724 0.834678 0.53291 Si
11 1 2.79891 -0.0336565 8.17928 -3.35115 2.66923 6.52075 -0.114572 0.661419 2.19464 Si
26 1 -0.0584689 8.30398 8.32212 -2.44696 0.196601 4.56428 -0.267321 -0.825632 0.169505 Si
32 2 4.17758 9.71924 9.7187 -2.76351 0.628766 0.264994 -1.07793 0.386438 -0.724132 Ge
58 1 5.60071 8.35494 8.41685 0.965676 -1.79484 -1.86308 -0.0355222 -1.19952 -1.03384 Si
52 1 8.33034 8.33363 0.0242275 -1.18307 -3.72289 0.073165 0.204681 -0.401985 1.01853 Si
43 1 8.28721 -0.0354759 8.27777 -0.50381 -3.09452 1.96278 0.274527 1.09312 0.512859 Si
64 2 9.67674 9.69857 9.70939 0.868875 0.858359 -3.75953 0.0428409 0.241995 -0.524032 Ge
ITEM: TIMESTEP
11500
ITEM: NUMBER OF ATOMS
64
ITEM: BOX BOUNDS pp pp pp
0.0000000000000000e+00 1.1085848640000000e+01
0.0000000000000000e+00 1.1085848640000000e+01
0.0000000000000000e+00 1.1085848640000000e+01
ITEM: ATOMS id type xu yu zu vx vy vz fx fy fz element
3 1 2.75779 0.00778199 2.82446 -3.58214 0.294619 3.72681 0.728243 0.180168 -1.51483 Si
4 1 2.74416 2.74496 -0.0725954 -2.05607 -2.5981 2.63149 1.41959 0.674465 0.857692 Si
7 2 4.17639 1.3613 1.3214 -1.5928 0.676102 -1.20811 -0.854592 0.63264 1.35896 Ge
34 1 5.53198 2.81373 2.78359 -1.23474 4.39299 3.18345 -0.290679 -0.913313 -0.751302 Si
2 1 0.0672165 2.70475 2.74905 7.34665 -2.37633 -0.410677 -1.44022 2.0164 -0.336271 Si
35 1 8.27053 0.0388119 2.78976 0.447543 -0.313724 -0.633312 -0.411775 -1.03084 0.143008 Si
39 2 9.60239 1.39522 1.38693 0.317669 -0.694827 3.74715 1.77002 0.143601 0.0616897 Ge
6 2 1.47799 4.1619 1.39029 -0.362701 0.512762 -4.39559 -1.46927 -1.17572 -0.694215 Ge
19 1 2.75075 5.54977 2.78094 1.12404 -3.49377 4.49292 0.678225 0.269563 1.12133 Si
23 2 4.20671 6.93835 1.51448 -0.434217 -2.21024 2.78117 -0.0341056 -0.0095014 -1.55431 Ge
38 2 6.90847 4.25045 1.40193 -1.8205 1.9373 2.52819 0.648796 -1.4319 0.479325 Ge
49 1 5.53039 5.56703 0.0328086 4.43285 4.98625 6.80185 -0.771143 0.102719 -0.978108 Si
51 1 8.4114 5.52503 2.76496 2.93268 -2.49343 2.21761 -1.66316 0.786191 0.652089 Si
55 2 9.69404 6.87796 1.31575 -0.780827 -1.47816 1.26497 1.04188 0.0270651 0.257278 Ge
20 1 2.83155 8.27106 0.0460595 -1.88012 2.40283 -2.8694 0.333 1.31647 0.467069 Si
22 2 1.38715 9.6812 1.41078 -3.44811 -1.59586 -3.0658 -0.279712 -0.15461 0.367852 Ge
33 1 5.54311 -0.0130432 -0.0370215 3.30275 -4.81205 -4.85496 0.250319 0.343877 0.228139 Si
50 1 5.66255 8.36217 2.76861 2.62685 0.241064 -3.55065 -0.826192 -0.475939 0.24914 Si
54 2 6.94343 9.734 1.29238 0.55277 -1.21797 2.416 1.08316 -0.459076 1.1706 Ge
1 1 -0.0120218 -0.00785588 0.0345051 -0.243174 2.85168 -3.03151 -0.551679 0.0842792 0.582404 Si
18 1 -0.117957 8.30925 2.78169 -1.87766 2.08755 5.37561 1.48081 0.011039 -0.971602 Si
5 2 1.40086 1.43396 4.1706 2.85425 -1.19426 -2.58299 0.0554719 -1.31896 0.118669 Ge
9 1 0.0502123 0.020265 5.52718 2.00117 3.19847 -0.191339 -0.345875 -1.03995 0.268165 Si
12 1 2.70429 2.79918 5.56291 -1.16633 -4.11409 -2.75958 1.26572 -0.826353 0.861274 Si
15 2 4.11308 1.36996 6.98353 0.786827 0.162474 0.358058 0.377641 0.51577 -1.56237 Ge
37 2 6.84608 1.37385 4.20099 3.21912 -1.49106 2.02866 0.997693 0.61642 -0.598953 Ge
41 1 5.47812 -0.0508927 5.53816 -0.230908 -2.47634 -1.17959 0.599229 0.95412 1.1882 Si
44 1 8.36735 2.76085 5.50467 0.476403 1.16412 -0.504827 -0.905692 0.0204098 -0.276973 Si
47 2 9.69051 1.34331 6.86506 2.32592 0.448425 0.906839 0.0734169 0.0355581 0.0491811 Ge
14 2 1.37701 4.15618 6.96586 -1.31924 2.27726 2.36072 -0.566996 0.0221105 -0.0648703 Ge
21 2 1.35342 6.98338 4.1308 -0.491572 -0.866257 -4.90727 0.188558 -0.475932 0.497678 Ge
25 1 0.0391269 5.57253 5.58917 -1.13548 -4.26464 5.02603 -0.26288 0.398074 -0.251146 Si
8 2 4.10134 4.10569 4.17542 0.0224181 2.63047 -0.647291 0.573242 1.73468 -0.00471099 Ge
31 2 4.06108 6.94501 6.91266 -0.284362 -1.6135 -1.63908 1.49015 -0.548958 -0.916212 Ge
46 2 6.94725 4.11927 6.87613 1.43437 2.35151 3.2738 0.384811 0.898116 -0.802171 Ge
53 2 6.95946 6.92735 4.19503 -0.423371 -1.1027 -0.112748 1.08741 0.0249926 -0.769847 Ge
57 1 5.54009 5.56125 5.52988 -1.29453 -9.19488 0.905117 -1.04779 -0.750554 0.344146 Si
40 2 9.78262 4.19401 4.17722 -3.00478 2.34153 -0.433759 0.334222 -1.42489 -0.666642 Ge
63 2 9.69821 6.93353 6.98059 0.229599 0.768609 2.63309 0.460415 -0.547706 -0.730739 Ge
28 1 2.79965 8.36555 5.48619 0.906206 3.39194 -3.98286 -1.0996 -0.360568 0.511632 Si
30 2 1.43341 9.71008 6.97605 -0.959595 -1.08616 1.78833 -0.105463 0.388043 -1.45489 Ge
24 2 4.19738 9.69394 4.11322 0.265651 -0.400695 -0.591255 -0.301606 -0.00997385 -0.0705629 Ge
62 2 6.93784 9.70218 6.93302 0.702858 1.24166 3.03001 -0.433991 0.354875 -0.212304 Ge
56 2 9.66978 9.69486 4.1938 -2.87252 -1.42437 -2.80716 -0.224037 0.881785 -0.0353984 Ge
60 1 8.32583 8.30952 5.62261 0.307286 -0.330951 -0.222206 -0.0687689 -0.0356137 -0.998149 Si
13 2 1.29865 1.40462 9.74013 2.65239 -0.641827 0.841655 0.499566 -0.851955 -1.34973 Ge
42 1 5.61381 2.77428 8.23192 5.37511 2.15432 0.396027 -1.30683 -0.857953 1.45538 Si
45 2 6.9063 1.39134 9.73283 -0.645133 0.718818 -0.964704 0.879448 0.225646 -1.48191 Ge
36 1 8.26175 2.8177 0.0150114 -0.622267 0.0961229 -2.59147 -0.15354 0.0139859 0.0166493 Si
10 1 -0.0630637 2.69771 8.23744 -1.49331 1.62828 1.16594 0.287081 1.56883 1.64704 Si
17 1 0.0595295 5.46188 -0.048116 -0.159027 -6.00777 -2.20464 -0.169299 1.56654 0.496227 Si
27 1 2.76496 5.54248 8.32071 -2.79255 1.14575 -5.09581 -0.0750574 0.106944 0.303312 Si
29 2 1.44544 6.9851 9.72504 2.06941 -0.888049 -1.23988 -0.662749 -1.8398 -0.362868 Ge
16 2 4.19191 4.13393 9.63334 1.30138 0.843313 -1.3669 -0.028101 0.293541 0.879258 Ge
61 2 6.8549 6.91031 9.62105 -2.55235 -0.866456 -1.45597 1.32668 0.238344 0.791285 Ge
48 2 9.66295 4.15686 9.69249 -0.66534 4.08005 0.719804 0.469455 -0.957357 -0.973293 Ge
59 1 8.28709 5.5109 8.26271 -2.49663 -2.32999 -2.77759 -0.0633837 0.30541 0.898315 Si
11 1 2.76869 0.0178747 8.37852 1.31976 -3.58188 -4.67511 -0.252853 -0.371958 0.794345 Si
26 1 0.0576883 8.28788 8.27905 2.45929 1.34535 1.81333 -0.571101 0.80701 1.61683 Si
32 2 4.22496 9.68271 9.71054 1.03973 1.15147 -1.38225 -1.45763 -0.535663 -0.605636 Ge
58 1 5.51421 8.2977 8.21579 -4.08041 5.53403 3.89538 -0.0660721 0.351069 1.23104 Si
52 1 8.35285 8.28631 -0.045173 -2.29873 2.15216 -2.35344 -1.71964 -0.432689 -0.331868 Si
43 1 8.3421 0.0132647 8.29574 -0.309794 -0.530222 -2.15029 -0.38735 -0.661861 1.31047 Si
64 2 9.74308 9.66448 9.74216 -0.477574 0.439736 -0.173329 0.0845816 0.588832 -1.95378 Ge
ITEM: TIMESTEP
11600
ITEM: NUMBER OF ATOMS
64
ITEM: BOX BOUNDS pp pp pp
0.0000000000000000e+00 1.1085848640000000e+01
0.0000000000000000e+00 1.1085848640000000e+01
0.0000000000000000e+00 1.1085848640000000e+01
ITEM: ATOMS id type xu yu zu vx vy vz fx fy fz element
3 1 2.78983 -0.0168562 2.70743 -1.05607 -0.946142 -0.988958 -0.654787 0.411162 1.85539 Si
4 1 2.8185 2.77172 0.025203 0.252765 -1.49174 -2.89995 -1.11871 -0.375801 0.515808 Si
7 2 4.20524 1.34807 1.40699 -1.08363 -1.75738 -0.0534408 -1.12255 0.893648 -0.482397 Ge
34 1 5.57267 2.68927 2.7676 2.19303 -3.58072 0.0573587 0.0966499 1.16737 0.642439 Si
2 1 -0.0978914 2.79706 2.78515 -3.28341 -4.43467 0.520429 2.00707 -1.46861 -0.0870908 Si
35 1 8.36263 -0.0336014 2.77772 1.67786 5.11413 1.74338 -0.082917 0.888897 -0.33495 Si
39 2 9.75585 1.36533 1.32734 -2.3215 -3.48051 -0.45707 -0.832557 -0.429003 1.2779 Ge
6 2 1.35718 4.14476 1.45084 2.15812 1.99821 4.19763 -0.192163 0.181945 -1.75884 Ge
19 1 2.75507 5.53375 2.73315 -3.47233 0.99097 -2.2502 0.315822 -0.233131 0.679604 Si
23 2 4.08734 6.92886 1.32014 0.0636198 -0.460521 2.04106 0.893838 -0.748153 0.0782051 Ge
38 2 6.93898 4.09778 1.38202 1.38458 4.08786 -1.72733 -0.662413 0.655216 -0.095953 Ge
49 1 5.5194 5.49589 -0.0485318 -1.49921 -2.6791 -3.6669 0.836102 0.965274 1.72644 Si
51 1 8.25569 5.52857 2.79041 5.92649 -1.20359 0.568685 0.861486 -0.420741 -0.0735434 Si
55 2 9.64553 6.95205 1.4307 -0.388709 -0.163147 1.10067 0.187903 -0.263734 -0.319762 Ge
20 1 2.74458 8.30731 -0.067479 -3.51069 -3.96589 1.05528 -0.966984 0.435971 -0.110267 Si
22 2 1.39379 9.72111 1.37822 3.2932 1.17977 2.21554 0.280939 -1.05432 -1.13824 Ge
33 1 5.51724 0.0238312 0.0324458 -5.29785 5.28601 3.76132 0.35395 -0.956716 -0.677703 Si
50 1 5.4519 8.27931 2.76851 3.3964 -0.16265 0.845621 0.576098 0.42129 -0.236814 Si
54 2 6.84907 9.73944 1.45105 -1.96643 3.50014 -0.486718 0.73625 -0.799284 -0.320828 Ge
1 1 0.0422567 -0.0133582 -0.035839 4.61669 -3.58501 -0.40574 0.345826 0.734286 -0.437222 Si
18 1 0.0445555 8.28372 2.71728 -1.13497 0.480249 3.2571 -0.569248 0.649907 1.83075 Si
5 2 1.35229 1.36638 4.16248 -1.427 3.22214 0.54532 0.543489 0.336306 -0.96517 Ge
9 1 -0.0155571 -0.0390422 5.5334 -0.911708 -0.516281 1.75088 0.324101 1.69104 0.670787 Si
12 1 2.82276 2.76606 5.50566 0.489135 4.23021 2.99377 -1.03627 -0.874503 -0.0366585 Si
15 2 4.20254 1.40656 6.88428 -0.845203 -1.2252 1.92599 -0.517063 -0.126775 0.648913 Ge
37 2 7.00217 1.37548 4.17119 -1.24055 -2.13681 -0.354039 -0.31239 -0.0354083 -0.0659665 Ge
41 1 5.56063 0.0441499 5.53269 -0.761343 0.905666 -2.11096 -0.288206 -1.24156 -0.831604 Si
44 1 8.32393 2.77785 5.59604 2.56245 -1.59256 -1.82936 -0.0303329 -0.0165135 -0.0177388 Si
47 2 9.7295 1.41577 6.96228 -2.47305 -0.422551 0.46712 0.325038 -0.298702 0.23781 Ge
14 2 1.45082 4.13262 6.86717 1.99501 -0.275656 -0.939039 -0.616223 1.30666 0.268041 Ge
21 2 1.39318 6.86458 4.15606 2.00003 0.256238 -0.0657416 -0.322288 0.764708 -1.32568 Ge
25 1 0.00234855 5.55274 5.49449 2.59754 -0.531671 -4.17198 -0.364105 -1.15545 1.33613 Si
8 2 4.12823 4.12243 4.12063 0.438465 -0.559172 -1.85884 1.69224 0.928809 -0.25599 Ge
31 2 4.18453 6.95575 6.97957 -1.04349 1.17969 4.67513 -0.256806 -0.756654 -0.493988 Ge
46 2 6.94931 4.17454 6.99302 -0.534906 -0.236737 1.82401 -0.288979 0.559335 0.0150199 Ge
53 2 6.91115 6.94805 4.13079 -4.33538 -0.889052 -2.12631 -0.414518 -0.0284142 0.306835 Ge
57 1 5.54354 5.57705 5.53987 3.62841 8.43922 -2.14078 -0.170806 -1.09568 0.250204 Si
40 2 9.68252 4.1193 4.17916 -0.895252 1.20599 0.235448 -0.974335 1.53873 0.0826185 Ge
63 2 9.66677 6.9232 6.91171 -1.85878 -1.96126 1.05461 0.406652 0.220447 -0.51243 Ge
28 1 2.7228 8.21594 5.54383 1.7927 -1.37732 2.8901 1.21145 1.47599 0.01397 Si
30 2 1.37946 9.69193 6.85303 1.25163 0.687309 3.89192 0.126305 -0.366016 1.28429 Ge
24 2 4.11421 9.6794 4.16208 -0.426838 -0.468749 -0.860862 0.0465695 0.123179 0.484185 Ge
62 2 6.91004 9.71269 6.89157 0.830149 0.478223 0.929065 0.985876 0.13639 0.949698 Ge
56 2 9.7457 9.71592 4.17923 1.77983 1.74235 -1.27487 -0.265707 -1.65386 -1.52981 Ge
60 1 8.31929 8.32562 5.50028 -1.87088 -0.617236 0.439859 -0.33775 0.0427857 0.468898 Si
13 2 1.43136 1.40863 9.64595 -0.868295 1.23807 -0.00771516 0.192743 -0.194505 0.9802 Ge
42 1 5.53015 2.73599 8.34635 -3.39889 -0.0222342 -3.87871 0.673936 0.795682 0.216344 Si
45 2 6.93656 1.37862 9.77857 -2.36395 -3.1522 0.733775 -0.208597 0.346081 -0.812447 Ge
36 1 8.36049 2.75097 0.0260277 2.53747 -1.95366 -0.947535 -0.298394 0.179642 -0.501481 Si
10 1 0.0741052 2.85079 8.32837 0.327994 -6.24078 -7.66155 -0.736695 -1.12322 -0.723714 Si
17 1 -0.0210459 5.61862 0.0371314 -0.128891 -3.62656 0.382399 -0.0915054 -1.54176 0.0195133 Si
27 1 2.77679 5.53258 8.31435 2.24799 -4.17333 3.57344 -0.312326 0.206696 -0.17057 Si
29 2 1.28395 6.93419 9.61801 -3.11975 2.57288 -1.0393 1.34185 0.302641 0.665465 Ge
16 2 4.14031 4.15265 9.72307 -1.61239 -0.935192 -0.577597 0.0491908 -0.496909 -1.13602 Ge
61 2 6.96625 6.97014 9.78899 0.842347 -0.999885 -1.06009 -0.417758 -0.60055 -0.526686 Ge
48 2 9.72601 4.14901 9.72587 1.05446 1.57091 -1.37079 0.283502 0.937382 0.51963 Ge
59 1 8.36323 5.61007 8.40752 1.32828 -0.671268 -0.0451881 -0.880908 -1.14803 -0.829786 Si
11 1 2.79726 0.0129688 8.2517 0.170866 5.31435 -3.89957 -0.380848 -0.0988128 -0.411378 Si
26 1 -0.0720865 8.34801 8.25385 -1.14188 -1.03186 -8.55437 0.634471 0.191303 -0.0453508 Si
32 2 4.13482 9.73595 9.68437 2.87298 0.587687 -1.46296 0.927367 -0.610822 -0.132085 Ge
58 1 5.60863 8.29941 8.34939 4.58702 -3.61258 -6.71523 -0.926388 1.16138 0.0223287 Si
52 1 8.29975 8.37307 0.0683382 7.66375 0.919135 2.18708 0.0354809 0.575088 -0.103524 Si
43 1 8.30647 0.0351108 8.35453 1.16841 0.603326 -2.59733 -0.235162 -0.271422 -0.971068 Si
64 2 9.69968 9.74068 9.69331 0.450698 -0.299503 0.997839 -0.4055 -0.740192 0.425333 Ge
ITEM: TIMESTEP
11700
ITEM: NUMBER OF ATOMS
64
ITEM: BOX BOUNDS pp pp pp
0.0000000000000000e+00 1.1085848640000000e+01
0.0000000000000000e+00 1.1085848640000000e+01
0.0000000000000000e+00 1.1085848640000000e+01
ITEM: ATOMS id type xu yu zu vx vy vz fx fy fz element
3 1 2.80412 0.0442568 2.82889 2.06275 0.417381 0.0392374 -0.134186 -0.676788 -1.2867 Si
4 1 2.71986 2.81102 0.0145336 0.191421 -0.197492 -0.930475 0.762068 -0.931496 -0.897239 Si
7 2 4.16864 1.4216 1.36263 3.45112 -1.46845 -1.93965 0.204197 -0.522804 -0.0706174 Ge
34 1 5.49772 2.88437 2.73788 -1.61173 2.55922 -0.452804 0.0216994 -1.47399 0.590897 Si
2 1 0.0742064 2.81941 2.77459 -0.134326 4.02189 0.0369329 -1.1125 -0.836521 0.324369 Si
35 1 8.2554 -0.0368679 2.70826 0.0246927 -6.25289 -1.50494 1.02875 1.01604 1.05647 Si
39 2 9.68542 1.44975 1.42271 0.748476 0.929827 0.761137 -0.515893 -0.308231 -0.227463 Ge
6 2 1.38234 4.19393 1.37603 1.48562 0.212164 2.03969 0.619128 0.703569 0.515079 Ge
19 1 2.82667 5.58484 2.77969 1.04725 -1.28459 -1.10244 -1.51749 -0.0826293 -0.108738 Si
23 2 4.22526 6.91593 1.41684 0.442706 0.341832 3.74062 -0.269699 0.891323 -0.130788 Ge
38 2 6.94359 4.13059 1.35801 -1.778 -0.166965 2.98303 -0.513595 1.37232 -0.0665031 Ge
49 1 5.59036 5.57255 0.0178296 0.330135 -1.57327 -0.961438 -0.270222 -0.929201 -0.852898 Si
51 1 8.27645 5.57358 2.70627 -2.65231 -0.638074 -2.62281 1.72923 -0.722057 0.461706 Si
55 2 9.76126 6.92145 1.37749 -1.19229 -1.03263 0.666401 -1.22993 0.319892 -0.622762 Ge
20 1 2.8375 8.33728 0.0650498 7.64712 -0.934581 -2.51122 -1.05476 -0.749381 0.292932 Si
22 2 1.35052 9.72504 1.40859 -3.25485 3.05121 3.91915 1.32822 0.563484 0.111509 Ge
33 1 5.62215 -0.0473909 -0.032752 3.64977 -3.22061 -2.42298 -1.13768 1.63981 0.715139 Si
50 1 5.55423 8.34465 2.77846 -1.17686 1.49731 -0.921086 0.944151 -0.397523 0.416803 Si
54 2 6.97144 9.63661 1.32394 -0.345698 0.899909 2.08784 -0.947802 0.066587 0.319763 Ge
1 1 -0.095999 0.013888 0.0493163 -4.15929 0.325822 0.252841 0.782551 -0.639854 -0.235151 Si
18 1 0.038381 8.31805 2.77305 -0.760393 -3.60413 -7.18987 -0.871144 -0.0230201 0.761788 Si
5 2 1.40548 1.37548 4.18446 0.211892 -2.37432 -0.290636 -0.62404 0.575042 -0.68532 Ge
9 1 0.00873757 0.0240372 5.53904 2.0097 -2.58949 -5.16941 -0.643607 -0.91322 -0.115135 Si
12 1 2.7169 2.76128 5.53578 -1.40527 0.0534666 -6.03017 0.613522 1.08232 1.07615 Si
15 2 4.11192 1.3874 6.94678 -0.733186 -0.00933235 2.18767 0.230312 -0.622115 0.794251 Ge
37 2 6.87808 1.4184 4.0959 2.59336 -1.06528 -0.9191 -0.12663 -0.610456 0.165728 Ge
41 1 5.56334 -0.0169551 5.57193 -0.159091 2.38746 2.30676 -0.190613 1.36596 -0.115322 Si
44 1 8.27814 2.76791 5.49585 -0.0162859 1.12931 0.779042 0.727696 -0.249777 -0.520556 Si
47 2 9.68244 1.37798 6.87596 -0.555683 -0.397047 -0.336815 -0.255554 0.382481 1.12448 Ge
14 2 1.32553 4.16905 6.97602 -0.54871 -1.60879 2.51549 0.497251 -0.692157 -0.386107 Ge
21 2 1.41522 6.95367 4.19423 -0.745319 -1.16466 -0.805333 0.0124044 -0.111866 -0.015169 Ge
25 1 -0.0265967 5.53607 5.57331 0.873866 3.456 0.351885 0.616387 0.263337 -1.08882 Si
8 2 4.1177 4.21621 4.18442 -6.88838 0.125414 0.250267 -0.0250855 -1.41229 -0.296295 Ge
31 2 4.14626 6.91166 6.89622 -0.260284 1.17957 -0.834508 0.285363 1.10163 0.537979 Ge
46 2 6.91982 4.12036 6.87605 1.25567 -0.0271284 -0.949616 -0.352765 -0.099403 0.669526 Ge
53 2 7.02419 6.95371 4.15187 4.93503 -0.594924 -1.40045 -2.66531 -0.696573 0.295601 Ge
57 1 5.52902 5.49094 5.54796 -0.60179 -4.06808 -1.25924 1.13334 2.00653 -0.686519 Si
40 2 9.69268 4.16919 4.11196 1.1898 -0.079328 -0.54047 -0.286759 0.353219 0.354919 Ge
63 2 9.75639 6.95056 6.9366 1.95643 -0.480018 4.46848 -0.657909 -0.134117 0.926348 Ge
28 1 2.79295 8.40253 5.56352 -3.18734 -3.01565 -5.32615 -0.393841 -1.26654 0.0620653 Si
30 2 1.33235 9.69244 6.95874 -0.50721 -0.457038 -1.4216 0.692929 0.0659943 0.467868 Ge
24 2 4.201 9.7395 4.19607 0.0660926 0.782486 -1.72197 -0.398428 -0.195407 -0.721321 Ge
62 2 6.90448 9.64341 6.92251 -3.70544 1.58896 0.209316 0.141704 0.248983 0.704267 Ge
56 2 9.66474 9.69728 4.16283 -1.45746 2.8883 -0.466207 0.883855 0.520764 -0.696758 Ge
60 1 8.34283 8.31047 5.55316 5.7302 0.680712 0.741447 0.225248 0.0224294 0.455125 Si
13 2 1.33179 1.31948 9.7435 -0.331803 0.484882 -0.215013 0.0569834 1.33613 0.297125 Ge
42 1 5.54513 2.79964 8.3458 6.12161 -2.3398 -2.13141 -0.815935 -0.292744 -1.4197 Si
45 2 6.91897 1.41427 9.64999 0.454745 -0.815112 0.558573 0.664683 -1.23213 0.568571 Ge
36 1 8.27721 2.78334 -0.029532 -1.39419 0.199083 1.53765 0.609037 -0.72804 0.225449 Si
10 1 -0.0537522 2.76998 8.37575 0.89187 5.52471 5.40838 0.52786 -1.21212 -1.37139 Si
17 1 -0.00344313 5.53023 -0.0333944 2.12706 3.49392 -1.57713 -0.152071 -0.508919 -0.00977007 Si
27 1 2.75693 5.58239 8.27912 -1.48197 1.70636 -4.79998 0.702118 -1.36973 0.48473 Si
29 2 1.4805 6.87485 9.7577 -0.0227373 -1.52261 -1.91541 -0.590402 1.34386 0.383458 Ge
16 2 4.1648 4.18802 9.70418 0.722343 0.319368 0.265778 -0.549008 0.390523 0.267585 Ge
61 2 6.94899 6.86898 9.61912 -0.863829 -1.08502 -1.57833 -0.903903 0.3144 0.469438 Ge
48 2 9.63754 4.12932 9.66231 -1.27936 0.318663 -1.10729 0.423117 1.09322 0.851188 Ge
59 1 8.30125 5.49382 8.23195 3.50743 1.97413 -1.93299 0.638245 0.581902 -0.0451648 Si
11 1 2.73055 -0.0791483 8.4092 1.47719 -4.83523 4.30369 0.37275 1.34436 -1.45133 Si
26 1 0.0652073 8.28015 8.44157 0.20453 -1.8651 3.84592 -0.224059 -0.436535 -1.92417 Si
32 2 4.1631 9.69788 9.76815 -1.59172 2.55983 0.508358 0.0943909 -0.0958433 -0.323581 Ge
58 1 5.48672 8.32077 8.37855 -1.06401 -0.154492 4.48599 0.697874 -1.00583 -1.56792 Si
52 1 8.26951 8.2356 -0.0685971 -3.75154 -1.53889 -1.09195 2.1294 0.22076 0.466246 Si
43 1 8.30354 -0.0445283 8.29197 0.825154 1.42515 2.63723 0.239934 0.463877 -0.298963 Si
64 2 9.71722 9.65625 9.68457 0.68444 1.47374 -1.74384 -1.20558 0.52858 1.02363 Ge
ITEM: TIMESTEP
11800
ITEM: NUMBER OF ATOMS
64
ITEM: BOX BOUNDS pp pp pp
0.0000000000000000e+00 1.1085848640000000e+01
0.0000000000000000e+00 1.1085848640000000e+01
0.0000000000000000e+00 1.1085848640000000e+01
ITEM: ATOMS id type xu yu zu vx vy vz fx fy fz element
3 1 2.72431 -0.058182 2.71119 1.55214 -0.669418 -2.36189 0.057193 -0.00157459 1.30905 Si
4 1 2.83894 2.74854 -0.0203023 1.01568 4.35446 1.95176 -0.988756 0.417611 -0.0420987 Si
7 2 4.10977 1.34402 1.43933 -2.08652 -1.18201 2.0732 0.42331 0.767806 -0.581883 Ge
34 1 5.58734 2.6577 2.78524 2.46988 -1.97925 -4.52666 -0.10984 1.74559 -0.539748 Si
2 1 -0.0171686 2.71553 2.73384 0.270932 3.53951 -1.21593 0.449833 1.23559 0.107509 Si
35 1 8.34186 0.0828466 2.86018 -3.30414 -0.842995 -3.24784 -0.402785 -2.12791 -0.903301 Si
39 2 9.70001 1.35715 1.37279 0.440537 -2.1085 2.26492 0.268504 0.145727 -0.228696 Ge
6 2 1.39336 4.13637 1.34858 -0.954262 1.13802 1.4176 -0.0941195 -0.466503 0.505174 Ge
19 1 2.72944 5.51008 2.80042 3.59389 2.04385 -2.49012 1.24537 -0.688421 -0.890893 Si
23 2 4.08278 6.90523 1.3624 -1.58072 -4.5172 -0.336242 -0.123285 0.585758 0.706628 Ge
38 2 6.94759 4.1822 1.41148 3.90005 -0.615872 -0.229203 -0.521848 -0.570991 0.667812 Ge
49 1 5.50569 5.55663 0.0362756 0.538828 2.51265 -0.958261 0.569894 -0.281114 -0.51553 Si
51 1 8.34333 5.54127 2.84774 -5.94401 3.50184 0.502321 -1.39267 0.410319 -0.499374 Si
55 2 9.66208 6.91312 1.37445 1.17202 -0.515396 4.77845 0.724813 0.704678 1.52017 Ge
20 1 2.68672 8.31384 -0.0384453 -2.41126 2.34897 0.246321 2.74414 -0.664218 -1.19721 Si
22 2 1.40963 9.65402 1.27613 -1.28867 -0.408292 -1.64686 -2.14864 0.87319 2.56208 Ge
33 1 5.46981 0.0588538 0.0299317 2.19739 -1.09886 1.57339 1.31649 -1.5962 -0.834716 Si
50 1 5.53115 8.27478 2.76452 -4.15593 -2.65803 -0.477252 -0.872621 0.57278 -0.80584 Si
54 2 6.91766 9.73637 1.40949 -1.13948 2.19348 0.57732 0.279969 0.636997 0.558089 Ge
1 1 0.0739752 0.0282322 -0.0380724 0.139058 -0.0401116 0.301638 -1.15443 -0.559008 0.129407 Si
18 1 -0.0391507 8.34119 2.82244 7.05882 0.0530969 -0.577535 1.12769 -1.02241 -2.74425 Si
5 2 1.36676 1.38944 4.13235 0.913687 -0.201933 1.26882 0.720338 -0.628317 0.985816 Ge
9 1 -0.0319335 -0.00348654 5.57101 0.0257098 1.71835 4.32893 1.26269 -0.0390083 -0.9157 Si
12 1 2.82235 2.76175 5.61833 1.79056 -2.91722 1.84995 -0.427801 0.336286 -3.05345 Si
15 2 4.20603 1.37135 6.87159 0.856718 0.97398 -2.60843 0.0904695 0.258624 0.71048 Ge
37 2 6.92687 1.39071 4.24155 1.35599 0.666293 -0.745301 0.679822 -0.0985335 -0.344809 Ge
41 1 5.54192 -0.0311537 5.51069 3.70873 -5.81739 -1.13005 0.489049 -0.556624 0.613102 Si
44 1 8.33627 2.77391 5.58967 -0.116904 -0.351556 1.4614 0.0281807 0.132325 0.524258 Si
47 2 9.76668 1.39361 6.96071 1.30163 1.50029 0.751855 -1.93032 -0.513319 -0.368062 Ge
14 2 1.44149 4.19356 6.90648 0.692943 2.47561 -1.55751 -0.671201 -0.218327 1.03549 Ge
21 2 1.37018 6.90975 4.109 2.76317 -2.1598 0.211643 -0.366812 0.576175 1.74936 Ge
25 1 -0.0255289 5.54863 5.54761 -2.60958 -3.04172 -1.13387 0.222929 0.11299 -0.137052 Si
8 2 4.25234 4.11412 4.1303 1.42599 3.40305 -1.34419 -1.50023 0.272695 1.01483 Ge
31 2 4.13496 6.90087 6.91135 -1.23027 -1.22813 2.1488 -0.186858 -0.0302144 0.522329 Ge
46 2 6.9633 4.17833 7.00818 2.26413 0.425623 4.7873 -0.953169 -0.258568 -0.79179 Ge
53 2 6.81477 6.93044 4.19972 -1.48441 0.39534 -3.23493 2.56518 -0.15837 -0.708201 Ge
57 1 5.55204 5.5604 5.57892 -0.918058 -0.147301 2.57794 -0.352035 -1.65889 0.201797 Si
40 2 9.71494 4.11292 4.16426 -2.44875 -0.739429 -1.2656 0.203309 0.0980432 0.185773 Ge
63 2 9.61625 6.9502 6.92062 -0.74246 -0.383339 -0.148792 0.577629 -0.676954 0.230988 Ge
28 1 2.77124 8.29695 5.55431 0.926112 2.96581 3.85347 -0.438115 -0.132219 -0.973517 Si
30 2 1.42138 9.73504 6.91282 -2.1054 -0.325618 0.455249 -0.345387 0.0771239 -0.328397 Ge
24 2 4.14651 9.66725 4.13296 -0.527921 -0.906288 1.32409 -0.295485 0.125105 -0.125424 Ge
62 2 6.99371 9.7064 6.92903 0.610047 -1.41125 2.02475 -1.56307 0.735702 -0.210517 Ge
56 2 9.71768 9.65807 4.18812 0.126828 0.226939 -0.475234 -1.52184 1.43935 0.628673 Ge
60 1 8.24996 8.31087 5.54733 -5.98334 -1.64948 -4.7779 0.688107 -0.22462 -0.795901 Si
13 2 1.42205 1.38237 9.65574 1.74116 -3.52545 -2.7234 0.43411 0.931748 0.237155 Ge
42 1 5.4853 2.76707 8.30979 -5.39293 2.10412 7.73558 1.97746 -0.0480907 -0.173847 Si
45 2 6.92438 1.42194 9.73131 -3.02586 0.813284 -0.311978 -0.712322 -0.153079 -0.146331 Ge
36 1 8.31358 2.78645 0.0407351 1.68279 2.34125 -1.76504 0.27556 0.0829532 -0.421721 Si
10 1 0.0435433 2.74228 8.26457 0.303674 2.97055 0.962297 0.133712 2.04403 1.4575 Si
17 1 -0.0147796 5.55381 0.0304415 -1.63235 1.73627 0.210373 0.592789 0.276191 -0.861412 Si
27 1 2.80057 5.53056 8.39116 1.42671 0.926829 1.23182 -0.923011 0.978451 -1.78472 Si
29 2 1.35122 6.96785 9.66385 -3.09072 -2.46245 -3.59386 -0.881094 -0.772895 -0.0887594 Ge
16 2 4.18527 4.17098 9.66635 -0.250278 1.63933 0.510029 -0.0559587 -0.474779 1.72584 Ge
61 2 6.86984 6.99504 9.75141 2.49541 0.448665 -0.0841084 0.271352 0.267137 -0.114244 Ge
48 2 9.70964 4.1735 9.73678 -1.52903 0.420418 -3.17978 0.0523564 -0.636594 -0.921281 Ge
59 1 8.25597 5.59229 8.40617 -2.7231 0.112254 5.13995 1.07604 -0.0953832 -0.244044 Si
11 1 2.79851 0.0975416 8.23556 -0.853886 -1.50654 -1.92136 0.369116 -2.34248 1.023 Si
26 1 -0.0320345 8.36373 8.2174 1.20327 3.48361 2.55411 0.280266 -0.497391 1.34033 Si
32 2 4.17677 9.67988 9.63709 3.19501 2.51546 -1.5701 -1.18704 1.06066 0.382548 Ge
58 1 5.53149 8.31707 8.20343 1.9308 -0.391522 0.417196 0.522488 -0.0444499 1.61196 Si
52 1 8.35768 8.37461 0.0337631 -4.98824 -0.124089 -1.50382 -1.43406 -0.501885 -0.365088 Si
43 1 8.31687 0.0190131 8.34715 0.0800842 -2.1139 -0.510437 0.617586 0.268907 0.05977 Si
64 2 9.72763 9.7115 9.71575 1.75549 -0.939144 -2.74818 0.217056 0.568789 -0.649126 Ge
ITEM: TIMESTEP
11900
ITEM: NUMBER OF ATOMS
64
ITEM: BOX BOUNDS pp pp pp
0.0000000000000000e+00 1.1085848640000000e+01
0.0000000000000000e+00 1.1085848640000000e+01
0.0000000000000000e+00 1.1085848640000000e+01
ITEM: ATOMS id type xu yu zu vx vy vz fx fy fz element
3 1 2.75623 0.0507728 2.85999 -1.64759 2.67643 2.17399 1.51845 -0.149373 -2.51111 Si
4 1 2.6873 2.75508 0.0447724 1.31515 -3.81121 -1.25957 1.41573 0.876116 -0.352624 Si
7 2 4.20458 1.43837 1.36352 -0.198998 -1.98003 -0.636264 -1.28272 -0.675757 1.38166 Ge
34 1 5.51654 2.86151 2.83033 -3.00396 0.50304 3.2388 0.942482 -2.09835 -1.68482 Si
2 1 -0.0209435 2.73838 2.82843 2.1082 -6.76696 -1.78764 -0.419178 0.828139 -1.23497 Si
35 1 8.34136 -0.0128806 2.74618 1.89988 5.86508 3.71712 -0.413825 0.318538 -0.575331 Si
39 2 9.74226 1.39025 1.33346 -1.57752 -0.792476 1.1066 -0.65613 -0.44727 1.51158 Ge
6 2 1.3398 4.15848 1.44099 3.09634 1.67771 0.22929 0.284403 -0.55612 -0.00224854 Ge
19 1 2.76353 5.52949 2.7769 -2.93127 1.67895 6.70851 0.403294 1.34094 -0.814156 Si
23 2 4.18708 6.9934 1.3687 2.21064 -1.88515 4.76319 0.084169 -1.68408 0.982677 Ge
38 2 6.88751 4.13119 1.3484 -0.475409 3.77291 0.637356 1.39236 0.253265 0.7088 Ge
49 1 5.54035 5.52493 -0.0110237 -1.06044 1.59655 4.5403 -0.526477 0.218143 -0.592144 Si
51 1 8.34849 5.50813 2.75607 7.22447 -2.06952 -1.81565 -0.859835 0.84176 -0.874254 Si
55 2 9.72315 6.95023 1.36566 -0.669821 -3.17183 -3.15311 0.0451892 -1.04249 0.387255 Ge
20 1 2.78751 8.2989 0.0140869 -2.54818 1.9237 2.5331 -1.07004 0.779618 0.887106 Si
22 2 1.42463 9.72618 1.44855 1.5311 2.05463 -0.0386701 -0.304857 -0.482269 -0.599359 Ge
33 1 5.51973 -0.023281 -0.0281155 -3.4797 2.70228 -1.03569 0.512328 0.106597 0.415288 Si
50 1 5.57855 8.36198 2.78769 4.99258 3.33786 -0.445566 -0.311946 -1.15651 0.494007 Si
54 2 6.92682 9.65837 1.39276 1.67656 0.356171 0.0855021 0.292155 1.46079 -0.632408 Ge
1 1 -0.000130302 -0.0363767 0.0249896 1.3122 3.91285 0.291129 0.823893 0.529176 -0.171731 Si
18 1 -0.0209493 8.3343 2.7726 -8.3353 2.78686 8.63511 0.544735 0.0673191 0.269169 Si
5 2 1.37387 1.38914 4.13635 -1.63652 -0.344689 -1.87481 -0.201826 0.419806 1.09885 Ge
9 1 0.0336478 0.021623 5.52725 -2.6706 0.136842 -1.17558 -0.765337 -0.628191 0.433551 Si
12 1 2.75058 2.79389 5.45498 -0.0183274 -0.230114 6.77053 0.638202 -1.08541 2.5194 Si
15 2 4.1514 1.38145 7.01053 -2.52077 -2.50388 2.14248 -0.929592 1.041 -1.58146 Ge
37 2 6.91771 1.3506 4.11339 -1.85532 -0.763155 -0.07159 -0.33103 1.13593 0.409697 Ge
41 1 5.4929 0.0740938 5.56703 -4.55868 4.23759 -0.591026 0.668874 -1.08802 -0.67644 Si
44 1 8.26444 2.7721 5.51203 -2.95717 0.230053 -2.76747 0.021659 -0.138975 -0.317688 Si
47 2 9.63334 1.34859 6.87775 0.953673 -1.45728 -2.3436 1.09375 1.06704 0.231168 Ge
14 2 1.38682 4.09567 6.96095 0.929885 0.150317 3.64112 -0.488824 0.440126 -1.05606 Ge
21 2 1.40036 6.9543 4.14368 1.29047 1.50453 -4.22543 -0.239266 -0.441216 0.33696 Ge
25 1 0.0497614 5.52812 5.55796 -0.123292 4.12981 3.53833 -0.431061 -0.00540064 -0.588812 Si
8 2 4.13485 4.17084 4.13719 -1.34361 0.339175 -2.28752 -0.203901 1.03517 0.672798 Ge
31 2 4.21868 6.92822 6.99298 -1.19046 -0.154172 -1.19206 -1.00181 0.404575 -0.807941 Ge
46 2 6.84109 4.16553 6.84759 2.27319 -0.945588 -1.03297 2.36666 0.113441 0.535468 Ge
53 2 6.9951 6.9262 4.1681 0.0543659 0.126984 0.317949 -0.609444 0.356674 -0.539016 Ge
57 1 5.52764 5.56172 5.49819 -0.882187 0.774412 -1.1413 -0.312538 0.497272 0.180034 Si
40 2 9.67848 4.17582 4.15984 0.227827 -0.510392 -2.48487 0.795154 -0.743975 0.705432 Ge
63 2 9.71581 6.92083 6.88222 0.285874 1.03114 3.89167 0.565124 0.0356134 0.675646 Ge
28 1 2.78502 8.31596 5.54897 2.19835 1.62227 0.287343 0.64826 0.149938 0.527755 Si
30 2 1.38498 9.70071 6.95634 1.16244 1.15957 2.68242 -0.375447 -0.452615 -0.605421 Ge
24 2 4.16876 9.74153 4.15459 1.76797 1.27009 -0.929324 -0.196335 -0.278996 0.923113 Ge
62 2 6.91038 9.72241 6.85867 0.548268 -0.106574 0.108898 -0.267209 -0.107501 1.77254 Ge
56 2 9.68634 9.72495 4.16284 0.97027 -0.129095 -2.07068 0.881925 -0.0850658 -0.0257887 Ge
60 1 8.35209 8.343 5.55967 4.37053 0.760147 6.78112 -0.566536 -0.396949 -0.674995 Si
13 2 1.34967 1.41354 9.73659 -3.46843 -1.7427 1.99485 -0.307282 -1.461 -0.821702 Ge
42 1 5.62514 2.77267 8.27404 -0.574196 -1.13893 -4.55466 -1.84883 -0.260916 1.42854 Si
45 2 6.96968 1.36402 9.68982 0.435238 -0.405796 -1.6781 -0.67667 0.0129755 -0.21681 Ge
36 1 8.34331 2.73552 -0.0231135 -4.99054 -1.38336 1.58878 -0.378902 0.858727 0.208405 Si
10 1 -0.0623691 2.74632 8.31147 -1.23552 -8.86327 -3.77505 0.67149 -0.640512 -0.300992 Si
17 1 0.0164154 5.49919 0.00133085 -0.239929 -0.411271 2.11319 0.252288 1.50234 0.545715 Si
27 1 2.7093 5.54648 8.28949 0.3025 -0.242029 5.26426 1.42563 -0.129609 0.891279 Si
29 2 1.40476 6.9468 9.74169 3.34726 0.910265 0.296727 -0.830472 -0.809864 -0.646111 Ge
16 2 4.1192 4.11562 9.67348 1.05127 -0.0509746 -4.65289 0.151798 0.302812 0.254003 Ge
61 2 6.9985 6.85149 9.68406 -2.68672 -3.75449 -4.57252 -0.0404191 0.807061 0.289286 Ge
48 2 9.76164 4.14637 9.72631 -1.01255 0.942635 -0.507705 -1.56545 -0.294646 -0.961456 Ge
59 1 8.38638 5.48315 8.23272 -3.38933 -0.692249 -5.08425 -1.12792 -0.0610783 0.611641 Si
11 1 2.74604 -0.0363945 8.34244 -0.157611 5.64444 3.58402 -0.47803 1.29442 0.43695 Si
26 1 -0.0222078 8.29129 8.33043 -1.01046 -1.62514 -3.90127 0.115166 0.576527 0.283376 Si
32 2 4.06397 9.6789 9.72785 1.48938 -1.01317 -0.780327 1.89825 0.324337 -0.167116 Ge
58 1 5.57818 8.34485 8.4108 -6.69397 2.61589 -4.00107 0.0977162 -0.335941 -1.34499 Si
52 1 8.33365 8.31561 0.0250905 5.6563 -0.207435 1.06328 -0.543696 -0.660542 -0.764107 Si
43 1 8.30666 0.00652464 8.27896 -3.21117 -0.816965 2.36832 -0.169189 -1.02204 0.330907 Si
64 2 9.67856 9.72271 9.74069 2.74576 -0.884021 0.314018 0.180909 -0.57552 -1.198 Ge
ITEM: TIMESTEP
12000
ITEM: NUMBER OF ATOMS
64
ITEM: BOX BOUNDS pp pp pp
0.0000000000000000e+00 1.1085848640000000e+01
0.0000000000000000e+00 1.1085848640000000e+01
0.0000000000000000e+00 1.1085848640000000e+01
ITEM: ATOMS id type xu yu zu vx vy vz fx fy fz element
3 1 2.80199 -0.0498998 2.69959 -5.10983 -2.30468 4.53613 -1.22091 0.805402 1.67211 Si
4 1 2.79983 2.80012 -0.0494847 -4.22158 0.0383068 3.85657 -0.196452 -1.03967 0.865636 Si
7 2 4.16145 1.37105 1.41041 2.92137 0.713499 -0.509531 0.206282 0.267058 -1.75404 Ge
34 1 5.56802 2.72158 2.74448 0.846534 2.34976 5.67457 -1.19107 1.28353 1.49196 Si
2 1 -0.00625039 2.87356 2.74373 -2.6336 2.17566 5.815 0.899244 -2.17053 0.404741 Si
35 1 8.28604 -0.0353274 2.77014 1.06652 -0.241717 2.27623 0.517085 1.05315 0.24539 Si
39 2 9.67298 1.44399 1.40872 4.18095 -2.17529 -2.80301 0.328954 -0.990848 -0.145168 Ge
6 2 1.39889 4.16461 1.35156 -2.21794 0.860457 2.81974 0.248909 0.491293 -0.535411 Ge
19 1 2.78342 5.55852 2.70747 -2.50548 -4.03927 -2.45284 -0.423271 -0.555425 2.07934 Si
23 2 4.15244 6.96056 1.39743 -2.85762 0.466771 -1.71764 1.04032 -1.1026 -0.438377 Ge
38 2 6.9232 4.13223 1.41261 -2.06747 -1.44638 0.270257 -0.484502 0.819651 -0.723689 Ge
49 1 5.54062 5.52046 -0.0264134 0.25646 -1.13329 -0.854366 0.572988 1.31026 1.43884 Si
51 1 8.2682 5.56871 2.75596 -1.27088 -1.60216 8.18499 1.67061 -0.693606 0.448335 Si
55 2 9.70484 6.92544 1.3512 -0.521491 1.65732 2.53448 -0.685949 -0.402633 -0.192399 Ge
20 1 2.79609 8.29548 0.0307161 -1.95633 -2.77242 -2.32163 -0.472367 0.653723 -0.672796 Si
22 2 1.36251 9.6696 1.3675 -1.37337 0.168015 0.0464216 0.583468 0.324466 -0.564649 Ge
33 1 5.59209 -0.00244749 0.0213044 -3.11467 0.32328 2.46111 -1.0637 0.241662 -0.586409 Si
50 1 5.52842 8.27679 2.82427 -2.11341 0.248437 1.99855 0.897435 0.793917 -1.26587 Si
54 2 6.93944 9.67919 1.36305 -2.54253 -0.51341 3.78615 -0.406421 -0.890994 0.897704 Ge
1 1 -0.028526 -0.00859484 0.00109115 -0.549 -4.12496 0.413187 -0.0351402 0.637298 -0.138088 Si
18 1 0.02312 8.26149 2.69233 2.4428 2.50291 -2.73127 -1.23858 0.946732 2.34848 Si
5 2 1.38491 1.39382 4.15759 0.602892 -1.44315 -3.22189 -0.199013 -0.369792 -0.99366 Ge
9 1 -0.0165366 -0.0344358 5.54832 2.43566 2.37365 3.80937 0.140206 1.15847 0.266328 Si
12 1 2.7307 2.78189 5.58371 -2.57046 2.22096 -8.67555 0.229211 -0.0390019 -0.532747 Si
15 2 4.15948 1.40361 6.91418 4.52272 -0.774322 2.5298 0.0470876 -0.813305 0.299288 Ge
37 2 6.92196 1.40823 4.16179 5.09585 -3.28994 -0.0316727 1.15947 -0.808165 0.401938 Ge
41 1 5.59438 -0.0375793 5.5505 -0.483414 2.08658 1.95889 -1.21659 1.00852 -0.230447 Si
44 1 8.38564 2.78235 5.55957 1.63786 0.353569 2.44167 -0.785881 -0.0563934 -0.289821 Si
47 2 9.72075 1.39162 6.99152 -0.974885 -0.0946595 0.683342 0.7816 0.157239 -0.749305 Ge
14 2 1.34102 4.19069 6.92579 3.16931 -1.40417 0.657873 0.757925 -0.214585 0.342341 Ge
21 2 1.33091 6.88951 4.18332 2.11967 -2.54243 -4.70846 1.21599 0.38868 -1.82146 Ge
25 1 -0.0248285 5.54198 5.52999 1.35392 -5.75588 -0.555287 -0.0122939 0.388214 1.15178 Si
8 2 4.1511 4.15256 4.21181 0.157104 0.182354 -3.85901 0.308983 -0.119438 -1.65581 Ge
31 2 4.14446 6.89645 6.8727 3.24436 -1.20394 5.05155 0.359052 0.818212 0.282702 Ge
46 2 6.93215 4.15606 6.92835 -2.97839 2.28283 2.65781 0.459971 -0.0942768 0.534395 Ge
53 2 6.94388 6.92454 4.17602 0.867715 -2.29879 -1.52896 -0.639765 -0.184887 -0.159973 Ge
57 1 5.57571 5.544 5.56183 2.10495 1.97012 0.292557 -0.352051 -0.351165 -0.60749 Si
40 2 9.76813 4.1828 4.15559 -4.06511 0.563151 -0.683566 -2.40191 0.45827 -0.432984 Ge
63 2 9.68908 6.92701 6.94373 -2.81469 -0.305726 0.0520073 0.368906 0.443424 0.0299472 Ge
28 1 2.73631 8.29665 5.50494 -2.89877 -0.944002 0.149287 0.447056 0.409958 0.312284 Si
30 2 1.38578 9.70622 6.92874 -0.215491 -0.883582 0.444828 0.0220846 -0.74707 0.337205 Ge
24 2 4.17341 9.69946 4.1313 -1.25803 -0.153561 -2.4412 -0.406435 -0.246522 0.808542 Ge
62 2 6.93823 9.68239 6.93842 -0.131496 1.40395 -3.42004 0.526346 -0.140795 -0.381544 Ge
56 2 9.67011 9.68862 4.19105 -0.856838 1.09353 -0.623158 0.998188 -0.692855 -1.86514 Ge
60 1 8.29679 8.30772 5.51894 -5.84341 1.99526 -2.8014 0.408631 -0.124871 1.25642 Si
13 2 1.39914 1.37095 9.66365 3.23117 0.898172 -1.54072 -0.222129 0.396845 1.36745 Ge
42 1 5.5115 2.78776 8.32693 3.23454 2.79859 0.0926198 0.735088 -0.1083 -0.599421 Si
45 2 6.91951 1.39671 9.67206 0.257158 -0.562631 1.36256 0.551593 -0.0888846 0.582062 Ge
36 1 8.29404 2.80608 0.0205824 5.61626 -0.72866 -0.684005 -0.254558 -0.83418 -0.622078 Si
10 1 0.0325021 2.82571 8.37356 -3.34556 6.33903 2.74916 -0.992196 -0.737625 -0.869737 Si
17 1 0.0278137 5.57249 -0.0221294 -0.336495 -5.5126 -1.44603 -0.98512 -1.26109 0.0716211 Si
27 1 2.81998 5.52746 8.27129 -3.8846 -0.321289 -4.04901 -0.916248 0.155528 0.73429 Si
29 2 1.44153 6.89354 9.73292 -2.67945 0.311578 -3.92026 0.399495 0.453754 -0.893109 Ge
16 2 4.19207 4.18925 9.70563 -0.621075 0.0928756 -1.35295 -0.768456 -0.542451 -0.875594 Ge
61 2 6.91708 6.98284 9.71187 2.98442 -1.05979 0.845625 -0.446638 -1.95175 -0.673417 Ge
48 2 9.63922 4.16301 9.69691 3.36135 3.03109 1.31434 1.40363 0.737321 0.757724 Ge
59 1 8.29805 5.57074 8.34134 2.98154 0.383729 4.82642 -0.487305 -0.111004 -0.51494 Si
11 1 2.77082 -0.000853841 8.32009 -0.611399 -3.9551 -8.70114 0.568218 -0.101691 -0.635885 Si
26 1 0.0388283 8.29555 8.38465 -0.689461 3.38721 1.04196 -0.439984 0.0761702 -1.24644 Si
32 2 4.15642 9.70234 9.72028 -3.73637 1.64361 -2.79457 0.864078 -0.517649 -0.598692 Ge
58 1 5.56748 8.26686 8.25874 5.37523 -0.816397 6.5554 -1.45628 1.11131 0.894356 Si
52 1 8.29138 8.28022 -0.0386262 -1.46716 4.93865 1.74264 0.837159 1.17612 0.920091 Si
43 1 8.33513 -0.0151914 8.29996 2.09157 3.86543 -4.11392 -0.906006 0.41779 0.319913 Si
64 2 9.66456 9.69279 9.68126 0.672323 2.42428 1.79001 0.751953 -0.279919 0.70337 Ge
ITEM: TIMESTEP
12100
ITEM: NUMBER OF ATOMS
64
ITEM: BOX BOUNDS pp pp pp
0.0000000000000000e+00 1.1085848640000000e+01
0.0000000000000000e+00 1.1085848640000000e+01
0.0000000000000000e+00 1.1085848640000000e+01
ITEM: ATOMS id type xu yu zu vx vy vz fx fy fz element
3 1 2.78508 0.00408137 2.76748 5.0667 -0.413828 -4.69232 -0.661821 -0.910835 1.08872 Si
4 1 2.78736 2.76141 0.024011 -1.01206 2.69285 -6.18334 -1.16498 -0.0627058 -0.37137 Si
7 2 4.10783 1.3586 1.42291 -1.17609 -1.90384 2.41781 1.48192 0.134022 -1.70633 Ge
34 1 5.5315 2.75833 2.69936 1.69062 -1.56859 -4.4269 0.58512 0.469439 0.780049 Si
2 1 0.0403192 2.70001 2.74218 -1.44513 3.68189 -3.30803 -0.85183 1.2005 1.36884 Si
35 1 8.29771 -0.017408 2.74919 -2.6274 -3.30304 -0.321001 -0.103126 0.239188 1.53908 Si
39 2 9.68016 1.37457 1.43186 -1.68319 1.26581 2.97562 0.547211 -0.340832 -1.63123 Ge
6 2 1.34653 4.14239 1.39209 2.41687 1.96255 1.62109 1.1596 0.687988 0.0306078 Ge
19 1 2.81985 5.5226 2.81881 2.11422 2.14442 -3.37908 -1.39616 -0.034995 -0.522524 Si
23 2 4.10405 6.90061 1.31928 0.237335 -0.0435388 4.66374 0.106641 0.443006 0.277721 Ge
38 2 7.00118 4.14484 1.36755 2.13833 1.85364 1.92038 -1.11594 0.219885 -0.364436 Ge
49 1 5.57475 5.58027 0.0150506 -2.16833 -4.00637 -2.05388 -0.376484 -1.47076 -0.354012 Si
51 1 8.29509 5.57347 2.76831 -2.98358 4.19646 -6.86125 -0.12087 -0.426532 1.64618 Si
55 2 9.67685 6.95376 1.44871 1.50085 -1.76767 -1.52459 0.379744 0.29325 -0.724981 Ge
20 1 2.78117 8.33756 -0.101593 4.01912 -1.1423 2.87372 -0.486339 -0.80275 1.12234 Si
22 2 1.44517 9.68891 1.34675 -0.488967 1.25299 1.69789 -1.06214 0.209134 0.35501 Ge
33 1 5.55185 -0.00615495 -0.029431 4.28285 -0.570598 -0.0337987 -0.400118 0.928307 1.13504 Si
50 1 5.49721 8.29653 2.65105 -1.60908 -1.31262 3.88904 -0.46366 0.697975 1.82498 Si
54 2 6.90812 9.7315 1.39032 2.10107 0.688286 -2.68163 0.124306 -0.581382 -0.868462 Ge
1 1 0.0138706 0.0315275 -0.0214481 -1.29916 1.24673 1.3006 -0.452208 -0.895541 0.146554 Si
18 1 0.0473907 8.29076 2.80538 -0.595643 -5.82782 -4.32026 0.0358497 0.556676 -0.633502 Si
5 2 1.40315 1.38325 4.18539 -0.302352 0.689727 0.509244 0.851311 0.0754088 -0.835342 Ge
9 1 0.00529564 0.0195408 5.49926 -2.76077 -4.34988 -4.54148 -0.440111 -0.225194 0.868849 Si
12 1 2.86283 2.75376 5.53415 0.460123 1.08042 5.57602 -1.75989 1.08751 -0.44938 Si
15 2 4.15857 1.37853 6.88276 -1.58775 -0.349288 1.2312 1.3422 -0.96931 0.986852 Ge
37 2 6.86952 1.40197 4.14112 -4.53232 1.17233 -1.53006 1.1396 -0.602719 -0.257206 Ge
41 1 5.56933 -0.0423378 5.52646 3.07354 -1.73382 1.0439 -0.0506029 0.279739 0.747925 Si
44 1 8.27899 2.76087 5.56396 -0.125237 0.689365 1.69855 0.641548 0.0451083 0.256979 Si
47 2 9.73828 1.38022 6.96234 -0.902902 -0.604731 0.135312 -1.24424 -0.339736 -0.900359 Ge
14 2 1.4078 4.207 6.8673 -1.62623 1.41435 2.48567 0.652703 -0.687439 0.482698 Ge
21 2 1.38121 6.91355 4.2281 -0.493548 -0.25445 1.06355 1.11667 0.202426 -1.22985 Ge
25 1 -0.0176609 5.57075 5.53238 -1.93012 6.02689 -0.944847 0.249559 -1.20772 -0.242928 Si
8 2 4.23928 4.14363 4.16492 -1.44032 2.36511 1.72809 -1.01293 -0.730725 -0.857673 Ge
31 2 4.11633 6.91841 6.93123 -2.57887 -1.68978 -1.35716 0.684418 -0.23369 0.55807 Ge
46 2 6.94035 4.15746 7.02266 1.52326 -1.74178 -1.44739 -0.711311 -0.344962 -1.19874 Ge
53 2 6.82282 6.99305 4.17081 0.536475 0.997712 -0.196571 1.12242 -1.56853 -0.66343 Ge
57 1 5.51263 5.49232 5.56005 -0.641481 -1.29423 2.38861 1.14838 1.30254 1.0047 Si
40 2 9.72663 4.13001 4.17012 4.32662 -1.20685 -2.10605 -0.648955 0.0767523 -0.826066 Ge
63 2 9.69219 6.91642 6.84361 -0.671128 -0.733903 2.50624 -0.42364 -0.405653 1.67111 Ge
28 1 2.78454 8.3141 5.5725 -0.564464 -1.25361 -0.392714 -0.825964 0.373301 -0.161673 Si
30 2 1.38694 9.76832 6.90811 0.577232 3.14198 2.6129 0.420594 -1.05388 0.249184 Ge
24 2 4.15501 9.6767 4.17646 3.66564 1.13578 -1.84801 0.268682 -0.200497 -1.28266 Ge
62 2 6.98436 9.69942 6.99285 -0.740565 -1.41469 1.46929 -0.767789 -0.335198 -1.20358 Ge
56 2 9.71527 9.66976 4.15502 -2.22024 1.75659 1.26679 -0.295055 0.504445 -0.363325 Ge
60 1 8.33189 8.2773 5.531 5.344 -0.796725 1.31143 -1.12326 1.29575 -0.0878601 Si
13 2 1.40767 1.37733 9.64933 -2.55265 -3.18175 -2.13187 0.556654 0.491478 0.563152 Ge
42 1 5.52286 2.71436 8.34127 -2.294 0.0685352 -0.999077 -0.222319 1.31855 -0.324587 Si
45 2 6.93009 1.41433 9.71254 -1.66987 0.0518488 -4.0583 -0.270706 -0.847471 0.309141 Ge
36 1 8.34816 2.74358 -0.035703 -3.14599 1.81766 4.33446 0.0628959 0.298711 0.922365 Si
10 1 0.0588503 2.77787 8.23784 4.7443 -2.4361 1.77128 -0.120343 0.369359 0.948728 Si
17 1 -0.0506331 5.58484 0.0291611 2.73279 7.90546 1.97105 0.139929 -1.0394 -0.251491 Si
27 1 2.74267 5.56409 8.35793 2.99487 -0.0785812 1.03076 -0.0475387 -0.46493 -0.731025 Si
29 2 1.32407 6.93546 9.6901 2.26265 -2.09728 2.57731 -0.0229584 0.588928 -0.405524 Ge
16 2 4.13224 4.1533 9.72157 1.09759 1.8731 -1.06094 0.98608 0.268233 0.04484 Ge
61 2 6.92502 6.9796 9.74798 0.081009 0.698141 -2.99825 0.0417865 -0.287601 -1.16136 Ge
48 2 9.71945 4.11145 9.67609 -3.84534 -0.780266 -4.70463 0.531659 0.98063 -0.0167786 Ge
59 1 8.32903 5.56301 8.34035 0.70689 0.160274 -5.16411 0.125443 0.376935 0.143279 Si
11 1 2.85211 -0.0117216 8.3225 -1.30685 3.22935 10.4075 -1.3808 0.530585 -0.761613 Si
26 1 -0.0382283 8.30621 8.21419 0.0885917 -5.75716 2.85047 0.361288 0.669142 1.02176 Si
32 2 4.18814 9.71458 9.69893 0.729579 0.705779 0.650592 -0.0591669 -0.0604255 -0.36 Ge
58 1 5.49863 8.33722 8.315 -0.400883 -1.67504 -5.98936 1.15483 -0.734926 -0.0363111 Si
52 1 8.30889 8.33616 0.0331641 0.662424 -6.98042 -0.955643 0.241297 0.398892 0.0118267 Si
43 1 8.29779 0.0124459 8.39035 1.18794 -1.41854 2.05442 0.572548 0.694065 -1.45908 Si
64 2 9.66544 9.70214 9.66154 0.577529 -1.01049 -1.99519 1.25036 -0.441528 1.13811 Ge
ITEM: TIMESTEP
12200
ITEM: NUMBER OF ATOMS
64
ITEM: BOX BOUNDS pp pp pp
0.0000000000000000e+00 1.1085848640000000e+01
0.0000000000000000e+00 1.1085848640000000e+01
0.0000000000000000e+00 1.1085848640000000e+01
ITEM: ATOMS id type xu yu zu vx vy vz fx fy fz element
3 1 2.77252 0.0334885 2.82277 -0.557287 1.91178 -1.32161 0.449323 0.750337 -1.73399 Si
4 1 2.80224 2.75414 0.00635911 5.51139 -0.0571059 6.23181 0.0420619 0.807684 -0.0646235 Si
7 2 4.23257 1.41712 1.36527 -1.11021 -1.50431 2.68067 -1.447 -0.641526 1.28419 Ge
34 1 5.51794 2.81795 2.8154 -3.14967 -1.46507 -2.52565 -0.219507 -1.11029 -0.396421 Si
2 1 0.0161866 2.78104 2.78214 3.7776 -2.08853 -2.66761 -0.873733 0.293039 -0.510915 Si
35 1 8.35261 0.0359809 2.74899 0.635397 -0.812995 -4.80142 -0.363854 -0.925301 -0.635627 Si
39 2 9.66871 1.45344 1.35016 0.504607 -0.679535 2.91651 0.934092 -0.840574 0.399055 Ge
6 2 1.38103 4.14032 1.38963 -2.24413 -0.280718 2.33048 0.942698 -0.139078 0.0934124 Ge
19 1 2.72044 5.59348 2.77979 4.03099 -0.664202 1.99487 1.0226 -0.167187 -0.676119 Si
23 2 4.25213 6.9981 1.43549 -2.18836 -1.50458 -0.0844519 -0.973784 -0.848324 0.512261 Ge
38 2 6.83322 4.11508 1.37857 0.985622 -2.33414 0.946049 1.98889 0.847069 0.353255 Ge
49 1 5.54542 5.53996 0.00728379 2.93452 7.6826 0.0021615 -0.702554 0.0592094 -0.464234 Si
51 1 8.38396 5.45871 2.74101 0.244697 -0.152047 2.03589 -1.4016 1.57113 -1.27346 Si
55 2 9.70985 6.91599 1.31641 -1.09481 0.996957 3.32567 0.592243 -0.219646 0.540127 Ge
20 1 2.75704 8.32649 0.116329 -0.117556 2.61894 -4.02576 1.10352 -0.0695737 -0.576619 Si
22 2 1.39868 9.71589 1.45908 1.15741 0.663977 -0.871975 -0.701033 0.688299 -0.373347 Ge
33 1 5.5427 -0.00835594 -0.000556436 0.945955 -2.83896 -1.56905 0.646379 -0.591941 -0.13965 Si
50 1 5.6496 8.38235 2.84211 1.51987 -2.83445 -8.47113 -0.815286 -1.09764 0.121938 Si
54 2 6.96523 9.66141 1.37864 -0.814384 2.06246 3.61896 0.315627 1.53122 -0.344295 Ge
1 1 -0.00735408 -0.0168529 0.00998915 0.20916 -0.0404175 -0.394561 -0.333882 0.419782 0.812366 Si
18 1 -0.0440779 8.37733 2.78788 4.58569 1.22062 1.18987 0.272203 -1.686 -0.831289 Si
5 2 1.3625 1.39435 4.14318 -1.77042 -0.93007 -0.056592 -0.393899 -0.453488 0.744649 Ge
9 1 0.023706 0.00523169 5.58863 2.84633 2.56704 1.74975 -0.248094 -0.795315 -1.17853 Si
12 1 2.66137 2.75733 5.55209 4.04711 -4.38148 -2.22271 1.35923 0.0765797 0.680909 Si
15 2 4.07989 1.39231 7.00016 -1.12253 -0.200576 -0.524883 0.696525 0.52565 -1.50529 Ge
37 2 6.94453 1.36957 4.09054 0.12172 0.192309 -0.534978 -0.949325 0.415463 0.904053 Ge
41 1 5.48032 0.0414232 5.53193 0.0593486 -1.62478 -1.64362 0.684304 0.342443 0.426732 Si
44 1 8.34255 2.75609 5.43261 0.448441 -0.801152 -1.64006 -0.4089 0.493022 1.55009 Si
47 2 9.67589 1.33012 6.90792 2.51179 0.0196514 2.77405 -0.144742 1.27364 -0.44281 Ge
14 2 1.32089 4.11817 6.97149 -0.278888 2.84446 -0.0759686 0.643586 -0.402876 0.442264 Ge
21 2 1.34253 6.96222 4.15112 -0.206341 -2.89225 0.322281 0.427677 0.142566 0.606203 Ge
25 1 0.0536086 5.48337 5.56919 -0.0380684 -3.1332 -0.618257 -0.83532 2.08057 -0.257251 Si
8 2 4.06523 4.14208 4.16217 1.04775 0.998069 -1.83455 0.507019 1.09521 0.44523 Ge
31 2 4.19994 6.94526 6.9061 -0.648972 -1.28034 0.233558 -0.508596 0.137119 -0.287537 Ge
46 2 6.87343 4.17806 6.8359 0.480723 1.40986 5.47291 1.46982 -0.9446 -0.121265 Ge
53 2 7.06726 6.89308 4.16102 -1.56998 3.53874 -0.243986 -1.00926 0.822112 -0.698981 Ge
57 1 5.56381 5.59816 5.46272 -1.67042 -3.2889 -4.24918 -1.02564 -0.904915 0.246941 Si
40 2 9.7407 4.22733 4.14446 0.0549997 0.0383645 -0.0897649 0.554814 -2.32698 0.255092 Ge
63 2 9.77792 6.92952 6.96046 -0.119161 -0.308256 -2.30707 -0.793353 0.130085 -0.0178415 Ge
28 1 2.81079 8.3565 5.49921 1.85618 0.0473138 0.737547 -0.95418 -1.14519 0.880099 Si
30 2 1.38192 9.64871 6.93981 -1.01494 2.85726 0.462776 0.248912 0.753099 -0.530103 Ge
24 2 4.12418 9.75772 4.15396 -1.16785 0.657303 0.99985 1.44423 -0.547375 -0.0436344 Ge
62 2 6.89897 9.72028 6.90161 1.47907 1.47956 1.4276 -1.01296 -0.457058 -0.00291774 Ge
56 2 9.70013 9.71574 4.15256 0.530624 -1.13005 -1.04622 -0.266477 0.966377 1.05786 Ge
60 1 8.31297 8.3507 5.57506 -1.52995 -4.37312 -3.56985 1.39266 -0.85768 -0.0786256 Si
13 2 1.35808 1.41079 9.76502 2.17233 -1.64742 -2.8181 0.0447641 -0.948137 -1.28647 Ge
42 1 5.57936 2.79365 8.29705 0.192915 -4.89839 2.29723 -0.255331 -1.15855 -0.0445999 Si
45 2 6.9754 1.34354 9.69339 -1.67819 0.600431 0.256693 -1.15027 0.0860255 -1.12027 Ge
36 1 8.24613 2.7685 -0.0181112 2.95476 -1.49635 -7.05298 0.385608 0.35016 0.571851 Si
10 1 -0.0887523 2.71695 8.34697 -2.09285 4.0642 -2.87724 0.528294 0.598421 0.288237 Si
17 1 0.0395427 5.44471 -0.0406557 -2.4274 -1.93121 -2.89177 0.248318 2.58515 0.670563 Si
27 1 2.79664 5.51817 8.27267 -0.774514 1.76189 0.160707 0.00668627 0.451254 0.299518 Si
29 2 1.49513 6.94282 9.74515 -1.17159 -1.21786 -2.35543 -1.30098 -1.12505 -0.21122 Ge
16 2 4.18434 4.1367 9.65334 -1.04839 -0.872553 -1.65485 -0.37005 0.463026 1.04127 Ge
61 2 6.92069 6.85042 9.6489 1.18952 1.20031 1.95292 0.229555 1.20715 0.661158 Ge
48 2 9.67424 4.15602 9.76341 0.512592 -0.232951 -0.196456 -0.933108 -0.817714 -2.08849 Ge
59 1 8.28853 5.49916 8.26353 -1.25287 -1.06994 6.37918 1.02781 0.12347 0.113831 Si
11 1 2.69524 -0.0151556 8.29726 4.7943 -4.8498 -4.72082 0.458113 -0.0342743 1.89205 Si
26 1 0.0655069 8.34106 8.39815 1.05281 3.11316 -2.13046 -0.759354 -1.07811 -0.326708 Si
32 2 4.09916 9.67608 9.74721 -0.451699 3.06548 -0.808095 0.25943 0.620025 -0.532033 Ge
58 1 5.54122 8.31725 8.34806 -1.5661 0.935442 3.34145 -0.134756 0.111374 -0.484995 Si
52 1 8.31167 8.30628 -0.0661764 -3.70303 1.92465 -2.16052 -0.589932 -1.21234 0.58145 Si
43 1 8.30449 -0.0438503 8.22643 -0.868897 -2.54927 3.49097 0.114349 0.272179 1.8075 Si
64 2 9.66622 9.69946 9.71462 -1.90258 1.15888 -1.86577 0.835425 0.456776 -1.00401 Ge
ITEM: TIMESTEP
12300
ITEM: NUMBER OF ATOMS
64
ITEM: BOX BOUNDS pp pp pp
0.0000000000000000e+00 1.1085848640000000e+01
0.0000000000000000e+00 1.1085848640000000e+01
0.0000000000000000e+00 1.1085848640000000e+01
ITEM: ATOMS id type xu yu zu vx vy vz fx fy fz element
3 1 2.7279 -0.0339803 2.72149 1.67344 -3.23081 2.79167 0.682457 -0.376108 0.744058 Si
4 1 2.72105 2.77763 -0.0199572 -1.29588 -3.10409 -5.4553 0.945103 0.0631571 0.586839 Si
7 2 4.11527 1.40527 1.42681 4.27465 0.82431 -0.563939 0.124165 0.25177 -0.68732 Ge
34 1 5.61933 2.7223 2.796 3.69489 2.54744 1.33049 0.0160674 0.582047 -1.08603 Si
2 1 -0.0814249 2.74441 2.81073 1.8318 -1.82363 1.18122 1.4874 0.236392 -0.845714 Si
35 1 8.3263 0.000176281 2.82451 1.78305 2.24789 1.2037 -0.181637 -0.271947 -1.06672 Si
39 2 9.71873 1.34371 1.36117 -1.81025 2.49586 0.801783 -0.0827744 -0.123628 1.17609 Ge
6 2 1.3453 4.13791 1.37335 -2.2342 0.567785 3.48405 -0.612266 -0.206569 0.632249 Ge
19 1 2.77077 5.47993 2.74073 -4.63529 1.0327 -0.212085 0.601909 0.4921 0.342211 Si
23 2 4.08583 6.91007 1.26762 1.77227 1.38754 1.82519 0.572746 -0.582782 1.72628 Ge
38 2 6.98319 4.18893 1.3772 -3.24852 -0.901756 0.521796 -0.970761 -0.980878 0.712697 Ge
49 1 5.52326 5.49686 -0.00383964 0.459314 -6.50373 1.00244 0.980552 1.36413 0.25237 Si
51 1 8.26186 5.58367 2.80527 4.59077 -5.09534 -2.83735 0.639652 -0.777098 0.0697115 Si
55 2 9.69094 6.92701 1.43741 -2.26863 -0.389106 -1.83432 -0.393065 0.40196 0.325831 Ge
20 1 2.749 8.27236 -0.117512 -2.87581 -0.710007 1.83314 -0.344081 0.5779 0.188956 Si
22 2 1.40647 9.62363 1.33069 1.56052 -0.401209 2.62912 -0.643748 0.411133 0.252935 Ge
33 1 5.47568 0.0459453 0.00722734 -1.45712 1.55425 -1.17246 0.629969 -0.965921 -0.492654 Si
50 1 5.45648 8.25741 2.7735 1.63196 3.80486 2.06022 0.432607 -0.00830705 -1.62384 Si
54 2 6.87455 9.72102 1.41823 -1.15805 -2.37491 -0.105735 -0.052131 0.0983133 0.598633 Ge
1 1 0.0483952 -0.00357258 -0.0154784 3.60368 0.785791 -4.33566 0.265253 0.0295174 -0.703912 Si
18 1 -0.0102107 8.28961 2.78924 -4.59654 3.00351 2.71092 0.449906 0.683625 -0.0560424 Si
5 2 1.41559 1.3895 4.13791 0.105551 0.381329 -2.93354 -0.480993 0.0274705 0.41406 Ge
9 1 -0.00880628 -0.014059 5.52146 -0.278096 -0.70845 -0.0593512 0.702217 0.935539 0.871616 Si
12 1 2.86546 2.81216 5.50111 -3.90383 0.455274 0.110065 -0.0945683 -1.43463 -0.226196 Si
15 2 4.26024 1.39984 6.89211 -0.840657 -1.05754 5.73108 -1.62185 0.315237 0.229732 Ge
37 2 6.95434 1.35994 4.2003 1.21598 -1.85363 -3.4208 0.610658 0.739217 0.653798 Ge
41 1 5.57319 -0.00746173 5.55257 -1.4098 -1.89103 -2.80915 -0.181832 -1.54884 -0.868447 Si
44 1 8.29203 2.80287 5.66805 -0.591649 -1.27936 -4.56964 0.157736 -0.423142 -1.56459 Si
47 2 9.71425 1.39964 6.98038 0.551595 -2.18545 0.441453 0.669998 0.296518 -0.726174 Ge
14 2 1.46471 4.15932 6.85022 -1.68759 -0.0607716 -0.470225 -1.38474 0.87559 0.467829 Ge
21 2 1.39156 6.90998 4.14629 -1.05195 -1.50094 -1.81835 -0.10539 -0.408939 -0.466266 Ge
25 1 -0.0262146 5.60333 5.52017 3.33547 -2.34493 1.12959 0.301903 -1.68667 0.229453 Si
8 2 4.2895 4.13131 4.14122 -2.52906 -0.111954 -2.41847 -1.47729 1.03735 -0.0176602 Ge
31 2 4.17122 6.92177 7.00997 0.35483 0.116073 2.52226 -0.787431 -0.0704143 -0.678061 Ge
46 2 6.91335 4.20121 7.00954 -2.41636 2.96352 0.707009 0.55788 0.161254 0.270216 Ge
53 2 6.80012 6.87743 4.16015 1.53717 -2.11184 0.960392 1.60914 1.36715 0.671059 Ge
57 1 5.52953 5.54793 5.63385 3.12539 2.9329 0.845678 -0.148655 -0.51854 -0.63942 Si
40 2 9.66187 4.1523 4.1773 2.06496 3.53197 -0.268943 -0.540362 0.580951 0.620002 Ge
63 2 9.6085 6.92008 6.88419 1.23085 -1.32235 1.98575 1.04113 0.315832 -0.280817 Ge
28 1 2.71298 8.23472 5.59434 3.51865 1.36536 -4.53592 1.90533 0.811431 -0.940404 Si
30 2 1.40408 9.68928 6.90359 0.313747 -0.744953 0.939113 -0.962587 0.415283 0.270967 Ge
24 2 4.13433 9.62938 4.12172 -2.15363 0.983374 -1.97686 -0.896782 1.15805 1.70502 Ge
62 2 6.98479 9.69025 6.93342 0.828192 1.28613 0.87746 -0.30006 1.14363 0.215189 Ge
56 2 9.70318 9.70625 4.18967 -0.286185 1.14727 -0.602213 -0.0645861 -0.706624 -0.826496 Ge
60 1 8.29025 8.31666 5.51435 -0.961828 3.78269 3.03765 -0.901134 -0.629919 -0.593579 Si
13 2 1.42699 1.41354 9.62851 -0.961165 0.427736 -0.272777 -0.601035 -0.632177 0.784689 Ge
42 1 5.52959 2.78956 8.32354 2.1438 5.57512 1.65968 0.516391 0.31639 1.23208 Si
45 2 6.95799 1.42388 9.74032 3.39729 -0.627899 1.75391 -0.97111 0.543364 0.379976 Ge
36 1 8.38383 2.78556 0.0573754 -3.5815 -0.171849 3.14864 -0.530497 0.179138 -1.24582 Si
10 1 0.0607378 2.81891 8.28886 2.80136 -6.79553 0.0722108 -0.384711 0.0121449 -0.172549 Si
17 1 -0.0122167 5.61217 0.0493913 0.804104 -4.09901 1.26462 -0.0729178 -1.13062 -0.750763 Si
27 1 2.73605 5.53351 8.33506 2.23828 -3.81426 -0.91972 0.228198 0.437779 0.0908439 Si
29 2 1.2841 6.95255 9.64875 1.63653 1.14268 -0.83772 0.47847 -0.451407 -0.409883 Ge
16 2 4.13606 4.19461 9.74422 0.852722 1.45882 -2.90411 -0.43785 -1.42463 -1.21932 Ge
61 2 6.94133 6.97203 9.77292 1.48211 -3.58838 -1.87421 0.374582 -0.403401 -0.22913 Ge
48 2 9.73922 4.18205 9.71503 -0.0594802 2.31125 2.27199 0.305388 0.119174 0.227545 Ge
59 1 8.35862 5.59812 8.35677 -1.72872 1.15221 -7.72835 -1.42152 -0.72453 0.551167 Si
11 1 2.80785 0.0425558 8.2548 -3.13589 3.51838 -2.41158 0.217044 -0.795946 -0.224008 Si
26 1 -0.0937396 8.2995 8.20548 0.410084 -0.101567 -0.193254 0.806153 0.955249 1.18497 Si
32 2 4.15311 9.6569 9.62104 -1.98993 0.465202 0.31572 0.307731 1.38548 0.636023 Ge
58 1 5.60503 8.31163 8.29144 0.148782 0.809543 -0.299079 -0.211297 -0.0068391 0.777659 Si
52 1 8.34612 8.3636 0.103973 4.66529 1.68337 1.2811 -0.512107 0.00757996 -1.35891 Si
43 1 8.31559 0.088277 8.35107 -1.10922 -0.15154 -7.10273 0.124659 -1.79225 -0.183385 Si
64 2 9.7109 9.72805 9.69293 -2.69776 -0.102842 1.48622 -0.37063 -0.246098 0.0913623 Ge
ITEM: TIMESTEP
12400
ITEM: NUMBER OF ATOMS
64
ITEM: BOX BOUNDS pp pp pp
0.0000000000000000e+00 1.1085848640000000e+01
0.0000000000000000e+00 1.1085848640000000e+01
0.0000000000000000e+00 1.1085848640000000e+01
ITEM: ATOMS id type xu yu zu vx vy vz fx fy fz element
3 1 2.78368 0.0332033 2.82129 -4.33249 4.51372 -1.90333 -0.0184752 -0.682198 -0.674801 Si
4 1 2.78013 2.78687 0.0046072 -0.885275 -0.0596114 3.29866 0.213321 -1.03882 -1.07953 Si
7 2 4.12111 1.37964 1.3787 -1.7813 -0.291956 3.33813 0.957881 -0.112572 -0.221823 Ge
34 1 5.45426 2.82252 2.74644 -3.63385 -2.08647 3.06 0.487326 -0.31319 0.530022 Si
2 1 0.0585827 2.81638 2.73777 -4.92376 -1.69389 2.30092 0.158214 -1.17778 -0.14764 Si
35 1 8.26034 -0.00284506 2.78147 0.0364433 0.635641 1.52584 0.877782 0.917245 0.34786 Si
39 2 9.67412 1.4023 1.41996 -1.19408 -0.196928 -0.584641 -0.606732 0.589786 0.0069757 Ge
6 2 1.45169 4.17289 1.30986 1.51657 0.907531 0.198646 -0.754135 0.965686 1.69616 Ge
19 1 2.79881 5.57165 2.80943 0.903583 -2.54915 0.267578 -0.872782 -0.157315 0.0368174 Si
23 2 4.19431 6.95559 1.45865 -0.500439 0.51532 -0.464426 0.0648343 -0.0393555 -0.0184186 Ge
38 2 6.92686 4.17297 1.40388 1.58301 2.08225 -1.03856 -0.668846 0.597489 -0.502484 Ge
49 1 5.53144 5.60463 0.00976057 -1.40979 2.06849 -1.64469 -0.0345285 -1.44329 -0.0558283 Si
51 1 8.30934 5.57265 2.78106 -1.52649 3.05349 2.96192 1.0991 -0.553273 -0.557173 Si
55 2 9.75916 6.89207 1.35628 1.76239 -1.43452 -0.380848 -1.7266 0.30638 -0.721391 Ge
20 1 2.8215 8.33934 0.115981 4.2433 -2.09707 -1.10742 -0.530086 -0.0666442 -0.327012 Si
22 2 1.36365 9.74676 1.40862 1.55085 -0.698493 1.16276 0.760442 -0.0109283 0.178162 Ge
33 1 5.61289 -0.0218612 0.00518677 -2.64017 2.97803 1.48415 -0.935312 0.743175 -0.213295 Si
50 1 5.58095 8.34587 2.80259 1.1911 -0.922337 2.71256 1.06573 0.186854 -0.191998 Si
54 2 7.02155 9.69752 1.36925 2.15521 1.64969 0.695113 -1.43183 -1.18783 -0.468597 Ge
1 1 -0.0959438 -0.00833451 0.0643527 -3.41763 -2.56132 5.123 1.18242 0.0555715 -0.880637 Si
18 1 0.0165982 8.30276 2.69696 0.840052 -1.89859 0.247847 -0.646041 0.621619 1.38354 Si
5 2 1.39974 1.36758 4.18526 -2.19263 0.171688 -1.01308 -0.909001 1.06691 -0.650868 Ge
9 1 -0.00757652 0.0170548 5.53421 1.05598 -1.97087 -1.32778 -0.220306 -1.11805 -0.207065 Si
12 1 2.69344 2.7606 5.58428 1.91519 4.77925 -0.647494 0.290992 0.682179 0.271733 Si
15 2 4.07199 1.37294 6.91011 0.915319 -1.38847 1.41309 0.469864 -0.654406 1.5582 Ge
37 2 6.84095 1.42341 4.1316 -2.55741 -1.18066 -1.74504 0.840061 -0.31815 0.124482 Ge
41 1 5.54247 0.0167668 5.58426 -0.65707 6.99157 4.12912 0.0110649 0.600683 -0.213246 Si
44 1 8.35269 2.7489 5.47967 2.32296 1.62341 4.48381 -0.507408 -0.43061 -0.504424 Si
47 2 9.67177 1.33956 6.88983 -1.5334 -2.55315 2.44114 0.254692 0.705501 0.797375 Ge
14 2 1.35216 4.16145 7.02761 1.26902 1.88652 2.22382 -0.158748 0.246881 -1.1619 Ge
21 2 1.35909 6.99836 4.17693 0.0423775 0.94405 1.10764 0.524865 -0.967554 -0.13826 Ge
25 1 -0.0259732 5.53322 5.56189 -1.20396 4.63012 -1.8767 0.869565 0.121265 -0.236766 Si
8 2 4.114 4.15439 4.24007 4.41271 -0.0906538 -0.774024 -0.40576 -0.316562 -1.39503 Ge
31 2 4.13605 6.90303 6.8132 -0.118186 -1.88654 1.10965 -0.152125 0.795331 1.57323 Ge
46 2 6.94802 4.09511 6.82045 -1.35348 0.395672 1.07634 -0.187139 0.778844 1.44494 Ge
53 2 7.01383 6.97011 4.18188 -2.37779 -1.62814 -1.39007 -1.90869 -0.85479 0.00789615 Ge
57 1 5.5383 5.50759 5.51278 -1.62815 1.40405 -0.822851 1.24806 0.921832 -0.315891 Si
40 2 9.7331 4.13625 4.09605 2.06402 0.44443 -2.75804 -0.383889 0.903158 0.790164 Ge
63 2 9.75827 6.95315 6.96517 -2.90073 -1.58796 0.344548 -0.712508 -0.418477 0.908384 Ge
28 1 2.78239 8.404 5.52871 -6.99684 -2.43521 6.32194 -0.289418 -0.300248 -0.0224749 Si
30 2 1.37787 9.75028 6.97515 2.19332 1.70409 2.63664 0.193484 -0.686423 0.0416434 Ge
24 2 4.23515 9.76238 4.16783 1.45349 -1.41914 -3.12065 -1.16123 -0.536198 -0.0908715 Ge
62 2 6.89994 9.68727 6.94472 1.7739 -1.52364 -0.64381 0.678595 -0.141343 0.0827786 Ge
56 2 9.67296 9.6833 4.11983 -0.415595 1.49463 1.35623 0.86946 0.241033 0.290676 Ge
60 1 8.34815 8.31451 5.5715 2.43419 -1.24637 -0.780629 0.14863 0.546234 0.447435 Si
13 2 1.34217 1.35755 9.7612 1.28115 -0.267705 -2.64615 -0.579762 0.812171 0.251638 Ge
42 1 5.53965 2.75212 8.24934 -0.730881 -5.48221 -7.76291 -0.467062 0.135985 -0.650707 Si
45 2 6.9134 1.38411 9.5913 -1.07307 -0.387029 -2.54174 0.623387 -0.455139 1.89012 Ge
36 1 8.27098 2.78275 -0.0186671 3.69352 -1.44846 -1.45775 0.0433321 -0.844713 0.0391132 Si
10 1 -0.0669935 2.76338 8.33489 -3.95557 3.9598 -1.62002 0.891464 -1.56154 -0.44356 Si
17 1 0.0181841 5.53777 -0.0486598 1.31185 0.703855 -1.95702 -0.131032 -1.14342 0.0375078 Si
27 1 2.78124 5.59459 8.32179 -2.41455 0.904001 -0.649591 0.725527 -1.17847 0.115327 Si
29 2 1.49331 6.92116 9.80902 0.717935 0.0203811 0.783146 -0.661953 0.785605 -0.747819 Ge
16 2 4.1917 4.12235 9.68565 1.11377 1.55056 -0.0138214 -0.303255 1.24579 -0.0292666 Ge
61 2 6.83602 6.91442 9.60821 -0.631124 -0.0583684 -0.288605 0.758577 -0.435832 0.460618 Ge
48 2 9.65708 4.10284 9.65504 -1.97075 -0.0542936 -1.52932 0.135637 1.50082 1.36632 Ge
59 1 8.27882 5.4992 8.3088 4.57001 -0.136934 3.72268 0.174697 0.460903 -1.43038 Si
11 1 2.74186 -0.0381814 8.45071 2.38911 -1.36297 -0.92502 0.51016 0.866961 -1.6738 Si
26 1 0.0893928 8.31362 8.43234 -0.667499 -2.10068 -4.82874 0.0929385 -0.61551 -1.81696 Si
32 2 4.16195 9.66321 9.76657 -1.22596 -1.49711 -2.78488 0.457297 0.328852 -0.0751109 Ge
58 1 5.46585 8.30269 8.2808 1.57606 -1.556 -2.82535 -0.0166401 -0.0342726 -0.547521 Si
52 1 8.27107 8.228 -0.111604 -0.470435 -0.273898 0.499322 1.6379 0.968248 1.1245 Si
43 1 8.35039 -0.057333 8.33259 0.857258 5.12734 3.69784 -0.921644 0.688017 -1.45859 Si
64 2 9.73985 9.68558 9.65432 0.7206 -0.0653752 -1.46675 -1.01436 -0.592109 2.06752 Ge
ITEM: TIMESTEP
12500
ITEM: NUMBER OF ATOMS
64
ITEM: BOX BOUNDS pp pp pp
0.0000000000000000e+00 1.1085848640000000e+01
0.0000000000000000e+00 1.1085848640000000e+01
0.0000000000000000e+00 1.1085848640000000e+01
ITEM: ATOMS id type xu yu zu vx vy vz fx fy fz element
3 1 2.77936 -0.0410902 2.71956 2.29598 -3.67937 4.15025 -0.524864 0.82742 1.01846 Si
4 1 2.76391 2.78881 0.0236089 -2.91624 3.78109 -2.0287 -0.786524 -0.289023 0.561948 Si
7 2 4.15585 1.38889 1.40594 -0.83173 -0.49958 2.20009 0.294052 -0.00490677 -0.449496 Ge
34 1 5.60551 2.73175 2.77613 3.55618 2.4859 -3.41718 -0.685804 0.101643 0.468014 Si
2 1 -0.0212563 2.77382 2.77857 1.59275 5.70395 0.125228 -0.588744 -0.175718 1.3622 Si
35 1 8.36689 -0.0137455 2.74379 -2.62729 -2.59914 2.06947 -0.362185 -0.319962 0.223742 Si
39 2 9.76413 1.35458 1.37331 2.52574 -1.12719 3.5812 -0.200958 0.245888 -0.555453 Ge
6 2 1.30448 4.14971 1.4181 -2.51343 -1.2843 -0.815114 1.49501 0.384276 -0.595647 Ge
19 1 2.76663 5.55591 2.72241 0.478794 1.0985 -1.03157 0.292006 -0.939035 -0.367017 Si
23 2 4.12203 6.92477 1.27361 -2.71826 -0.0369341 -1.31039 -0.4836 -0.0177931 0.416633 Ge
38 2 6.94717 4.09708 1.38025 0.738659 -2.94729 2.59879 -0.0504284 0.622464 -0.268608 Ge
49 1 5.56547 5.49812 -0.0037885 -0.275718 -1.40661 0.611455 0.0379943 0.601925 -0.219036 Si
51 1 8.28593 5.53364 2.73684 -4.94589 1.19866 1.17229 -0.171898 0.0563328 0.851228 Si
55 2 9.68869 6.97692 1.47778 1.22778 -0.0883072 3.20543 0.625696 -0.0365041 -0.433941 Ge
20 1 2.66589 8.33887 -0.0759698 -2.55704 1.41809 0.513594 1.60736 -1.13143 -0.476473 Si
22 2 1.40586 9.68528 1.34025 -0.321877 0.414314 -1.98498 -0.886227 0.506219 0.610284 Ge
33 1 5.51718 -0.0131698 0.011867 4.64419 -3.14859 -0.32408 0.18656 0.377935 0.154279 Si
50 1 5.47171 8.25798 2.72108 -8.09899 -0.084238 1.50806 -0.706692 0.747504 1.17662 Si
54 2 6.83842 9.68995 1.45142 0.885812 0.775055 2.85306 1.35772 0.638587 -0.709341 Ge
1 1 0.0945277 0.0250438 -0.0672992 0.0524619 3.40187 -2.03032 -1.58202 -0.62814 0.857065 Si
18 1 0.0510005 8.35323 2.82944 2.39794 -1.53232 -5.64255 0.282654 -1.09335 -1.12005 Si
5 2 1.40892 1.38444 4.16225 3.01973 -3.80191 -1.45294 -0.491038 -0.743861 -0.246865 Ge
9 1 -0.0505297 0.00279693 5.58265 -2.09609 3.86089 -0.176439 0.593958 0.774933 -0.873693 Si
12 1 2.83268 2.74231 5.52855 -2.66063 -4.1481 -1.4849 -0.661964 0.754313 -1.3497 Si
15 2 4.20478 1.42668 6.85651 0.335955 -0.471022 -0.916265 1.08671 -0.751735 1.55802 Ge
37 2 7.03618 1.37133 4.16607 -0.455463 -0.182843 -1.89768 -1.67695 -0.615497 -0.710636 Ge
41 1 5.5858 -0.0331198 5.48367 1.78283 -6.70486 -1.46331 -0.486123 0.910282 0.463821 Si
44 1 8.23218 2.77926 5.58438 -1.10148 0.0907162 1.35042 1.52277 0.513034 1.08524 Si
47 2 9.70788 1.45978 6.99416 1.14401 -1.87922 0.288969 -0.740529 -1.04584 -0.611344 Ge
14 2 1.40953 4.10523 6.83392 0.85383 0.23673 0.73089 0.583192 0.650738 2.03555 Ge
21 2 1.41455 6.85515 4.1299 -0.0243953 -1.47271 -1.83629 -0.333165 1.14165 0.996629 Ge
25 1 -0.00228325 5.4961 5.53173 -3.35947 -2.35105 1.27495 -0.36504 0.551047 -0.465204 Si
8 2 4.16275 4.16415 4.12097 1.40143 0.771213 0.842683 0.732877 -0.0784663 0.152654 Ge
31 2 4.24582 6.94012 7.00715 1.00702 -2.81417 -2.2114 -0.750976 -0.36695 -0.634251 Ge
46 2 6.90772 4.19164 7.00914 -0.180571 1.17007 1.62878 -0.701737 -0.708125 -0.338032 Ge
53 2 6.89225 6.92589 4.10286 0.702072 1.42701 0.556901 0.163317 -0.167137 0.0516398 Ge
57 1 5.57998 5.55235 5.53855 -2.23163 -4.35498 4.91206 -0.766271 -0.211922 0.315251 Si
40 2 9.59831 4.16323 4.19982 0.149285 -2.01868 -1.64326 1.16491 -0.515666 -0.871495 Ge
63 2 9.68844 6.93545 6.87648 1.05455 0.0916955 -1.02418 -0.425487 -0.117424 0.253044 Ge
28 1 2.8063 8.25052 5.5563 3.58905 2.73447 -4.76517 -0.794292 -0.109975 0.271108 Si
30 2 1.32761 9.65083 6.87376 -0.662103 3.31427 -0.272634 1.2539 0.531213 0.795852 Ge
24 2 4.09249 9.69658 4.18112 1.0915 1.69966 -0.869744 1.40135 -0.872923 -1.1451 Ge
62 2 6.92309 9.71668 6.923 0.0324149 2.47636 2.6121 -0.447588 -1.02121 -0.408049 Ge
56 2 9.73843 9.69004 4.13416 -1.74386 0.32856 -2.43351 -1.15735 0.503474 1.02579 Ge
60 1 8.25985 8.31731 5.48925 -1.6431 1.53577 -0.568386 0.887929 0.102743 0.190087 Si
13 2 1.42306 1.40143 9.67837 2.57214 -3.05031 -2.44237 1.45259 -0.206712 -0.262145 Ge
42 1 5.49703 2.81365 8.45261 -0.431128 5.69815 6.72812 0.847355 -1.04903 -2.15125 Si
45 2 6.96203 1.3646 9.73891 1.60747 1.4393 -3.10267 -1.04091 0.195666 -0.163451 Ge
36 1 8.35212 2.75616 0.00404187 -1.17496 3.87722 4.82001 0.753976 -0.117787 -0.0372687 Si
10 1 0.0903924 2.7734 8.35059 3.38696 2.07284 3.83917 -1.04453 0.984069 -0.765769 Si
17 1 -0.0467184 5.57075 0.0704353 -0.777286 5.73059 3.05404 0.536203 0.589445 -0.445728 Si
27 1 2.78766 5.51769 8.32643 -0.465687 2.60205 -0.2568 -1.0771 0.458658 -1.2557 Si
29 2 1.2952 6.90816 9.63395 -0.0639898 -0.889434 -0.12988 0.589374 -0.0967478 0.949909 Ge
16 2 4.08703 4.17283 9.74028 0.760983 -1.32959 -0.967706 0.907739 0.132306 0.584403 Ge
61 2 7.01283 6.95183 9.76496 -0.163354 0.641796 -0.721934 -0.814745 0.118287 0.241606 Ge
48 2 9.78173 4.17885 9.73433 0.589723 -0.364693 -1.75788 -1.53475 -0.31024 -0.734204 Ge
59 1 8.3137 5.56636 8.31902 -1.40612 -0.127363 1.17994 1.39163 -0.0746649 0.638575 Si
11 1 2.78945 0.0306223 8.21279 -4.91125 -0.30713 6.15769 -0.37277 -0.69092 0.497517 Si
26 1 -0.0603167 8.32932 8.29975 -1.1998 2.95966 7.70531 -0.295624 -0.0431358 -0.326224 Si
32 2 4.14347 9.72097 9.68791 -2.89438 0.842754 -0.355253 -0.744546 0.310366 -0.197651 Ge
58 1 5.58941 8.35359 8.39964 -0.604404 1.55008 1.31307 0.347687 -0.448909 -0.625735 Si
52 1 8.34623 8.38473 0.110221 -3.28839 -2.48642 -1.29041 -0.6021 -0.308812 -0.896015 Si
43 1 8.25788 -0.0170397 8.27911 2.46371 -3.2479 0.310064 1.39036 1.32539 0.767262 Si
64 2 9.66606 9.75145 9.70067 -0.413977 2.58843 -3.90198 0.56866 -0.348256 0.136126 Ge
ITEM: TIMESTEP
12600
ITEM: NUMBER OF ATOMS
64
ITEM: BOX BOUNDS pp pp pp
0.0000000000000000e+00 1.1085848640000000e+01
0.0000000000000000e+00 1.1085848640000000e+01
0.0000000000000000e+00 1.1085848640000000e+01
ITEM: ATOMS id type xu yu zu vx vy vz fx fy fz element
3 1 2.78025 0.0359156 2.76671 0.755669 2.64887 -7.63968 0.323606 -0.522739 -0.423519 Si
4 1 2.8156 2.7186 -0.0329033 4.37571 0.849906 3.78056 -0.276089 1.6797 -0.565478 Si
7 2 4.18577 1.37596 1.30798 -0.576518 0.101607 1.72291 -0.419084 -0.0310893 1.80865 Ge
34 1 5.4757 2.77825 2.80856 -4.4689 -1.15777 2.18297 1.21201 0.0847429 -1.10245 Si
2 1 0.0373076 2.70252 2.7563 1.13221 -0.374256 -4.80069 -0.726813 2.22261 -1.01205 Si
35 1 8.27474 0.023049 2.76022 2.37855 2.08536 -3.90816 -0.175207 -0.615414 0.750085 Si
39 2 9.58863 1.40466 1.35766 -1.43082 0.283447 1.15875 1.7502 -0.182146 0.632688 Ge
6 2 1.48545 4.16276 1.35595 -0.481165 1.06177 0.833767 -1.3867 -1.35765 0.300817 Ge
19 1 2.76285 5.52049 2.81957 0.286455 3.5285 1.32226 -0.215165 1.13393 0.117787 Si
23 2 4.21679 6.91969 1.49577 3.13701 1.36263 1.27484 -0.345981 0.391373 -0.307185 Ge
38 2 6.89941 4.27571 1.432 -0.720358 -0.0474946 1.33156 0.249184 -2.50493 -0.0691348 Ge
49 1 5.52649 5.60969 0.0383031 -0.417738 3.74554 1.416 -0.470058 -1.09657 -0.687152 Si
51 1 8.40657 5.519 2.79261 1.93259 0.95588 -3.50897 -1.58249 0.938659 0.0437706 Si
55 2 9.65639 6.85837 1.29552 0.85635 -1.95365 -1.33211 1.09784 0.593918 0.234415 Ge
20 1 2.87965 8.26621 0.0383581 -3.59625 3.43847 4.04853 -1.40153 1.097 0.748973 Si
22 2 1.36444 9.66896 1.45137 2.65712 0.00272115 1.65311 0.451413 -0.0811874 -1.08024 Ge
33 1 5.53862 0.0159175 -0.0374819 -2.13626 0.470748 1.04397 0.933803 -0.806832 0.173847 Si
50 1 5.66966 8.35127 2.77425 8.39573 -4.10669 -3.85123 -0.843812 -0.902621 0.417858 Si
54 2 6.96039 9.71235 1.31887 0.0650304 -1.95937 2.81225 0.0179767 0.253899 0.170125 Ge
1 1 -0.0583795 -0.0317618 0.0449978 1.46728 0.126947 2.80958 0.683938 0.661444 0.0998117 Si
18 1 -0.125379 8.2926 2.76204 -2.88669 4.90042 6.38311 0.646702 -0.0120814 -0.784274 Si
5 2 1.41393 1.43012 4.14812 -1.70825 1.35904 -1.28958 0.445538 -0.964914 0.407115 Ge
9 1 0.0766445 -0.00683787 5.50092 -1.89824 -4.5774 3.96263 -0.916768 -0.349901 0.84938 Si
12 1 2.75239 2.80419 5.57219 3.72736 -0.155275 7.31032 -0.102834 -1.00865 0.843114 Si
15 2 4.14168 1.39447 6.99617 -2.29415 0.389142 1.03012 -0.474592 -0.124707 -1.69854 Ge
37 2 6.87732 1.38336 4.19713 2.01471 -0.532023 -2.26318 0.634654 0.481562 -0.521292 Ge
41 1 5.47289 0.0176583 5.57248 -0.182088 3.94012 1.93295 0.93695 -0.957684 0.0728767 Si
44 1 8.40501 2.77434 5.50019 -4.0472 0.649902 -3.44996 -1.1084 0.0259964 -0.304646 Si
47 2 9.69996 1.3566 6.89876 -0.466165 -0.42817 2.89048 0.324993 -0.571458 -0.856659 Ge
14 2 1.37297 4.16903 6.96057 -2.13447 -1.01072 -0.557783 -0.389445 -0.153671 -0.546676 Ge
21 2 1.29077 6.99164 4.13829 -1.56282 -1.49213 -1.6403 1.59841 -1.0109 -0.0143908 Ge
25 1 0.0420494 5.60237 5.5836 1.1331 1.18432 1.67831 -0.73873 -0.352257 0.151286 Si
8 2 4.09994 4.11 4.19014 -1.1997 1.53934 -0.0506018 0.630566 1.30947 -0.0206936 Ge
31 2 4.06588 6.96055 6.92451 3.11288 -0.59803 1.07496 0.883832 -1.26682 -0.838166 Ge
46 2 6.96504 4.1415 6.84434 -0.795578 0.978566 -1.60852 0.0999068 0.437981 0.0735492 Ge
53 2 6.96926 6.88859 4.20644 1.33085 -1.4207 -1.43806 0.667669 0.796871 -0.52327 Ge
57 1 5.49865 5.55569 5.5266 2.93409 2.77755 -6.16272 -0.204339 -0.470978 0.55709 Si
40 2 9.79358 4.21892 4.16417 0.253563 2.66169 -1.75393 0.487153 -1.721 -0.127495 Ge
63 2 9.70885 6.93266 6.99668 0.713253 -0.456695 1.68696 0.273073 -0.652633 -0.763565 Ge
28 1 2.75604 8.31452 5.50777 -1.16141 -1.20639 4.63675 -0.142645 0.481242 -0.527074 Si
30 2 1.44054 9.67659 6.94717 -1.08747 -0.265861 1.10363 -0.243589 0.872353 -0.693511 Ge
24 2 4.18239 9.67971 4.10634 -0.741761 3.13714 0.115036 -0.277363 0.627308 0.718322 Ge
62 2 6.94166 9.69044 6.95174 0.644687 1.25779 -0.849069 -0.537381 0.909075 0.0380854 Ge
56 2 9.67156 9.6812 4.18296 1.48899 0.457684 -2.27825 -0.241768 0.835938 -0.117399 Ge
60 1 8.34734 8.28998 5.63836 -1.16651 -2.57178 -0.151306 -0.581434 0.190228 -1.24175 Si
13 2 1.29219 1.43988 9.73235 -3.06279 -1.00305 0.252715 0.901915 -1.87209 -0.916886 Ge
42 1 5.64755 2.70479 8.20061 -3.48004 -2.81137 2.21043 -1.06128 1.7462 2.47026 Si
45 2 6.94918 1.38792 9.73128 2.68507 -1.73063 -4.44136 -0.305194 0.120275 -1.17206 Ge
36 1 8.26475 2.8035 -0.0148452 -1.96249 -0.381975 -3.94362 -0.452596 1.13627 0.939638 Si
10 1 -0.0850848 2.74418 8.23362 -2.45767 -2.07851 2.06591 0.982251 1.14429 1.75975 Si
17 1 0.051536 5.4768 -0.0646211 -1.84542 -4.03535 -1.00704 -0.270492 1.00724 0.792028 Si
27 1 2.74008 5.54643 8.31125 1.94261 0.378865 5.08881 0.517121 0.151429 0.502488 Si
29 2 1.43387 6.9614 9.72253 2.74348 -1.74172 1.67014 -0.347457 -0.688807 -0.331698 Ge
16 2 4.19116 4.17665 9.65736 -1.35521 0.953653 -2.57172 0.656323 -1.03122 -0.0778841 Ge
61 2 6.82201 6.9025 9.6369 1.78922 -3.30793 -3.25886 1.72686 0.641413 0.373226 Ge
48 2 9.66186 4.15782 9.69044 1.12795 0.85641 -0.169851 0.306609 -0.579348 -0.849394 Ge
59 1 8.28981 5.53676 8.29581 -4.39421 -0.901138 -1.14118 -0.39417 -0.188356 0.238552 Si
11 1 2.81276 -0.0141435 8.35378 3.88561 1.78372 -2.71221 -1.45579 0.374392 0.973471 Si
26 1 0.041195 8.29202 8.27344 3.34351 -2.09925 0.520479 0.0109998 0.720354 1.80892 Si
32 2 4.21941 9.66223 9.70308 -1.62035 -1.10179 0.288193 -0.769667 0.254264 -0.115464 Ge
58 1 5.49228 8.28141 8.24643 -3.26873 0.0331127 3.64358 0.547478 0.721142 0.570145 Si
52 1 8.30391 8.29653 -0.078816 1.51087 0.930826 2.43112 -0.823455 -0.79568 0.185488 Si
43 1 8.34468 0.0419272 8.34769 -6.33555 -2.9329 0.572119 -0.18241 -1.5045 -0.0976342 Si
64 2 9.73089 9.66566 9.72076 -0.867574 0.69882 -1.87849 -0.134251 0.33625 -1.43597 Ge
ITEM: TIMESTEP
12700
ITEM: NUMBER OF ATOMS
64
ITEM: BOX BOUNDS pp pp pp
0.0000000000000000e+00 1.1085848640000000e+01
0.0000000000000000e+00 1.1085848640000000e+01
0.0000000000000000e+00 1.1085848640000000e+01
ITEM: ATOMS id type xu yu zu vx vy vz fx fy fz element
3 1 2.73174 -0.0145321 2.86089 -1.33481 -2.46924 8.56124 0.360334 0.823716 -0.813832 Si
4 1 2.72908 2.77997 0.0120572 -2.00212 -5.37037 -2.25295 0.740697 -0.225308 1.45412 Si
7 2 4.12981 1.37308 1.44922 -0.271076 -0.714217 -0.619495 -0.282736 0.308052 -0.639118 Ge
34 1 5.63139 2.77654 2.69274 2.07891 0.763289 1.26026 -1.71716 0.107779 0.930157 Si
2 1 -0.0848273 2.80854 2.80619 1.09659 -7.31884 5.04627 1.29299 -1.33334 -0.198938 Si
35 1 8.33667 -0.0130395 2.8215 -2.07 2.46153 0.768898 -0.00313137 0.801929 -1.7937 Si
39 2 9.75209 1.35353 1.33815 -2.84074 -2.35597 -0.190596 -0.543995 -0.390909 1.2431 Ge
6 2 1.34376 4.16681 1.43772 0.0709216 1.44275 1.27026 0.146395 -0.0445285 -0.635084 Ge
19 1 2.77513 5.55031 2.75785 0.900116 -4.41878 0.121758 0.457956 0.03984 0.280368 Si
23 2 4.13271 6.92631 1.33384 -2.25476 -0.714859 -1.3104 0.819512 -0.46772 -0.0347286 Ge
38 2 6.97799 4.10913 1.27499 1.25911 4.47114 1.08903 0.139568 0.742657 0.945958 Ge
49 1 5.55182 5.4527 -0.0836706 1.17303 0.085176 1.99477 0.432076 2.43168 1.93102 Si
51 1 8.25901 5.54715 2.7749 4.10042 -4.09391 1.41644 0.900757 -0.343496 -1.27201 Si
55 2 9.75605 6.97849 1.4976 -1.00906 -1.45067 2.52971 -0.733018 -1.0387 -1.67718 Ge
20 1 2.76389 8.32465 -0.0463369 5.27069 -4.77082 -5.35628 -0.322181 0.330481 0.123852 Si
22 2 1.38808 9.74294 1.40737 1.35062 -2.29002 0.872402 1.2841 -0.706954 -1.04854 Ge
33 1 5.51919 0.00538544 0.0458507 -3.94576 1.18224 -0.879006 -0.993301 0.153915 -0.116945 Si
50 1 5.4615 8.36408 2.78721 -4.36876 7.10821 -0.32825 0.965598 -0.425606 -1.60383 Si
54 2 6.90855 9.76846 1.36703 -1.11456 2.91502 1.52956 0.509592 -1.59517 1.46381 Ge
1 1 0.051521 -0.0274742 -0.0521351 0.252759 -1.79229 -3.9237 -0.376265 0.645163 0.296639 Si
18 1 0.155761 8.29999 2.76991 -1.46674 -1.92238 -0.552611 -1.80379 0.741807 1.88729 Si
5 2 1.37853 1.39814 4.22256 1.34932 1.30214 -0.691955 -1.59348 0.0837988 -1.25558 Ge
9 1 -0.0260969 -0.0051709 5.57782 4.07417 6.38166 -2.12322 0.260976 0.363048 0.123096 Si
12 1 2.74299 2.80944 5.48004 -1.56735 2.89159 -7.08305 0.797351 0.0635738 1.04624 Si
15 2 4.11485 1.39503 6.84743 2.05517 0.21621 2.23163 0.0954388 -0.114756 1.0004 Ge
37 2 6.91367 1.38906 4.12778 -1.24621 -2.65964 0.112656 0.780951 -0.152434 0.470652 Ge
41 1 5.57641 -0.00315589 5.53284 -3.51936 -3.62149 -3.23181 -1.06359 -0.0463994 0.00660795 Si
44 1 8.29372 2.74598 5.54699 3.51248 -1.07755 3.15635 -0.973274 0.472295 0.337235 Si
47 2 9.66755 1.40256 6.93197 -0.21691 -1.78904 3.3072 1.246 0.126409 0.312564 Ge
14 2 1.39858 4.16182 6.93149 2.52824 2.03299 -1.18574 -0.193735 -0.277242 -1.07726 Ge
21 2 1.49718 6.93716 4.2301 -2.16411 -0.361433 -0.891951 -1.40761 -0.848052 -1.35222 Ge
25 1 0.0147621 5.48389 5.47439 2.14112 -0.957012 -0.333638 -0.00624747 0.871792 0.908648 Si
8 2 4.1796 4.15914 4.12216 2.27951 -2.63398 -1.37976 0.75897 0.121031 -0.279824 Ge
31 2 4.18121 6.94186 6.98087 -1.64928 -0.489933 3.90889 0.374103 0.144544 -0.779083 Ge
46 2 6.91671 4.15097 6.98436 -1.43445 2.14865 4.13533 0.504706 0.0420453 -0.487526 Ge
53 2 6.91744 6.96061 4.07226 -3.74977 -2.16214 0.00106105 -1.02528 -0.0293328 1.46816 Ge
57 1 5.56765 5.5539 5.56525 -1.26731 1.27644 4.06618 -0.149959 0.262686 -0.65705 Si
40 2 9.60638 4.14492 4.16126 0.507719 4.01928 0.541642 0.468189 0.445865 -0.020384 Ge
63 2 9.70966 6.899 6.85587 -2.06469 -1.59759 -0.697841 -0.0541558 0.667558 -0.202446 Ge
28 1 2.76998 8.33736 5.58394 4.87512 -0.535438 -2.29936 0.760522 -0.133097 1.19515 Si
30 2 1.34236 9.68177 6.96299 1.16571 0.489065 1.91343 0.0141677 0.228288 -0.725879 Ge
24 2 4.11807 9.70075 4.19369 -0.286683 -2.50921 -4.43269 0.477589 0.425211 0.46198 Ge
62 2 6.91526 9.66853 6.93215 3.51217 0.649408 2.60509 1.5765 0.780874 -1.47831 Ge
56 2 9.72996 9.71665 4.15276 -0.457225 -0.745601 -0.402351 1.21118 -0.780333 -0.710023 Ge
60 1 8.31533 8.34739 5.43512 -2.16614 0.269673 4.04038 -0.199412 -0.996413 1.69802 Si
13 2 1.44838 1.39661 9.6905 0.897745 3.19671 -2.54615 -1.24077 -0.299749 -0.150267 Ge
42 1 5.46272 2.78567 8.32412 4.98296 -0.816363 -5.22195 0.662451 -1.17494 -0.011804 Si
45 2 6.83395 1.32445 9.73141 0.306132 -0.307214 2.28183 1.74849 0.957739 -1.5946 Ge
36 1 8.35149 2.6865 -0.0286543 0.454881 -1.98924 0.440713 -0.649078 0.0323972 -0.647017 Si
10 1 0.058677 2.79311 8.324 0.369175 -3.23918 -6.53784 -1.04245 -0.907612 -0.308104 Si
17 1 0.00712587 5.56512 0.0161435 0.705074 -0.836045 0.319885 -0.806085 -0.195383 0.0419821 Si
27 1 2.79703 5.49254 8.27281 -2.44988 -1.68521 -1.19155 -0.260953 1.09669 1.61136 Si
29 2 1.34001 6.93573 9.63621 -3.11002 2.35848 -2.46631 1.13877 -0.494638 0.469094 Ge
16 2 4.14629 4.13194 9.75882 -0.488459 0.763078 -1.31073 -1.24573 -0.264843 -1.8908 Ge
61 2 6.96283 6.97049 9.75438 -1.74889 0.263642 0.0639139 0.55425 -1.77157 -1.23428 Ge
48 2 9.70075 4.11203 9.69933 1.46902 1.83875 -0.0335602 1.04623 0.607806 0.532976 Ge
59 1 8.39489 5.53511 8.32309 1.01049 2.03476 1.23579 -1.6999 0.485748 0.164644 Si
11 1 2.72291 -0.0141401 8.28451 1.93353 -0.339194 -0.0212389 1.89239 0.190359 0.171692 Si
26 1 -0.050751 8.32415 8.2994 -4.61451 0.546711 -5.1196 -0.1312 -0.73048 -0.393305 Si
32 2 4.2148 9.71712 9.69437 1.32079 -0.475746 -3.03423 -0.976515 -0.243411 -0.601894 Ge
58 1 5.64624 8.32369 8.31892 2.11678 -0.946843 -3.59532 -1.96976 -0.479767 0.853542 Si
52 1 8.33249 8.32184 0.033565 2.85703 3.97455 0.0894371 0.381038 0.68729 0.85735 Si
43 1 8.32717 -0.0211099 8.26967 3.3534 4.21964 0.059459 -1.34387 0.350123 1.28574 Si
64 2 9.69004 9.70253 9.68933 -0.340197 0.95205 -0.443088 0.00878571 -0.122005 0.118106 Ge
ITEM: TIMESTEP
12800
ITEM: NUMBER OF ATOMS
64
ITEM: BOX BOUNDS pp pp pp
0.0000000000000000e+00 1.1085848640000000e+01
0.0000000000000000e+00 1.1085848640000000e+01
0.0000000000000000e+00 1.1085848640000000e+01
ITEM: ATOMS id type xu yu zu vx vy vz fx fy fz element
3 1 2.8312 0.0112196 2.62662 0.645734 0.821728 -5.13532 -0.59976 -1.35854 1.74792 Si
4 1 2.79838 2.79482 -0.00857042 0.426801 0.678501 -1.92983 -0.109436 -1.15225 -1.07135 Si
7 2 4.20955 1.38245 1.32596 1.42189 -1.68774 3.04573 0.45152 0.244098 -0.552609 Ge
34 1 5.47638 2.74951 2.81889 1.35099 -1.9501 -2.43728 0.837131 0.110928 0.208009 Si
2 1 0.0794989 2.7855 2.7508 -2.85346 6.10669 -2.02942 -0.359497 -0.372399 0.966731 Si
35 1 8.3139 -0.0370959 2.71243 2.22968 -4.21949 4.76317 -0.284719 0.649828 1.55246 Si
39 2 9.71712 1.43183 1.45299 0.297997 2.21395 0.854318 -0.746657 0.225168 -0.799558 Ge
6 2 1.41013 4.13805 1.3138 -0.530174 0.172947 0.418828 -0.558699 1.13487 0.812164 Ge
19 1 2.75732 5.52584 2.74042 -2.49516 -0.0190259 -0.144958 -0.663452 -0.336132 0.315344 Si
23 2 4.15171 6.8776 1.40026 0.318105 2.13265 3.95279 -0.62771 1.21578 -0.518519 Ge
38 2 6.89944 4.14167 1.48841 -1.03356 -1.1407 -0.409731 -0.445161 0.443513 -0.946163 Ge
49 1 5.57467 5.56917 0.0618281 -1.31661 -7.57177 -5.89976 -0.572105 -1.27234 -0.744319 Si
51 1 8.29326 5.5486 2.76081 -3.71676 2.22213 4.10521 0.47821 -0.685623 1.59224 Si
55 2 9.62835 6.9112 1.38175 0.408581 -0.831762 2.31536 0.459779 0.283631 -0.448359 Ge
20 1 2.73691 8.33618 0.00565219 -0.548339 1.69835 3.29985 0.541434 -0.683991 0.230387 Si
22 2 1.30982 9.72344 1.35035 -1.75786 3.02675 3.19166 0.290334 -0.379559 0.431773 Ge
33 1 5.64406 -0.0229028 -0.0487148 5.3469 -0.113265 -0.00865066 -0.948272 0.780819 0.520665 Si
50 1 5.55426 8.20472 2.77189 3.84989 -1.84934 5.90251 -0.313127 1.72413 1.13414 Si
54 2 6.90554 9.63882 1.39416 0.478064 1.96321 -1.13469 0.31846 -0.0294557 -0.409444 Ge
1 1 -0.0671319 0.0770812 0.0368712 0.00530277 -1.11107 1.98717 0.493249 -1.11802 -0.54463 Si
18 1 -0.0927702 8.29362 2.74699 4.42047 -1.25387 -3.66796 1.00098 0.403377 -0.538166 Si
5 2 1.44641 1.29885 4.09675 3.20973 -1.51966 0.507806 -0.120119 1.17209 0.10939 Ge
9 1 -0.007843 -0.0225953 5.46727 -1.7201 -8.15024 -2.69908 0.169334 0.351561 0.437898 Si
12 1 2.78714 2.6836 5.58308 -0.660493 -1.79477 1.82485 -0.713865 0.833956 -0.894188 Si
15 2 4.20445 1.38494 6.94694 -3.78403 0.405317 -0.62444 0.278736 -0.363055 0.80871 Ge
37 2 6.9756 1.41285 4.18271 -1.52588 -0.945736 -4.30435 -0.506598 -0.808968 -0.720792 Ge
41 1 5.57649 0.00782694 5.54717 3.70663 5.51701 4.83897 -0.300843 0.210103 -0.113683 Si
44 1 8.32884 2.80129 5.57421 2.33174 -1.21487 -3.84345 0.844963 -1.03571 -0.738053 Si
47 2 9.76813 1.43232 6.90762 -0.284773 -2.17654 0.428427 -0.846803 -0.975948 0.625111 Ge
14 2 1.38945 4.11991 6.93561 -2.19283 -0.558222 3.53024 0.0328934 1.11607 -0.19664 Ge
21 2 1.31742 6.91396 4.08419 0.463518 0.320221 0.958276 0.302646 -0.157472 0.629454 Ge
25 1 -0.0458442 5.58938 5.58 0.841267 -1.68768 -2.24573 0.713596 -1.14749 -0.497356 Si
8 2 4.08592 4.15654 4.18561 -4.77201 0.106478 1.11481 0.195898 -0.921869 -0.337219 Ge
31 2 4.13513 6.96094 6.86436 -0.347323 0.146453 -0.729581 -0.0415521 -0.769622 0.15152 Ge
46 2 6.98487 4.1348 6.91293 -0.18215 0.796282 0.124121 -1.57841 0.65923 0.791849 Ge
53 2 6.98235 6.92298 4.2204 3.92043 -0.424043 -2.95272 -0.803711 -0.811684 -0.348445 Ge
57 1 5.52235 5.47296 5.52745 1.77471 -1.62103 -2.10595 0.721598 1.28661 0.618347 Si
40 2 9.70278 4.11761 4.1597 1.09817 1.49335 -2.37953 0.395431 1.39999 -0.294565 Ge
63 2 9.73628 7.00962 6.99894 3.77309 -1.43611 2.60059 -0.333667 -1.39812 -0.283811 Ge
28 1 2.72186 8.28663 5.47732 -8.11714 1.20602 -2.02176 0.395552 0.418621 -0.481986 Si
30 2 1.37352 9.6802 6.83949 -1.30917 -0.155731 1.93958 0.317583 0.390351 1.44263 Ge
24 2 4.16714 9.71942 4.16573 0.0910672 2.20675 -2.09467 0.0428408 -0.756389 -1.44037 Ge
62 2 6.86725 9.70498 6.96962 -2.96619 0.284704 4.61231 1.27868 -0.39544 0.240856 Ge
56 2 9.67988 9.67233 4.13703 -2.37841 3.01303 -0.82833 -0.475248 0.319896 0.0968345 Ge
60 1 8.365 8.30633 5.60217 4.00029 4.74895 -6.39351 -1.30735 1.15387 -0.0523787 Si
13 2 1.35466 1.34298 9.71502 1.01416 -0.459923 0.0949704 0.961512 1.35175 0.0168151 Ge
42 1 5.60001 2.77891 8.37213 -2.3971 0.290229 -1.75975 -0.659294 0.66125 -0.992315 Si
45 2 7.01886 1.46216 9.72158 -0.384001 -3.14613 -0.416963 -0.471246 -0.794824 0.707896 Ge
36 1 8.32155 2.85209 0.0818778 1.37648 -1.5821 0.625819 0.307987 -0.851619 -0.0982644 Si
10 1 0.0117211 2.80806 8.36467 1.7549 4.02318 3.91333 -0.0246855 -0.72614 -0.366299 Si
17 1 -0.0219251 5.59362 0.00185552 3.60852 -1.31817 -2.78691 0.114424 -1.28327 -0.145247 Si
27 1 2.77206 5.60211 8.27916 1.8484 -3.87943 -6.82425 0.316393 -1.53018 -0.200089 Si
29 2 1.41243 6.88661 9.69728 2.31239 0.143932 0.0558045 -0.394553 1.42656 0.37444 Ge
16 2 4.15488 4.20974 9.70546 3.0045 1.08723 0.900004 0.714064 0.0266957 -0.0903461 Ge
61 2 6.8664 6.92065 9.67701 -3.33401 0.39909 -1.43599 0.430577 0.209856 -0.0741756 Ge
48 2 9.67621 4.1724 9.71278 -3.51135 -0.928585 -0.620816 0.186954 0.934143 0.145789 Ge
59 1 8.30541 5.56438 8.28466 6.99668 -2.1415 -2.90822 0.238046 0.163369 0.71897 Si
11 1 2.77566 -0.0110979 8.30773 -4.70518 -1.47885 -2.97746 -0.561193 -0.00420048 -0.637969 Si
26 1 0.0601048 8.31955 8.34924 4.94059 1.09469 2.1919 -0.114975 0.869581 -0.125084 Si
32 2 4.13841 9.73418 9.72354 0.841178 0.381492 2.55412 -0.202637 -0.287555 0.11852 Ge
58 1 5.42305 8.31916 8.34012 2.74706 1.86631 -1.28579 1.39164 0.000320444 -0.604658 Si
52 1 8.27315 8.27767 -0.0188763 -2.97797 -4.16749 -2.91581 0.432641 0.779011 -0.504281 Si
43 1 8.31875 0.0310263 8.34809 1.62606 -0.328367 -4.2419 0.621056 0.139015 -1.40376 Si
64 2 9.72002 9.73165 9.69977 -1.76364 1.75977 -2.58078 -0.590803 -0.682182 0.668223 Ge
ITEM: TIMESTEP
12900
ITEM: NUMBER OF ATOMS
64
ITEM: BOX BOUNDS pp pp pp
0.0000000000000000e+00 1.1085848640000000e+01
0.0000000000000000e+00 1.1085848640000000e+01
0.0000000000000000e+00 1.1085848640000000e+01
ITEM: ATOMS id type xu yu zu vx vy vz fx fy fz element
3 1 2.71987 -0.0033074 2.88787 1.44775 3.67084 -0.201983 0.0649719 1.12807 -0.856033 Si
4 1 2.77364 2.77792 0.00613463 -0.609675 3.0487 2.95765 -0.957185 0.158765 0.13985 Si
7 2 4.08958 1.39456 1.40692 -1.95682 -0.80007 1.57923 0.166939 -0.0930312 1.1653 Ge
34 1 5.56305 2.80013 2.73758 -0.870351 0.244588 -1.31093 0.0870776 -0.36626 -0.193753 Si
2 1 -0.0388461 2.76698 2.72403 1.55114 -2.19023 0.926107 -0.354862 0.297615 -0.0990713 Si
35 1 8.30643 0.0717152 2.78605 0.663796 -0.734985 -8.5073 0.602656 -1.59261 0.296696 Si
39 2 9.67005 1.33238 1.29184 -0.903352 -2.0193 1.96864 0.306601 1.20256 0.594254 Ge
6 2 1.43494 4.1934 1.43837 0.242402 0.691785 0.912765 -0.580556 -0.496695 -0.587152 Ge
19 1 2.81284 5.60729 2.80994 4.2413 1.21115 -2.34423 0.192206 -0.694618 -0.349753 Si
23 2 4.19917 6.92027 1.37463 0.567115 -3.40546 -3.1602 -0.589667 1.09976 0.519627 Ge
38 2 6.95274 4.20133 1.33647 3.10346 -0.0882469 1.28023 -0.179077 -0.529935 -0.0783386 Ge
49 1 5.54069 5.59952 -0.0224347 4.61049 5.69189 3.26199 0.235123 -1.50783 -0.621135 Si
51 1 8.36523 5.53712 2.741 0.206809 -0.37815 -8.02505 -0.811544 0.798693 -0.212372 Si
55 2 9.76814 6.93273 1.35832 0.544335 -0.72032 4.99736 -0.527655 0.343609 0.743765 Ge
20 1 2.78555 8.30302 0.0294569 -0.25416 -0.12208 -4.26189 0.319845 -0.0743686 -0.731796 Si
22 2 1.44096 9.68719 1.42769 1.28275 0.730512 0.489458 -0.444629 0.453083 -0.03873 Ge
33 1 5.43614 0.0140961 0.0380857 2.12681 -2.65623 -1.54544 1.74812 -0.565005 -0.818906 Si
50 1 5.53795 8.38084 2.73752 -4.24867 -3.31318 -5.22916 0.0803252 -0.899518 0.767913 Si
54 2 6.95146 9.73249 1.38277 -2.30959 2.47282 3.73918 -0.277851 0.568426 -0.35709 Ge
1 1 0.0409534 -0.0635542 -0.000350381 -2.42991 2.60119 -0.320042 -0.24501 0.223057 0.385841 Si
18 1 0.0372676 8.35826 2.80431 -0.438349 -3.42689 1.50646 0.332282 -1.3657 -0.729563 Si
5 2 1.29029 1.46936 4.20563 -0.747063 -1.01432 0.190758 1.18265 -0.847361 0.231379 Ge
9 1 -0.00616049 0.0609284 5.66668 0.626645 5.69086 0.180648 -0.0642855 -1.34731 -1.74412 Si
12 1 2.77587 2.83703 5.54808 0.87459 -2.02557 -1.60145 0.322801 -0.513295 -0.457747 Si
15 2 4.14079 1.36556 6.91058 0.734464 1.1735 -0.855295 -0.165146 0.4664 -0.0748429 Ge
37 2 6.91604 1.42399 4.1909 1.27701 0.273542 -1.66752 -0.77615 -0.73735 -1.35796 Ge
41 1 5.52171 -0.0330183 5.51 0.712627 -5.0294 -5.07085 0.669931 1.07959 0.819355 Si
44 1 8.29619 2.75976 5.49598 -0.629845 2.63737 4.40094 0.134264 0.563742 1.02523 Si
47 2 9.6206 1.39188 6.93273 0.10296 1.00676 3.43332 -0.280509 -0.50652 0.498646 Ge
14 2 1.40799 4.1969 6.94224 2.05861 0.219578 -1.48966 -0.487078 -0.378992 0.660347 Ge
21 2 1.4317 6.9725 4.18792 -0.713113 -0.961584 0.183266 -0.146024 0.0687562 0.813637 Ge
25 1 -0.00239039 5.52931 5.5334 -3.16219 2.80016 0.120208 -0.232993 0.627347 -0.0410994 Si
8 2 4.22932 4.18257 4.13027 1.74852 1.96176 -0.123679 -0.855155 0.630869 0.910193 Ge
31 2 4.18327 6.90414 7.00945 1.79643 -0.0273039 3.60919 -0.0509081 -0.0450978 -0.171446 Ge
46 2 6.90671 4.12638 6.87611 -0.27951 0.0454594 2.70491 -0.406153 0.671795 0.736388 Ge
53 2 6.91843 6.92349 4.11563 -0.249724 -0.122191 -2.41511 -0.0298723 0.37145 -1.05083 Ge
57 1 5.56762 5.62966 5.54653 -2.91256 -2.31792 -0.278933 -0.399281 -1.83637 -0.102132 Si
40 2 9.66054 4.15028 4.14048 -2.9729 0.773709 -1.5198 1.14659 -0.186859 -0.144 Ge
63 2 9.62111 6.90293 6.91468 -1.08239 1.82918 -0.895897 0.45079 -0.346264 0.620694 Ge
28 1 2.86966 8.3276 5.63461 4.22445 -2.65557 1.88459 -1.85903 -0.33437 -0.262248 Si
30 2 1.40861 9.70784 6.99432 -1.68167 -0.0883067 -0.472407 0.153107 0.178732 -0.17949 Ge
24 2 4.13751 9.70619 4.20668 -1.49743 1.40344 1.87612 0.457856 -0.396785 -0.994157 Ge
62 2 6.95148 9.66214 6.83677 -0.730978 -0.646234 0.505819 -1.32402 0.294456 1.55823 Ge
56 2 9.75721 9.67551 4.17618 1.95234 -0.390348 -1.47033 -1.73006 1.58721 0.970175 Ge
60 1 8.23176 8.26234 5.51635 2.77202 -6.03304 2.67941 2.48816 0.504965 -0.899593 Si
13 2 1.32993 1.39427 9.73102 -0.952108 -2.42391 -1.21317 1.02748 -0.0386546 -0.463839 Ge
42 1 5.47591 2.79144 8.29777 2.15727 -1.69297 3.75339 0.868081 -0.781497 -0.881581 Si
45 2 6.8501 1.35593 9.65073 -0.164782 1.17013 -1.22757 0.0311734 -0.197346 0.472425 Ge
36 1 8.27435 2.7658 -0.0948462 0.750524 2.16359 -0.929802 0.397244 -0.339798 0.541677 Si
10 1 -0.0355355 2.72273 8.26219 0.444043 0.0219022 -4.05185 0.906699 0.946882 0.312869 Si
17 1 -0.0135526 5.48006 -0.00117677 -3.10318 4.95414 2.11942 1.15361 0.792433 0.0229429 Si
27 1 2.77932 5.54352 8.42609 -1.692 4.96997 0.977114 -0.612474 0.261348 -2.08471 Si
29 2 1.36818 6.92906 9.72389 -1.87089 -3.0136 -1.55915 -0.230229 -0.0433079 0.610337 Ge
16 2 4.12741 4.13343 9.67969 -2.9537 1.47142 1.16966 0.954072 0.653358 1.71939 Ge
61 2 6.97115 6.92099 9.682 1.33504 -1.27606 -0.472043 -0.764297 1.01728 1.33062 Ge
48 2 9.74065 4.12682 9.65566 0.275164 -0.61248 -1.01135 -1.46411 0.0522259 0.052163 Ge
59 1 8.21881 5.50795 8.36294 -1.63637 0.485827 -0.351448 2.26103 -0.793651 -1.86564 Si
11 1 2.79074 0.0304551 8.36885 2.63519 -0.972469 2.98251 -0.47269 -0.435603 -0.304136 Si
26 1 -0.0195015 8.29952 8.31094 -3.31162 -3.87795 -1.60727 0.462086 -0.9777 -0.560708 Si
32 2 4.1934 9.65535 9.65918 0.621992 1.4403 -1.78408 -0.714197 0.300705 1.07466 Ge
58 1 5.60244 8.27612 8.3015 -2.2519 -2.24225 1.42203 0.101481 0.773879 -0.239175 Si
52 1 8.36311 8.33611 -0.0127749 2.00709 -1.07308 1.71207 -0.474238 -0.786753 0.450087 Si
43 1 8.28498 -0.090182 8.31743 0.0581044 -1.36046 4.39616 0.428394 0.752821 -0.0233804 Si
64 2 9.77146 9.641 9.7112 1.66018 1.68451 -3.29774 -1.22671 1.18657 -0.468179 Ge
ITEM: TIMESTEP
13000
ITEM: NUMBER OF ATOMS
64
ITEM: BOX BOUNDS pp pp pp
0.0000000000000000e+00 1.1085848640000000e+01
0.0000000000000000e+00 1.1085848640000000e+01
0.0000000000000000e+00 1.1085848640000000e+01
ITEM: ATOMS id type xu yu zu vx vy vz fx fy fz element
3 1 2.77595 -0.0425156 2.71574 -0.00816145 -6.60072 -1.35276 0.770983 -0.0598633 -0.743333 Si
4 1 2.74716 2.7408 -0.00836282 4.94065 -1.00433 -3.94979 1.25509 1.02116 0.110782 Si
7 2 4.20051 1.38711 1.37176 0.333422 -2.16882 -1.10064 -0.722627 -0.138711 0.251768 Ge
34 1 5.55554 2.76345 2.82193 0.11656 1.00836 -0.276415 0.0749449 -0.695085 -0.679356 Si
2 1 0.0179085 2.7502 2.82124 1.68524 1.7221 -4.70807 0.081039 0.174374 -0.159213 Si
35 1 8.30704 -0.0181938 2.8356 -0.610299 3.39336 4.58772 -0.189151 0.565025 -2.12411 Si
39 2 9.78847 1.3777 1.40817 -1.9892 -1.49768 -0.330611 -1.66519 -0.494279 0.901232 Ge
6 2 1.32846 4.1229 1.35903 1.79603 0.484465 0.41621 0.726062 -0.220471 0.371708 Ge
19 1 2.7224 5.46076 2.74813 -3.07714 1.26701 2.73091 0.511226 0.751299 -0.538169 Si
23 2 4.09183 6.93267 1.41659 0.31823 -1.02615 2.75011 0.84289 -0.610232 -0.376797 Ge
38 2 6.89274 4.16098 1.41637 -0.968523 3.96777 4.07986 0.739042 -0.14991 0.713635 Ge
49 1 5.48036 5.47332 0.0193756 -3.28241 0.902281 0.14703 0.697926 2.11394 0.172756 Si
51 1 8.2813 5.55992 2.85346 1.43643 -1.09001 4.81591 0.53112 -0.64907 -1.09836 Si
55 2 9.65819 6.9388 1.38749 -1.07359 -3.91053 -1.31448 0.178766 -0.405634 0.532748 Ge
20 1 2.75669 8.31898 -0.0278769 -1.95096 0.96236 4.02805 -0.259331 0.0611567 0.342348 Si
22 2 1.3234 9.69945 1.33634 0.0553426 -0.365096 1.02756 1.01188 -0.305062 0.422101 Ge
33 1 5.54583 -0.00112051 -0.0299996 -4.91967 2.21924 0.884766 0.193597 -0.41827 0.449427 Si
50 1 5.56148 8.31091 2.7979 4.58738 0.315509 -1.59938 -0.228693 -0.990269 -1.00342 Si
54 2 6.92226 9.66006 1.35574 0.62989 0.872605 1.57625 -0.483749 1.67848 1.65336 Ge
1 1 0.0344237 0.035323 -0.0253912 3.12197 -0.67424 -0.363713 -0.3485 0.0501139 -0.122255 Si
18 1 -0.0551502 8.33832 2.7562 -3.8468 7.10994 0.364888 0.251337 -0.402356 -0.149249 Si
5 2 1.47067 1.32442 4.10122 1.57167 -0.222505 -1.64096 -1.27488 0.513874 0.997116 Ge
9 1 0.00390199 -0.0678199 5.45291 -0.689086 -3.10717 3.36811 0.60498 1.63872 1.05941 Si
12 1 2.79025 2.7543 5.52698 1.09514 0.518416 4.10033 -0.126276 -0.672791 0.471559 Si
15 2 4.19585 1.37512 6.94273 -0.13971 -1.67063 0.790473 -0.981698 1.18153 0.17938 Ge
37 2 6.92489 1.35061 4.22108 0.513421 0.197967 2.78766 -0.229659 0.757832 -0.347373 Ge
41 1 5.51884 0.0346003 5.60317 -1.73206 -1.01137 1.6615 0.299708 -1.7354 -1.53922 Si
44 1 8.26943 2.76624 5.59123 -0.979068 -2.5025 -6.61737 1.00116 -0.116911 -0.770053 Si
47 2 9.74929 1.41348 6.86717 0.946773 -1.62359 -0.297152 0.144754 -0.472085 0.908031 Ge
14 2 1.38252 4.10173 6.96356 0.998178 0.794797 1.00869 0.16229 0.367155 -0.898629 Ge
21 2 1.40276 6.91423 4.06155 -1.55581 0.258711 -4.27501 -1.33926 -0.0112791 1.15379 Ge
25 1 0.0450979 5.54198 5.56475 2.04823 -1.98581 0.835859 -0.222006 -0.167934 -0.614168 Si
8 2 4.12662 4.12004 4.11727 -1.32029 -2.01061 0.0856368 0.550955 0.591969 1.20722 Ge
31 2 4.13072 6.95124 6.89667 -1.51842 -0.441007 -0.105176 0.0607996 0.206778 0.162089 Ge
46 2 6.96819 4.17472 6.94223 1.63117 0.858623 -1.52243 -0.319552 0.0769588 0.356237 Ge
53 2 6.90689 6.91821 4.21309 1.36188 -2.38837 2.56988 0.0973472 0.747039 0.558271 Ge
57 1 5.52764 5.49042 5.58243 3.27151 4.61301 -0.0593883 -0.445173 0.63402 -0.876024 Si
40 2 9.68476 4.12655 4.21958 0.537022 0.856704 -0.652157 0.229221 0.534792 -0.290283 Ge
63 2 9.73702 6.94481 6.92383 -0.588288 0.299553 3.73791 -0.129303 0.945207 -0.556145 Ge
28 1 2.71039 8.32602 5.47244 1.83973 1.5104 -2.25165 1.6086 -0.474061 -0.0576048 Si
30 2 1.39128 9.69023 6.88671 0.833537 1.14496 0.627767 -0.711331 0.260014 0.199551 Ge
24 2 4.18346 9.68534 4.09766 -0.539804 1.6726 -1.83432 -0.622171 0.865529 1.67052 Ge
62 2 6.92416 9.75102 6.96279 1.24282 1.50559 1.1341 0.0477179 0.288527 -0.047221 Ge
56 2 9.65008 9.70747 4.15882 0.525476 -1.38296 -1.51211 0.908944 -0.592419 -0.476774 Ge
60 1 8.31693 8.402 5.55785 -7.69677 1.09251 0.159262 -0.609001 -1.99711 0.619553 Si
13 2 1.42033 1.41687 9.67889 -3.25313 0.260329 0.450566 -0.277533 -1.30517 0.0712032 Ge
42 1 5.60549 2.77502 8.29439 -2.16364 3.45351 1.56934 -0.26886 -0.225504 1.14815 Si
45 2 6.97971 1.38778 9.75908 2.30317 0.471456 -0.555367 -0.713003 0.851452 -0.813545 Ge
36 1 8.33131 2.75371 0.0929408 -2.67147 2.67903 -0.455236 0.586531 0.934261 -0.811007 Si
10 1 0.0154355 2.76613 8.38256 -1.77089 -1.03317 2.96208 -0.626444 0.190691 -1.28264 Si
17 1 0.0395573 5.58482 0.0136999 -1.59264 -4.90387 -1.99859 -0.859414 0.273252 -0.386583 Si
27 1 2.75552 5.52577 8.26585 2.34841 -0.997833 7.02224 0.513829 0.488942 0.788932 Si
29 2 1.38918 6.96519 9.64681 1.1091 1.38987 -1.57321 0.111134 -0.713262 0.462162 Ge
16 2 4.17696 4.15645 9.67623 1.55788 0.809688 -4.5507 -1.12861 -0.990998 -0.356744 Ge
61 2 6.89328 6.94339 9.72199 -4.4175 -1.55747 -4.52895 0.284742 -0.54283 -0.355843 Ge
48 2 9.73501 4.18886 9.7403 1.38474 0.856245 -0.510788 -0.744929 -0.42198 0.199502 Ge
59 1 8.37962 5.57034 8.27897 -7.20374 1.13706 4.87782 -1.08454 0.0523658 1.5481 Si
11 1 2.75803 0.00736191 8.26974 0.457776 2.12519 -0.521552 0.35766 -0.119065 0.472086 Si
26 1 -0.010221 8.35798 8.32197 3.13742 5.06327 2.03957 -0.363503 0.321057 0.0197401 Si
32 2 4.13434 9.70652 9.6904 1.58909 -1.95992 -2.04626 -0.29022 0.765836 0.0186838 Ge
58 1 5.51815 8.38422 8.32596 -0.951106 -0.973248 -0.659873 0.200159 -1.53431 -0.455518 Si
52 1 8.28085 8.34067 0.0430694 -0.595049 1.44194 -3.54813 0.490589 -0.98831 -1.28008 Si
43 1 8.31518 0.0972703 8.29338 -1.88538 -2.78357 -1.40041 0.840714 -1.22346 0.4918 Si
64 2 9.65918 9.75217 9.76205 2.90785 0.161364 -1.03133 0.296879 -0.0592513 -1.47524 Ge
ITEM: TIMESTEP
13100
ITEM: NUMBER OF ATOMS
64
ITEM: BOX BOUNDS pp pp pp
0.0000000000000000e+00 1.1085848640000000e+01
0.0000000000000000e+00 1.1085848640000000e+01
0.0000000000000000e+00 1.1085848640000000e+01
ITEM: ATOMS id type xu yu zu vx vy vz fx fy fz element
3 1 2.77426 0.0669865 2.78273 -3.82138 4.77384 5.0236 -0.370914 -1.23308 0.58493 Si
4 1 2.76851 2.78369 0.0399861 -6.53564 -2.14383 5.18712 0.174652 -0.537774 -0.802813 Si
7 2 4.16696 1.39624 1.40388 -0.866055 0.101066 3.39623 -0.0788569 -0.20536 -0.436972 Ge
34 1 5.51399 2.7384 2.7849 -0.219066 2.31134 2.85118 0.249484 1.70238 -0.329868 Si
2 1 -0.0294472 2.79989 2.80286 -2.1392 -3.29151 5.46878 1.21698 -0.116064 -1.62341 Si
35 1 8.29995 0.000995659 2.70169 -0.249655 0.105943 1.10622 0.54053 -0.0287917 1.16604 Si
39 2 9.69707 1.41644 1.37614 5.06471 -1.84691 -2.40207 -0.162613 -0.153687 0.254814 Ge
6 2 1.42969 4.19531 1.37963 -2.89996 1.95937 1.03601 -1.41353 -0.405136 0.84427 Ge
19 1 2.79497 5.58366 2.76325 0.926093 -2.01072 -1.00745 -0.536449 -0.199735 0.751319 Si
23 2 4.1902 6.9295 1.41615 -1.46276 0.370801 0.127541 0.160367 0.448323 -0.243958 Ge
38 2 6.92083 4.11396 1.35035 1.5632 -0.085548 -4.09621 -0.0455761 0.425897 0.266836 Ge
49 1 5.57843 5.58962 -0.0179584 -1.32504 -4.1713 0.387676 -0.480197 -0.983788 0.654434 Si
51 1 8.32073 5.53698 2.71898 -1.699 2.27792 -1.71642 0.0663336 -0.0216686 -0.203776 Si
55 2 9.72456 6.95906 1.36074 3.56733 0.49095 4.87795 -0.312782 -1.13683 0.0464623 Ge
20 1 2.79025 8.30411 0.0536032 1.46975 0.205418 -1.93731 -0.21848 0.490035 -0.451598 Si
22 2 1.36657 9.72597 1.41489 -1.15333 1.98999 0.922621 0.74945 -0.403895 -0.0586254 Ge
33 1 5.59208 0.00397735 0.0471801 -1.63701 0.726091 -0.0874409 -1.3238 0.188407 -0.762151 Si
50 1 5.5199 8.32401 2.83288 -2.26055 5.53874 3.1968 1.00473 0.499916 -1.54128 Si
54 2 6.95 9.68246 1.34588 0.222999 0.0198792 -0.250918 -0.376026 -0.892555 1.00396 Ge
1 1 -0.070401 -0.0286146 0.0369266 -0.305401 -1.11851 0.808006 1.25302 0.463867 -0.891664 Si
18 1 0.0615766 8.23627 2.75594 2.07667 -1.44794 1.48085 -1.12051 1.99159 0.943252 Si
5 2 1.33243 1.40616 4.17161 1.50822 -1.06646 -0.771257 0.770789 0.364499 -0.21031 Ge
9 1 0.00341053 0.0661975 5.58282 0.0346575 0.160191 -2.7685 -0.454021 -1.68903 -0.175376 Si
12 1 2.71259 2.78579 5.55021 -0.835829 3.71676 -4.46085 0.758056 0.45261 -0.0568593 Si
15 2 4.14103 1.39825 6.92183 0.11454 -0.0777343 -1.24112 -0.617782 -0.772158 -0.540049 Ge
37 2 6.93043 1.41377 4.10782 0.673631 -3.406 -1.50301 1.16634 -0.458633 0.995309 Ge
41 1 5.56986 0.0261186 5.51583 -1.68487 5.60236 2.51961 -0.310654 -0.00548831 0.578238 Si
44 1 8.40774 2.78007 5.54243 -4.0449 1.02179 5.7622 -2.2361 -0.0744059 -0.968618 Si
47 2 9.68331 1.41334 6.94919 -2.13573 1.04117 -0.398019 0.594159 -0.70271 -0.184105 Ge
14 2 1.35142 4.17443 6.96046 0.455221 -2.79911 3.6599 -0.21131 -0.0692038 -1.52167 Ge
21 2 1.37852 6.92274 4.21661 4.36342 0.252351 -2.61052 0.823457 -0.364852 -0.91785 Ge
25 1 -0.0363063 5.53644 5.51343 0.784946 1.2809 0.915137 0.5892 -0.176559 0.821722 Si
8 2 4.14695 4.20121 4.1583 0.340355 1.37079 -3.55558 -0.48987 -1.2758 -0.178257 Ge
31 2 4.16026 6.91082 6.91624 3.43256 -0.950825 4.66282 0.132572 0.346722 0.0569399 Ge
46 2 6.92413 4.11308 6.90388 -0.872461 0.129815 0.410477 0.167441 0.910321 0.0614555 Ge
53 2 6.97109 6.94813 4.10306 0.586132 -1.77279 -4.88276 -0.431407 -0.692474 1.19405 Ge
57 1 5.52321 5.55905 5.50751 -0.90063 -1.75558 2.2014 1.45245 -0.0316876 0.253559 Si
40 2 9.71109 4.16684 4.11381 -5.83821 0.809373 -1.55724 -0.62796 0.568809 0.575157 Ge
63 2 9.70453 6.91846 6.91409 0.203103 -1.32748 -1.87699 0.220626 -0.53935 0.773311 Ge
28 1 2.75764 8.3107 5.58678 -2.4286 1.5533 4.91296 0.370646 0.342472 -0.395129 Si
30 2 1.378 9.68496 6.96152 -1.91189 -1.60783 3.22506 -0.487239 0.359471 -0.129276 Ge
24 2 4.1662 9.71359 4.19458 0.797206 1.34876 -2.27692 -1.01445 0.390496 -0.19931 Ge
62 2 6.90447 9.65912 6.901 0.187534 -0.578137 -1.24648 1.28286 0.761792 0.222083 Ge
56 2 9.71302 9.70316 4.15779 -0.448803 1.68879 -0.584263 0.557801 0.0309251 -0.512335 Ge
60 1 8.3595 8.28165 5.55229 3.18644 4.78288 -0.0972916 -0.905234 0.769031 -0.718693 Si
13 2 1.38937 1.36164 9.70588 1.3313 0.907693 -0.735506 -1.18055 0.658609 0.395166 Ge
42 1 5.50287 2.74274 8.2851 1.10611 -2.10853 -4.70592 0.125251 0.984214 0.671521 Si
45 2 6.86594 1.35907 9.65799 -1.09789 -4.47554 -1.10235 1.76975 0.0980792 0.388626 Ge
36 1 8.33103 2.75207 -0.0417155 -0.87793 -6.82557 0.879649 -1.33291 -0.38524 -0.11434 Si
10 1 -0.0320653 2.78696 8.27094 -0.611466 -2.36638 1.3909 0.67316 -0.55217 1.74442 Si
17 1 -0.0101216 5.54237 -0.00633223 2.55059 2.39649 2.47119 -0.185286 -0.88399 -0.0610529 Si
27 1 2.77221 5.53164 8.25543 -2.26696 -0.591773 -3.97548 0.287433 -0.10102 1.80597 Si
29 2 1.42297 6.86396 9.74763 0.248061 -0.715027 -1.83502 -0.145131 1.26751 -1.03955 Ge
16 2 4.14657 4.1678 9.73549 -0.61235 1.41401 0.452663 0.308968 0.0262235 -1.09886 Ge
61 2 6.97297 6.94793 9.72776 1.61273 -1.84786 -0.401883 -0.496916 -0.977029 -1.60523 Ge
48 2 9.65416 4.13641 9.66824 2.01262 0.276997 -0.436079 1.60149 0.280516 0.668068 Ge
59 1 8.33734 5.51976 8.32697 5.61932 -0.461948 -6.41764 -1.27436 0.51117 -0.954561 Si
11 1 2.75358 -0.0157165 8.32774 -0.12075 -0.788548 -0.554156 0.713684 0.263134 -0.0865574 Si
26 1 -0.00451531 8.2773 8.34141 -3.65181 -3.92592 0.217712 0.535148 -0.203181 0.171594 Si
32 2 4.16733 9.73574 9.74055 -0.441921 -0.584311 -0.743386 0.40375 -1.17162 -0.42464 Ge
58 1 5.56849 8.27727 8.3016 0.351944 4.81064 3.26521 -0.85157 0.709867 0.887022 Si
52 1 8.3246 8.27647 -0.0354127 0.524079 2.8282 7.04501 0.248828 1.10598 1.09172 Si
43 1 8.35807 -0.0233666 8.31201 -2.654 5.4761 -1.1474 -1.83806 -0.0988363 -0.33267 Si
64 2 9.67912 9.66369 9.70538 -0.175988 2.56592 0.825834 0.561151 0.130957 -0.100828 Ge
ITEM: TIMESTEP
13200
ITEM: NUMBER OF ATOMS
64
ITEM: BOX BOUNDS pp pp pp
0.0000000000000000e+00 1.1085848640000000e+01
0.0000000000000000e+00 1.1085848640000000e+01
0.0000000000000000e+00 1.1085848640000000e+01
ITEM: ATOMS id type xu yu zu vx vy vz fx fy fz element
3 1 2.79875 -0.0436584 2.79783 2.01632 -0.236506 -3.86314 -0.531577 1.46704 0.171582 Si
4 1 2.75671 2.78995 -0.0602972 1.08663 1.65366 -3.04605 -0.453561 -0.739092 1.53169 Si
7 2 4.14635 1.37255 1.35365 1.73349 -2.9222 -0.912554 0.127477 0.140739 -0.196556 Ge
34 1 5.56323 2.8142 2.6917 -0.840099 -6.17145 2.1119 -1.09722 -1.1964 1.33892 Si
2 1 0.0301412 2.79121 2.69877 -2.64405 3.1033 2.62984 -1.33478 -1.21246 2.28308 Si
35 1 8.32705 -0.0519564 2.81901 -2.43541 -0.0196163 0.898987 -1.22962 1.01619 -0.257885 Si
39 2 9.63433 1.3784 1.41283 -2.01819 0.13897 1.79956 1.26841 0.140015 -1.09466 Ge
6 2 1.40388 4.14796 1.44746 4.28735 2.02877 -1.41696 0.525897 1.09892 -2.21665 Ge
19 1 2.78624 5.55636 2.81245 -0.849717 0.343481 -1.01917 0.236264 -0.153099 -0.465752 Si
23 2 4.17716 6.88217 1.31913 -0.427622 -2.99902 1.85455 -1.1243 0.21498 0.00233845 Ge
38 2 6.93887 4.17257 1.41764 0.100218 2.02963 4.75262 0.675541 0.544166 -1.1858 Ge
49 1 5.58851 5.51264 -0.0140398 0.800896 3.21268 -1.00115 -0.337565 0.28057 -0.373062 Si
51 1 8.32448 5.54712 2.77954 -0.694366 -0.0752699 5.12657 -0.229929 0.304655 1.13755 Si
55 2 9.64801 6.95845 1.36781 -2.29056 -1.27902 -0.303007 1.49754 -0.673692 1.04599 Ge
20 1 2.76627 8.31144 -0.0767377 -0.451295 -1.94497 3.60251 0.474465 -0.250189 0.733447 Si
22 2 1.45036 9.68987 1.398 -2.18394 0.49411 0.16256 -1.27096 -0.0198088 -0.608784 Ge
33 1 5.54987 -0.0156944 -0.0487055 5.05113 0.685699 2.73905 0.0450901 0.923224 0.98093 Si
50 1 5.53021 8.26896 2.66488 -3.37655 -4.71143 6.8717 -0.716681 1.06802 2.06477 Si
54 2 6.89848 9.70695 1.37149 -0.538278 1.20012 -1.34506 0.963557 -0.0111065 -0.0215573 Ge
1 1 0.0340518 0.0266195 -0.0228182 -4.65253 0.238806 3.3879 -1.36614 -1.11445 1.19866 Si
18 1 -0.0120192 8.33415 2.79828 0.368027 -4.04983 -4.01952 1.11375 -1.15753 -0.852358 Si
5 2 1.35289 1.40185 4.18166 2.55689 -1.88666 -2.19239 0.680677 -0.697845 -0.744875 Ge
9 1 -0.0362768 -0.0325464 5.55291 -1.52589 4.09417 1.06923 0.484965 1.29077 -0.0611848 Si
12 1 2.82676 2.74188 5.54935 -2.24088 -3.14546 3.90257 -0.740742 0.662952 -0.229439 Si
15 2 4.1733 1.34172 6.94659 2.34856 0.37828 0.393952 1.02299 0.553455 0.182999 Ge
37 2 6.88893 1.43767 4.15864 -1.53112 1.13968 -0.0381093 0.191218 -1.71936 -0.875664 Ge
41 1 5.56966 -0.0806041 5.5256 1.32148 -1.08872 -0.742051 -0.636859 1.72462 0.418803 Si
44 1 8.25845 2.77426 5.51893 8.65604 0.31075 1.6016 1.33016 0.0387961 1.5096 Si
47 2 9.69371 1.37835 6.96534 1.20433 0.503325 2.2758 -0.445348 0.156992 -0.405856 Ge
14 2 1.41582 4.23893 6.85752 1.78297 1.25685 2.05044 0.915309 -1.42891 1.58201 Ge
21 2 1.39768 6.9124 4.21653 -4.28411 -1.60947 -3.0105 -0.659118 0.575194 -1.41016 Ge
25 1 -0.00774877 5.56127 5.5614 -2.74286 -0.314615 -1.54723 -0.258669 0.0249757 -0.362493 Si
8 2 4.19327 4.15161 4.15202 -2.07716 0.468843 1.11952 -0.0442965 -0.203453 -0.105342 Ge
31 2 4.11116 6.92727 6.94295 -2.63354 -1.80791 -1.02893 1.2187 -0.655058 0.0697537 Ge
46 2 6.9172 4.15918 6.96915 2.42311 -1.25303 0.508333 -0.232267 -0.511586 -0.582608 Ge
53 2 6.87392 6.97024 4.17573 1.85826 -0.299827 0.110973 0.786383 -1.37176 -1.25255 Ge
57 1 5.56693 5.51573 5.55761 -4.11464 1.13559 0.287549 -1.01984 0.845376 0.385184 Si
40 2 9.74569 4.13134 4.19863 3.05619 -0.105734 -1.62051 -0.741006 0.407309 -1.29945 Ge
63 2 9.67234 6.91195 6.92481 -0.597717 1.62557 2.85102 0.153724 0.275487 -0.180755 Ge
28 1 2.79766 8.287 5.51843 -1.65529 -1.06411 -4.18747 -0.971689 0.462842 1.26207 Si
30 2 1.43329 9.75834 6.87861 1.52364 0.993225 -0.442309 -0.0624128 -1.32944 0.683134 Ge
24 2 4.12446 9.66375 4.19582 2.02597 0.250925 -2.96224 1.79019 -0.628891 -1.96802 Ge
62 2 6.93497 9.69724 6.94321 -1.66728 -0.413263 3.21282 0.214223 -1.35154 -0.552084 Ge
56 2 9.73243 9.67158 4.16598 -1.46359 -1.89215 -1.27955 -0.954675 0.0832785 0.339925 Ge
60 1 8.31507 8.28141 5.50413 0.314426 -0.866037 1.86446 -0.116375 0.963967 1.12148 Si
13 2 1.34934 1.37949 9.67778 -1.31664 -2.2085 -2.10468 1.48864 0.605923 0.018335 Ge
42 1 5.53696 2.80707 8.38969 -2.0065 0.471895 -0.00279856 -0.268839 -1.03351 -1.77768 Si
45 2 6.92769 1.43144 9.726 0.470306 0.992714 -0.175502 0.269049 -0.931306 -0.282457 Ge
36 1 8.30115 2.82615 -0.00969224 4.37149 6.4316 3.56032 0.560186 -0.711776 0.463041 Si
10 1 0.0882278 2.80127 8.28783 -0.736933 3.28086 -3.72848 -1.34528 -0.0614776 -0.861815 Si
17 1 -0.0349978 5.52278 0.0129366 -0.432588 1.41848 -0.149904 0.430803 0.29089 0.296036 Si
27 1 2.7552 5.57021 8.38637 -0.578689 -0.190867 -3.54349 -0.273842 -0.246982 -1.70958 Si
29 2 1.31359 6.92838 9.67596 0.535748 -2.78248 -0.250603 0.539595 0.118892 0.689338 Ge
16 2 4.13027 4.15496 9.69562 0.468384 2.85506 -1.18073 0.626038 0.816314 0.637378 Ge
61 2 6.97298 6.97039 9.72314 -2.45991 2.01908 -0.372061 -0.7481 -0.866294 -0.344603 Ge
48 2 9.7344 4.14066 9.65446 -2.44589 0.487786 -2.41328 -0.65411 0.465518 0.255299 Ge
59 1 8.27658 5.53977 8.29936 1.00643 -0.578238 6.6884 1.17613 0.248502 0.804911 Si
11 1 2.78828 0.0123606 8.34696 -4.28289 2.14285 1.23163 -0.313311 -0.136899 -0.708194 Si
26 1 0.0267085 8.31811 8.24261 0.117885 3.5114 1.06192 -0.60982 0.380549 0.217823 Si
32 2 4.20324 9.71921 9.66737 2.01706 1.872 -0.254 -0.965951 -0.787628 0.108369 Ge
58 1 5.53896 8.29476 8.31294 1.80727 -2.71849 -5.65429 0.369052 0.211342 -0.200461 Si
52 1 8.33952 8.33297 0.0218823 -1.60067 -3.94218 -7.07388 -0.925025 0.433108 -0.384137 Si
43 1 8.2856 -0.0566011 8.3509 7.47458 -0.594412 1.49149 0.535349 1.54728 0.0152463 Si
64 2 9.70391 9.65306 9.69268 0.884564 0.599429 -1.86833 0.968518 0.81868 0.0227621 Ge
ITEM: TIMESTEP
13300
ITEM: NUMBER OF ATOMS
64
ITEM: BOX BOUNDS pp pp pp
0.0000000000000000e+00 1.1085848640000000e+01
0.0000000000000000e+00 1.1085848640000000e+01
0.0000000000000000e+00 1.1085848640000000e+01
ITEM: ATOMS id type xu yu zu vx vy vz fx fy fz element
3 1 2.78697 -0.00995259 2.68887 -1.27534 -1.30083 3.10181 -0.256706 -0.033465 0.881681 Si
4 1 2.87843 2.75083 0.0509886 0.252618 2.63498 -0.331647 -1.45941 0.864787 -1.43784 Si
7 2 4.21017 1.41196 1.39866 -0.547245 -2.19203 2.57845 -0.304658 -1.32143 0.191175 Ge
34 1 5.5071 2.73829 2.81675 1.12163 6.66026 -4.51924 1.15325 0.0440758 0.193064 Si
2 1 0.0334211 2.71953 2.79289 4.26828 2.21057 -7.87186 -0.758108 1.53853 -0.102989 Si
35 1 8.33062 0.047814 2.69144 5.01702 -4.14806 -0.445112 0.408516 -0.895789 1.71104 Si
39 2 9.7579 1.42426 1.39758 -1.19982 -1.35457 -1.07664 -0.683744 -0.795187 -1.15106 Ge
6 2 1.34606 4.09537 1.33903 -0.523208 0.603539 6.38781 1.15145 0.541685 0.599501 Ge
19 1 2.73354 5.51611 2.74238 -0.099474 0.944808 4.91878 -0.29362 -0.0146215 0.286674 Si
23 2 4.13607 6.97 1.46936 2.74102 -1.30818 -0.236671 0.401613 -0.249684 -1.13851 Ge
38 2 6.8479 4.11572 1.40846 0.251637 -0.564694 -0.343551 1.04687 0.417794 -0.191345 Ge
49 1 5.49991 5.57295 0.0321732 1.93501 -1.78377 0.728525 -0.192021 -0.690439 0.139518 Si
51 1 8.33201 5.49805 2.7538 1.28752 0.968556 -5.65272 -0.808767 0.493147 0.291654 Si
55 2 9.66766 6.9249 1.34753 -0.650932 1.32625 1.6643 0.493811 -0.12892 -0.107059 Ge
20 1 2.76274 8.34052 0.0382527 -1.9668 2.86438 -4.82055 -0.176693 -0.233322 -0.0416169 Si
22 2 1.32145 9.70504 1.37453 3.39352 1.99655 3.85257 0.872001 -0.134033 -0.170546 Ge
33 1 5.52815 0.00463 0.00970793 -0.373098 -3.80953 -3.84109 0.662092 -0.649669 -0.0963431 Si
50 1 5.62622 8.3324 2.77443 4.36905 -1.09684 -10.571 -1.2638 -0.389462 1.51243 Si
54 2 6.9732 9.67351 1.39557 -2.32756 1.4307 1.2286 -0.951946 1.41971 -0.839295 Ge
1 1 -0.00192337 -0.00908282 -0.0280105 4.05939 1.77976 -3.47483 0.237805 1.16909 0.326485 Si
18 1 -0.0327086 8.31721 2.74624 -1.40581 3.48305 4.30082 -0.634136 0.00796411 0.390527 Si
5 2 1.38255 1.33279 4.09978 -1.67301 1.25858 2.13582 1.57414 0.37561 0.780827 Ge
9 1 0.0831853 -0.0288511 5.51587 -0.286759 -4.42595 1.65294 -1.432 0.0753288 -0.0895632 Si
12 1 2.7423 2.76885 5.54111 2.57382 -0.202406 -1.57365 -0.278084 -0.643006 0.321823 Si
15 2 4.14121 1.38142 6.98136 -3.24455 -2.27502 -1.07989 0.510391 0.655015 -1.97885 Ge
37 2 6.96337 1.3534 4.17242 -0.211839 2.05455 -1.05524 -0.708717 0.612298 -0.635431 Ge
41 1 5.50634 0.031872 5.54341 2.33631 -3.38161 0.13111 0.379936 -0.316103 0.162261 Si
44 1 8.34402 2.76467 5.51269 -7.77193 0.82277 -4.32257 -0.133653 0.29988 0.733818 Si
47 2 9.76581 1.37772 6.86629 -1.16443 -0.759065 3.04703 -0.833676 -0.199255 0.648007 Ge
14 2 1.31779 4.1208 6.97924 0.0901744 3.12802 -0.762439 1.23434 0.08042 -0.32886 Ge
21 2 1.3589 6.94241 4.12298 3.59721 -1.28717 2.32809 0.45803 -0.488595 0.125894 Ge
25 1 0.0451411 5.51983 5.53888 0.604478 0.307503 2.0053 -0.840818 0.670219 0.240684 Si
8 2 4.1273 4.13088 4.13028 0.0420885 1.29 -2.03188 -0.117672 0.695243 0.699187 Ge
31 2 4.14467 6.97802 6.86904 -0.278286 -0.37313 4.7086 0.510883 -1.1581 0.560929 Ge
46 2 6.95274 4.1894 6.91605 -0.636836 0.657171 1.30353 0.0714008 -0.507358 -0.225813 Ge
53 2 6.96266 6.90567 4.21307 0.0562689 2.55386 -2.56504 0.373576 0.421303 -1.55467 Ge
57 1 5.54441 5.55294 5.49815 4.75309 -4.37438 -2.61618 -0.703734 -0.565202 0.816144 Si
40 2 9.71641 4.16511 4.1725 -1.41446 0.483974 -0.492483 0.61007 -0.685431 -0.739683 Ge
63 2 9.7609 6.94272 6.94066 -1.30265 -1.63107 0.000284229 -0.646328 -0.129246 0.208274 Ge
28 1 2.7515 8.31668 5.52138 1.1027 -1.10383 1.40263 -0.182322 -0.00506926 -0.704997 Si
30 2 1.37583 9.65837 6.89794 -0.35427 2.54285 0.848335 0.456422 0.330914 0.510334 Ge
24 2 4.13686 9.71814 4.16064 -3.56007 2.88309 3.44954 0.637396 -0.285108 -0.821624 Ge
62 2 6.92556 9.7535 6.92177 -0.66377 0.862754 -0.484608 -1.06987 -0.802581 0.866241 Ge
56 2 9.68561 9.72613 4.17369 3.00474 -0.331446 -1.17979 -0.193573 -0.343925 -0.563753 Ge
60 1 8.29354 8.319 5.60772 1.71949 -4.42222 -4.21214 1.03405 0.230519 -0.751741 Si
13 2 1.46413 1.40769 9.71068 -2.60799 -0.975788 -1.05746 -0.533032 -1.08421 -0.483612 Ge
42 1 5.60586 2.72508 8.28723 1.40461 1.03284 6.12412 -0.392827 1.02215 0.627433 Si
45 2 6.95412 1.37081 9.71893 -1.78063 -1.72204 -0.973229 -0.579707 -0.1214 -0.367303 Ge
36 1 8.29108 2.73861 0.0164251 -3.81933 -1.8001 -5.42537 0.268859 1.04227 0.775404 Si
10 1 -0.0709522 2.73793 8.37284 4.52531 2.16776 2.2837 1.01295 0.624844 0.16201 Si
17 1 0.0273634 5.53961 -0.0425461 -2.65878 -1.53194 -0.598198 0.117888 0.915187 0.706366 Si
27 1 2.82157 5.52669 8.27433 -0.571918 2.05924 5.46862 -0.656003 0.110944 0.0220895 Si
29 2 1.4606 6.95373 9.6704 -1.15813 -1.96364 -3.19005 -0.648386 -0.625824 0.426335 Ge
16 2 4.19872 4.13591 9.67102 -1.97822 0.2845 -1.65733 0.246726 0.092822 0.368674 Ge
61 2 6.8738 6.89701 9.70311 2.12057 0.56462 -0.264043 0.254407 1.20985 0.312778 Ge
48 2 9.67338 4.19264 9.78015 2.45381 -2.34408 -2.72404 -0.645008 -0.750234 -1.637 Ge
59 1 8.30564 5.59805 8.33518 -2.99843 -0.954519 -5.44151 0.63994 -0.927653 -0.226062 Si
11 1 2.80222 -0.0450483 8.2294 4.38776 -2.09317 0.571305 -1.68928 0.629498 1.70948 Si
26 1 0.0128215 8.34384 8.35348 2.12997 -4.13003 -2.50742 -0.40533 0.0385052 0.0215961 Si
32 2 4.0828 9.72515 9.70615 2.86377 1.65969 -1.12459 1.48907 -0.456313 0.239204 Ge
58 1 5.49588 8.30922 8.34249 -2.29922 1.00504 4.36233 0.438426 0.949508 -0.73319 Si
52 1 8.26886 8.33451 -0.0224364 2.54707 1.71709 6.27727 0.182456 -1.25335 0.0877837 Si
43 1 8.30934 0.0516401 8.28399 -5.77755 -4.69012 0.813784 0.752128 -0.517753 0.140235 Si
64 2 9.63545 9.73428 9.74621 -0.719012 -0.856776 -1.9218 0.792747 -0.177373 -1.67881 Ge
ITEM: TIMESTEP
13400
ITEM: NUMBER OF ATOMS
64
ITEM: BOX BOUNDS pp pp pp
0.0000000000000000e+00 1.1085848640000000e+01
0.0000000000000000e+00 1.1085848640000000e+01
0.0000000000000000e+00 1.1085848640000000e+01
ITEM: ATOMS id type xu yu zu vx vy vz fx fy fz element
3 1 2.74092 0.0344565 2.8667 4.12881 -0.823151 -5.12349 0.155382 -0.320252 -1.1007 Si
4 1 2.64796 2.76892 -0.0206852 5.83532 -3.49328 2.7826 1.72019 0.797009 1.46255 Si
7 2 4.08384 1.46383 1.43009 2.65304 0.973234 0.570562 0.368417 -0.87125 -0.391926 Ge
34 1 5.6278 2.78887 2.73007 -1.28533 -4.20976 -0.750791 -1.02815 0.59377 -0.610401 Si
2 1 -0.0951291 2.77079 2.80944 0.566496 -5.58225 4.68524 1.48988 0.40981 -1.13021 Si
35 1 8.29808 0.00702934 2.81295 -3.3819 5.35694 -8.09773 0.402371 -0.178679 -1.4783 Si
39 2 9.71816 1.3632 1.3814 1.49817 1.5595 3.41546 -0.800075 -0.18445 0.491023 Ge
6 2 1.35066 4.18 1.41286 -2.51547 -0.57715 0.0710708 -0.158795 -0.861793 0.560601 Ge
19 1 2.81122 5.55651 2.73212 0.412837 0.435502 -6.11018 -0.308587 0.177926 0.986779 Si
23 2 4.15674 6.93219 1.33073 -1.66927 -1.36185 4.06981 1.1621 -0.342223 1.00907 Ge
38 2 6.99266 4.15692 1.2907 -1.60718 -0.156017 2.78648 -0.521763 -0.174938 0.87775 Ge
49 1 5.54948 5.50588 -0.0469857 0.76817 4.10358 0.159284 0.655579 1.14218 0.448262 Si
51 1 8.28949 5.56039 2.7349 3.08968 -5.05408 -1.90507 0.830163 -0.144658 -0.264037 Si
55 2 9.79038 6.95253 1.41401 -1.54352 -0.952521 2.50907 -1.21005 -0.336668 0.431932 Ge
20 1 2.81368 8.27076 -0.0122812 2.2637 -1.84363 3.45515 -1.2619 1.07491 -0.0259533 Si
22 2 1.4251 9.6862 1.39902 -3.66507 1.4867 1.67183 0.473966 0.222487 0.270455 Ge
33 1 5.48447 0.033642 0.0200743 -2.49611 2.98703 2.10854 0.0644825 -0.468921 -0.106116 Si
50 1 5.46281 8.36095 2.82658 0.55354 2.06891 0.123685 2.157 -1.49678 -3.04794 Si
54 2 6.96161 9.69813 1.34088 1.70673 -0.68543 -0.457783 -1.19934 0.0403177 1.36193 Ge
1 1 0.0263225 -0.0145597 0.0287056 -1.45701 -2.70363 -1.80595 -0.0725106 -0.391739 -0.440268 Si
18 1 0.065083 8.31869 2.81434 1.28936 -1.48234 -2.3716 -0.295066 0.625145 0.293266 Si
5 2 1.3122 1.44036 4.18503 0.426129 -3.157 -3.98411 0.705013 -0.240276 0.470309 Ge
9 1 -0.0471911 0.0264782 5.56539 4.78809 2.55911 -1.47123 1.0137 -0.417814 0.681547 Si
12 1 2.80334 2.82993 5.50493 -1.23654 1.87434 1.30876 0.0905899 -0.360724 0.290507 Si
15 2 4.17709 1.3832 6.93096 -0.502416 -0.456061 4.90875 -1.8766 -0.0998181 -0.386087 Ge
37 2 6.88996 1.38669 4.11923 -0.399536 -2.20897 -0.113551 0.90749 0.186671 1.19093 Ge
41 1 5.53846 0.0125803 5.52781 -2.97366 -1.29496 -3.05208 0.342211 -0.875053 0.25627 Si
44 1 8.27538 2.77015 5.56663 4.86961 -3.02909 -2.02885 -0.68565 0.264347 -1.3384 Si
47 2 9.61715 1.38476 6.90205 2.58794 0.171366 -1.8535 1.27948 0.00579801 0.626711 Ge
14 2 1.37778 4.17397 6.93181 -1.97023 -1.1879 3.26801 -0.104911 -0.426796 -0.683084 Ge
21 2 1.45537 6.96535 4.22443 -2.36187 0.30356 -3.62478 0.056052 -0.615514 -0.950023 Ge
25 1 -0.00707546 5.55889 5.5011 4.36525 -3.17898 -2.45633 0.427679 -0.715453 0.204547 Si
8 2 4.2741 4.20361 4.10959 -1.93611 -1.15444 -3.2189 -1.43939 -0.270717 0.408399 Ge
31 2 4.18706 6.90281 6.98544 -2.47789 1.94017 0.015954 -0.519306 0.979509 0.501698 Ge
46 2 6.88197 4.14775 6.93333 1.07427 1.45451 1.59255 0.551928 0.414413 -0.177481 Ge
53 2 6.86883 6.89866 4.10723 1.97561 -2.49874 2.66958 0.58107 1.28726 1.00983 Ge
57 1 5.52183 5.59012 5.60214 -1.50991 4.92971 -0.648201 1.01296 -0.911388 -1.24593 Si
40 2 9.66019 4.15622 4.14193 -0.678402 2.58146 0.466715 -0.695376 0.590119 0.679296 Ge
63 2 9.65827 6.87232 6.85339 3.27952 1.65384 -0.219295 0.42677 1.14085 0.352209 Ge
28 1 2.82351 8.34009 5.62694 3.73316 -0.0445767 -1.02383 -0.259734 -0.340284 0.0161807 Si
30 2 1.38489 9.69307 7.008 -1.09715 -1.4292 -0.315875 -0.805223 0.596594 -0.853826 Ge
24 2 4.16856 9.66416 4.16531 -0.512306 1.88909 -2.20261 -1.35577 2.13191 1.56332 Ge
62 2 6.9668 9.66424 6.89954 1.66901 2.39919 1.05435 -0.0339233 1.43214 -0.545414 Ge
56 2 9.71127 9.74261 4.17213 -0.764893 0.705142 0.345078 0.405035 -0.619399 -0.795939 Ge
60 1 8.32978 8.34062 5.4671 -4.58606 -0.429567 6.1125 -0.78465 -1.49375 0.302812 Si
13 2 1.38159 1.38353 9.71498 1.19294 0.185576 -0.980129 -1.75256 -0.146473 0.022579 Ge
42 1 5.47363 2.80193 8.26336 1.61503 -3.90283 -3.26785 0.752874 -0.431812 1.78351 Si
45 2 6.87345 1.36766 9.66001 1.77845 -0.756184 2.18346 0.386904 0.672811 0.16247 Ge
36 1 8.35384 2.7322 -0.0303191 1.03235 -0.909291 1.41999 -0.374808 -0.0223488 -0.89525 Si
10 1 0.00363131 2.71503 8.27597 -5.14247 -5.37784 -1.59015 -0.522473 0.85241 0.271014 Si
17 1 0.027561 5.55899 0.0447349 0.805507 -0.119811 -1.37134 -1.01811 -0.636288 -0.893399 Si
27 1 2.75806 5.50829 8.33543 3.68233 -1.85381 -2.56626 -0.156056 0.916412 0.753701 Si
29 2 1.34974 6.92958 9.75246 3.16853 -0.176373 -3.56741 0.754068 -0.26168 -1.43648 Ge
16 2 4.1189 4.13832 9.75847 0.067076 1.83589 -2.82749 -0.331872 -0.437214 -1.42185 Ge
61 2 7.04562 6.90883 9.71526 -1.57444 -3.06606 -1.80457 -1.37176 -0.619521 -1.10751 Ge
48 2 9.70936 4.16811 9.66324 -1.19495 1.93842 2.94519 1.34285 -1.02576 0.913456 Ge
59 1 8.36721 5.47526 8.2691 -1.13203 4.10826 3.97975 -1.37421 0.916684 0.149154 Si
11 1 2.71952 0.0373318 8.39712 2.46921 -0.847474 -3.60198 1.80354 -0.948902 -1.59329 Si
26 1 -0.0656457 8.2646 8.30061 -1.39291 2.77559 2.18246 0.710612 -0.118104 0.181497 Si
32 2 4.14965 9.66228 9.68571 -2.22452 3.01213 -1.29316 0.669261 0.760711 0.0739848 Ge
58 1 5.64128 8.32414 8.29316 0.0568553 -5.73635 -0.0661508 -0.921785 -1.01823 1.20533 Si
52 1 8.37224 8.27687 0.0107526 -0.914854 0.746306 -5.62419 0.18561 0.530173 0.505109 Si
43 1 8.32154 -0.00556492 8.30048 1.99071 2.67139 -1.42172 -0.581931 -0.748183 0.552675 Si
64 2 9.71218 9.66763 9.72024 -2.42806 2.4238 2.76076 -0.0628796 0.811493 -0.402851 Ge
ITEM: TIMESTEP
13500
ITEM: NUMBER OF ATOMS
64
ITEM: BOX BOUNDS pp pp pp
0.0000000000000000e+00 1.1085848640000000e+01
0.0000000000000000e+00 1.1085848640000000e+01
0.0000000000000000e+00 1.1085848640000000e+01
ITEM: ATOMS id type xu yu zu vx vy vz fx fy fz element
3 1 2.76414 -0.031771 2.69645 -4.15223 1.13219 3.1423 0.827966 -0.585375 0.238445 Si
4 1 2.83387 2.7902 -0.0345434 -5.1546 -1.11082 -5.41936 0.0610077 -1.39981 -0.863519 Si
7 2 4.18298 1.35067 1.31394 -1.8879 -0.168337 4.22699 0.233051 0.0272454 0.736244 Ge
34 1 5.45122 2.7418 2.85124 4.28422 1.08507 1.42826 0.898309 -0.245244 -0.660463 Si
2 1 0.078545 2.82785 2.70478 -3.13445 -0.0309941 -1.61969 -0.122747 -1.93617 0.389398 Si
35 1 8.29575 -0.0283409 2.86317 2.06842 -3.1797 8.63508 -0.21427 0.843691 -1.35282 Si
39 2 9.66751 1.3933 1.43286 0.734299 -0.235463 -1.43645 -0.0137369 0.439581 0.204409 Ge
6 2 1.47996 4.13243 1.29281 0.861474 1.88965 1.56028 -1.23202 1.41658 1.25809 Ge
19 1 2.72688 5.50342 2.85244 1.41004 -2.70876 0.324824 1.05277 0.309936 -1.86599 Si
23 2 4.14065 6.93326 1.39732 -2.01813 -0.913779 0.00123993 -0.954894 -0.649817 0.318268 Ge
38 2 6.84728 4.18929 1.53268 0.735112 1.83322 -0.123101 0.947185 0.158172 -0.638708 Ge
49 1 5.52669 5.54417 0.0201018 -3.21777 -7.28066 -2.38453 -0.099213 0.122812 0.112968 Si
51 1 8.31647 5.58536 2.91854 -3.92286 3.65369 2.78194 0.46759 -1.04061 -1.83758 Si
55 2 9.603 6.90158 1.27749 0.733035 -0.484924 0.12992 0.52516 -0.258375 1.74469 Ge
20 1 2.72357 8.34698 -0.00394719 3.59997 -1.89313 -4.42875 1.60526 -1.17318 -0.0257216 Si
22 2 1.36591 9.6686 1.31518 0.147661 0.220213 1.43471 -1.01154 0.975401 1.32494 Ge
33 1 5.6435 -0.0342608 -0.0432938 -0.328001 0.553051 -2.37959 -0.942007 0.533396 0.0632557 Si
50 1 5.59589 8.21767 2.77987 -1.35357 2.36096 6.25218 -1.21443 1.44851 0.281357 Si
54 2 6.9317 9.65992 1.44705 1.33477 1.46926 -1.13284 0.218324 0.679162 -0.429137 Ge
1 1 -0.0549682 0.0195057 0.0340663 2.76138 0.879597 1.94431 0.687843 -0.0355887 -1.06071 Si
18 1 -0.078575 8.29662 2.67385 0.270799 -0.567474 -0.872985 0.301971 -0.384799 0.0369348 Si
5 2 1.40529 1.32801 4.10679 -2.19281 0.501454 -1.85573 -0.661904 0.656026 0.106352 Ge
9 1 -0.0155318 -0.0257358 5.52969 -2.90385 -4.21701 -2.81096 0.0493117 0.496177 -0.838369 Si
12 1 2.75569 2.66907 5.57971 3.74787 1.21433 -4.15489 0.206064 1.2133 -0.0698974 Si
15 2 4.22062 1.35403 6.94847 2.84466 -1.96623 -0.114327 -0.627625 0.898923 0.671057 Ge
37 2 6.94724 1.41799 4.21398 -1.17393 0.799289 -0.613984 -0.358493 -0.273318 0.00760294 Ge
41 1 5.57725 0.0210015 5.59589 1.05894 4.37924 1.98254 -0.469168 -0.743542 -1.56588 Si
44 1 8.36377 2.79183 5.57213 -1.04704 0.443384 3.2947 0.607531 -1.0316 -0.0645476 Si
47 2 9.74673 1.36478 6.97642 -2.03612 -0.506849 1.57027 0.046272 1.17064 -0.297631 Ge
14 2 1.41213 4.2038 6.92987 0.392564 3.99774 3.09192 -0.169592 -0.443921 -0.401363 Ge
21 2 1.29174 6.90218 4.09847 0.574085 0.30326 0.849965 -0.852259 0.252717 0.421339 Ge
25 1 -0.0547451 5.56021 5.59858 -2.65995 3.95715 0.474582 0.700949 0.0967398 -0.252373 Si
8 2 4.12841 4.13678 4.23713 4.01336 1.27655 -2.43963 -0.933725 -0.994358 -0.539417 Ge
31 2 4.13099 6.90403 6.79533 -0.725922 -2.98418 2.37442 -0.464819 0.757882 1.02001 Ge
46 2 6.97356 4.15734 6.90596 0.0905834 0.771638 1.70505 -0.392806 -0.084694 0.954103 Ge
53 2 6.92632 6.95605 4.24231 -1.21492 -2.4899 -2.58286 0.199616 -0.995332 0.253251 Ge
57 1 5.56364 5.45365 5.52564 -0.547339 -1.23671 2.4523 -0.00914236 1.58247 0.459612 Si
40 2 9.80214 4.09471 4.1703 0.799963 -0.393771 -2.75649 -1.41579 1.54411 0.241322 Ge
63 2 9.6743 6.94601 7.05571 -4.18646 -3.45982 0.906502 0.67522 0.50072 -1.30952 Ge
28 1 2.6554 8.304 5.43623 -3.36537 0.30105 1.05571 2.21364 -0.18981 0.124868 Si
30 2 1.45403 9.76203 6.83462 2.53728 1.17723 3.20318 -1.38782 -1.18515 0.972638 Ge
24 2 4.19116 9.66716 4.14003 -0.166059 -2.00052 -2.13378 -0.305352 0.419208 -0.243845 Ge
62 2 6.88648 9.73137 6.97001 0.570823 -1.7183 1.58264 1.15167 -0.498281 0.155579 Ge
56 2 9.67546 9.66069 4.13161 -0.188459 1.06631 1.3065 0.570318 -0.151143 1.0878 Ge
60 1 8.31618 8.32293 5.60097 3.98693 4.4485 -6.85983 -0.181524 0.322138 0.506042 Si
13 2 1.39033 1.38313 9.6969 0.333316 -0.0150268 -1.74975 -0.161884 0.538035 -0.0111999 Ge
42 1 5.59705 2.79416 8.33629 -2.01137 2.86755 -4.2649 -0.291078 -0.195033 -1.4339 Si
45 2 6.99826 1.46478 9.6657 -0.939469 -0.999829 -1.21463 -0.0324869 -0.955472 1.64948 Ge
36 1 8.29867 2.86049 0.0729685 -0.0698593 -1.64588 -0.197028 -0.0395073 -0.48617 -0.121244 Si
10 1 0.0287097 2.8934 8.33964 2.95624 0.76705 1.46021 0.0525825 -2.44342 -0.428299 Si
17 1 -0.00377824 5.52645 -0.0314188 4.41923 -0.468491 1.66553 0.202125 0.126544 0.449867 Si
27 1 2.75067 5.61392 8.29201 0.0796238 -2.60945 0.0863843 1.27748 -0.99884 0.371366 Si
29 2 1.3898 6.9355 9.74434 -1.24127 -0.823566 -0.205034 -0.159964 0.396998 -1.066 Ge
16 2 4.19812 4.14964 9.6673 0.445693 2.74923 0.858086 -0.734647 1.33711 -0.0767027 Ge
61 2 6.83717 6.98962 9.68839 1.23976 1.85573 1.66085 0.298 -0.755041 0.023581 Ge
48 2 9.69761 4.18755 9.68568 -1.4348 1.10126 -3.20687 -0.826403 0.239636 0.89613 Ge
59 1 8.26128 5.55723 8.35283 5.29335 -5.14618 -2.89266 -0.0279989 0.317708 0.218868 Si
11 1 2.77519 -0.010543 8.26712 -3.36679 0.119038 2.62527 0.52283 0.621202 0.980388 Si
26 1 0.102766 8.37507 8.31218 0.52736 -2.22022 -4.12193 -0.767117 -0.455497 -0.200768 Si
32 2 4.13043 9.69071 9.69454 0.501973 -1.79096 -2.39825 0.0369724 0.72135 0.0551062 Ge
58 1 5.4428 8.33657 8.27558 2.80015 7.21247 -2.75756 0.431972 -0.711759 -0.502338 Si
52 1 8.25006 8.34614 -0.026728 -0.659306 -0.936355 1.84666 0.576649 -0.0472437 -0.631124 Si
43 1 8.34142 0.00660579 8.34353 -1.68221 1.65024 -1.47576 -0.287998 0.140905 -0.660776 Si
64 2 9.72387 9.70037 9.66564 0.636505 -0.746061 -0.492805 -0.281677 0.043557 1.11449 Ge
ITEM: TIMESTEP
13600
ITEM: NUMBER OF ATOMS
64
ITEM: BOX BOUNDS pp pp pp
0.0000000000000000e+00 1.1085848640000000e+01
0.0000000000000000e+00 1.1085848640000000e+01
0.0000000000000000e+00 1.1085848640000000e+01
ITEM: ATOMS id type xu yu zu vx vy vz fx fy fz element
3 1 2.79301 0.0168082 2.85089 0.734186 2.03504 1.12689 -0.85872 0.866752 -0.557467 Si
4 1 2.71372 2.79018 0.0772212 -0.836723 2.49614 4.5482 -0.239885 -0.334621 -0.333256 Si
7 2 4.13355 1.43314 1.41387 -0.144176 0.275445 -0.607501 -0.0604702 -0.527085 0.681857 Ge
34 1 5.57705 2.80132 2.73488 -4.18451 -0.497134 0.173813 -0.225663 -0.297465 0.228368 Si
2 1 -0.0353772 2.74899 2.83554 0.311802 4.66774 1.79156 -0.50682 0.526574 -0.306883 Si
35 1 8.34381 0.0348329 2.64968 -1.53855 0.431478 0.195696 -0.0816104 -1.35271 2.11923 Si
39 2 9.75226 1.35106 1.37555 0.604765 -1.40888 1.90051 0.151682 1.20751 -1.30781 Ge
6 2 1.30758 4.16318 1.45172 1.73509 0.00341816 0.291328 0.451032 0.669716 -0.409403 Ge
19 1 2.79477 5.60562 2.7148 -1.96767 1.5358 3.76384 -0.0866395 -0.985872 0.673915 Si
23 2 4.184 6.97009 1.34426 1.47669 -0.212743 -0.888596 -0.801541 -0.118015 0.0858202 Ge
38 2 6.97129 4.07501 1.2797 -1.55568 -0.394731 2.66366 -0.487721 1.15384 0.292188 Ge
49 1 5.58179 5.59797 0.015825 3.26901 2.37149 -1.36844 -0.288136 -2.02543 -1.40998 Si
51 1 8.33837 5.50823 2.60952 1.00815 0.322486 3.58656 -0.854684 0.94812 2.20604 Si
55 2 9.78448 7.00079 1.44439 -0.490121 1.28562 -0.281832 -0.52872 -0.309174 -0.0162219 Ge
20 1 2.73991 8.31571 0.0234558 -5.50993 2.7951 3.36256 0.370995 0.17673 -0.810229 Si
22 2 1.4292 9.72563 1.41307 2.02953 0.850961 0.12525 -0.7439 0.114787 0.348751 Ge
33 1 5.48455 -0.00166791 0.0723296 3.82934 -0.90618 1.07163 0.782949 0.10469 -0.900568 Si
50 1 5.45668 8.36826 2.72572 -1.6538 -3.12672 -1.15722 1.00844 0.0757855 1.3938 Si
54 2 6.92386 9.69037 1.40756 0.188385 -1.56045 2.2283 -0.0644487 0.168525 -1.01345 Ge
1 1 0.0327917 0.0020198 -0.0562722 -4.10542 -1.90858 1.60075 -0.165572 -0.882171 1.11684 Si
18 1 0.0752784 8.34335 2.88065 1.74953 -0.938203 -1.7096 0.760712 -0.26036 -1.08529 Si
5 2 1.35172 1.41942 4.2171 -0.300373 -3.09062 -1.60868 0.909339 -0.273974 -0.357958 Ge
9 1 -0.0210855 0.0757527 5.59848 -0.569554 4.55956 3.34212 0.0531086 -1.67312 -0.760027 Si
12 1 2.75319 2.8283 5.53825 -4.62419 -3.98977 1.848 0.989445 -0.731361 -1.02064 Si
15 2 4.10494 1.41013 6.91374 0.837311 -2.91568 2.8698 1.04016 -0.634503 -0.390459 Ge
37 2 6.95508 1.3554 4.07275 -1.19834 0.698588 -2.31039 -0.668649 0.302463 0.445478 Ge
41 1 5.53905 -0.031244 5.4764 0.814146 -0.752362 0.989945 0.487611 2.07281 1.52966 Si
44 1 8.24358 2.76025 5.529 0.151518 2.11674 -0.245431 0.125402 0.240219 0.152381 Si
47 2 9.65626 1.40328 6.91907 -1.52704 -2.12436 2.02036 -0.751234 -0.376749 0.363826 Ge
14 2 1.35565 4.09442 6.86846 1.05161 1.42275 2.9836 0.106362 1.27954 2.23734 Ge
21 2 1.49247 6.91553 4.22574 1.42523 -0.344676 -1.47584 -0.307605 0.650601 -0.127259 Ge
25 1 0.025844 5.49747 5.49855 -1.38575 -2.96117 -0.854442 -0.220564 0.253955 -0.228788 Si
8 2 4.1799 4.20335 4.11753 1.22573 2.9515 -0.614056 -0.202003 0.115148 0.304609 Ge
31 2 4.24661 6.95169 6.99785 1.39773 -1.85214 0.55087 -0.903405 -1.16618 0.328086 Ge
46 2 6.86579 4.14949 6.94549 -1.11476 -0.427087 -1.64151 0.187095 0.142254 -0.184883 Ge
53 2 6.88982 6.9532 4.05962 1.49501 1.70743 -0.356393 0.941044 -0.510986 -0.205763 Ge
57 1 5.55626 5.60879 5.53134 -0.774283 -2.93609 -0.56436 -0.0405454 -0.926654 -0.19699 Si
40 2 9.60791 4.17536 4.15811 0.0887989 -1.51075 -1.18664 0.874856 -0.431806 -0.527281 Ge
63 2 9.74706 6.90158 6.84039 -0.727651 0.0364507 1.78224 -1.27389 -0.485882 1.28412 Ge
28 1 2.89511 8.31683 5.64251 -1.38616 1.37309 -0.836091 -2.24393 0.274416 -0.190154 Si
30 2 1.31631 9.66813 6.96469 1.54122 3.05083 -0.652895 1.15445 0.499609 0.476993 Ge
24 2 4.13878 9.73985 4.22715 0.90226 1.93323 1.11482 0.152105 -1.34104 -1.51704 Ge
62 2 6.92805 9.70675 6.88054 -2.29823 0.82577 -0.514644 -0.626135 -1.22738 0.89479 Ge
56 2 9.74497 9.74861 4.11576 -0.271857 -0.472023 -2.62722 -1.49876 0.123291 1.53552 Ge
60 1 8.297 8.27179 5.54124 -0.0575536 -0.662865 3.13353 0.683066 1.16351 -1.8686 Si
13 2 1.43135 1.37144 9.71643 -0.455799 -2.42886 -0.0807153 -0.685787 0.665448 0.034673 Ge
42 1 5.48015 2.75286 8.3558 1.30636 -0.696373 3.45708 0.1638 -0.100905 -0.893932 Si
45 2 6.86755 1.30809 9.65044 0.368493 0.701928 -5.06546 0.464893 0.545719 1.19553 Ge
36 1 8.34813 2.70716 -0.0716358 0.613803 2.2414 1.6574 -0.00492494 -0.60861 -0.237746 Si
10 1 0.00138548 2.67252 8.29861 0.0999673 3.93203 -2.70191 0.393157 1.63567 0.2356 Si
17 1 -0.0660906 5.58088 0.0427061 -1.67668 0.193537 -1.11088 1.60687 -0.832148 -0.462942 Si
27 1 2.76571 5.53082 8.34299 -3.66787 4.6804 -4.11112 -0.262704 -0.558409 -1.1471 Si
29 2 1.36503 6.9078 9.71094 1.77588 -2.54299 1.83984 -0.442654 0.288327 0.398941 Ge
16 2 4.08588 4.08968 9.73973 -1.23027 -0.986775 -1.54119 1.23277 2.04314 0.666127 Ge
61 2 7.06524 6.88785 9.71211 1.31845 -0.920517 -2.16884 -1.57479 1.31763 1.02828 Ge
48 2 9.7462 4.14381 9.68592 1.75339 -0.0638903 -2.77226 -0.876479 -0.0254134 -0.597399 Ge
59 1 8.30593 5.54961 8.28446 -1.97609 0.923143 -1.04155 1.72687 -1.30848 -0.742636 Si
11 1 2.77628 0.0277485 8.34988 -1.51001 0.303861 -1.68734 -0.549292 -1.05129 -1.18558 Si
26 1 -0.101048 8.26152 8.35051 0.998001 2.22592 2.89899 1.34497 0.486169 -0.489986 Si
32 2 4.12911 9.73537 9.7341 -2.10457 0.533094 -0.498645 0.503296 -1.22438 0.0459435 Ge
58 1 5.58976 8.27405 8.39682 -1.19993 -3.03225 0.37996 0.62817 1.70889 -0.238796 Si
52 1 8.38874 8.3154 0.0616535 0.0861218 0.201786 -1.06735 -1.16787 0.0888334 -0.295418 Si
43 1 8.28805 -0.0378856 8.28584 3.66464 -2.05536 0.926581 0.00131957 0.498244 -0.189513 Si
64 2 9.64189 9.69932 9.70889 -0.0676015 1.20164 -1.75212 0.999789 0.173253 -0.0972664 Ge
ITEM: TIMESTEP
13700
ITEM: NUMBER OF ATOMS
64
ITEM: BOX BOUNDS pp pp pp
0.0000000000000000e+00 1.1085848640000000e+01
0.0000000000000000e+00 1.1085848640000000e+01
0.0000000000000000e+00 1.1085848640000000e+01
ITEM: ATOMS id type xu yu zu vx vy vz fx fy fz element
3 1 2.76144 -0.024393 2.67592 0.0415762 -4.17285 -2.59907 0.308911 -0.0148834 1.09361 Si
4 1 2.84842 2.75192 -0.0706101 1.72518 2.30786 -1.95877 -0.627656 0.648747 0.374199 Si
7 2 4.1722 1.38044 1.34062 0.68943 -0.445637 1.9715 0.185144 -0.11357 0.287074 Ge
34 1 5.53137 2.76357 2.78458 0.740056 0.257874 3.20379 0.127024 -0.313647 0.178487 Si
2 1 0.0387713 2.76748 2.7156 1.98088 -1.43339 -1.22644 -0.226109 0.358206 0.843248 Si
35 1 8.26938 -0.0263095 2.82735 2.41702 2.59466 -4.00371 0.0694245 1.00811 -0.897002 Si
39 2 9.62459 1.41967 1.43616 1.92492 -1.6153 3.07448 0.686921 -0.830836 -0.446875 Ge
6 2 1.42148 4.12563 1.31697 -1.10196 -1.0643 0.490897 0.520764 -0.258986 0.211424 Ge
19 1 2.73933 5.48694 2.78948 -1.39217 0.768316 -3.09093 -0.322022 0.579687 0.309476 Si
23 2 4.15871 6.92268 1.50032 -1.10669 0.180894 1.84925 0.560286 -0.13014 -1.30713 Ge
38 2 6.90368 4.23345 1.45475 -0.678628 -1.82108 3.16353 0.122921 -1.07961 -0.346409 Ge
49 1 5.48477 5.52598 0.0168316 -3.00538 5.32914 6.26978 0.912253 1.30113 0.696811 Si
51 1 8.32287 5.55864 2.86773 0.590617 -0.867405 -5.55743 0.479794 -0.668181 -1.01263 Si
55 2 9.64075 6.8483 1.31309 -0.944306 -0.270821 -0.711864 0.368034 0.974454 0.591679 Ge
20 1 2.84846 8.29483 -0.00134997 -1.46902 -0.12159 1.07128 -1.06241 0.304852 0.666918 Si
22 2 1.33078 9.65035 1.37192 -0.277947 0.387247 -1.08159 1.04094 0.132599 -0.519515 Ge
33 1 5.5485 0.0159101 -0.0451026 -3.93162 -0.906713 2.9412 0.420859 -0.524799 0.699694 Si
50 1 5.69487 8.30032 2.78032 0.450595 -2.58982 -2.03156 -1.82801 -0.375003 -0.41344 Si
54 2 6.97215 9.70643 1.33165 1.13609 -1.25221 1.48298 -0.723424 0.348887 0.552316 Ge
1 1 -0.012748 0.0083305 0.0471323 2.21299 5.97945 -1.93183 -0.585885 0.637948 -0.665509 Si
18 1 -0.104125 8.31596 2.72478 -5.54897 3.46766 5.43257 -0.243626 -0.516206 0.139012 Si
5 2 1.42576 1.40588 4.13338 -0.0819209 -1.37678 -2.89033 0.0632634 -0.965427 -0.0826455 Ge
9 1 0.0564571 -0.105184 5.48246 -1.79363 0.586628 0.258835 -0.203069 2.43237 0.716627 Si
12 1 2.8078 2.78445 5.57713 0.581849 2.55969 2.79203 -1.94444 -0.674159 0.15585 Si
15 2 4.14532 1.40317 6.94792 0.123706 0.00861349 0.445508 0.285632 -0.147373 0.287972 Ge
37 2 6.91367 1.36821 4.21746 1.84048 -0.924629 -0.369456 -0.339872 0.41241 -0.615478 Ge
41 1 5.50475 0.0183619 5.60872 -0.195308 -3.58602 -2.45961 0.345308 -1.45641 -1.15634 Si
44 1 8.36373 2.76753 5.51146 -1.29618 -1.14784 0.867481 0.303449 0.417545 0.5033 Si
47 2 9.7575 1.36233 6.88235 3.01728 0.860381 1.07728 -0.316448 -0.23077 0.667507 Ge
14 2 1.34004 4.16602 6.93515 -1.75976 -1.18052 -1.06257 1.25051 -0.229955 0.749127 Ge
21 2 1.29363 6.94266 4.11521 -0.560252 -3.01045 -2.14371 0.648747 -0.321968 -0.487995 Ge
25 1 0.0321314 5.59464 5.58665 0.00965423 2.21817 1.79135 -0.482639 -0.496423 -0.271825 Si
8 2 4.11188 4.09198 4.18447 0.415909 -0.704034 -2.26079 1.23606 1.34553 -0.552863 Ge
31 2 4.0537 6.95304 6.82197 0.22969 0.625744 -1.46267 1.17682 -0.463784 1.60223 Ge
46 2 7.00264 4.18487 6.93621 1.48103 0.903379 2.44094 -0.634781 -0.595963 -0.727191 Ge
53 2 6.91468 6.87331 4.22041 -2.25213 -0.969991 -0.257021 0.812627 1.06129 -0.118369 Ge
57 1 5.52325 5.5212 5.54955 1.78823 2.8798 -1.25452 -0.564213 -0.49486 0.291137 Si
40 2 9.81411 4.18765 4.17913 -0.292817 0.392638 -0.187543 -1.09939 -0.566661 -0.367171 Ge
63 2 9.73724 6.90537 7.00104 1.64199 -0.657869 -0.389381 -0.615298 1.36047 -0.804171 Ge
28 1 2.67583 8.31889 5.45766 3.12233 -1.90363 -0.108611 1.24604 0.076353 -0.441623 Si
30 2 1.43067 9.69108 6.91522 -0.963202 -0.297284 -1.01674 -0.24969 0.136915 -0.161512 Ge
24 2 4.18166 9.63098 4.06423 -0.860541 2.06843 -0.738163 -0.209428 1.56253 1.34519 Ge
62 2 6.96977 9.73855 7.0044 1.81793 4.07351 1.28411 -0.8182 -0.218517 -1.37534 Ge
56 2 9.64547 9.72434 4.17607 1.53788 1.08496 -2.98801 0.585815 -1.49911 -0.716227 Ge
60 1 8.30399 8.31201 5.54322 -2.58899 -3.94793 3.13914 0.296357 -0.400919 1.66358 Si
13 2 1.36666 1.43702 9.68917 1.99291 -1.11739 -2.14703 0.365157 -1.55352 0.0595639 Ge
42 1 5.59906 2.76809 8.26418 -1.82594 1.68374 2.67594 0.324749 0.0861784 0.986841 Si
45 2 6.96417 1.42708 9.76689 1.15293 -1.87787 -2.55264 -1.0235 -0.066223 -1.58339 Ge
36 1 8.26759 2.81357 0.0318588 2.03701 2.05385 0.3359 0.434205 0.78206 1.09515 Si
10 1 -0.0593119 2.81599 8.35924 -1.89095 -4.07713 3.93628 0.312362 -0.442416 -1.03847 Si
17 1 0.0599394 5.50679 -0.0413959 -4.91724 2.48439 1.49123 -0.931747 1.0434 0.1072 Si
27 1 2.79103 5.51443 8.34532 2.23304 -0.638297 6.70017 -0.573013 0.907629 -1.1524 Si
29 2 1.4037 6.98521 9.68279 2.35419 -1.79408 -2.04964 0.863399 -1.3019 0.498732 Ge
16 2 4.2435 4.15867 9.66953 -0.959843 -0.865185 -2.68442 -1.00018 -0.733718 -0.300343 Ge
61 2 6.83471 6.93894 9.66661 1.64454 -0.218679 -0.39418 0.337556 -0.604665 0.139002 Ge
48 2 9.64743 4.19482 9.7353 0.79817 1.69975 0.158777 0.734144 -0.845356 0.276581 Ge
59 1 8.3235 5.53972 8.36261 -3.53169 2.86505 4.00412 -0.663295 1.04519 -0.315468 Si
11 1 2.79996 -0.0260428 8.30579 2.12859 3.381 2.72613 -0.694136 0.909395 0.566165 Si
26 1 0.0669773 8.35814 8.30999 -2.84509 -1.12726 0.0874352 -1.2466 -0.353081 0.183945 Si
32 2 4.20077 9.67794 9.67253 -1.45606 2.37519 -1.06889 -0.694862 0.754378 0.45778 Ge
58 1 5.50236 8.34568 8.2644 -3.43056 -1.45825 0.827851 0.00309586 -1.1567 -0.697369 Si
52 1 8.24372 8.2925 -0.0566564 2.67814 -0.695802 2.93992 1.12035 -0.498583 0.193421 Si
43 1 8.31387 0.0519145 8.3677 -2.03361 0.866775 0.546461 1.37399 -0.271934 -0.22553 Si
64 2 9.70506 9.67551 9.72456 -3.94538 1.54051 0.261173 0.00102292 0.788001 -0.390631 Ge
ITEM: TIMESTEP
13800
ITEM: NUMBER OF ATOMS
64
ITEM: BOX BOUNDS pp pp pp
0.0000000000000000e+00 1.1085848640000000e+01
0.0000000000000000e+00 1.1085848640000000e+01
0.0000000000000000e+00 1.1085848640000000e+01
ITEM: ATOMS id type xu yu zu vx vy vz fx fy fz element
3 1 2.77802 0.0444832 2.88993 -1.36265 2.46799 2.73867 -0.505098 -0.727002 -1.49829 Si
4 1 2.71259 2.73448 0.0572407 -0.450251 -2.59976 2.56543 0.88906 1.07403 -0.00848916 Si
7 2 4.13902 1.3948 1.39668 -1.92177 1.67114 1.54802 0.371127 -0.770017 0.369106 Ge
34 1 5.59723 2.76201 2.71625 0.232405 3.9718 -5.07974 -0.56263 0.752781 0.496318 Si
2 1 -0.0673683 2.73925 2.81744 -0.563272 0.421674 -0.584251 0.635937 0.59074 -1.04045 Si
35 1 8.32994 0.00329136 2.76492 -4.28106 -2.93263 2.84606 0.697386 -0.154656 -0.0427139 Si
39 2 9.70394 1.35335 1.3305 -2.09823 -0.842882 0.667088 0.473501 -0.435093 0.591798 Ge
6 2 1.37725 4.1741 1.43689 -0.887575 0.80544 1.62499 -0.296879 -0.530808 0.467582 Ge
19 1 2.8275 5.56883 2.78449 1.88081 -0.0425655 2.46761 -0.698062 0.0499725 -0.198526 Si
23 2 4.1464 6.92874 1.29724 0.602739 -0.240539 2.98669 0.581436 -0.425734 0.488446 Ge
38 2 6.96281 4.14086 1.2981 1.0345 3.50791 -1.07965 0.00267756 -0.245394 1.16811 Ge
49 1 5.60778 5.49345 -0.0650282 0.0690692 -4.35864 -3.8414 -1.28877 1.06696 1.01146 Si
51 1 8.29646 5.52449 2.73521 0.572156 1.11551 2.95371 -0.0405677 0.447519 0.00242162 Si
55 2 9.72314 6.96681 1.45133 0.916262 -1.1865 0.492324 -0.406438 -0.901521 -1.47773 Ge
20 1 2.76593 8.30431 -0.0666389 3.88367 -1.25641 -1.7008 -0.72337 0.229274 0.174005 Si
22 2 1.43285 9.69905 1.40479 1.20098 -0.951378 3.28782 0.550483 0.268447 -0.368679 Ge
33 1 5.54861 -0.00737097 -0.00562724 -1.21709 2.96274 -2.22327 -1.32462 0.378395 0.492933 Si
50 1 5.39197 8.37838 2.77692 3.62775 6.81356 -0.993996 2.23035 -1.40871 -0.914736 Si
54 2 6.87628 9.76633 1.44826 2.60484 0.424967 -1.50097 0.319435 -1.31357 -0.683708 Ge
1 1 0.0265968 -0.0627478 -0.0601014 0.691009 -5.90716 0.996202 0.521329 1.14842 0.614335 Si
18 1 0.134606 8.22661 2.74258 3.65214 -0.479246 -1.63985 -1.47611 2.15748 1.95718 Si
5 2 1.33588 1.40604 4.21455 -1.36292 2.21934 0.581393 0.168686 -0.0191768 -1.13695 Ge
9 1 0.00504534 0.0679028 5.58472 2.87978 -4.64746 -0.208503 -0.648724 -1.71732 0.279925 Si
12 1 2.76047 2.75804 5.46271 3.82659 4.33746 -1.62332 1.35478 0.977346 1.44901 Si
15 2 4.17308 1.39693 6.9193 -1.26983 -1.46735 1.67123 -0.486473 -0.51129 -0.914922 Ge
37 2 6.97577 1.37983 4.10833 -1.63898 -1.28707 -1.45195 -0.367293 0.575848 1.08093 Ge
41 1 5.55941 -0.0106836 5.4863 -2.71607 2.63331 4.06615 -0.18185 0.135484 0.9197 Si
44 1 8.30613 2.7868 5.5999 -1.84797 0.905159 -2.84884 -0.972362 -0.13516 -0.81369 Si
47 2 9.64999 1.38424 6.96667 -1.99399 -2.47399 -0.540907 1.4329 0.68571 -0.596168 Ge
14 2 1.44698 4.18843 6.86913 -1.82748 3.05496 1.41827 -0.853281 -0.839787 -0.897507 Ge
21 2 1.44696 6.92723 4.24277 1.39994 1.4234 2.10524 0.0994392 -0.783093 -1.06988 Ge
25 1 -0.0179369 5.50661 5.50623 2.09372 -0.882574 0.712835 0.0591878 0.763129 0.627152 Si
8 2 4.20366 4.19431 4.14908 2.05735 -0.293512 -2.15257 -0.0969502 -1.3595 -0.529399 Ge
31 2 4.22018 6.93889 7.01088 -2.91361 -1.54477 1.34256 -0.411122 0.173408 -1.05785 Ge
46 2 6.86583 4.1649 6.97015 -0.688385 1.59629 1.51562 1.15865 -0.173382 -0.299714 Ge
53 2 6.90212 6.94673 4.08114 -1.55129 -2.19477 -2.67347 -0.531057 0.267504 1.34239 Ge
57 1 5.51739 5.53976 5.5895 -0.978974 0.192987 2.94424 1.03916 0.985991 -0.952484 Si
40 2 9.63943 4.15672 4.15499 1.97903 2.99813 -0.737526 0.274141 -0.288061 0.152782 Ge
63 2 9.65249 6.90396 6.90082 -0.547627 -5.96047 -0.641805 0.827947 0.120905 -0.919553 Ge
28 1 2.8251 8.30243 5.6031 -2.06664 1.67177 3.15307 -0.720286 -0.327425 0.939506 Si
30 2 1.3842 9.68085 6.94416 2.28978 1.72916 3.04744 -0.439275 0.248627 -0.542745 Ge
24 2 4.10974 9.66066 4.22136 0.203571 -2.9755 -2.54727 0.164067 1.68564 -0.237171 Ge
62 2 6.89102 9.64488 6.90554 3.09144 0.811166 1.92047 1.27518 1.58222 -0.216992 Ge
56 2 9.74119 9.71259 4.16245 -0.883489 3.08123 0.696523 1.08386 -0.317552 -0.811238 Ge
60 1 8.33725 8.35135 5.5252 -1.56133 2.04112 -4.63053 -0.949302 -1.22051 -0.703274 Si
13 2 1.45417 1.39858 9.68532 -1.50817 2.6311 -1.75296 -1.72816 -0.753363 -0.3318 Ge
42 1 5.53006 2.75425 8.32776 0.777011 -0.101244 -2.4015 -0.836816 0.427958 0.61966 Si
45 2 6.87283 1.3712 9.71044 -0.740258 -1.45523 -0.608968 1.6776 -0.403789 -0.759731 Ge
36 1 8.31783 2.72161 -0.0121295 -5.79253 -3.43882 -4.07213 0.261043 0.498888 -1.1327 Si
10 1 0.0928233 2.77737 8.22615 -0.87133 2.12663 -0.422156 -1.26672 0.135003 1.6425 Si
17 1 0.00875097 5.55362 0.0329679 4.23608 -2.88396 0.21187 -1.1427 -0.23823 -0.0490385 Si
27 1 2.7575 5.55468 8.23427 -1.7804 -1.50285 1.27265 0.156139 0.126546 3.09105 Si
29 2 1.26165 6.94601 9.67078 -1.91351 0.901545 -1.06871 2.32248 -0.581443 -0.522322 Ge
16 2 4.11956 4.12431 9.76703 1.02876 -0.162629 -0.954708 -0.318164 0.250452 -1.8656 Ge
61 2 6.98736 6.94247 9.75643 2.49387 -0.30668 -1.35492 0.378543 -0.258952 -1.20571 Ge
48 2 9.71155 4.15546 9.67958 0.77332 0.900792 -3.77816 0.759849 -0.604814 -0.0943343 Ge
59 1 8.33595 5.54475 8.28277 0.770107 -2.47466 -1.52435 -1.03343 -0.176695 1.18264 Si
11 1 2.75726 -0.00867526 8.28672 1.85628 -3.57402 -0.191443 1.03447 0.203725 0.181721 Si
26 1 -0.0719418 8.29194 8.25711 1.22911 0.44624 2.27916 0.625985 0.138584 -0.0191916 Si
32 2 4.15811 9.70917 9.67864 1.69882 -1.89325 -2.55998 0.415778 -0.246716 -0.210169 Ge
58 1 5.6227 8.30996 8.34711 2.99753 2.23362 3.561 -1.14004 -0.132333 0.765047 Si
52 1 8.32246 8.37231 0.0392901 -3.72342 2.49263 -0.769157 0.220505 -0.0059201 0.585822 Si
43 1 8.32265 -0.0242563 8.28373 -3.76892 -0.981346 2.81309 -1.54842 -0.21568 0.904723 Si
64 2 9.72749 9.68124 9.6482 -0.51487 -2.04477 0.179236 -1.06813 0.075722 0.525201 Ge
ITEM: TIMESTEP
13900
ITEM: NUMBER OF ATOMS
64
ITEM: BOX BOUNDS pp pp pp
0.0000000000000000e+00 1.1085848640000000e+01
0.0000000000000000e+00 1.1085848640000000e+01
0.0000000000000000e+00 1.1085848640000000e+01
ITEM: ATOMS id type xu yu zu vx vy vz fx fy fz element
3 1 2.81275 0.00558631 2.65681 3.35078 1.21636 -0.773162 0.0190648 0.36882 2.07762 Si
4 1 2.8002 2.80621 -0.052368 0.692807 -2.79195 -2.20511 -0.699489 -1.33013 0.810565 Si
7 2 4.17977 1.38587 1.31168 2.55728 -0.482647 -0.334909 -0.0202782 0.708288 0.473672 Ge
34 1 5.45157 2.75687 2.83297 -0.014779 -7.59594 2.75966 0.345806 0.61893 -0.900471 Si
2 1 0.0556789 2.80741 2.75072 -2.39273 -3.91089 2.90945 -0.0778468 -0.743912 0.743161 Si
35 1 8.35757 0.00418108 2.74622 -0.569725 1.9015 -1.05843 -1.9422 0.00603855 0.202284 Si
39 2 9.68603 1.43634 1.46418 -0.79863 0.875952 2.22265 0.500972 0.494939 -1.02395 Ge
6 2 1.4217 4.15363 1.34922 1.70189 0.162593 -0.659971 -0.831909 0.248602 -0.606133 Ge
19 1 2.72556 5.54014 2.7359 1.88535 -0.0780539 -1.83811 0.883485 0.645813 0.397375 Si
23 2 4.21581 6.92941 1.41677 -0.667822 0.658302 0.405842 -1.49859 0.0756814 0.198496 Ge
38 2 6.901 4.12888 1.43735 -2.68622 -0.516326 3.6387 -0.111392 0.315086 -0.49302 Ge
49 1 5.53633 5.56911 0.0290545 1.20712 -1.34056 -2.06605 0.498257 -1.30852 -0.668041 Si
51 1 8.31774 5.54035 2.76729 -2.10885 -1.21236 1.12208 0.23406 -0.246359 0.0815495 Si
55 2 9.70143 6.90543 1.34696 -3.10014 0.441117 0.252386 0.450589 0.234064 0.994953 Ge
20 1 2.74974 8.35067 0.0870509 2.58329 -0.315334 1.70836 1.01733 -0.280803 -0.0631765 Si
22 2 1.35503 9.76652 1.40458 -1.41977 0.776866 0.992926 -0.848508 -1.01988 0.11765 Ge
33 1 5.5843 -0.0103854 0.00522957 4.26386 -2.23475 -0.420538 0.301348 0.289358 -0.526112 Si
50 1 5.63835 8.20458 2.81485 -6.48977 -0.684372 5.268 -1.5639 3.02346 0.101903 Si
54 2 6.93848 9.66037 1.39268 -0.513367 1.50019 2.59945 1.10935 -0.517282 -0.452175 Ge
1 1 -0.0657852 0.0707231 0.0879328 -1.92637 0.498972 -0.677709 0.0481872 -1.56762 -0.752916 Si
18 1 -0.0751349 8.39124 2.81541 2.6181 -6.40042 -6.04219 1.74749 -1.91976 -2.21273 Si
5 2 1.41475 1.34293 4.13118 -0.276987 -3.34886 -1.88917 -0.33474 0.0213472 -0.0565863 Ge
9 1 -0.0457095 -0.0453765 5.51071 0.197568 4.38234 -0.869488 0.887326 0.889403 -0.042952 Si
12 1 2.74505 2.69693 5.61417 -4.08755 -5.64315 -1.0829 -0.567695 1.07258 -1.14804 Si
15 2 4.11367 1.38355 6.9738 1.40257 0.0555742 4.10085 0.898257 -0.610922 0.0197392 Ge
37 2 6.92796 1.40033 4.11394 0.877347 -1.13871 -3.96385 0.117695 -0.651341 0.387256 Ge
41 1 5.56867 0.0603877 5.57164 0.659303 1.8219 -3.39286 -0.70244 -0.237604 -0.222896 Si
44 1 8.32892 2.74967 5.47464 5.19237 -1.50087 4.89865 -0.000473187 -0.0995623 0.501053 Si
47 2 9.7059 1.39477 6.89012 0.49611 -1.58088 3.13116 -0.42794 -0.634468 0.170862 Ge
14 2 1.34348 4.09586 6.95142 0.452659 1.75208 0.762016 0.0992932 1.06271 0.489867 Ge
21 2 1.36963 6.94306 4.12179 -3.33584 -1.04221 0.365562 -0.598854 0.339973 -0.0041996 Ge
25 1 -0.0107977 5.56914 5.52615 0.313058 -0.0535272 -1.13542 0.216231 -0.569067 0.728603 Si
8 2 4.04292 4.18509 4.20981 -2.23238 1.23946 0.126437 0.879408 -0.83098 -0.60963 Ge
31 2 4.17525 6.97244 6.8415 0.150971 1.3045 -1.16194 -0.815791 -1.59662 0.0567341 Ge
46 2 6.94941 4.11322 6.85249 -0.313883 1.08906 1.70376 -0.510287 0.576538 0.405864 Ge
53 2 7.00145 6.93921 4.19583 1.99554 -1.66721 -1.88378 0.896578 -0.840619 -0.540155 Ge
57 1 5.59225 5.55273 5.43439 -3.00225 -0.790404 -0.408295 -1.03059 -0.394388 2.10679 Si
40 2 9.70711 4.12454 4.1333 2.17334 1.25771 -0.453674 0.391476 1.1717 -0.0438156 Ge
63 2 9.79804 7.01205 7.01941 1.45562 -0.142652 4.66808 -1.04936 -1.90147 -1.44039 Ge
28 1 2.7308 8.33659 5.50532 0.474351 -0.311383 -3.95904 0.701308 0.396968 -0.144931 Si
30 2 1.3424 9.68044 6.91662 1.8437 -0.790014 -2.29933 1.16467 0.87298 -0.361525 Ge
24 2 4.18551 9.76683 4.16994 -1.31661 -1.1164 -0.737542 0.271165 -1.47032 -1.04265 Ge
62 2 6.85601 9.6939 6.95244 -3.56435 0.0529033 3.70006 1.76478 -0.140824 -0.689628 Ge
56 2 9.67847 9.7191 4.10245 -0.447223 1.34171 -0.77794 -0.780627 0.0760516 1.9848 Ge
60 1 8.38004 8.30687 5.5678 3.66282 4.30584 5.03643 -0.803388 1.18824 0.63345 Si
13 2 1.35104 1.32084 9.78892 4.68097 -0.508218 -1.31762 0.293897 1.69023 -1.30977 Ge
42 1 5.52824 2.76012 8.30647 0.723967 -2.57802 -2.15758 0.454636 0.580356 -0.220848 Si
45 2 6.9614 1.40985 9.66691 0.521113 -0.36107 -0.390926 0.147982 -0.34696 0.869157 Ge
36 1 8.36887 2.80429 0.015825 3.13259 1.0608 5.97493 -2.21927 -0.907304 0.755368 Si
10 1 -0.0602258 2.72369 8.37641 3.02732 -1.11182 -3.0915 0.740805 0.232114 -0.10754 Si
17 1 -0.0242853 5.51489 -0.0458818 2.39273 0.0593828 -0.613995 1.02198 0.302062 0.980454 Si
27 1 2.80866 5.54578 8.31731 2.74544 -1.24853 -10.0662 -0.285144 -0.0721392 -0.886775 Si
29 2 1.47275 6.91508 9.7794 -1.30159 -0.131172 -0.992168 -0.894393 0.0622112 -1.06773 Ge
16 2 4.16388 4.15445 9.70745 0.348602 -0.0272981 0.212883 0.828669 0.762412 -0.539426 Ge
61 2 6.88323 6.87077 9.61049 -0.890595 0.561202 1.04464 0.509969 0.694448 0.661469 Ge
48 2 9.64285 4.15713 9.72919 -3.00765 3.25237 0.367574 1.22704 0.0652294 -1.228 Ge
59 1 8.34005 5.50602 8.26965 4.33363 1.0022 0.808801 -0.39136 0.52558 -0.225542 Si
11 1 2.72603 -0.00549341 8.3278 -3.71196 1.30498 -1.57769 -0.0675386 -0.533997 0.475616 Si
26 1 0.120365 8.32085 8.34422 -0.122689 1.36398 -2.97504 -0.865368 0.0978464 1.60769 Si
32 2 4.12953 9.72528 9.76417 -2.36508 2.82908 -0.761621 -0.0124377 -0.614635 -1.06752 Ge
58 1 5.45463 8.30358 8.27426 0.975942 -0.553064 -4.39859 0.709672 0.5993 1.3339 Si
52 1 8.35178 8.23185 -0.0614082 -2.43334 -0.876866 -2.39909 -1.42496 1.21671 -0.185005 Si
43 1 8.32886 -0.00735273 8.28582 5.77858 2.36968 -4.1724 -0.405806 0.0693685 -0.0822564 Si
64 2 9.72258 9.71284 9.6809 -1.44906 1.41521 -2.2706 0.403801 -0.207955 0.59864 Ge
ITEM: TIMESTEP
14000
ITEM: NUMBER OF ATOMS
64
ITEM: BOX BOUNDS pp pp pp
0.0000000000000000e+00 1.1085848640000000e+01
0.0000000000000000e+00 1.1085848640000000e+01
0.0000000000000000e+00 1.1085848640000000e+01
ITEM: ATOMS id type xu yu zu vx vy vz fx fy fz element
3 1 2.68892 -0.0825721 2.84103 -1.06488 -1.22588 -2.35191 0.452649 0.878848 -1.62225 Si
4 1 2.76196 2.78206 0.0227296 -0.164585 3.61378 -1.08424 0.0269279 -0.130862 -0.689153 Si
7 2 4.06767 1.37446 1.42454 -2.75598 0.806331 1.03365 1.20755 -0.137952 0.620689 Ge
34 1 5.63988 2.80953 2.72345 0.397427 2.75442 -0.365281 -0.483603 -2.00655 0.971566 Si
2 1 0.0104008 2.77902 2.74713 2.271 4.48458 -1.77871 -1.22613 -0.522924 0.244376 Si
35 1 8.30793 0.0132735 2.81396 7.29697 -3.08825 -0.483601 0.743906 -0.0600714 0.290193 Si
39 2 9.71728 1.31681 1.35927 -0.327021 -1.64885 3.35013 -0.00277421 1.03545 -0.191858 Ge
6 2 1.364 4.14557 1.36379 -0.814622 -0.0143405 2.23812 0.331986 0.786343 0.503877 Ge
19 1 2.76076 5.5025 2.80369 -3.65168 -3.63866 0.624723 0.591229 -0.636202 -0.789393 Si
23 2 4.07008 6.89378 1.37922 1.82025 -0.962564 -1.49479 0.404284 0.702124 -0.829887 Ge
38 2 6.9895 4.21161 1.35837 2.15092 -0.844868 -0.108563 -0.421597 -0.510633 0.218989 Ge
49 1 5.54132 5.55685 0.0467718 1.6603 0.340668 2.78938 -0.455013 0.0520601 -0.718313 Si
51 1 8.33635 5.5319 2.78319 0.911686 -0.850894 -3.14555 -1.24524 0.816475 0.86887 Si
55 2 9.72017 6.89664 1.43508 0.93118 -0.00691588 1.9152 -0.765854 1.11302 -0.663274 Ge
20 1 2.73928 8.29336 -0.11238 -4.52263 1.03941 -4.61913 0.619323 -0.259776 0.489197 Si
22 2 1.37631 9.63102 1.29767 2.28821 2.50702 1.35355 0.181552 1.00169 0.81647 Ge
33 1 5.48103 0.00885492 0.00777254 -0.536772 -0.121099 0.60774 0.455404 0.0112088 0.292062 Si
50 1 5.49975 8.34765 2.64793 4.17581 -5.26007 -3.761 -0.334622 -1.34996 1.99196 Si
54 2 6.92706 9.75403 1.43089 -1.1891 0.975547 2.95554 -0.14058 0.262317 -1.34058 Ge
1 1 0.0648594 -0.011329 -0.0975842 0.752296 3.6264 0.455495 -0.396362 0.335583 1.21858 Si
18 1 0.0189078 8.29354 2.74616 -3.06724 6.98671 9.42523 -0.223195 0.259932 0.572211 Si
5 2 1.38478 1.4349 4.16181 -0.789043 -0.282052 0.0406006 0.0530962 -0.453632 0.0610975 Ge
9 1 0.0351384 0.033403 5.56673 -1.99913 -3.4597 -0.305139 -0.724615 -0.421735 -0.361652 Si
12 1 2.80601 2.85483 5.47172 2.89118 -2.13787 -0.772143 0.380866 -1.56027 0.616658 Si
15 2 4.20212 1.40134 6.84114 -1.67328 -0.921679 0.573281 0.291651 0.284756 0.849293 Ge
37 2 6.99755 1.37796 4.28564 1.0622 0.385738 -3.70079 -1.88767 0.00451512 -2.47686 Ge
41 1 5.55786 -0.127875 5.51404 2.84736 -0.0379012 0.732601 0.193609 2.08377 0.464165 Si
44 1 8.29 2.80855 5.59282 -3.16561 2.08588 -3.48482 0.801953 -0.256134 1.04013 Si
47 2 9.72448 1.42032 6.93493 -0.991599 -0.467259 1.33234 -0.52169 -0.239631 0.847016 Ge
14 2 1.43597 4.17626 6.8953 -1.24618 0.260904 -0.948832 -0.419978 0.532007 0.661363 Ge
21 2 1.41662 6.90577 4.11442 3.83077 -0.65044 2.14385 -1.10333 0.0162102 1.525 Ge
25 1 -0.0318357 5.51912 5.55775 -1.81194 0.280523 -3.45177 0.180298 0.494384 -0.889398 Si
8 2 4.26818 4.14041 4.13565 2.08332 2.95642 -1.6108 -0.890709 0.871523 -0.0650279 Ge
31 2 4.16379 6.89295 6.96674 1.46617 1.29564 2.24479 -0.224528 0.385827 0.353584 Ge
46 2 6.95977 4.19229 7.01493 -0.257421 0.584521 2.56919 -0.277248 -0.424823 -0.381731 Ge
53 2 6.80171 6.919 4.16587 -3.80131 0.496945 -2.66814 0.905546 -0.505207 -1.22022 Ge
57 1 5.54956 5.4849 5.64611 4.74334 -1.97859 -3.87204 -0.232813 0.751372 -1.26369 Si
40 2 9.63497 4.12125 4.1738 -2.83474 -0.689409 -2.00101 1.58323 0.317044 -0.342311 Ge
63 2 9.59122 6.90865 6.88871 0.348788 -0.481669 1.02661 0.87294 0.131335 0.749437 Ge
28 1 2.80061 8.27737 5.53977 -1.48371 -1.01779 1.41733 -0.742389 0.0784754 0.489907 Si
30 2 1.38083 9.70819 6.96264 -2.16635 0.517196 2.336 0.424985 -0.620067 -0.520025 Ge
24 2 4.14785 9.64504 4.12935 -1.9118 1.93775 2.36363 0.00613021 -0.156933 -0.0292112 Ge
62 2 7.01679 9.71474 6.91217 -1.39384 0.703287 2.47202 -1.78493 -1.12923 1.08189 Ge
56 2 9.69378 9.67914 4.17943 1.83086 2.59336 -4.48188 0.334564 -0.100288 -0.0455922 Ge
60 1 8.22195 8.25634 5.51119 3.66474 -4.86569 -6.49633 1.28237 0.910316 -0.398998 Si
13 2 1.41798 1.43069 9.65192 0.577366 -2.72025 1.32839 0.707198 -0.559825 0.0493264 Ge
42 1 5.57146 2.83397 8.35202 0.0781629 -0.529117 3.00597 -0.819761 -1.45188 -1.0835 Si
45 2 6.88238 1.42374 9.73802 -1.11451 0.0701874 -3.11268 0.0813415 -0.942749 -0.363729 Ge
36 1 8.2757 2.76667 -0.0103312 3.24057 -1.93928 -5.55404 2.04905 0.172162 0.230304 Si
10 1 0.0468783 2.82441 8.30097 1.14452 -0.31778 0.33233 -0.13527 -0.444362 -0.523198 Si
17 1 -0.0165536 5.57908 0.0257526 -3.53685 0.127109 -0.874094 0.63414 -0.484197 -0.59801 Si
27 1 2.73726 5.56514 8.38455 -1.44966 0.945775 4.30212 0.619048 -0.630093 -1.31561 Si
29 2 1.29153 6.95656 9.62931 -0.39276 -1.66673 1.28536 0.320714 -0.424802 1.25115 Ge
16 2 4.17278 4.15185 9.719 -2.54409 -0.793563 2.71408 -0.532605 0.795533 0.785606 Ge
61 2 6.88594 6.97859 9.74387 2.32021 -1.52147 -1.3175 0.798464 0.188032 1.258 Ge
48 2 9.76384 4.16821 9.70695 -0.359592 0.427918 -1.26672 -2.11186 0.495858 -0.0193071 Ge
59 1 8.23576 5.61566 8.37396 0.388944 -2.39958 -4.59999 1.96991 -1.08249 0.324448 Si
11 1 2.84736 0.01207 8.28638 1.16988 -0.901683 -1.75778 -0.763538 0.450148 -0.37306 Si
26 1 -0.102874 8.31362 8.30292 2.5485 -2.59205 -4.52495 0.889625 -0.223027 -1.67354 Si
32 2 4.20763 9.67293 9.62538 0.060807 1.56393 -0.0309376 -0.954469 0.568362 1.32584 Ge
58 1 5.57574 8.30154 8.32853 -1.92272 0.558319 -1.33059 0.351977 0.442976 -1.66789 Si
52 1 8.34126 8.37825 0.0587058 7.23054 -2.95138 2.45065 -0.171334 -1.01902 -0.268356 Si
43 1 8.30257 0.00222459 8.37742 -0.845018 -0.893312 1.51199 0.95743 0.94584 -0.689421 Si
64 2 9.75119 9.69264 9.69956 -1.24195 0.756644 -2.10959 -1.71123 0.569827 0.351793 Ge
ITEM: TIMESTEP
14100
ITEM: NUMBER OF ATOMS
64
ITEM: BOX BOUNDS pp pp pp
0.0000000000000000e+00 1.1085848640000000e+01
0.0000000000000000e+00 1.1085848640000000e+01
0.0000000000000000e+00 1.1085848640000000e+01
ITEM: ATOMS id type xu yu zu vx vy vz fx fy fz element
3 1 2.82355 0.0861349 2.75917 -1.29258 -3.48724 2.81611 -0.411427 -1.1848 0.790481 Si
4 1 2.7483 2.75944 0.0153485 2.46685 0.159391 1.21102 0.494146 0.61714 -0.504951 Si
7 2 4.20217 1.3892 1.35002 -2.75984 0.639878 -1.0687 -0.859524 0.52803 0.0767123 Ge
34 1 5.47997 2.76636 2.78886 0.742408 3.07623 -3.30889 0.790265 1.29132 -0.325991 Si
2 1 -0.0507801 2.73018 2.77664 3.35677 0.0589856 -3.00143 1.3919 1.305 0.0561985 Si
35 1 8.25977 0.0149803 2.74047 -5.45859 4.16688 -0.834712 0.998196 -0.450444 -0.0799098 Si
39 2 9.69242 1.39068 1.35599 -2.36163 -2.02316 3.45624 -0.69876 -0.458549 0.769002 Ge
6 2 1.4076 4.18915 1.4188 1.72016 -1.07436 -2.60246 -0.169278 -0.958982 0.145942 Ge
19 1 2.83355 5.61717 2.73306 -0.104048 4.32131 0.971991 -1.60131 -0.985973 1.20615 Si
23 2 4.22955 6.96082 1.44775 -0.26426 -1.21082 5.77882 0.784043 -0.0507654 -0.482162 Ge
38 2 6.90159 4.19237 1.33707 -0.94321 4.3072 2.72556 -0.463553 -0.30976 0.865606 Ge
49 1 5.48113 5.56608 -0.0798674 0.580691 2.95981 -0.746975 1.18061 -0.227006 0.928485 Si
51 1 8.29606 5.59198 2.77773 4.36625 -1.55962 -0.0884252 1.65794 -1.59503 -1.27884 Si
55 2 9.74016 6.93024 1.33975 0.835638 -3.97874 0.0922749 -1.05983 -0.0450723 -0.0367583 Ge
20 1 2.83143 8.30241 0.140823 0.389735 0.165957 4.17738 -1.25116 0.653507 -1.60753 Si
22 2 1.40079 9.7252 1.46935 -1.44054 -1.9045 -0.310552 0.883512 -0.0658136 -0.55445 Ge
33 1 5.53812 -0.000934732 -0.0118752 -1.16071 -0.623176 -0.531867 0.43784 -0.629341 -0.275656 Si
50 1 5.58641 8.34557 2.86993 2.1907 2.78773 -5.05354 1.11027 -0.424989 -1.91561 Si
54 2 6.94314 9.68072 1.33218 3.31738 0.908524 2.18846 -1.16018 0.208283 1.15425 Ge
1 1 -0.0025437 -0.0456536 0.0821398 0.762767 -2.31105 -2.58521 0.00554967 0.53062 -1.28606 Si
18 1 0.0165394 8.31012 2.74219 1.45001 -3.0857 -6.25035 -0.940639 0.537983 1.17001 Si
5 2 1.39913 1.40847 4.18219 -0.168617 -0.134248 -1.55903 -0.252655 -0.266184 0.174832 Ge
9 1 -0.0130139 -0.0298486 5.54637 3.88995 2.89216 2.13107 0.606766 0.434569 0.0363702 Si
12 1 2.77113 2.78275 5.62566 -3.62534 5.50925 1.20712 -0.82711 -0.489133 -0.954001 Si
15 2 4.11302 1.398 6.98409 -0.998948 -1.27863 2.36327 -0.938977 -0.639986 -0.149536 Ge
37 2 6.88329 1.3624 4.13097 1.49638 -0.913232 3.46412 0.0616419 0.918576 0.334233 Ge
41 1 5.48919 0.104336 5.59526 -0.273437 -7.52229 -2.02641 0.673986 -2.14371 -0.836592 Si
44 1 8.3043 2.73096 5.50981 1.99994 -1.95251 -3.96778 -0.414767 0.7437 -1.35896 Si
47 2 9.63451 1.37397 6.85424 -0.349172 -1.8187 -1.62786 0.832822 -0.811735 1.08083 Ge
14 2 1.37568 4.09313 6.98259 -0.241254 1.29054 2.50806 -0.663772 1.08212 0.113664 Ge
21 2 1.40474 6.96573 4.13474 -1.03039 1.43046 -3.58162 0.732552 0.0422846 0.712829 Ge
25 1 0.0603498 5.56918 5.56754 1.13228 -2.24445 2.47714 -0.128914 -0.711026 -0.302878 Si
8 2 4.04874 4.17485 4.192 0.779518 -0.439852 1.15555 1.87946 0.372241 -0.525101 Ge
31 2 4.17416 6.93529 6.93927 -1.123 -1.23679 -2.6157 -0.459391 0.543248 0.563951 Ge
46 2 6.89299 4.12173 6.80164 1.5268 1.82256 -0.320517 -0.0133594 0.974697 1.46039 Ge
53 2 7.0261 6.92661 4.15815 -0.450424 -1.78684 2.64384 -1.69038 1.54 1.11043 Ge
57 1 5.49689 5.6417 5.49065 0.0395446 -0.00649079 2.96582 0.860989 -1.96883 -0.0854535 Si
40 2 9.72451 4.17153 4.17888 0.127021 0.822581 -0.192719 -0.671499 0.202051 -0.280434 Ge
63 2 9.76313 6.94399 6.94838 -0.49768 -1.40076 3.08786 -0.896602 -0.00247391 0.0285018 Ge
28 1 2.78955 8.35378 5.60935 2.42486 0.251458 -3.02943 0.237398 -0.318192 -1.65909 Si
30 2 1.38868 9.67597 6.97609 1.22687 1.70477 2.23312 -0.462246 0.994409 0.136444 Ge
24 2 4.20536 9.73201 4.14578 1.37271 -0.434064 -2.14308 -1.34955 0.948267 1.57204 Ge
62 2 6.87973 9.67703 6.89914 2.71044 2.91546 1.03419 -0.102061 1.2814 0.504531 Ge
56 2 9.67008 9.71969 4.16637 -2.46852 1.56021 -1.03225 0.487175 -0.151454 -1.25364 Ge
60 1 8.32817 8.37344 5.57074 -6.91152 -2.83076 5.44685 0.46849 -1.59668 -0.0878639 Si
13 2 1.32407 1.39312 9.73166 -0.218263 0.941023 0.375052 -0.251781 -0.503572 0.587096 Ge
42 1 5.50773 2.73595 8.23613 1.5452 3.95877 -0.290171 1.62556 0.664262 1.51301 Si
45 2 6.94541 1.32475 9.67353 -0.392239 1.05635 -1.82256 -0.623319 1.47768 -0.333949 Ge
36 1 8.31693 2.77302 -0.0116573 -3.9966 2.58175 1.48858 -0.532914 -0.0491894 -0.53309 Si
10 1 -0.0996322 2.70554 8.31407 -3.54157 1.09523 0.380563 1.04007 0.385323 -0.366624 Si
17 1 0.055509 5.51047 -0.0124993 -1.14288 -1.43067 -1.43822 -0.851394 0.397135 -0.26251 Si
27 1 2.78331 5.53094 8.3116 0.658716 1.48357 1.64548 -0.531995 0.3165 0.026348 Si
29 2 1.41763 6.95097 9.73522 0.507745 1.56049 -1.2264 0.974212 -0.487271 0.543671 Ge
16 2 4.15557 4.13806 9.64536 2.57857 -1.79712 -2.75679 -0.542617 -0.608131 0.589092 Ge
61 2 6.95771 6.86425 9.63254 -4.39511 -1.7896 -5.18903 -0.784851 0.265512 0.10806 Ge
48 2 9.6979 4.14517 9.67527 1.03828 1.92547 -0.390573 0.40624 -0.357378 0.971757 Ge
59 1 8.35937 5.46901 8.28511 -6.3135 4.15946 2.76828 -0.980703 0.623975 -1.5041 Si
11 1 2.71948 0.0135234 8.39127 1.94342 -0.548239 0.452597 0.525202 -0.475106 -0.536065 Si
26 1 0.0276321 8.30757 8.37629 -1.51905 2.10811 6.03105 -0.0623243 -0.0184584 -0.461914 Si
32 2 4.13713 9.67582 9.73809 0.699499 -1.1505 -3.448 0.0755469 0.263198 0.158532 Ge
58 1 5.55305 8.31717 8.33982 0.0847537 -5.90596 1.86921 -0.287798 -0.442661 -0.359671 Si
52 1 8.23704 8.28524 -0.0575554 -2.10756 0.98479 -4.00868 2.16933 -0.38662 0.38495 Si
43 1 8.29789 -0.0214402 8.25904 0.788349 -4.01755 -0.894682 0.454195 -0.799114 0.516906 Si
64 2 9.71569 9.6781 9.71923 2.73146 -0.522487 -1.21217 -0.909249 0.470401 -0.191913 Ge
ITEM: TIMESTEP
14200
ITEM: NUMBER OF ATOMS
64
ITEM: BOX BOUNDS pp pp pp
0.0000000000000000e+00 1.1085848640000000e+01
0.0000000000000000e+00 1.1085848640000000e+01
0.0000000000000000e+00 1.1085848640000000e+01
ITEM: ATOMS id type xu yu zu vx vy vz fx fy fz element
3 1 2.75327 -0.0194382 2.75266 1.1298 4.31235 -3.32035 0.189174 -0.270008 -0.575643 Si
4 1 2.78049 2.75479 -0.0254917 -4.2083 -1.70741 0.764221 0.282674 -0.0578406 0.929429 Si
7 2 4.19482 1.32304 1.38177 0.0875092 -0.99827 1.6318 -0.712387 1.23686 0.257974 Ge
34 1 5.54711 2.72346 2.83589 -0.459336 -3.76998 3.45297 -0.0790706 0.019538 -1.04433 Si
2 1 0.0103806 2.79297 2.82759 -5.48776 -4.51021 1.10658 0.285601 -0.752972 -1.54759 Si
35 1 8.35228 -0.0458483 2.78457 1.48855 -2.99106 0.836674 -0.228979 0.761989 -0.682183 Si
39 2 9.72374 1.40427 1.37781 3.67043 -2.9246 -0.566009 -0.277354 -0.280484 1.09659 Ge
6 2 1.38324 4.16611 1.3884 -1.44103 1.44291 2.04514 -0.469591 -0.968275 -0.295136 Ge
19 1 2.72403 5.4687 2.79493 4.94489 -1.1328 -6.22953 0.989643 1.59022 -1.19382 Si
23 2 4.10514 6.90763 1.32708 -1.55318 0.420756 -1.22064 -0.387 0.119183 1.19478 Ge
38 2 6.92859 4.08914 1.42016 0.64171 0.592209 -1.16958 -0.407393 0.336403 0.498162 Ge
49 1 5.56028 5.48925 0.0642044 -5.57086 -1.68972 -0.868123 -0.00458626 1.09611 -0.640082 Si
51 1 8.2888 5.51038 2.7668 -7.02116 5.24183 0.555829 0.294885 0.360291 0.142892 Si
55 2 9.64417 6.96063 1.39257 0.993157 0.624285 1.69677 0.746949 -0.751008 0.885417 Ge
20 1 2.73521 8.33915 -0.111112 2.82974 -2.78446 -2.24538 0.160674 -0.3751 1.39017 Si
22 2 1.34817 9.71145 1.3418 -0.0998102 1.40542 1.53962 -0.0141294 -0.484078 0.153093 Ge
33 1 5.58103 -0.00809039 0.00807641 -2.30073 0.936813 -1.15905 -0.561181 0.149164 0.0329398 Si
50 1 5.47307 8.31316 2.78542 -5.24053 0.777054 7.37552 0.277559 -0.636247 -1.04263 Si
54 2 6.87243 9.70574 1.42013 -0.85281 1.01958 3.18549 1.10395 -0.314719 0.337608 Ge
1 1 -0.0303052 0.0381495 -0.033439 2.95626 1.11549 2.11699 0.870498 -0.241004 -0.200069 Si
18 1 -0.0365509 8.30537 2.78187 -1.06713 0.720464 0.627618 1.02297 -0.344224 -0.891574 Si
5 2 1.40592 1.35933 4.13075 0.187242 -0.421806 -1.10945 -0.903246 -0.182117 -0.144312 Ge
9 1 -0.0116122 0.0361335 5.52972 -3.99894 -4.51144 -3.5091 0.147685 -0.496724 0.190772 Si
12 1 2.75599 2.69722 5.47514 7.3512 -1.09637 -0.239192 0.724208 1.438 0.889223 Si
15 2 4.19984 1.41158 6.87406 2.57706 1.06236 -0.234887 -0.304358 -0.338566 1.13362 Ge
37 2 7.00339 1.37592 4.16119 3.73408 -3.86011 -1.41066 -0.199245 0.103277 0.882261 Ge
41 1 5.56497 0.011366 5.51773 -3.44806 8.45274 2.14559 -0.071767 -0.580515 -0.322316 Si
44 1 8.33312 2.80703 5.62224 -3.28365 0.727577 8.21141 0.497123 -1.07198 -0.765294 Si
47 2 9.77187 1.44151 7.00673 -1.37529 2.09914 0.533609 -0.577674 -0.196822 -0.630322 Ge
14 2 1.41533 4.14344 6.86879 1.62132 -3.33479 -1.69706 -0.206569 0.173557 -0.290411 Ge
21 2 1.35078 6.86065 4.12805 1.48608 -2.37098 -1.9137 -0.42458 0.779144 0.150942 Ge
25 1 -0.0494982 5.55218 5.54828 -0.691369 4.77638 0.529599 0.456786 -0.448775 0.086694 Si
8 2 4.12563 4.14456 4.14344 -2.17459 1.29199 -1.2502 0.559712 -0.957053 0.603275 Ge
31 2 4.16453 6.92554 6.91233 4.37134 0.379727 2.49418 -0.163744 0.303844 -0.283895 Ge
46 2 6.96009 4.14495 6.99978 -0.836635 0.448182 0.498231 -0.526281 0.501878 -0.167662 Ge
53 2 6.91426 6.94548 4.12791 -1.36949 -2.69552 -4.24966 0.00308223 -0.644777 1.12711 Ge
57 1 5.54881 5.46671 5.55944 -2.47737 5.0165 0.554689 0.252455 1.30557 -0.2777 Si
40 2 9.70011 4.12849 4.15696 -1.87103 -0.898482 1.24711 -0.716356 1.00886 0.775618 Ge
63 2 9.68561 6.96811 6.94693 0.455315 -1.33693 0.888753 0.220746 -0.484339 -0.536423 Ge
28 1 2.72664 8.28155 5.47094 0.377998 -1.33178 6.96969 0.614556 -0.242837 0.78358 Si
30 2 1.37181 9.68237 6.87076 -0.146922 -2.21264 0.493732 0.246321 0.481585 0.0491027 Ge
24 2 4.12517 9.69081 4.13471 0.301586 -1.20972 -2.45956 0.0388338 0.485988 0.625721 Ge
62 2 6.91648 9.69487 6.92265 -1.68724 -0.105901 0.625514 1.11509 1.33605 0.129839 Ge
56 2 9.72704 9.6704 4.14888 0.596203 3.21096 -0.815562 -0.0826904 1.03341 0.594673 Ge
60 1 8.35513 8.34413 5.53455 2.36367 6.14014 -4.5037 -1.37059 -0.707346 -0.0113522 Si
13 2 1.42892 1.37036 9.65476 2.99551 0.831536 -2.4253 -0.312688 0.139977 0.655151 Ge
42 1 5.56769 2.77408 8.3802 -3.3195 -2.00141 -3.711 -0.753155 0.203215 -0.61601 Si
45 2 6.92995 1.41121 9.76832 1.82493 -4.42936 -0.520347 0.217895 -0.484063 -0.628539 Ge
36 1 8.30041 2.75312 0.0416066 2.08007 -2.11007 0.0444886 0.727262 0.487632 -0.290785 Si
10 1 0.109432 2.8292 8.34057 0.841048 -2.86392 2.499 -1.37258 -0.177129 0.13181 Si
17 1 -0.00999834 5.59811 0.0504001 4.19764 3.25137 3.98654 -0.339782 -0.833224 -0.731033 Si
27 1 2.76101 5.52218 8.26098 1.34523 -0.546791 2.22974 0.439119 0.367341 0.659842 Si
29 2 1.35589 6.89784 9.65578 -4.81758 0.0507827 -2.90311 0.0535137 0.559208 -0.37439 Ge
16 2 4.15274 4.19819 9.73233 -1.99665 0.550018 0.442256 0.0828426 -0.787054 -0.760052 Ge
61 2 6.9326 6.98563 9.79864 4.47515 -0.688166 1.51545 -0.259091 -0.539528 -1.41888 Ge
48 2 9.69473 4.15606 9.73695 1.32828 2.9387 -2.07376 0.67843 0.3895 0.0188824 Ge
59 1 8.33849 5.57417 8.33071 4.35425 -3.59927 1.65681 -0.70588 0.313256 1.16908 Si
11 1 2.77282 -0.0038614 8.258 -1.03094 2.20956 2.54622 0.594937 0.175831 -0.425537 Si
26 1 -0.00103492 8.33692 8.27349 -1.64439 -1.86902 -1.60511 -0.0842839 -0.128583 0.741932 Si
32 2 4.16279 9.76773 9.70608 -1.81507 0.619303 -2.29528 -0.262487 -0.397696 -0.808718 Ge
58 1 5.52134 8.39169 8.30946 0.158415 6.12338 2.06781 0.270973 -1.70518 0.763873 Si
52 1 8.34224 8.36803 0.0673434 -3.89659 1.97425 4.5118 -1.07799 0.35286 -0.886559 Si
43 1 8.32166 0.0615694 8.35951 -4.93192 4.80387 0.377919 -0.41735 -0.673058 -0.837437 Si
64 2 9.69458 9.71767 9.68601 -0.160656 1.51431 -1.26394 0.107912 -0.0564252 0.238634 Ge
ITEM: TIMESTEP
14300
ITEM: NUMBER OF ATOMS
64
ITEM: BOX BOUNDS pp pp pp
0.0000000000000000e+00 1.1085848640000000e+01
0.0000000000000000e+00 1.1085848640000000e+01
0.0000000000000000e+00 1.1085848640000000e+01
ITEM: ATOMS id type xu yu zu vx vy vz fx fy fz element
3 1 2.76522 -0.0159192 2.82863 -0.0405585 0.56864 2.96774 0.337133 0.943834 -0.454141 Si
4 1 2.77304 2.79367 0.0218114 1.09403 0.144143 -1.26232 -0.548164 -0.422145 -0.807831 Si
7 2 4.13908 1.39138 1.37839 0.083111 -1.79718 -3.0095 -0.153423 -0.194547 0.648203 Ge
34 1 5.54341 2.83422 2.677 -2.42288 1.09806 1.82206 -0.126386 -0.433917 0.749613 Si
2 1 0.0289904 2.79415 2.74042 1.09556 5.04822 3.99091 -0.816655 -0.683079 0.705949 Si
35 1 8.29127 0.0365976 2.77551 -4.57352 1.1211 1.21225 -0.516227 -0.860583 0.332378 Si
39 2 9.6394 1.4094 1.39512 -2.79617 0.0856644 1.97834 1.564 -0.143148 -0.332037 Ge
6 2 1.39245 4.18007 1.4125 3.38318 2.42665 -0.865787 -0.0558613 0.501509 -0.845224 Ge
19 1 2.76409 5.57853 2.83053 -4.93383 -1.11512 7.59134 0.677997 -0.637329 -0.560024 Si
23 2 4.19083 6.88029 1.40367 3.01618 -1.57839 2.67991 -0.754311 0.598676 -0.649812 Ge
38 2 6.99067 4.18737 1.32967 0.292267 1.37402 1.06744 -0.101246 0.278119 0.423879 Ge
49 1 5.61148 5.59154 -0.024322 2.91686 -0.624569 -0.230493 -1.28126 -1.47703 0.0811459 Si
51 1 8.35665 5.53872 2.7906 2.20983 -2.7119 3.17559 -1.22819 0.968373 -0.338839 Si
55 2 9.72197 6.92742 1.40807 0.0864898 -0.908245 -1.92015 0.338907 -0.183459 -0.505552 Ge
20 1 2.76405 8.31907 0.0588243 -0.820551 3.44565 2.98675 1.31949 -0.601096 -1.13241 Si
22 2 1.42211 9.69162 1.3992 -0.82827 1.60202 2.44751 -0.99311 0.781203 0.585612 Ge
33 1 5.54529 0.0247742 0.0229081 3.06495 -0.0592258 2.92459 -0.0944989 0.269231 -0.664606 Si
50 1 5.59045 8.28669 2.66916 1.23314 3.62073 1.56362 -0.848496 1.40532 2.20611 Si
54 2 6.94264 9.71984 1.30979 1.03438 0.317468 -0.05478 0.827476 -0.330528 0.830115 Ge
1 1 -0.0292547 -0.0185968 0.0160003 -7.07703 -3.38123 2.47623 -0.0427863 -0.162847 0.406237 Si
18 1 0.0569999 8.32192 2.81073 1.05149 -0.140796 -0.961149 -0.514585 -0.473683 -0.62558 Si
5 2 1.39062 1.42488 4.20161 1.4838 0.201059 -0.043385 -0.116228 -0.167221 -0.373308 Ge
9 1 0.016186 0.0166583 5.58623 1.3322 5.46588 3.47929 -0.488012 -0.802705 -1.26503 Si
12 1 2.75275 2.83157 5.59334 -7.10851 -3.08407 -0.236487 0.815646 -0.460929 -0.768491 Si
15 2 4.11074 1.36367 6.94181 -2.0734 -0.864354 1.07154 1.36657 0.36086 -0.748718 Ge
37 2 6.84166 1.43957 4.14065 0.528093 -0.424989 -2.65027 0.854845 -1.01873 -0.61027 Ge
41 1 5.5833 -0.0604419 5.55732 0.520028 1.64371 1.28235 -0.856979 1.70726 0.452915 Si
44 1 8.32159 2.75297 5.45153 1.20748 1.01081 -3.49063 -0.469393 0.530544 1.56746 Si
47 2 9.68185 1.35813 6.89202 -0.488906 -1.68778 0.433786 -0.261397 0.633345 0.106178 Ge
14 2 1.37915 4.22179 6.94079 -1.03164 0.583668 1.73939 -0.345319 -1.17174 0.2377 Ge
21 2 1.42713 6.95965 4.21557 -0.299741 -0.260047 -1.30793 -0.714628 -0.281688 -0.220561 Ge
25 1 0.0176961 5.49676 5.51433 0.265741 -3.32288 -0.733528 -0.461097 1.60493 0.212058 Si
8 2 4.20355 4.16903 4.15328 -2.7455 2.36662 0.603859 -0.921796 -0.024673 0.132053 Ge
31 2 4.08171 6.90025 6.95165 -1.3029 -1.83121 -1.58994 1.35221 0.00569266 -0.998001 Ge
46 2 6.92958 4.13798 6.94141 1.64755 -1.66309 -2.17749 0.351868 -0.264373 -0.730948 Ge
53 2 6.91645 6.96784 4.17849 1.95988 0.28723 -2.43361 0.141503 -1.58688 -1.35319 Ge
57 1 5.56885 5.53704 5.54639 -1.25784 -3.68459 0.652787 -0.775992 0.46695 0.536605 Si
40 2 9.70703 4.17071 4.12008 2.13214 0.156882 -3.21663 0.669581 -0.887692 0.178494 Ge
63 2 9.6961 6.92291 6.88935 1.64158 -0.00344944 4.42758 0.423574 -0.860398 0.583782 Ge
28 1 2.7699 8.35758 5.57676 -2.9516 3.89667 -5.40779 -0.0672691 -0.0963773 0.573643 Si
30 2 1.37405 9.73374 6.98067 -0.254701 0.869614 2.35347 0.334482 -0.583642 -0.727741 Ge
24 2 4.16767 9.71192 4.2029 1.6079 0.142342 -1.84206 0.796813 -1.34392 -1.59047 Ge
62 2 6.9692 9.6634 6.93345 -1.30507 -1.09393 0.913964 -0.659302 -0.684437 0.438343 Ge
56 2 9.69177 9.65127 4.15782 -1.05664 0.140374 -3.95568 -0.0519331 1.27495 0.640464 Ge
60 1 8.27981 8.25025 5.55324 -0.031087 1.33029 3.85296 1.11808 1.53627 -0.324562 Si
13 2 1.3372 1.3586 9.70352 -1.18679 -1.38401 0.298825 0.775751 0.948291 -0.307759 Ge
42 1 5.51384 2.76663 8.32165 0.951692 0.759157 3.35722 -0.123797 -0.00695688 -0.829801 Si
45 2 6.87309 1.42423 9.69578 -1.70406 0.783605 -2.13086 1.78395 -1.28231 -0.193774 Ge
36 1 8.34033 2.78662 -0.0386359 -2.92138 0.337288 1.17384 -1.16203 -0.673635 0.194748 Si
10 1 -0.0377732 2.78001 8.25389 1.31013 2.81684 -1.27355 0.706589 -0.61789 0.536849 Si
17 1 -0.0711044 5.47073 -0.0638289 -0.709772 -2.32093 -0.408618 1.53128 1.31609 1.45467 Si
27 1 2.73653 5.55963 8.33288 -2.14183 -1.93785 -4.6981 0.47228 -0.493589 0.614608 Si
29 2 1.38466 6.93248 9.71677 0.983573 -1.56472 2.3927 -0.630436 -0.116683 0.333245 Ge
16 2 4.17961 4.15859 9.69194 1.36067 -0.0532992 0.134152 -0.469774 0.802663 0.611973 Ge
61 2 6.91179 6.91853 9.65686 -1.03962 -1.19828 -2.18558 1.21531 0.162389 0.68627 Ge
48 2 9.67539 4.1055 9.66206 -1.22754 0.0315151 -1.89423 -0.288258 0.879409 -0.917136 Ge
59 1 8.28725 5.56377 8.31143 -0.516856 0.536073 -1.20088 0.8431 -0.888802 -0.50539 Si
11 1 2.79083 -0.00727149 8.30713 -3.31156 -1.54709 0.155722 -0.412941 -0.198666 1.64208 Si
26 1 0.00753956 8.29914 8.29744 2.11835 3.30421 2.76977 -0.0244467 -0.323257 0.154603 Si
32 2 4.225 9.70146 9.72635 1.71252 1.63641 0.919097 -1.11006 -0.883503 -0.571684 Ge
58 1 5.55053 8.20769 8.29292 0.504307 2.07379 -1.28065 -0.590082 2.3943 -0.0553315 Si
52 1 8.3359 8.27291 -0.0407177 1.26654 -1.2141 -3.17391 -0.501769 0.154797 0.548804 Si
43 1 8.35704 -0.0496208 8.30775 4.12843 -0.812522 1.79527 -1.11301 0.944006 0.753963 Si
64 2 9.72049 9.63345 9.70087 2.01314 -1.43463 -1.8014 0.0726934 0.855071 -0.152511 Ge
ITEM: TIMESTEP
14400
ITEM: NUMBER OF ATOMS
64
ITEM: BOX BOUNDS pp pp pp
0.0000000000000000e+00 1.1085848640000000e+01
0.0000000000000000e+00 1.1085848640000000e+01
0.0000000000000000e+00 1.1085848640000000e+01
ITEM: ATOMS id type xu yu zu vx vy vz fx fy fz element
3 1 2.78026 0.00981195 2.71803 -2.29394 -2.9657 2.38718 -0.4772 -0.308426 0.943884 Si
4 1 2.81004 2.77535 -0.0146983 -1.2633 1.83707 2.43448 -0.200902 -0.0295601 0.523159 Si
7 2 4.2073 1.3738 1.41957 -0.496302 -2.25662 0.837914 -0.408578 0.320153 -1.42284 Ge
34 1 5.55519 2.75235 2.81177 1.66649 1.46546 -1.65052 -0.317811 -0.126227 0.280796 Si
2 1 1.18958e-05 2.71884 2.75433 1.70527 -1.40778 -3.13051 -0.39875 1.47658 1.0514 Si
35 1 8.37619 -0.019742 2.73957 5.25681 0.870698 1.55485 -0.944735 0.726362 0.59547 Si
39 2 9.74162 1.42185 1.35359 -1.45647 -1.73854 1.4392 -0.7891 -1.06741 -0.14964 Ge
6 2 1.36189 4.12501 1.41105 -0.483279 0.203919 2.29986 0.873532 0.358065 -1.18407 Ge
19 1 2.78718 5.54613 2.69098 -0.239124 0.4106 -0.681643 -1.02463 -0.305061 1.87082 Si
23 2 4.14633 6.96877 1.41286 -0.836658 -3.2433 0.386335 0.981803 -0.27343 -0.655317 Ge
38 2 6.85936 4.1234 1.39776 1.84977 1.01847 -1.1182 0.683501 0.404547 -0.42841 Ge
49 1 5.47099 5.50889 0.0139622 1.65094 3.53892 3.67516 0.960922 0.900328 -0.0571604 Si
51 1 8.31021 5.53505 2.69147 0.877698 0.0546883 -1.02193 -0.153993 -0.615123 1.81623 Si
55 2 9.68604 6.92082 1.36621 -1.10039 -0.131639 2.8616 0.193781 0.414047 -0.0339971 Ge
20 1 2.79266 8.29064 -0.0336505 -3.0521 -0.691051 -2.49273 -0.851966 1.00075 1.1131 Si
22 2 1.36477 9.70734 1.38181 1.08486 -0.929805 -1.85759 0.378096 -0.847747 -0.439148 Ge
33 1 5.5244 -0.0219217 -0.0521296 -0.683638 -0.916356 0.194997 0.159865 -0.0126013 1.25297 Si
50 1 5.58323 8.31537 2.83168 0.290029 -6.56214 -7.72191 -0.555662 0.0798102 -0.365151 Si
54 2 6.91449 9.69245 1.38662 -2.16672 2.56926 0.324794 0.294059 0.159369 -0.0689653 Ge
1 1 0.0615494 0.0466746 -0.0223494 3.32919 6.79631 -3.94805 -1.31666 -0.780343 0.305809 Si
18 1 -0.0703252 8.30173 2.76995 -2.87354 1.50977 5.96391 0.847357 0.790293 0.229523 Si
5 2 1.35777 1.35709 4.12525 1.0221 -0.134746 0.209317 1.28782 0.0663484 0.453042 Ge
9 1 0.0116603 -0.0711281 5.48984 -2.21901 -0.0882528 -0.17977 0.377398 1.8528 1.8023 Si
12 1 2.80168 2.77439 5.53597 0.951723 2.18535 1.89391 -1.68333 -0.772123 0.277366 Si
15 2 4.16034 1.39221 6.9447 -0.425253 -0.260292 -0.54168 -0.0205897 -0.357242 -0.355001 Ge
37 2 6.94157 1.36592 4.18925 1.04187 0.201015 0.865166 0.53898 -0.128697 -0.77591 Ge
41 1 5.50498 0.00418002 5.52344 2.22652 -5.95471 -1.73105 0.354595 0.131813 0.473989 Si
44 1 8.31019 2.77599 5.5719 -0.941783 -0.468788 2.12938 0.00276334 0.150725 -0.299108 Si
47 2 9.72566 1.39959 6.91301 1.54764 1.03704 1.63415 -0.444432 -1.36931 0.131074 Ge
14 2 1.37751 4.12266 6.97064 2.07867 2.55469 -2.69243 0.239236 0.931646 -0.24219 Ge
21 2 1.37009 6.93174 4.12327 2.70126 -2.62924 0.210013 0.486477 -0.26022 -0.14288 Ge
25 1 -0.00303162 5.60946 5.56984 -1.14074 -0.0285937 1.15996 0.430941 -1.68313 -0.225831 Si
8 2 4.11218 4.13845 4.14193 1.86901 0.429358 -1.75712 1.21206 1.06135 -0.329411 Ge
31 2 4.19006 6.96607 6.90874 -0.982558 0.439392 1.75144 -0.10895 -1.1315 0.500742 Ge
46 2 6.91501 4.1838 6.92289 0.842843 1.62394 5.61888 0.258061 -0.200263 -0.625505 Ge
53 2 6.9913 6.91837 4.2003 -4.22086 1.03895 -0.47341 -0.0855175 0.0476369 -1.37799 Ge
57 1 5.54761 5.57108 5.50321 3.62448 -2.41565 -0.313178 -0.386469 -0.765118 0.523842 Si
40 2 9.70088 4.15471 4.18564 -2.526 0.40891 0.399876 0.132584 0.304502 -0.966506 Ge
63 2 9.70726 6.96295 6.93433 -0.407735 -0.0927276 0.187336 -0.127832 -0.670066 0.433378 Ge
28 1 2.79166 8.26414 5.54127 0.896291 -1.56267 1.86499 -0.6301 1.14651 -0.760806 Si
30 2 1.39556 9.66751 6.90613 -0.406374 -0.0541178 1.27396 0.20127 0.0535306 0.462053 Ge
24 2 4.13111 9.72605 4.15279 -2.29257 0.362608 0.8561 0.0981551 -0.795709 -0.130575 Ge
62 2 6.90449 9.71482 6.89829 1.16571 1.09482 2.04768 0.0191948 -0.504309 0.172362 Ge
56 2 9.69481 9.71608 4.22167 0.924367 -0.908246 -2.04623 -0.190059 -1.07318 -2.2765 Ge
60 1 8.3656 8.31149 5.54869 -0.120218 -4.38724 -0.767775 -1.24974 0.512672 0.717161 Si
13 2 1.40602 1.39282 9.69834 2.3955 -1.69942 -2.96178 0.656189 0.0695784 0.0077324 Ge
42 1 5.58267 2.76383 8.27173 0.21981 -1.04463 1.14124 -0.165478 -0.112698 1.24228 Si
45 2 6.95875 1.35989 9.73245 -2.91169 0.164213 1.00245 -1.29201 0.706036 -1.08653 Ge
36 1 8.27516 2.76331 0.0121593 4.35551 1.48505 0.507272 0.495623 0.373357 0.49767 Si
10 1 -0.0268721 2.72537 8.36937 -0.0218375 0.277413 -0.065718 0.177079 1.22859 -0.331716 Si
17 1 0.0590787 5.6112 0.0287181 -5.0495 -0.209008 -1.88143 -0.598969 -1.29121 -0.870663 Si
27 1 2.83749 5.54678 8.33953 -1.1283 3.77213 1.90621 -1.02518 0.179275 -1.84523 Si
29 2 1.44832 6.94802 9.65408 -3.59311 0.0704384 -5.51416 -0.750097 -0.538322 0.741804 Ge
16 2 4.17171 4.16524 9.64555 0.858918 -0.00778091 -0.342834 0.412989 -1.14238 0.901551 Ge
61 2 6.90901 6.90563 9.70507 -0.87137 0.685281 0.610183 -0.172364 0.14431 -0.126127 Ge
48 2 9.6763 4.1677 9.76052 0.109425 0.96647 0.182156 0.799765 0.221359 -0.478982 Ge
59 1 8.32909 5.52194 8.28577 -1.25697 3.04065 0.237149 -0.235542 0.718664 0.864181 Si
11 1 2.77821 -0.0103561 8.33664 3.16112 2.71816 -3.5049 -0.788992 0.335914 -1.189 Si
26 1 0.00253165 8.29387 8.315 -2.06472 -3.24252 -5.40394 -0.0891077 1.21827 0.337959 Si
32 2 4.09925 9.69834 9.68785 3.57818 3.14131 -2.26996 1.07498 -0.0228345 0.242185 Ge
58 1 5.50358 8.35326 8.32237 -1.92267 -5.70751 -0.567918 1.02723 -0.458386 -0.14839 Si
52 1 8.31124 8.30822 0.0143336 2.60397 0.389644 5.3175 -0.413459 0.0791874 -0.532434 Si
43 1 8.25516 0.0134367 8.30136 0.426869 1.24953 -1.12233 1.56265 -0.10124 -0.318044 Si
64 2 9.67368 9.73881 9.71816 -0.588501 -1.58372 -1.947 0.679241 -0.420523 -0.525816 Ge
ITEM: TIMESTEP
14500
ITEM: NUMBER OF ATOMS
64
ITEM: BOX BOUNDS pp pp pp
0.0000000000000000e+00 1.1085848640000000e+01
0.0000000000000000e+00 1.1085848640000000e+01
0.0000000000000000e+00 1.1085848640000000e+01
ITEM: ATOMS id type xu yu zu vx vy vz fx fy fz element
3 1 2.78858 0.000771369 2.75064 3.56801 2.88283 -5.94574 -0.492122 0.047917 0.359669 Si
4 1 2.7386 2.74195 0.00864886 4.31591 0.0876656 -0.288822 -0.18763 0.953626 0.134804 Si
7 2 4.14379 1.41776 1.39415 2.14848 -0.52761 0.011843 0.262652 -0.761531 -0.304522 Ge
34 1 5.58333 2.73352 2.74841 -0.300899 -0.563887 -0.28241 -0.240112 0.710569 0.516047 Si
2 1 -0.0467583 2.78783 2.80165 -0.762642 -1.18941 0.688065 0.852168 -0.720233 -0.973435 Si
35 1 8.27251 -0.00464345 2.76317 -0.659455 -1.48009 -5.27753 1.65042 0.126069 0.313555 Si
39 2 9.7509 1.3761 1.36743 0.592939 1.33845 0.828893 -1.15526 -0.582971 0.586835 Ge
6 2 1.33998 4.15152 1.41156 -0.225276 0.221527 2.65929 1.12355 -0.643547 0.0992855 Ge
19 1 2.78938 5.51864 2.76096 0.851511 2.30795 -3.84478 -0.429431 0.301805 -0.257831 Si
23 2 4.09627 6.9264 1.31174 1.48665 -0.200363 4.60258 1.61642 -0.505836 1.05915 Ge
38 2 6.96153 4.13126 1.39807 -2.51048 0.403495 0.393547 -0.267383 0.530382 -0.444067 Ge
49 1 5.57887 5.52628 -0.0497819 -2.50379 -3.15173 -3.08379 -0.55676 0.333437 1.45272 Si
51 1 8.28171 5.52889 2.84 2.46664 -1.52692 -3.93055 0.789197 0.305078 -1.30204 Si
55 2 9.70199 6.94211 1.42079 0.573221 -1.86416 -0.472888 -0.594918 -0.359268 -1.01854 Ge
20 1 2.76009 8.31253 -0.0176596 1.8933 -1.56935 0.84601 -0.832292 0.0453075 -0.348216 Si
22 2 1.40243 9.6967 1.37766 -1.30427 3.6454 5.02215 1.17068 0.0604466 -0.422782 Ge
33 1 5.52412 0.016545 0.0150736 -0.376528 1.39391 -1.93996 -0.110849 -0.174799 -0.275447 Si
50 1 5.45466 8.34068 2.78312 4.58175 3.41674 5.7672 1.3743 -1.77466 -1.12766 Si
54 2 6.89912 9.69689 1.41769 -0.119099 0.783547 0.7549 -0.620471 0.0952378 -0.63305 Ge
1 1 0.00208752 -0.0907353 0.0177044 1.06304 -4.69195 2.21216 0.864139 2.62496 -0.178722 Si
18 1 0.0984231 8.31161 2.69751 1.71691 -2.5548 -3.40618 -2.47246 0.298032 2.13027 Si
5 2 1.36194 1.38904 4.12341 -1.39102 -1.30097 -1.85821 0.632091 -0.140007 0.056997 Ge
9 1 0.0305163 0.0431585 5.56633 3.67405 -5.45935 -2.47741 -0.94857 -0.588873 -0.604692 Si
12 1 2.80716 2.73378 5.47403 3.19197 1.77851 0.521542 0.215389 0.536558 1.08725 Si
15 2 4.23017 1.38598 6.93914 -1.8742 -0.620781 4.41843 -1.62008 0.168066 -0.0761142 Ge
37 2 6.94278 1.37949 4.17005 0.616911 -1.8027 -1.1115 -0.114723 0.152245 -0.235367 Ge
41 1 5.55071 0.0214759 5.5389 -2.53079 2.34813 -0.0140149 0.226085 -0.974832 -0.33586 Si
44 1 8.32048 2.7689 5.54518 2.5478 -0.386879 -5.74851 -0.400983 0.0462308 0.298855 Si
47 2 9.68713 1.38167 6.93692 -0.803965 -0.00559945 -3.12299 0.75744 0.690848 0.0865825 Ge
14 2 1.42175 4.14517 6.91362 -1.70156 -3.11557 3.38636 -0.0849962 -0.560273 -1.54396 Ge
21 2 1.38022 6.92218 4.1246 0.00357749 1.49436 -2.06861 0.918177 -0.380046 0.37058 Ge
25 1 0.0188041 5.48931 5.50012 1.10882 3.2534 -1.66528 -0.737934 1.18854 0.74199 Si
8 2 4.21255 4.16 4.12726 -5.53926 0.901998 -0.623783 -0.504985 -0.440666 0.155262 Ge
31 2 4.16004 6.8962 7.01121 0.410249 2.13329 -0.159534 -0.00263463 1.78238 -0.698762 Ge
46 2 6.90241 4.15692 6.93856 -1.12122 0.372224 -1.78366 0.642336 0.26986 0.482126 Ge
53 2 6.90106 6.92383 4.16206 3.81547 -0.996084 1.17511 -1.40906 0.483975 0.209767 Ge
57 1 5.48835 5.55499 5.59748 -1.58707 5.08462 -2.63169 1.19096 -0.238009 -0.819178 Si
40 2 9.69343 4.12885 4.14746 0.289983 0.177497 -0.255286 -0.511653 0.481033 0.785932 Ge
63 2 9.61557 6.93211 6.87358 2.59999 1.23298 1.81697 1.59176 0.152974 0.687483 Ge
28 1 2.77757 8.3094 5.53488 0.116043 -3.23427 0.984967 0.042043 -0.51057 0.575732 Si
30 2 1.3883 9.72943 6.909 -0.434538 -0.710777 1.74744 -0.121942 -0.860177 0.132345 Ge
24 2 4.15789 9.68482 4.14203 0.210665 2.25563 -0.815577 -0.66081 1.30697 1.02626 Ge
62 2 6.96378 9.69664 6.87251 -2.07106 1.20787 -0.680765 -0.79934 1.19245 1.40318 Ge
56 2 9.70259 9.69663 4.19429 -1.28037 3.92433 1.63415 0.999034 0.400997 -1.78302 Ge
60 1 8.24782 8.36533 5.49052 1.49752 -1.71241 -0.489526 1.14226 -1.58557 0.161883 Si
13 2 1.36102 1.39077 9.68596 -1.2903 -1.07427 0.877772 -0.000986737 -0.957195 0.162767 Ge
42 1 5.53548 2.79615 8.35722 0.776553 0.581941 -2.86926 0.217084 -0.112908 -0.0676101 Si
45 2 6.94992 1.4232 9.73519 1.71787 -1.85858 1.28202 -0.220234 -0.948301 -0.599139 Ge
36 1 8.35573 2.7715 0.00297338 -3.26111 -1.2179 -3.21785 0.402777 0.151675 0.108414 Si
10 1 0.0396765 2.81219 8.27842 -3.91897 -2.06817 -0.287232 -0.824289 -1.10212 0.283656 Si
17 1 0.0284028 5.51279 0.0200867 3.37072 2.99302 2.75941 -1.37322 0.835918 0.176456 Si
27 1 2.72857 5.51238 8.27832 3.37408 -2.48941 4.18015 0.251334 0.811202 1.8833 Si
29 2 1.33963 6.92258 9.72412 2.20971 0.395818 -1.16641 0.691602 0.0924451 -1.05833 Ge
16 2 4.11581 4.17199 9.72264 0.17067 0.770871 -2.67256 0.0180822 -0.467122 -0.506508 Ge
61 2 6.98486 6.94765 9.74506 0.5087 -3.80478 -3.00533 -0.792082 -0.459106 -1.00863 Ge
48 2 9.74955 4.14937 9.6913 -1.99986 0.118478 -0.00815868 -0.253631 0.0763211 0.395104 Ge
59 1 8.32564 5.53651 8.37526 0.941243 -3.14888 -1.10701 -0.240492 0.00812725 -1.33636 Si
11 1 2.75217 -0.0091672 8.28115 -0.308935 -4.49746 2.33136 0.687739 0.829126 0.451054 Si
26 1 -0.0245969 8.36858 8.33502 1.10587 1.94696 3.11094 -0.120604 -1.30328 -1.17458 Si
32 2 4.1113 9.68776 9.69215 -2.76958 1.75235 -0.554365 1.31025 0.56315 -0.120292 Ge
58 1 5.6416 8.34849 8.35209 -0.205003 1.29262 2.48696 -1.63107 -0.690704 -0.476025 Si
52 1 8.27372 8.363 -0.0315518 -0.844898 -1.36428 -5.38378 1.73796 -0.240218 1.91582 Si
43 1 8.33815 -0.00948107 8.31737 -3.41289 -3.66045 1.71008 -0.584247 0.44136 0.206371 Si
64 2 9.73171 9.73915 9.72986 0.771592 1.17086 -0.0849179 -1.45967 -1.01249 -0.766769 Ge
ITEM: TIMESTEP
14600
ITEM: NUMBER OF ATOMS
64
ITEM: BOX BOUNDS pp pp pp
0.0000000000000000e+00 1.1085848640000000e+01
0.0000000000000000e+00 1.1085848640000000e+01
0.0000000000000000e+00 1.1085848640000000e+01
ITEM: ATOMS id type xu yu zu vx vy vz fx fy fz element
3 1 2.73789 -0.00285575 2.84563 -0.332015 -1.7148 2.86173 0.693508 -0.10457 -1.05665 Si
4 1 2.76126 2.78558 -0.0497565 -4.4859 -4.00224 -1.6479 0.718532 -0.422475 0.46996 Si
7 2 4.1389 1.36408 1.40449 -2.36363 -0.997509 1.80596 -0.287803 0.264511 -0.564629 Ge
34 1 5.46283 2.82658 2.77949 3.46394 -0.88986 -2.77961 0.765823 -0.299744 -0.757946 Si
2 1 0.0681541 2.78036 2.69772 -0.885566 -0.894203 -2.07555 -0.482915 0.25885 0.662239 Si
35 1 8.31114 0.030911 2.83903 -1.93164 -1.648 1.1551 -0.846164 -0.421152 -1.20811 Si
39 2 9.65726 1.42961 1.39714 1.12023 -0.509091 0.124756 0.253867 -0.279554 0.480177 Ge
6 2 1.44782 4.20368 1.34915 -0.956755 1.78256 2.5642 -0.734404 -0.379387 0.0342104 Ge
19 1 2.77077 5.54578 2.83947 4.0444 -1.75977 -0.715897 0.59405 0.689308 -0.782523 Si
23 2 4.20716 6.9535 1.43994 -3.96235 -1.6912 -0.528507 -1.32402 -0.809264 0.146376 Ge
38 2 6.93332 4.18897 1.39586 1.64528 0.489538 1.22592 -0.507002 -0.103495 0.262529 Ge
49 1 5.52358 5.57306 0.0359189 2.06622 -0.890994 -1.49483 0.561917 -0.423975 -1.12833 Si
51 1 8.32609 5.60665 2.76177 -4.51574 0.781757 2.16966 0.494909 -0.978703 -0.121341 Si
55 2 9.71946 6.90952 1.30715 0.697977 -0.145689 2.91445 0.497685 -0.44848 1.73016 Ge
20 1 2.81129 8.33148 0.0714852 4.7799 -1.07822 -1.1246 0.436983 -0.636287 -0.0715428 Si
22 2 1.39624 9.69691 1.3627 -1.3836 0.370211 0.0961484 -1.52309 0.855265 1.55499 Ge
33 1 5.58363 -0.0161784 -0.0136627 0.505764 -2.49994 -1.56658 -0.0368178 0.437885 0.218214 Si
50 1 5.61708 8.2822 2.74385 -7.5959 3.00923 -1.97246 -0.220448 1.65547 0.904392 Si
54 2 6.99536 9.6595 1.32978 0.482718 2.48976 2.25246 -0.056972 0.967375 1.45696 Ge
1 1 -0.0591062 0.0707964 0.0233858 0.174119 -2.80149 -1.83939 0.146592 -2.31067 -0.0775168 Si
18 1 -0.0865247 8.3275 2.80116 3.91576 -1.18837 -6.47837 2.53133 -1.23991 -1.81509 Si
5 2 1.3703 1.41466 4.19178 -2.42773 0.832607 -1.62409 -0.636104 -0.326674 -0.215 Ge
9 1 -0.0687746 0.0120743 5.53699 0.863938 2.46118 0.0641151 1.20471 -0.650921 0.0110263 Si
12 1 2.70148 2.78206 5.60944 -0.122567 -2.46055 -7.08806 0.706013 0.909449 -0.500534 Si
15 2 4.1048 1.36592 6.91103 3.09415 -1.14114 0.339458 0.281711 0.262377 0.669179 Ge
37 2 6.8187 1.44594 4.15083 2.02403 -0.441472 1.69973 1.67156 -0.6279 0.362967 Ge
41 1 5.56434 0.0191102 5.5831 0.610384 -0.0613898 -0.985154 -0.348685 -0.371471 -0.324308 Si
44 1 8.29892 2.75893 5.54157 -1.18526 -0.104476 4.33826 1.22264 -0.220149 -1.36682 Si
47 2 9.69428 1.36412 6.94504 -1.34056 -0.28356 2.01774 -0.422117 0.723603 -0.690403 Ge
14 2 1.34684 4.22751 7.00043 1.71381 3.11208 1.13234 0.0225907 -1.16064 -0.100653 Ge
21 2 1.37229 6.93674 4.19699 -0.405347 -1.46362 -2.15379 -0.442817 0.931936 -0.140229 Ge
25 1 -0.0310363 5.57039 5.58473 1.48345 -2.28582 0.53496 0.382782 -0.568543 -0.743901 Si
8 2 4.16296 4.17007 4.2095 2.1026 2.24496 -1.9899 -1.15424 -0.448838 0.146326 Ge
31 2 4.12268 6.86119 6.85365 -0.582435 -3.86652 3.13911 0.35361 1.01473 -0.386634 Ge
46 2 6.96022 4.11432 6.87028 0.446012 0.324693 1.46204 -0.907167 0.223224 0.743306 Ge
53 2 6.97124 6.97243 4.17863 -0.243634 -1.76513 -1.58541 0.31199 -0.695025 0.0599353 Ge
57 1 5.62179 5.50102 5.50881 -1.73981 -3.0021 4.33968 -0.856838 0.963259 0.264071 Si
40 2 9.75602 4.15597 4.0983 -0.24886 -1.31101 -1.69986 -0.965126 0.11949 0.869577 Ge
63 2 9.69881 6.91676 6.96733 -5.56645 -0.814058 1.47102 0.402591 0.0168593 -0.437552 Ge
28 1 2.76731 8.39916 5.54718 2.4061 1.93614 -2.36688 0.179671 -1.08821 -0.165883 Si
30 2 1.38433 9.75473 6.96991 0.860457 2.17971 1.39702 -0.181013 -0.168238 -0.220524 Ge
24 2 4.22975 9.72499 4.16375 -0.69507 -1.80745 -2.42008 -0.406193 -0.498409 -0.302055 Ge
62 2 6.93285 9.65561 6.94254 2.14927 -1.26666 -1.96993 0.00495911 0.91554 -0.358303 Ge
56 2 9.68454 9.64239 4.14849 -0.78995 -0.054178 2.13938 -0.684966 1.94994 1.24762 Ge
60 1 8.37067 8.30593 5.59788 -1.28489 6.14154 -2.08884 -0.895323 -0.00475466 -0.529692 Si
13 2 1.32561 1.36208 9.72928 0.171684 0.310606 -1.81881 0.907868 0.97891 0.0195347 Ge
42 1 5.51765 2.75568 8.24727 1.21124 0.800947 -0.399757 0.0541939 0.602491 -0.290313 Si
45 2 6.89588 1.3946 9.59271 -2.24943 1.9405 1.35489 0.579404 -0.197018 1.85838 Ge
36 1 8.28333 2.77036 0.00188361 -0.200958 -0.389573 2.08097 -0.718871 0.0919518 -0.860399 Si
10 1 -0.0179036 2.71976 8.33913 6.04334 1.83747 1.67014 -0.145074 1.14362 -0.391975 Si
17 1 -0.0142345 5.50214 -0.0693472 4.99099 -4.29483 -2.00859 0.681953 0.200586 0.77481 Si
27 1 2.79643 5.58845 8.33121 -0.288277 0.336241 -6.62749 0.0720717 -1.07621 -0.063024 Si
29 2 1.50254 6.89601 9.79725 -4.10347 -0.46609 -1.15321 -1.55123 0.675535 -1.22421 Ge
16 2 4.19225 4.1737 9.65563 0.276439 1.40425 0.65368 -0.347074 -0.162901 0.638174 Ge
61 2 6.87464 6.93319 9.63353 0.709315 1.17195 1.86029 0.448257 -0.148436 0.339146 Ge
48 2 9.64588 4.13532 9.66129 0.743593 1.58367 -0.861192 0.214949 -0.0623735 -0.0945817 Ge
59 1 8.28459 5.52348 8.22671 1.63616 0.456209 1.81525 -0.190932 -0.0085123 1.63739 Si
11 1 2.77739 0.0418416 8.39568 -1.26936 -0.430751 0.560461 0.127458 -1.42606 -0.203073 Si
26 1 0.079585 8.22163 8.31022 0.63102 -1.26399 0.645038 -0.284966 1.29113 1.38362 Si
32 2 4.19898 9.649 9.76635 -0.28326 0.82395 -2.48234 -0.93636 1.07341 -1.37325 Ge
58 1 5.43515 8.299 8.21301 5.08239 2.59062 0.511913 1.35022 -0.344357 1.4186 Si
52 1 8.35636 8.24198 0.0163895 -5.31112 2.13751 -0.345768 -1.29348 0.707244 -2.25868 Si
43 1 8.32257 0.00887966 8.28367 1.42673 1.00011 -3.33905 -0.339048 -1.33497 0.647415 Si
64 2 9.69219 9.64892 9.69451 3.87911 0.896868 -0.00665633 0.850854 0.524323 -0.185596 Ge
ITEM: TIMESTEP
14700
ITEM: NUMBER OF ATOMS
64
ITEM: BOX BOUNDS pp pp pp
0.0000000000000000e+00 1.1085848640000000e+01
0.0000000000000000e+00 1.1085848640000000e+01
0.0000000000000000e+00 1.1085848640000000e+01
ITEM: ATOMS id type xu yu zu vx vy vz fx fy fz element
3 1 2.76206 -0.0308669 2.71042 0.0195483 -0.0235459 -3.12071 0.605795 0.0487119 0.294796 Si
4 1 2.80071 2.79423 0.0762022 3.49673 2.84575 -2.19587 -0.83236 -0.759233 -1.23706 Si
7 2 4.2046 1.38583 1.41148 0.46329 -2.21506 1.16599 -1.14382 0.432689 0.658571 Ge
34 1 5.58304 2.72056 2.81862 -5.26751 -2.35362 2.65269 0.1502 -0.0525872 -0.91627 Si
2 1 -0.0417838 2.77992 2.9062 1.15456 1.43876 -0.125771 0.468817 -0.944311 -1.62524 Si
35 1 8.33614 -0.00790691 2.73302 1.03028 2.78551 3.28821 -0.0691357 -0.725963 0.231348 Si
39 2 9.78089 1.35313 1.3765 0.979663 0.0378084 2.52231 -0.545672 0.8276 0.399777 Ge
6 2 1.28868 4.11834 1.4007 0.751819 2.77542 0.975537 0.237198 0.90517 0.383198 Ge
19 1 2.7209 5.52264 2.72826 -4.09131 -2.93629 2.21015 1.37409 -0.653829 -0.463566 Si
23 2 4.09196 6.94676 1.28184 1.16703 -1.07668 1.92323 -0.388425 -0.116135 1.10338 Ge
38 2 6.92734 4.07786 1.38214 1.23784 2.39694 0.464374 0.404989 0.92796 0.213364 Ge
49 1 5.56388 5.55571 0.0194291 -2.64917 1.66878 0.685178 -0.372106 -0.778494 -0.581447 Si
51 1 8.32345 5.47671 2.78769 -0.230602 3.3954 3.49441 -1.74346 1.56487 -0.0803329 Si
55 2 9.66083 6.98494 1.46562 -1.00719 0.0949299 -1.69517 0.220001 0.308954 0.245401 Ge
20 1 2.6518 8.31816 -0.113647 -4.13331 2.4806 0.356856 2.22794 -0.222243 0.170515 Si
22 2 1.40403 9.67042 1.30864 1.63574 0.847906 -2.16768 -1.16124 0.366583 1.11858 Ge
33 1 5.51148 0.0327273 0.0577763 0.0868485 1.76322 0.849416 0.58473 -1.10152 -1.42425 Si
50 1 5.46888 8.29458 2.76319 4.89487 -7.62687 -0.40664 -0.72282 -0.152162 -0.0719096 Si
54 2 6.83175 9.66792 1.432 -0.609711 -1.6451 -0.59524 1.48279 1.0588 -0.605713 Ge
1 1 0.0494634 0.001941 -0.0619875 -2.27417 3.94403 1.54456 -0.0743047 0.15763 0.0104996 Si
18 1 0.0660051 8.32059 2.83817 -5.5127 4.07249 5.6239 -0.519966 -0.044769 -1.40271 Si
5 2 1.43575 1.33014 4.15066 1.16 -1.22307 -0.736028 -0.45717 1.08989 0.604822 Ge
9 1 0.00950803 0.0235694 5.56469 -4.04456 0.454095 0.0344572 -0.0629966 -0.437856 -0.972667 Si
12 1 2.81195 2.78188 5.53903 -0.0278956 -3.37378 5.93863 0.462831 -1.21595 -1.36555 Si
15 2 4.21602 1.41751 6.88912 -0.48883 -1.55271 0.918328 0.185262 -0.287834 0.198517 Ge
37 2 6.97354 1.34545 4.15286 -3.0318 0.340338 -0.76246 0.0480897 0.176093 0.647836 Ge
41 1 5.54528 -0.0434823 5.50644 2.02323 3.47505 2.5147 0.282175 1.16287 0.357514 Si
44 1 8.3117 2.7888 5.57583 -1.52621 0.561641 0.693853 -1.03643 -0.345269 1.46656 Si
47 2 9.76743 1.4146 6.96319 1.80756 0.30003 0.151579 -1.63153 -0.171033 -0.160901 Ge
14 2 1.43549 4.10633 6.85757 -0.10245 1.60369 3.62425 -0.97863 1.61536 0.873846 Ge
21 2 1.41812 6.8671 4.14308 2.71599 -2.75413 -1.6358 -0.615337 0.163753 0.42003 Ge
25 1 0.000401333 5.49507 5.50061 -1.7014 1.02247 -2.28342 0.57036 0.486212 0.497346 Si
8 2 4.196 4.1144 4.10794 -0.0996244 3.45101 -0.298827 -0.939053 1.35108 0.69681 Ge
31 2 4.20668 6.95243 6.97658 -0.576784 -2.21457 0.0252324 -0.984247 -0.793254 0.192692 Ge
46 2 6.88169 4.20814 7.06127 1.93457 0.029363 0.73462 0.950434 -0.490835 -1.56892 Ge
53 2 6.85406 6.95235 4.14923 -1.46922 2.63348 1.72071 0.847893 -1.53873 -0.582358 Ge
57 1 5.51845 5.55384 5.55533 4.30786 0.0998242 -3.32981 0.23566 -0.543141 0.200989 Si
40 2 9.62913 4.16621 4.21901 0.288584 -1.89548 -1.99345 0.94296 -0.462966 -0.365397 Ge
63 2 9.71221 6.94303 6.82112 -0.379177 1.43259 1.91694 -0.760971 -0.453706 2.20045 Ge
28 1 2.76767 8.22974 5.54193 -2.8465 2.88552 1.57527 0.373635 1.15374 0.0438688 Si
30 2 1.3559 9.67518 6.86184 -1.05341 1.99161 2.29997 0.526267 0.0678821 0.77006 Ge
24 2 4.12476 9.7044 4.16234 3.1472 1.98484 0.28924 -0.457271 -0.999886 -0.388512 Ge
62 2 6.93624 9.75204 6.93574 -0.962542 -1.9869 1.75344 -0.129861 -1.48867 0.430656 Ge
56 2 9.72498 9.69444 4.15567 -1.08908 -2.63546 -2.88952 -0.781767 0.178394 0.647966 Ge
60 1 8.24953 8.27896 5.52427 0.809184 -2.64652 1.51693 0.759575 1.58429 -0.32851 Si
13 2 1.47262 1.38322 9.6299 -1.23228 -3.26428 -1.28183 -0.665975 0.919041 0.509329 Ge
42 1 5.53352 2.77064 8.40358 -2.85971 -3.42662 0.055839 0.228907 -0.47488 -0.62012 Si
45 2 6.97463 1.36402 9.74696 -0.133827 0.508794 -4.64962 -1.00831 0.583905 0.230433 Ge
36 1 8.37836 2.76424 -0.00654433 4.20681 -1.76288 -0.194703 -0.0252827 -0.513777 0.601119 Si
10 1 0.0223221 2.83879 8.28188 -1.98283 -4.05155 -2.0949 1.10211 -1.00777 0.938595 Si
17 1 -0.0816923 5.64213 0.0745734 -4.09042 0.964965 -2.36906 1.71198 -1.10983 -1.13209 Si
27 1 2.73729 5.5147 8.31472 1.73138 1.68093 2.93853 0.740099 0.352021 -1.20619 Si
29 2 1.34585 6.9226 9.60876 3.17742 -2.24833 1.47644 -2.10761 0.438624 0.698382 Ge
16 2 4.10878 4.15872 9.69793 -0.269081 2.37207 -2.67422 0.906831 0.510557 1.291 Ge
61 2 6.99906 6.9589 9.78403 -0.764476 -1.52646 -2.9966 -0.902409 0.211009 -0.0486161 Ge
48 2 9.76023 4.16995 9.74347 -1.55045 1.11732 -2.03189 -0.920808 0.863757 -0.489903 Ge
59 1 8.32494 5.60058 8.39762 0.00642866 -0.326161 -3.49194 1.21856 -0.455815 -1.24055 Si
11 1 2.80244 0.00626592 8.18281 1.82776 3.21983 -2.75422 -0.282383 -0.211641 0.716768 Si
26 1 -0.110432 8.4134 8.29325 2.36659 -1.53214 -4.36533 1.08265 -1.53078 -0.51616 Si
32 2 4.11016 9.74687 9.67954 0.668428 0.0121176 2.28809 0.623694 -0.348031 0.146018 Ge
58 1 5.59134 8.314 8.39355 -5.8593 -0.906378 -7.07475 -0.195223 0.943568 -0.639186 Si
52 1 8.33024 8.39361 0.035776 6.91784 -3.50656 2.9347 -0.85168 -0.6516 1.02649 Si
43 1 8.31311 0.0143531 8.35365 2.30026 3.25537 0.512989 0.0133936 1.12162 -1.50069 Si
64 2 9.61308 9.77011 9.71393 -1.70693 -0.608111 -0.0128644 1.79832 -0.488151 0.297306 Ge
ITEM: TIMESTEP
14800
ITEM: NUMBER OF ATOMS
64
ITEM: BOX BOUNDS pp pp pp
0.0000000000000000e+00 1.1085848640000000e+01
0.0000000000000000e+00 1.1085848640000000e+01
0.0000000000000000e+00 1.1085848640000000e+01
ITEM: ATOMS id type xu yu zu vx vy vz fx fy fz element
3 1 2.78554 0.0723233 2.83376 -3.54605 -0.196134 6.48534 0.042296 -0.215855 -0.948294 Si
4 1 2.73582 2.74778 -0.0291448 -2.71712 0.948826 3.82481 1.61824 0.462821 -0.080745 Si
7 2 4.19212 1.4187 1.36761 2.21719 -1.52147 0.484872 -0.467265 -0.77255 -0.314935 Ge
34 1 5.52812 2.84369 2.74465 2.46382 5.03568 3.53129 -0.685757 -1.25598 0.768036 Si
2 1 0.0280998 2.74685 2.65265 1.29739 1.78508 4.67281 -0.491105 0.786979 1.56487 Si
35 1 8.29273 -0.0119626 2.75896 0.714694 0.738734 -2.37591 0.244136 1.04459 0.260325 Si
39 2 9.60037 1.43601 1.34014 1.65939 -1.23407 -0.220441 0.747068 -0.934507 0.618483 Ge
6 2 1.45777 4.13808 1.38493 -0.359173 -0.0410858 2.43815 0.303493 0.805362 0.124326 Ge
19 1 2.82375 5.61564 2.80091 -2.48347 3.67742 0.666305 -1.74134 -0.786774 0.866244 Si
23 2 4.2446 6.97633 1.49157 -0.265687 0.372855 1.26854 0.840099 -0.866904 -0.544772 Ge
38 2 6.88788 4.17394 1.41037 -2.28229 -3.11541 -0.0172484 0.463214 1.05332 -0.529435 Ge
49 1 5.5205 5.52888 0.00570951 3.39688 2.75938 4.52114 0.224558 0.67778 0.0121237 Si
51 1 8.34633 5.5638 2.71027 5.72582 -7.59794 -5.56985 0.830797 -1.27919 0.432073 Si
55 2 9.71408 6.86953 1.29012 0.937532 0.239815 0.174749 -0.398825 0.406543 -0.620356 Ge
20 1 2.89211 8.29948 0.144592 -4.29457 0.451887 0.446263 -2.03838 0.910023 -0.961137 Si
22 2 1.39648 9.69729 1.50606 0.795399 0.453086 0.17174 0.693542 0.364872 -1.51092 Ge
33 1 5.57154 -0.0333436 -0.0527203 -0.0333142 -1.29908 3.0186 -0.444411 0.790426 1.07902 Si
50 1 5.64443 8.39174 2.81125 -0.802079 6.02834 -0.143368 0.58325 -0.946126 -0.354452 Si
54 2 7.00857 9.71622 1.30749 -1.07837 -1.07066 0.991281 -1.66703 -0.146865 1.15694 Ge
1 1 -0.022506 -0.0235377 0.0861466 1.38049 2.35411 -2.27052 -0.372718 0.112075 -0.394989 Si
18 1 -0.073859 8.28331 2.6851 1.76742 0.45932 3.39506 -0.301916 1.02709 1.98671 Si
5 2 1.3566 1.4413 4.16195 -1.04631 -1.43858 -1.8131 0.0560437 -0.651629 -0.171951 Ge
9 1 0.0492989 -0.0431894 5.52687 1.08258 4.24262 2.05041 -0.339401 1.14322 0.702969 Si
12 1 2.72473 2.80004 5.54866 -4.8196 5.17033 -0.670753 -0.40621 -0.901218 1.21781 Si
15 2 4.08298 1.38249 6.99241 -0.814162 -0.613153 1.54748 0.0725612 0.0748909 -0.0556452 Ge
37 2 6.85672 1.40359 4.1118 1.44439 -1.8285 -1.74224 0.740846 -0.307109 0.317553 Ge
41 1 5.48811 0.026635 5.57098 -1.51783 -6.68662 -3.73256 0.226142 -0.041429 -0.420943 Si
44 1 8.35019 2.7448 5.46441 1.08781 0.278906 -3.84097 0.269557 0.47746 -0.65646 Si
47 2 9.64711 1.2906 6.89231 1.23598 -0.523827 0.727433 1.13968 1.26211 0.26106 Ge
14 2 1.33019 4.16184 6.94864 1.1536 -1.83544 1.10892 0.531764 -0.479584 0.885088 Ge
21 2 1.27718 7.01544 4.17691 1.27006 -1.0586 -2.62699 2.08094 -1.02376 -0.552151 Ge
25 1 0.0322414 5.59855 5.62445 -0.993418 -2.81472 2.75154 -0.225069 -0.678557 -1.60536 Si
8 2 4.09995 4.09869 4.19025 -0.492206 -0.299506 -2.98118 0.930894 2.07859 -0.833503 Ge
31 2 4.0775 6.93466 6.90805 1.93645 -0.972517 1.24811 1.31066 0.251869 0.619866 Ge
46 2 6.92108 4.13484 6.79201 -2.80539 0.651246 2.5987 0.52054 0.235091 1.13144 Ge
53 2 7.04972 6.88081 4.14664 1.64346 2.07576 -1.1634 -1.89051 1.58096 0.68432 Ge
57 1 5.49458 5.55898 5.52084 -2.06175 -1.78955 0.0676531 0.445426 -0.0691574 -0.648109 Si
40 2 9.84118 4.22777 4.11281 -1.27131 1.26424 -1.32524 -1.71371 -1.15451 -0.0346165 Ge
63 2 9.73855 6.88081 6.97619 0.456455 0.0423623 -2.00576 -0.597417 1.55917 0.324684 Ge
28 1 2.76529 8.35052 5.52419 2.75102 -2.77784 -3.36856 -0.288687 -0.0337715 -0.34769 Si
30 2 1.43668 9.7104 6.94365 -0.747363 0.66809 1.53836 -0.86932 -0.674814 0.85791 Ge
24 2 4.15886 9.71257 4.12231 0.317356 3.19887 -0.653537 0.306412 0.482515 1.24552 Ge
62 2 6.94781 9.73166 6.90889 0.196912 3.40954 -2.68654 -1.34022 -1.13952 0.170083 Ge
56 2 9.7006 9.74517 4.19797 0.566589 1.31629 -0.404072 0.180668 -1.29959 -1.94092 Ge
60 1 8.36978 8.3341 5.5611 -0.994853 -2.93931 2.22875 -0.0737966 -0.868066 0.46292 Si
13 2 1.27427 1.40746 9.76417 0.900914 -2.90653 -1.05901 0.796666 -1.07037 -0.0775948 Ge
42 1 5.59345 2.79507 8.25839 2.71969 4.20741 1.20582 -0.394914 -1.1494 0.222229 Si
45 2 6.94182 1.37295 9.70767 -1.25132 -2.41003 -0.738472 -0.605162 0.481355 -1.13873 Ge
36 1 8.20744 2.82499 0.00859789 -2.65288 1.99346 -1.35163 1.007 -0.65377 -0.476665 Si
10 1 -0.0767447 2.74437 8.35188 -2.11415 3.27746 -0.462727 0.0105786 -0.589181 -1.70229 Si
17 1 0.090511 5.45571 -0.0334643 -3.87442 1.88848 3.58161 -1.27194 0.765438 -0.0522145 Si
27 1 2.74797 5.53678 8.32764 -4.39363 -1.4326 -0.167598 0.291515 -0.108945 0.051402 Si
29 2 1.45661 6.95668 9.77667 3.86468 -1.55874 -1.81529 0.673296 -0.884564 0.417586 Ge
16 2 4.20839 4.13139 9.65235 -0.638295 -0.850885 -4.08683 -1.37888 0.182147 0.638294 Ge
61 2 6.89942 6.89087 9.63843 3.21134 -1.13915 -0.0247102 -0.0367392 -0.604385 0.383996 Ge
48 2 9.66 4.1104 9.69181 1.86696 -0.572849 -0.0125084 0.00283308 0.828425 0.583125 Ge
59 1 8.31101 5.47479 8.26137 -3.65617 0.875161 1.20053 -0.541092 0.29353 0.112382 Si
11 1 2.71049 -0.034097 8.46028 -1.82243 0.605275 1.74963 0.384672 0.991481 -1.34584 Si
26 1 0.0725757 8.25675 8.3851 -5.07889 3.48798 4.14749 -0.459316 1.02132 -1.217 Si
32 2 4.1629 9.65699 9.73003 -2.36526 3.19645 -0.128755 -0.091088 0.340831 0.682265 Ge
58 1 5.52433 8.32442 8.34061 2.46017 -1.39871 5.63624 0.00354491 -0.400724 -1.92951 Si
52 1 8.23432 8.27654 -0.0529716 -0.822305 2.76161 -2.58602 2.5071 -0.426499 -0.514905 Si
43 1 8.28151 -0.0328686 8.30341 -1.23981 -5.11786 1.04197 1.07989 0.0327336 0.899858 Si
64 2 9.74039 9.67299 9.70262 -1.33633 0.764208 -0.270929 -1.02769 -0.109716 0.240623 Ge
ITEM: TIMESTEP
14900
ITEM: NUMBER OF ATOMS
64
ITEM: BOX BOUNDS pp pp pp
0.0000000000000000e+00 1.1085848640000000e+01
0.0000000000000000e+00 1.1085848640000000e+01
0.0000000000000000e+00 1.1085848640000000e+01
ITEM: ATOMS id type xu yu zu vx vy vz fx fy fz element
3 1 2.78272 -0.0420104 2.71615 0.384995 2.74601 -4.06247 -1.38418 -0.0836275 1.91141 Si
4 1 2.81193 2.76453 0.0156511 -1.55123 0.495493 1.73705 -1.79421 0.505959 0.756643 Si
7 2 4.11143 1.38768 1.44586 1.9502 -0.562394 2.15449 0.72547 -0.35863 -1.74616 Ge
34 1 5.57607 2.69366 2.70771 -0.151373 -2.11053 -4.00536 0.569272 2.02083 0.979194 Si
2 1 -0.0774745 2.76994 2.82777 -2.63571 -2.17552 -6.35437 1.01099 -0.097453 -0.491083 Si
35 1 8.31475 -0.00104131 2.80226 -0.532047 -2.92594 1.89417 0.58639 0.0064873 -0.0155568 Si
39 2 9.72836 1.36373 1.37391 -1.53631 0.473183 -0.319685 -0.114105 -0.812786 0.297845 Ge
6 2 1.30717 4.15854 1.388 -0.815965 -0.70457 3.10237 1.0858 -0.732662 0.140718 Ge
19 1 2.7917 5.48178 2.75898 4.22036 1.51769 -2.0321 -0.177426 0.845312 -0.0284501 Si
23 2 4.08896 6.90998 1.24612 -2.30284 -0.851966 1.31723 0.278553 -0.487985 1.4364 Ge
38 2 6.99963 4.15357 1.3538 0.856237 0.568736 2.34384 -1.29326 -0.683998 -0.0368116 Ge
49 1 5.5601 5.52476 -0.0415187 -4.74279 -3.39364 -2.84532 0.39774 0.304252 1.10668 Si
51 1 8.24937 5.55646 2.80796 -5.06553 9.10721 6.03104 0.646384 -0.0725363 -0.121126 Si
55 2 9.70059 6.94776 1.4868 -2.03187 -1.4268 0.185867 0.34019 -0.400012 -0.809652 Ge
20 1 2.74552 8.30572 -0.139748 4.21574 -2.98458 2.45124 -0.560269 -0.0683524 0.716559 Si
22 2 1.39364 9.66833 1.31415 0.901637 -1.14627 1.51097 0.325093 -0.215142 0.21557 Ge
33 1 5.49366 0.0434467 0.0130212 -0.499725 1.68262 -2.66453 0.47303 -0.758656 -0.132477 Si
50 1 5.42471 8.26896 2.73691 0.889013 -3.67787 0.878976 0.703279 0.358367 -0.493269 Si
54 2 6.88162 9.74187 1.44653 0.798192 1.76406 -1.74071 0.0972307 -0.943852 -0.914032 Ge
1 1 0.0115363 -0.0475834 -0.0628177 1.23633 -2.01111 4.02065 0.66749 1.6767 0.00182526 Si
18 1 0.0902195 8.28453 2.7979 -1.19924 -3.63004 -6.72245 -0.54719 0.347114 0.260446 Si
5 2 1.37965 1.38325 4.19801 -0.245056 1.26073 -1.68453 0.348042 -0.469087 -1.25797 Ge
9 1 -0.0216915 -0.00309354 5.56364 0.0648165 -7.16489 -1.48213 -0.0485758 0.264644 -0.00897634 Si
12 1 2.85353 2.74906 5.51305 6.22744 0.591407 0.901359 -1.0271 1.47551 -0.371701 Si
15 2 4.21359 1.40532 6.8444 2.21235 -0.694046 1.27687 -0.356453 -0.787118 1.22125 Ge
37 2 6.9277 1.39653 4.16545 -2.22575 -0.480088 -0.391223 0.840879 0.0617365 0.500696 Ge
41 1 5.57672 0.0110439 5.53981 -1.5377 4.10661 4.69206 -0.075079 -1.76959 -0.385197 Si
44 1 8.28621 2.80295 5.64695 0.251335 -0.593964 3.59238 0.0610391 -0.531299 -0.684785 Si
47 2 9.72365 1.40934 7.0034 0.334326 -2.633 0.857236 -0.0251675 0.0109201 -1.03566 Ge
14 2 1.42461 4.21857 6.86427 1.26959 2.20068 -1.96447 0.63015 -0.868554 0.0010901 Ge
21 2 1.42732 6.88632 4.22785 -2.65035 -1.50309 -1.50231 0.677067 0.322896 -1.81989 Ge
25 1 -0.0147336 5.54111 5.45957 0.752907 4.31512 1.64484 -0.532663 -0.208486 1.83404 Si
8 2 4.27019 4.15415 4.14457 -0.139161 -2.75513 -1.94791 -0.757074 -0.534636 -0.264415 Ge
31 2 4.19632 6.92805 6.96523 -4.55455 -1.97338 1.86295 -0.35299 0.0512411 -0.446777 Ge
46 2 6.93397 4.19614 7.04322 0.781541 1.25255 1.54698 -0.707468 -0.358674 -0.23836 Ge
53 2 6.81895 6.92633 4.13393 -0.302727 -3.20268 -1.10562 1.13407 0.615002 0.392703 Ge
57 1 5.56593 5.57025 5.6001 -0.835003 3.93102 1.22294 -0.0531943 -0.940885 -0.185965 Si
40 2 9.62565 4.15839 4.1887 5.43685 1.24133 0.190842 -0.0792542 -0.0447031 -0.167361 Ge
63 2 9.65238 6.91346 6.87125 -1.65788 -3.42435 0.740319 0.474328 0.00925805 -0.151286 Ge
28 1 2.77383 8.28378 5.61641 -4.43702 -1.22294 5.47884 0.058474 -0.14577 -0.664208 Si
30 2 1.36299 9.69177 6.89753 2.98679 2.69003 -1.75274 0.571621 0.43868 0.50327 Ge
24 2 4.11831 9.63296 4.17627 -0.390121 -1.92574 -4.36378 0.342518 1.3185 0.055475 Ge
62 2 6.95436 9.64972 6.97067 3.92451 2.50367 0.141386 0.326341 2.21144 -1.10412 Ge
56 2 9.73082 9.65981 4.16811 -0.618517 1.91895 3.30199 -0.222477 0.595818 -0.444217 Ge
60 1 8.28058 8.31992 5.50798 -1.27096 1.97465 -4.60597 -0.25702 -0.758913 -0.155094 Si
13 2 1.46925 1.42344 9.63641 -2.07575 0.545582 -3.96203 -0.285088 -1.45444 0.73577 Ge
42 1 5.48117 2.71731 8.34662 -2.04238 0.946546 0.720206 0.944811 1.91395 0.247237 Si
45 2 6.93683 1.40721 9.71264 1.66191 0.207881 2.95099 -0.832724 -0.526335 0.39898 Ge
36 1 8.36227 2.71745 -0.010063 -0.0150432 2.74151 2.48367 -0.142413 1.21487 0.077819 Si
10 1 0.102187 2.79688 8.27814 -2.06112 2.58666 4.04226 -1.30025 1.11327 0.657271 Si
17 1 -0.00556867 5.60493 0.00865054 3.99931 -1.67197 0.283782 -1.08285 -0.707532 0.391143 Si
27 1 2.82574 5.557 8.31195 -0.675452 1.34969 3.89066 -1.47129 -0.0226699 0.35353 Si
29 2 1.29593 6.93041 9.63125 -3.55861 0.97567 -3.31237 1.33862 0.114863 -0.534791 Ge
16 2 4.12751 4.17914 9.76942 2.48577 1.82154 -3.16702 0.790393 -0.86782 -1.77099 Ge
61 2 6.94174 6.97358 9.7631 1.72147 0.908427 0.628063 0.255192 0.0708499 -0.761891 Ge
48 2 9.69566 4.18104 9.71322 -0.0191247 0.322407 -2.30553 1.38224 -0.593737 -0.244709 Ge
59 1 8.33516 5.60157 8.37942 3.03514 -0.661952 2.97495 -0.445707 -0.278284 -0.308971 Si
11 1 2.84226 0.00508585 8.22196 0.433567 -1.52827 -0.217626 -0.711321 -0.178023 0.445462 Si
26 1 -0.0524694 8.3166 8.21971 1.97993 -2.11572 0.290877 -0.280143 0.19632 0.831761 Si
32 2 4.18005 9.6684 9.64622 0.828346 0.281078 -3.10483 0.213979 1.12156 -0.2408 Ge
58 1 5.57993 8.30254 8.2673 0.0467613 0.639805 3.01075 -0.0923069 -0.313834 1.9211 Si
52 1 8.37193 8.3334 0.0621892 -6.46308 2.11393 4.38445 -1.27904 0.860568 0.107883 Si
43 1 8.31571 0.0506953 8.35487 -3.40707 3.60608 0.0915402 -0.488234 -0.888777 -0.750449 Si
64 2 9.67613 9.7262 9.6613 1.37721 -0.198589 0.111077 0.479846 -1.08205 0.287435 Ge
ITEM: TIMESTEP
15000
ITEM: NUMBER OF ATOMS
64
ITEM: BOX BOUNDS pp pp pp
0.0000000000000000e+00 1.1085848640000000e+01
0.0000000000000000e+00 1.1085848640000000e+01
0.0000000000000000e+00 1.1085848640000000e+01
ITEM: ATOMS id type xu yu zu vx vy vz fx fy fz element
3 1 2.79379 -0.0294569 2.77272 4.52431 -1.25162 0.857174 0.673313 0.794432 -1.28208 Si
4 1 2.78879 2.7571 -0.0575792 4.08552 -2.37623 -3.90015 0.118324 0.121557 0.699729 Si
7 2 4.17596 1.40893 1.33505 1.02147 -0.389598 3.00537 0.32917 -0.677042 1.20338 Ge
34 1 5.49144 2.8161 2.85662 -0.919004 -0.434938 -0.712215 -0.213601 -0.970652 -1.32195 Si
2 1 0.123883 2.77152 2.78846 -0.520355 0.78428 5.64009 -1.53755 0.20647 -0.528889 Si
35 1 8.30929 0.0208328 2.73459 -4.17003 0.949942 -2.20884 -0.438517 -0.584408 0.239718 Si
39 2 9.70521 1.4261 1.44635 0.506443 2.26843 0.581314 0.519487 0.325824 -0.630336 Ge
6 2 1.41005 4.14671 1.29108 -1.1988 2.94343 1.3114 -0.181299 -0.0475331 1.02017 Ge
19 1 2.71866 5.52744 2.76631 0.850533 -1.8446 2.26821 0.8011 0.802225 -0.298317 Si
23 2 4.19967 6.96196 1.42639 0.891271 0.792376 0.757637 -1.00579 -0.291801 0.296071 Ge
38 2 6.87903 4.13593 1.43686 0.769928 -0.211051 -0.462312 0.885379 -0.0565857 -0.590992 Ge
49 1 5.57537 5.57427 0.0524155 1.76354 1.31676 -0.447755 -1.17714 -0.796448 -0.891952 Si
51 1 8.34704 5.4714 2.75 -0.614567 -4.32294 -5.54998 -0.999128 1.94802 0.449516 Si
55 2 9.69651 6.90823 1.37141 0.812923 -0.414493 0.656911 0.215048 0.178911 -0.219727 Ge
20 1 2.7607 8.36155 0.0647423 3.34963 0.691307 -1.54921 0.830349 -0.736088 0.671256 Si
22 2 1.35446 9.73536 1.38723 -0.781567 1.96809 1.04841 -0.222938 0.163408 0.388962 Ge
33 1 5.60527 -0.0460272 -0.0104214 -0.366951 -0.396059 0.986692 -0.423806 1.19282 -0.00540683 Si
50 1 5.60481 8.32277 2.79882 -4.32848 6.5393 2.26968 -0.817211 -0.0857536 1.17442 Si
54 2 6.93814 9.63894 1.39735 1.43176 0.689789 1.08303 1.20289 0.566746 -1.17564 Ge
1 1 -0.0398887 0.0618413 0.0223512 -4.35707 -4.88612 -1.76066 -0.360338 -1.2887 0.615314 Si
18 1 -0.0371884 8.37915 2.78739 2.43521 -1.90294 0.815701 0.332001 -1.61592 -1.59381 Si
5 2 1.44769 1.31941 4.12946 -1.861 -0.676638 1.52505 -0.893457 0.748442 0.253979 Ge
9 1 0.0135721 0.031428 5.50527 1.34492 3.59168 0.215096 -0.516227 -1.58615 -0.19096 Si
12 1 2.6787 2.72323 5.55193 -3.36349 -1.6233 -1.16974 1.45119 0.56925 0.752674 Si
15 2 4.11543 1.37848 6.96336 -1.5589 -0.390523 0.775944 0.929878 -0.0953133 -0.682751 Ge
37 2 6.92707 1.39117 4.12386 -2.87552 0.0557262 -3.93908 -0.345227 -0.507786 0.264308 Ge
41 1 5.57299 -0.0199069 5.53382 -1.33699 1.73959 -1.46728 -0.517695 1.77394 1.07795 Si
44 1 8.32381 2.73719 5.46603 -0.575718 1.97244 0.0902406 0.149983 0.5322 1.01368 Si
47 2 9.71143 1.36477 6.89285 0.412344 -2.05847 0.918321 -0.127636 0.560653 -0.299323 Ge
14 2 1.33491 4.11004 6.98166 -2.31709 2.71203 3.83387 0.327084 -0.00474769 -0.645859 Ge
21 2 1.33574 6.96412 4.13265 0.555253 -0.664121 3.17394 0.247545 -0.744281 0.306874 Ge
25 1 0.00203872 5.49821 5.5768 1.84195 0.0721402 -3.02023 -0.2025 1.19505 -0.606769 Si
8 2 4.08871 4.16777 4.21816 0.273762 2.49645 -0.804086 -0.64919 -0.508681 -0.668135 Ge
31 2 4.16544 6.9673 6.8549 0.362177 -1.19768 -0.827742 -0.534122 -0.742085 -0.274834 Ge
46 2 6.92822 4.14401 6.86545 -0.243269 0.209874 0.655626 0.838642 -0.484755 -0.0085694 Ge
53 2 6.99796 6.94518 4.22104 2.5469 0.33572 -1.27098 -0.220541 -1.16069 -1.24957 Ge
57 1 5.55505 5.4874 5.49851 -2.0854 -0.281945 1.63158 -0.210982 1.82409 0.772212 Si
40 2 9.70192 4.15811 4.12104 0.137577 1.55973 -3.17137 1.40311 -1.0451 0.62371 Ge
63 2 9.78577 6.98902 6.96942 0.936561 -0.0618462 0.197079 -0.663678 -1.16303 -0.0892088 Ge
28 1 2.7805 8.3723 5.43325 3.54402 2.81063 -1.82164 -0.565569 -0.664271 1.83552 Si
30 2 1.35131 9.67933 6.92323 -2.01749 0.23147 1.97113 1.13647 0.817753 -0.944866 Ge
24 2 4.19319 9.77444 4.17964 0.909751 0.196327 1.00323 0.334264 -1.57221 -1.57002 Ge
62 2 6.86432 9.70736 6.9845 -1.06341 -3.19329 1.32959 1.17231 -0.484245 -0.99624 Ge
56 2 9.67024 9.69376 4.09164 0.108725 -0.831804 0.0833366 -0.29559 1.25747 2.27513 Ge
60 1 8.33743 8.33127 5.62186 2.83988 1.84571 6.89421 0.0319187 0.647078 -0.527419 Si
13 2 1.37316 1.34649 9.78199 1.94313 -0.873812 -1.63458 0.0184865 0.696021 -2.17204 Ge
42 1 5.59778 2.79049 8.29972 -0.189507 -4.56963 -0.842594 -1.34169 -0.24837 -0.0682841 Si
45 2 6.97934 1.40009 9.64611 -0.282691 -0.286041 -4.04329 0.157227 -0.889701 0.739804 Ge
36 1 8.32676 2.77578 0.0206889 -3.81038 -4.10411 -0.437287 -0.906971 -0.0568985 0.450465 Si
10 1 -0.0320322 2.72363 8.34566 5.09218 -4.52633 -2.29704 0.0136658 0.0245495 0.704095 Si
17 1 -0.0312074 5.50383 -0.0482182 2.2129 3.99773 -0.104138 1.11712 1.21704 0.960624 Si
27 1 2.77579 5.5347 8.24922 3.72172 -1.21142 -3.46391 0.549174 0.409812 1.13087 Si
29 2 1.49693 6.9258 9.79038 3.72682 -1.87215 0.634056 -1.7804 -0.363006 -1.82439 Ge
16 2 4.16452 4.15826 9.7049 -0.51153 1.26914 -1.00684 0.793447 0.696141 -0.621396 Ge
61 2 6.83905 6.89312 9.60794 0.162156 -2.79261 -2.01293 1.60914 0.201538 0.629359 Ge
48 2 9.66901 4.15392 9.73091 -4.56482 0.961345 -0.906317 -0.197164 -0.324083 -1.68412 Ge
59 1 8.31702 5.53106 8.24459 -0.79045 2.14681 -0.803008 0.0799667 0.303323 0.697259 Si
11 1 2.73209 -0.0273113 8.33065 0.586847 -0.703643 4.65183 0.112642 0.00112469 0.600854 Si
26 1 0.0777103 8.3463 8.36821 -1.35092 -0.680617 0.41691 -0.437691 -0.747316 0.865665 Si
32 2 4.12013 9.69639 9.77503 -1.73501 0.119601 1.33188 0.392224 0.30976 -1.3354 Ge
58 1 5.46872 8.33233 8.31134 -0.692879 1.14271 -3.90303 -0.244857 -0.0697539 0.289971 Si
52 1 8.3137 8.25477 -0.0949861 3.6626 -4.33843 -3.7125 -0.681763 0.349275 0.884364 Si
43 1 8.35206 -0.0274322 8.24415 1.80493 -0.343203 3.23893 -0.855921 0.757367 0.908921 Si
64 2 9.68567 9.73814 9.68657 -1.98435 1.04766 -2.24206 0.793651 -0.578917 0.202453 Ge
ITEM: TIMESTEP
15100
ITEM: NUMBER OF ATOMS
64
ITEM: BOX BOUNDS pp pp pp
0.0000000000000000e+00 1.1085848640000000e+01
0.0000000000000000e+00 1.1085848640000000e+01
0.0000000000000000e+00 1.1085848640000000e+01
ITEM: ATOMS id type xu yu zu vx vy vz fx fy fz element
3 1 2.69762 0.0488089 2.81032 -4.054 -1.84854 -0.267296 0.531497 -0.745529 0.400569 Si
4 1 2.71228 2.79206 0.0722216 -1.0303 0.764858 1.49828 0.674371 -0.557334 -1.33431 Si
7 2 4.0648 1.39372 1.42358 -0.605461 0.665763 0.796622 1.20922 0.0439427 -0.412185 Ge
34 1 5.59943 2.7428 2.70836 0.260555 0.0807567 2.50431 -0.29029 0.183492 0.814034 Si
2 1 -0.0840699 2.77063 2.6968 4.20326 -0.942237 -2.84435 0.519941 0.0318808 1.33035 Si
35 1 8.39228 0.00315282 2.82337 5.38656 -0.524556 1.6259 -1.51822 0.0407527 -0.8303 Si
39 2 9.67341 1.32186 1.31994 0.654937 -0.403056 3.09421 0.575695 0.767776 0.302479 Ge
6 2 1.39656 4.13829 1.41915 -2.0147 -0.504844 0.541737 -0.615401 1.29498 0.540495 Ge
19 1 2.79733 5.59141 2.76387 -2.92398 -2.99958 -1.46465 0.146355 -1.1434 0.503454 Si
23 2 4.16004 6.9394 1.33098 -1.60213 -0.061491 -2.08018 -0.00669602 -0.662443 -0.0376837 Ge
38 2 6.96525 4.18585 1.34052 -0.178973 -2.04229 2.30108 0.253296 -0.339193 0.44444 Ge
49 1 5.53267 5.50162 -0.0360585 2.99017 0.30153 2.0206 0.398703 1.20709 0.389113 Si
51 1 8.35304 5.59239 2.76673 -0.655188 -1.74885 4.78928 -0.800073 -1.11265 -0.388391 Si
55 2 9.76224 6.9264 1.40832 -1.48415 0.114227 3.46889 -0.761212 0.484877 -0.194374 Ge
20 1 2.73484 8.28504 -0.0244252 -5.31202 2.78659 -2.83721 0.92908 0.496185 -0.499364 Si
22 2 1.44798 9.66665 1.40735 1.65038 0.154448 -2.22925 -1.09786 0.657565 -0.194647 Ge
33 1 5.48513 0.0370057 0.0058022 1.07542 -2.1176 -0.265704 -0.170924 -1.08844 0.410524 Si
50 1 5.5485 8.27512 2.72187 4.34651 -6.90095 -5.0686 -1.07944 1.5703 0.134423 Si
54 2 6.9212 9.75348 1.41427 -3.28258 -0.946824 2.66461 0.273443 0.0493401 0.145251 Ge
1 1 0.0790082 -0.0112351 -0.00306137 3.60017 6.4066 -0.318468 -1.01724 -0.710028 0.15996 Si
18 1 0.0178961 8.30628 2.77021 0.242938 8.17546 5.51821 0.461554 0.828334 0.616603 Si
5 2 1.33072 1.46469 4.18381 1.05262 -2.48838 -2.47633 -0.159773 -0.503737 0.229072 Ge
9 1 -0.0367283 -0.0130978 5.59453 0.086856 0.396272 1.3767 0.863383 1.35254 0.296608 Si
12 1 2.84691 2.82289 5.53637 0.346793 -3.99954 -1.06884 -1.10532 -0.810621 -1.00019 Si
15 2 4.15671 1.40273 6.87499 0.341919 -1.25825 0.899081 0.513052 -0.147678 0.782717 Ge
37 2 6.96566 1.37507 4.18041 1.13875 -0.0935745 -1.64794 -0.237969 0.180356 -0.728581 Ge
41 1 5.54361 -0.00865844 5.52215 3.6573 -3.34993 -0.674335 -0.2404 -0.00353906 -0.245694 Si
44 1 8.31708 2.78068 5.55254 -1.49879 -2.67348 -0.759952 -0.694434 0.176906 0.407505 Si
47 2 9.63154 1.4022 6.98572 0.903038 -1.41609 2.69163 0.724585 -0.625111 -0.867102 Ge
14 2 1.4329 4.15346 6.86503 1.17322 1.23639 -1.14572 -0.90703 0.92429 1.38689 Ge
21 2 1.39491 6.95333 4.17196 0.202727 -1.6043 -1.57661 -0.110983 -0.628153 0.35226 Ge
25 1 -0.0385693 5.54671 5.52965 0.0503044 -4.806 0.995364 0.953621 -0.169797 -0.00188259 Si
8 2 4.2339 4.13507 4.14239 2.1174 0.249587 -1.7867 -0.211464 1.18418 -0.749093 Ge
31 2 4.22173 6.90873 7.02954 0.301501 -0.238251 2.68646 -0.804102 -0.702409 -0.971462 Ge
46 2 6.89472 4.16863 6.92773 -1.12338 2.49612 4.51785 0.475616 -0.515551 -0.141779 Ge
53 2 6.86726 6.90329 4.07636 -2.17668 1.07404 0.0927477 1.39046 0.348515 0.441497 Ge
57 1 5.58249 5.57376 5.53098 4.24477 -3.91983 -4.0124 -1.04934 -0.615543 0.397844 Si
40 2 9.6702 4.16846 4.17134 -1.53297 0.976643 -1.69124 0.26689 -0.234648 -0.883484 Ge
63 2 9.61039 6.87058 6.90099 -0.876417 0.497712 -0.138099 0.645218 0.861639 -0.384112 Ge
28 1 2.78382 8.25098 5.64545 -1.6983 1.63669 -2.05819 0.474571 1.08626 -1.10215 Si
30 2 1.4139 9.71063 6.96179 -0.822943 0.929258 -0.150013 -0.857562 -0.478239 -0.0607257 Ge
24 2 4.11298 9.68611 4.14264 -1.94196 2.41423 0.61936 0.39661 -0.51174 0.435074 Ge
62 2 6.96467 9.7198 6.87827 0.180028 2.48619 2.2488 -0.451451 -1.52018 -0.147309 Ge
56 2 9.74305 9.73213 4.17913 0.71097 0.0231127 -3.23775 -0.0103328 -1.47482 -0.651583 Ge
60 1 8.30004 8.27342 5.41085 -3.30208 -1.52792 -5.62271 -0.232613 0.600378 1.68279 Si
13 2 1.33977 1.43827 9.72421 0.16193 -3.20008 0.929604 1.3149 -0.328837 -0.870796 Ge
42 1 5.49803 2.79203 8.30644 1.25175 0.673453 2.91457 0.432363 -0.775183 0.258955 Si
45 2 6.88931 1.34929 9.71244 0.812403 1.16702 -0.305561 0.0211283 1.18206 -0.71371 Ge
36 1 8.32377 2.77073 -0.0455975 7.54626 -0.26758 -1.37289 0.0392918 -0.402185 -0.0476694 Si
10 1 -0.0106604 2.782 8.2697 -1.63805 2.55522 0.97011 1.00877 -0.140788 -0.0847035 Si
17 1 0.0210489 5.53071 0.047156 -3.6838 -7.02494 -3.98498 -0.0679675 -0.33563 -0.679127 Si
27 1 2.73656 5.55319 8.39054 -1.02801 -0.00481452 -2.67288 0.284709 -0.39446 -1.00172 Si
29 2 1.29814 6.9436 9.70706 0.326426 -0.153357 0.32243 0.84195 -0.555837 0.143497 Ge
16 2 4.12067 4.12963 9.73915 -1.10549 0.849205 0.393524 -0.39271 0.0158936 -0.258977 Ge
61 2 6.96598 6.96637 9.74482 -0.148818 0.583281 -0.330712 0.632594 -1.0194 0.158554 Ge
48 2 9.78545 4.12823 9.68176 1.40173 1.29171 1.69233 -1.56505 0.884516 0.411209 Ge
59 1 8.29836 5.49176 8.31513 2.29513 -1.9897 -0.816248 0.102424 0.497532 0.986637 Si
11 1 2.78483 0.0566346 8.29604 0.714844 0.0220187 -9.0804 -0.080746 -0.496226 0.93862 Si
26 1 -0.0467361 8.26454 8.27187 4.85673 2.98767 -3.81039 0.0193626 0.701051 -0.104382 Si
32 2 4.19031 9.64496 9.65148 -1.51145 0.977835 0.319119 -0.902235 1.13865 0.648135 Ge
58 1 5.62093 8.28084 8.32025 0.779868 0.608131 0.891346 0.180149 1.198 -0.278704 Si
52 1 8.36927 8.3802 0.0813832 0.282368 1.86467 1.30718 -0.351974 -0.824479 -0.874991 Si
43 1 8.27582 -0.029531 8.32349 1.57081 -0.383964 -4.91926 0.660945 0.216091 0.59585 Si
64 2 9.74504 9.69086 9.69781 -1.60207 3.09545 -0.847033 -0.424929 0.36843 -0.00423534 Ge
ITEM: TIMESTEP
15200
ITEM: NUMBER OF ATOMS
64
ITEM: BOX BOUNDS pp pp pp
0.0000000000000000e+00 1.1085848640000000e+01
0.0000000000000000e+00 1.1085848640000000e+01
0.0000000000000000e+00 1.1085848640000000e+01
ITEM: ATOMS id type xu yu zu vx vy vz fx fy fz element
3 1 2.84428 -0.0380568 2.70011 0.216451 2.67518 0.917952 -0.843314 0.0589628 0.237976 Si
4 1 2.81541 2.77284 -0.0689118 -0.591335 0.0122322 -0.00569269 0.075396 0.121417 0.728668 Si
7 2 4.20606 1.37978 1.33018 -1.82228 -0.00167947 1.29501 -0.247956 0.383895 0.414549 Ge
34 1 5.52345 2.77378 2.82282 1.82266 -0.271477 -2.35234 0.0157189 -0.0616288 -0.16944 Si
2 1 0.00753635 2.75948 2.84269 -2.15405 -0.867568 -2.64792 0.71258 0.0224475 -1.28895 Si
35 1 8.20453 -0.00245422 2.72857 1.87032 2.25302 1.11066 2.20028 0.366171 1.4532 Si
39 2 9.70033 1.37843 1.4048 -2.7136 -0.996626 -0.354865 -0.704246 0.376454 0.33524 Ge
6 2 1.38774 4.13427 1.30786 2.69866 -0.94347 -0.398367 0.0544863 0.000410009 1.49392 Ge
19 1 2.78643 5.5035 2.76498 0.266932 4.434 0.618172 -1.14462 0.0137829 -0.0420002 Si
23 2 4.15554 6.91736 1.41682 1.41829 1.81098 3.08021 0.390232 0.439159 0.528562 Ge
38 2 6.89346 4.22102 1.44776 -1.2123 3.84528 2.22515 -0.626479 -0.686504 -0.561737 Ge
49 1 5.49904 5.58334 -0.00138337 -1.17263 -3.80612 -1.32287 0.474741 -0.96705 0.319983 Si
51 1 8.28518 5.5446 2.80931 7.8194 0.227082 -3.9417 1.02907 -0.13399 0.543452 Si
55 2 9.64818 6.8959 1.36534 1.37207 -3.87116 -1.85903 -0.67855 0.386287 -0.533644 Ge
20 1 2.82985 8.28313 0.0133503 0.0131249 -2.8825 2.7632 -1.71958 0.662835 -0.244938 Si
22 2 1.32116 9.67153 1.38457 1.8531 -0.999505 2.29175 1.79554 -0.258869 -0.641119 Ge
33 1 5.5652 -0.0223345 -0.0262959 0.813432 3.82082 -2.93836 0.458169 0.171012 -0.329472 Si
50 1 5.52602 8.34481 2.83614 0.996155 1.05903 2.61121 2.13489 -2.31357 -1.60457 Si
54 2 6.93377 9.68852 1.38564 1.83462 1.22489 1.98077 -1.47051 -0.871937 -0.685431 Ge
1 1 -0.0508593 -0.0466092 0.00922474 1.81319 0.0616835 -1.55358 1.39314 1.90646 -0.697454 Si
18 1 -0.0359536 8.24189 2.69041 -3.86547 -7.98081 -5.56472 -1.10431 1.42142 1.54049 Si
5 2 1.49153 1.35098 4.1458 -1.59917 1.17889 -1.549 -0.870874 0.13941 -0.739557 Ge
9 1 0.0412715 -0.000632524 5.46496 -1.3289 -0.957463 -2.76755 -0.572232 -0.418209 0.59469 Si
12 1 2.75037 2.77553 5.55643 1.06749 3.83902 3.32991 0.296632 -0.92213 0.935647 Si
15 2 4.1954 1.42617 6.94389 -1.32421 -0.106188 2.34574 -1.36696 -0.86636 0.512658 Ge
37 2 6.91148 1.36762 4.21673 -1.65102 -1.01817 -0.0644195 0.0225107 0.615406 -0.608177 Ge
41 1 5.50567 0.00378991 5.57059 -0.274405 -2.27394 -2.13549 0.688576 -0.776453 -0.0542245 Si
44 1 8.34619 2.77809 5.56613 5.78781 0.558153 -3.57893 -0.222242 -0.414421 -0.550048 Si
47 2 9.74579 1.38763 6.89066 -2.01739 -2.03985 1.93928 0.0588764 -0.209124 0.710393 Ge
14 2 1.37892 4.11703 6.95852 0.745471 0.159377 1.7962 0.1096 1.2592 -0.665131 Ge
21 2 1.32497 6.92317 4.099 -2.85009 1.95061 -1.75578 1.52822 -0.449985 -0.0839885 Ge
25 1 0.0488647 5.58513 5.56807 -3.61235 3.17233 -0.154235 -0.500503 -0.965804 0.204296 Si
8 2 4.0936 4.125 4.22571 0.103644 -0.925184 1.67904 0.981267 0.724139 -1.12177 Ge
31 2 4.12749 6.95522 6.86543 0.315871 -0.737479 1.2496 -0.597139 0.192517 1.62707 Ge
46 2 6.96239 4.16406 6.89174 -1.03328 1.74725 -1.43332 -0.17863 1.05602 1.29069 Ge
53 2 6.94697 6.88832 4.24358 0.0810523 -1.39932 0.0318615 -1.01196 1.40707 0.00903045 Ge
57 1 5.45592 5.54508 5.59209 -0.396571 1.22503 1.32721 1.67351 -0.854828 -1.00207 Si
40 2 9.72789 4.17461 4.22321 2.51761 1.73787 -1.18118 -0.250038 0.296056 -0.722135 Ge
63 2 9.7676 6.95554 6.95532 -2.61011 -2.09581 2.60358 -1.22909 -0.318578 0.76251 Ge
28 1 2.75853 8.29683 5.45522 1.86843 -5.4707 0.232451 -0.263695 0.38067 0.112833 Si
30 2 1.3845 9.6796 6.88094 2.3991 3.0883 1.73522 0.156838 0.382241 0.797347 Ge
24 2 4.20447 9.66622 4.10516 1.69213 0.408508 -2.89398 -1.63126 1.61337 1.72987 Ge
62 2 6.91421 9.71327 6.99881 1.17663 2.47281 0.339422 0.0330062 0.979531 -0.24639 Ge
56 2 9.63741 9.67732 4.15326 -1.32041 2.46976 1.56915 0.508521 0.013769 -0.818148 Ge
60 1 8.31207 8.33412 5.67294 4.70071 -3.28072 1.70051 0.0199359 -0.547073 -1.68131 Si
13 2 1.42262 1.44147 9.65898 -3.32568 0.615412 1.28083 -1.56447 -1.75185 1.35011 Ge
42 1 5.61097 2.78215 8.29222 1.52236 2.51312 -4.20657 0.109383 -0.0320335 0.562524 Si
45 2 7.00871 1.39908 9.71668 1.35028 -1.3474 -1.69236 -1.35879 0.538516 0.376678 Ge
36 1 8.29017 2.8404 0.0625125 -4.69109 2.54956 1.69844 0.732973 -0.491422 -0.220661 Si
10 1 -0.00677621 2.80108 8.32416 -1.55841 -3.81289 -4.31181 -0.432264 -0.510524 -0.131843 Si
17 1 0.0226667 5.61361 0.00337694 1.54657 4.89904 4.16451 -0.571972 -1.37465 -0.756172 Si
27 1 2.76472 5.53647 8.29596 0.00551802 0.325942 4.24917 0.274129 0.300311 -0.282697 Si
29 2 1.39111 6.95219 9.6642 1.799 0.109559 2.31122 0.378278 0.237409 0.666121 Ge
16 2 4.1896 4.16245 9.66028 0.211089 0.664182 -2.68847 0.0230739 0.242981 -0.0235095 Ge
61 2 6.85075 6.91851 9.67359 -2.72797 -1.27474 -3.3342 0.0988068 0.410974 0.166205 Ge
48 2 9.68228 4.18967 9.70581 0.450996 -0.475047 -1.60252 0.538542 0.235184 0.924519 Ge
59 1 8.31399 5.60085 8.37661 -2.85086 -0.856894 -5.27715 0.0422244 -0.826269 -2.00834 Si
11 1 2.77262 -0.028254 8.37525 -0.254249 3.29771 4.0564 0.115907 0.75757 -2.42294 Si
26 1 -0.0390673 8.35943 8.35341 -3.21629 -4.01645 0.447792 1.52411 -0.15098 -1.0363 Si
32 2 4.15676 9.67925 9.68026 -0.969318 -3.12281 -1.36333 0.349097 0.110216 1.10609 Ge
58 1 5.51567 8.32896 8.307 -0.755877 -4.57355 -3.31227 -0.366722 -0.673709 -0.542936 Si
52 1 8.23101 8.27964 -0.0707226 4.47198 0.0312809 -0.727762 1.30609 0.563757 1.09815 Si
43 1 8.34674 0.0401523 8.34867 -0.418866 -2.43655 0.414777 0.184596 -0.322002 -1.2322 Si
64 2 9.68379 9.71819 9.69352 1.49869 0.397131 -0.949004 -0.960531 -0.617073 0.615842 Ge
ITEM: TIMESTEP
15300
ITEM: NUMBER OF ATOMS
64
ITEM: BOX BOUNDS pp pp pp
0.0000000000000000e+00 1.1085848640000000e+01
0.0000000000000000e+00 1.1085848640000000e+01
0.0000000000000000e+00 1.1085848640000000e+01
ITEM: ATOMS id type xu yu zu vx vy vz fx fy fz element
3 1 2.74199 0.025354 2.84407 0.106515 -1.32335 -2.82189 0.213773 0.456142 -0.263055 Si
4 1 2.74945 2.75572 0.0528653 -2.01951 1.2775 0.396144 -0.0364672 0.120788 0.104087 Si
7 2 4.1358 1.37269 1.43643 -0.352702 -0.0941998 2.57557 -0.267273 0.132429 -0.141072 Ge
34 1 5.5187 2.80424 2.72922 0.851484 1.04629 1.23583 0.70732 -0.363681 0.130147 Si
2 1 0.0143563 2.81595 2.76634 -2.4443 1.12806 4.16539 -0.534304 -0.81776 0.435448 Si
35 1 8.35521 -0.0329197 2.77007 -4.02542 -3.96516 -5.29233 -0.213795 0.696003 -1.16111 Si
39 2 9.71416 1.39603 1.36783 3.02574 -2.73187 0.467043 -0.015708 -0.370544 0.547183 Ge
6 2 1.38045 4.20258 1.41016 -3.94654 0.749552 0.254204 0.269871 -0.687062 -0.393366 Ge
19 1 2.76768 5.56796 2.7816 5.01728 -2.56304 -3.4556 0.574049 0.640857 -0.160132 Si
23 2 4.19449 6.94505 1.36969 -1.83813 0.842124 -2.66338 -1.08479 0.0841117 0.282729 Ge
38 2 6.96908 4.07187 1.27552 1.51263 -0.527045 -0.367634 -0.767773 1.01651 1.07214 Ge
49 1 5.56041 5.541 0.00907194 -2.01621 5.45751 -2.39365 0.420887 -0.157018 -0.473381 Si
51 1 8.25621 5.55674 2.7022 -8.45784 3.56266 2.37242 1.64669 -0.608869 -0.748183 Si
55 2 9.77603 6.98235 1.43599 2.27674 0.406464 5.28735 -0.0543187 -0.864608 -0.209184 Ge
20 1 2.75759 8.37115 0.0215062 4.71501 -2.36192 -1.18968 0.3638 -0.946466 -0.0716319 Si
22 2 1.39575 9.76254 1.42976 -1.56591 0.278982 0.758837 -0.158259 -0.2935 -0.238871 Ge
33 1 5.52665 -0.00588114 0.0654909 -2.79651 -3.39678 2.5499 0.302462 0.621376 -0.508527 Si
50 1 5.54529 8.34897 2.73268 -3.434 3.01755 2.55825 -0.688125 0.64228 0.800455 Si
54 2 6.94151 9.70038 1.34973 0.232406 1.4432 3.42123 0.200929 0.300048 1.30754 Ge
1 1 -0.013348 0.00269387 0.00505557 -2.66405 -6.58523 2.9649 0.0449695 -0.447986 -0.314682 Si
18 1 0.0682998 8.41093 2.87275 6.57731 2.4341 -0.71076 1.04284 -2.72309 -1.71235 Si
5 2 1.37545 1.40694 4.22617 2.56573 -0.463972 1.69901 -1.30499 -0.464969 -0.840826 Ge
9 1 -0.0332376 -0.0115604 5.62393 1.83717 -2.06597 -0.678156 0.336514 0.214327 -1.03164 Si
12 1 2.74092 2.76488 5.52618 0.894269 2.29743 -4.95796 0.272258 1.51866 -0.213875 Si
15 2 4.07272 1.38903 6.85091 1.5424 1.7045 -1.35616 0.922253 -0.0401982 2.04579 Ge
37 2 6.95131 1.3963 4.0752 0.479365 -2.74189 -0.830857 -1.08578 -0.225856 0.974734 Ge
41 1 5.55006 0.0607984 5.56795 -1.7285 4.33074 2.7836 0.210543 -0.700332 -1.10074 Si
44 1 8.22143 2.77026 5.54521 -3.33238 0.489874 3.26432 2.14524 -0.411462 -1.06051 Si
47 2 9.66082 1.40328 6.94455 -0.992276 -1.00005 1.61059 -0.0674931 0.262118 0.280438 Ge
14 2 1.34221 4.14165 6.8978 0.27196 -1.26556 0.447926 0.982379 -0.416891 1.28944 Ge
21 2 1.44897 6.92873 4.25115 0.714166 -1.63333 0.286387 -0.577716 0.917625 -0.594806 Ge
25 1 0.00300904 5.49775 5.52799 4.42146 -0.695822 -0.807241 -0.550901 0.545963 -0.60716 Si
8 2 4.15124 4.18511 4.13763 0.18437 -0.14977 0.106317 0.116071 -0.364217 0.377869 Ge
31 2 4.20727 6.92921 6.93508 3.10468 -1.28009 1.49523 -0.0557836 0.69212 -0.157265 Ge
46 2 6.91061 4.10563 6.91047 -1.75791 1.09596 1.76588 -1.17535 0.904534 1.32675 Ge
53 2 6.95513 6.9577 4.04027 0.188342 -2.49423 -2.24879 -0.771639 0.159884 1.51332 Ge
57 1 5.60613 5.5557 5.49449 -2.23812 3.6764 -0.232195 -0.559533 0.202902 0.08482 Si
40 2 9.63428 4.1681 4.1098 -2.50951 2.11487 1.057 0.0596564 -0.0827398 0.731648 Ge
63 2 9.75547 6.91844 6.89387 1.26175 -1.2399 -2.79589 -1.20097 0.642317 -0.0687831 Ge
28 1 2.77553 8.41204 5.63306 -0.673882 -0.109809 3.30681 0.452115 -2.13644 -0.465233 Si
30 2 1.32772 9.65142 6.99035 -1.8876 -0.62437 1.08274 0.749256 1.53831 -0.0483321 Ge
24 2 4.11715 9.75736 4.21491 0.681378 -0.416403 -2.35974 1.44049 -0.5171 -0.7072 Ge
62 2 6.89936 9.65806 6.91786 0.726202 0.0338162 1.94797 0.140975 1.15512 -0.314717 Ge
56 2 9.77066 9.71068 4.09997 -0.734072 1.0755 -0.715311 -1.564 1.25287 2.54869 Ge
60 1 8.30144 8.36777 5.45773 -3.54335 1.51312 -2.13488 1.14446 -1.36285 0.680134 Si
13 2 1.39583 1.3646 9.72546 4.97411 2.10197 -3.7282 0.265832 -0.147235 0.179155 Ge
42 1 5.44413 2.7319 8.35751 -1.45708 -0.982843 -1.58191 0.527829 0.447702 -1.496 Si
45 2 6.84597 1.32265 9.65885 1.29137 -2.99086 -2.62879 0.348497 0.0109026 0.579761 Ge
36 1 8.30519 2.65109 -0.0800316 3.92709 0.503431 -4.38208 0.145125 0.879674 0.00932062 Si
10 1 0.0250122 2.74097 8.38402 -0.620631 6.03956 3.74887 -0.563567 0.197105 -1.73534 Si
17 1 -0.00245775 5.48497 -0.0353689 2.18679 -0.59307 -2.2141 -0.213517 1.43016 1.00727 Si
27 1 2.80061 5.53748 8.27769 -1.65731 -1.60446 -0.83822 -0.38751 -0.671578 0.66129 Si
29 2 1.39922 6.89413 9.70352 -0.956715 -0.580941 -2.94333 0.834898 0.0899442 0.450018 Ge
16 2 4.14192 4.14078 9.77972 -1.24014 -0.236157 -0.313156 -0.451155 0.441667 -1.09483 Ge
61 2 6.97687 6.93162 9.7212 2.22112 -0.990708 -0.128672 -0.402163 -0.0523948 -0.250866 Ge
48 2 9.69668 4.10902 9.69172 0.321153 1.86515 -1.40427 -0.535481 0.114981 -0.128746 Ge
59 1 8.33143 5.52523 8.27733 2.85761 -0.173171 9.60097 0.0046511 -0.109802 0.158198 Si
11 1 2.75575 -0.0142593 8.29851 0.131064 -4.77076 2.09897 0.289384 -0.194879 0.674783 Si
26 1 0.0512233 8.26811 8.3554 -2.09747 1.90738 2.38123 -1.71097 -0.201785 -0.302981 Si
32 2 4.2103 9.73521 9.76138 -1.62922 -0.217779 -2.34265 -1.81563 -0.0333704 -0.868826 Ge
58 1 5.53901 8.35662 8.37105 4.5827 3.10567 4.77748 0.603654 -1.37218 -0.29777 Si
52 1 8.33858 8.31364 0.0648244 -8.2065 -0.508956 -2.62427 0.516399 -0.0794971 -1.43541 Si
43 1 8.2625 -0.00586403 8.28131 -1.43908 1.60676 0.525748 0.353912 -0.663898 0.151716 Si
64 2 9.68312 9.68061 9.66336 -1.68928 3.44522 -2.23752 0.164966 0.200832 0.812527 Ge
ITEM: TIMESTEP
15400
ITEM: NUMBER OF ATOMS
64
ITEM: BOX BOUNDS pp pp pp
0.0000000000000000e+00 1.1085848640000000e+01
0.0000000000000000e+00 1.1085848640000000e+01
0.0000000000000000e+00 1.1085848640000000e+01
ITEM: ATOMS id type xu yu zu vx vy vz fx fy fz element
3 1 2.7784 -0.00377144 2.739 1.88422 -1.97375 1.01483 0.398946 -0.695228 -0.445436 Si
4 1 2.81161 2.75697 -0.0223213 2.97081 -1.62919 -3.55924 -0.911134 0.231947 -0.810024 Si
7 2 4.15774 1.36306 1.30409 0.431769 -1.94772 0.413892 0.245327 0.112205 1.54123 Ge
34 1 5.52734 2.71874 2.77569 -3.5664 0.157755 -1.93602 0.26501 0.860581 -0.564493 Si
2 1 0.00698145 2.72636 2.75867 3.76675 1.46381 -2.50721 0.262193 0.911779 -0.479443 Si
35 1 8.28827 0.0641066 2.82789 -2.01093 0.264559 4.82139 -0.299415 -2.04619 -0.558658 Si
39 2 9.62214 1.39527 1.40888 -2.51967 1.14026 3.00098 1.54203 0.0219764 0.0682001 Ge
6 2 1.43901 4.13591 1.35571 1.74391 1.09233 -1.98154 -1.55622 0.295116 0.653637 Ge
19 1 2.72437 5.53461 2.82595 -5.11741 0.244616 3.41591 1.09998 -0.820281 -1.14632 Si
23 2 4.15061 6.83312 1.35804 1.50604 0.121491 2.45816 -1.07269 1.32658 0.0132228 Ge
38 2 6.93646 4.22378 1.46807 0.713025 -0.123445 2.30577 0.102574 -1.5462 0.322171 Ge
49 1 5.59885 5.51456 0.0219199 -1.05688 -3.94574 3.37073 -0.991727 0.418219 -0.426901 Si
51 1 8.40666 5.48812 2.84696 -0.10787 0.91443 -0.520681 -2.5561 1.57823 0.181928 Si
55 2 9.6131 6.89352 1.3742 -1.9849 -1.21065 -0.0693629 0.779197 0.661954 0.618494 Ge
20 1 2.7272 8.32191 -0.0450492 -1.9067 4.53198 2.2514 1.63021 -0.737156 0.0856719 Si
22 2 1.39947 9.666 1.36762 0.34701 0.828338 0.667436 -1.19133 0.766348 0.260532 Ge
33 1 5.57244 0.0491392 -0.0395113 1.61096 0.627358 -0.653282 -0.223712 -1.03249 0.0447765 Si
50 1 5.52351 8.24246 2.72745 0.166019 -1.09728 -2.63696 -0.179869 0.611516 0.494574 Si
54 2 6.8779 9.72001 1.38412 0.680821 -0.424424 -0.186949 1.27253 0.211548 0.29796 Ge
1 1 -0.00985316 0.0513372 0.00785686 -0.958037 3.9738 -2.03239 -0.367205 -1.31223 0.685851 Si
18 1 -0.0459076 8.24592 2.73006 -7.02091 2.39975 0.499566 0.12414 1.20772 -0.565965 Si
5 2 1.40717 1.36453 4.0981 3.88481 -0.997818 -1.01773 0.205822 0.572419 1.28777 Ge
9 1 0.00401196 0.0619548 5.53027 -2.0828 1.86507 1.37222 0.177249 -1.58589 -0.733478 Si
12 1 2.79388 2.73504 5.59004 -2.97502 -5.78897 3.3395 0.235642 -0.160788 -1.45986 Si
15 2 4.21721 1.36367 6.95272 -2.86045 -0.465737 -1.73652 0.55607 0.307293 -0.810387 Ge
37 2 6.9293 1.42136 4.20121 1.1929 -0.936418 -3.54901 -0.0507005 -0.512179 0.00974384 Ge
41 1 5.56399 -0.0765726 5.49581 -0.0948934 0.247404 1.58518 -0.266266 1.17714 1.02849 Si
44 1 8.39701 2.76304 5.54196 -4.13313 0.826048 2.3842 -1.40769 0.424647 0.832125 Si
47 2 9.74182 1.40785 6.9456 2.28836 -2.39595 1.73907 -0.907181 -0.964779 -0.417782 Ge
14 2 1.44157 4.19098 6.88346 -1.30731 0.0481168 -1.82899 -1.00751 0.057587 0.419771 Ge
21 2 1.32144 6.93165 4.10446 -3.39629 -2.08331 -1.52664 -0.0277164 -0.662623 0.94343 Ge
25 1 -0.0385928 5.573 5.55261 -0.753699 0.287564 2.3583 0.909177 -0.0713421 0.0998764 Si
8 2 4.16902 4.11433 4.15891 -2.31302 -1.05793 1.09357 -0.869104 -0.0359669 0.340316 Ge
31 2 4.08848 6.94422 6.91898 -1.81719 -1.5995 -1.64089 0.274126 -1.19605 -0.559714 Ge
46 2 6.97709 4.16396 6.95775 3.47048 -0.0183931 -0.719752 -0.340146 -0.506043 -0.57842 Ge
53 2 6.87819 6.91477 4.21279 1.00154 -0.857226 -1.51149 1.3017 -0.829278 -0.42354 Ge
57 1 5.50193 5.48589 5.58091 0.95085 -2.55553 2.84892 0.295551 0.708713 0.133656 Si
40 2 9.75225 4.12881 4.18329 3.26845 1.16582 -3.41849 0.643075 -0.37645 -0.0984393 Ge
63 2 9.68751 6.96488 6.96891 2.95215 -1.15181 3.97445 0.0994487 -1.03074 -0.366943 Ge
28 1 2.74236 8.26466 5.45541 -0.236847 7.04256 -4.16612 -0.123295 0.799497 0.754505 Si
30 2 1.4339 9.72489 6.85289 -0.360336 0.439417 -0.438425 -0.432196 0.209275 0.0896614 Ge
24 2 4.13857 9.65593 4.13117 -0.529455 1.78108 -2.38583 0.345724 -0.0931676 -0.86821 Ge
62 2 6.93787 9.71529 6.96559 0.890899 0.482169 4.06352 0.371483 -0.372438 0.0372178 Ge
56 2 9.70619 9.6483 4.14643 0.720445 -0.28612 -5.72854 -0.501556 1.00465 0.760212 Ge
60 1 8.31428 8.27676 5.62225 -1.25226 5.45514 3.63375 -0.617214 1.11502 -1.5129 Si
13 2 1.33119 1.38545 9.69675 -2.52519 -1.52867 -0.50557 1.42561 0.914296 -1.10759 Ge
42 1 5.58771 2.78115 8.35751 -1.36728 -0.273288 6.86816 -0.14098 0.212188 -0.323281 Si
45 2 6.98399 1.46959 9.78791 2.30471 0.357202 -1.68328 0.300374 -0.715998 -1.02667 Ge
36 1 8.32335 2.85129 0.10047 -6.37846 -3.14606 6.78887 -0.194898 -0.0188534 -0.842837 Si
10 1 0.00973013 2.79152 8.20953 4.13686 -5.69585 3.80384 0.696825 0.743962 2.31955 Si
17 1 -0.0745693 5.56882 0.0476353 -0.110787 1.02053 0.661353 1.68367 -0.922349 -0.894748 Si
27 1 2.74606 5.5617 8.34431 3.41652 2.92329 -1.77492 -0.0834582 0.238015 -0.179051 Si
29 2 1.30302 6.95067 9.69202 0.545792 -0.839652 0.919632 0.0107986 0.048047 -0.32238 Ge
16 2 4.16677 4.19032 9.70479 1.83122 1.02554 0.435987 0.397585 -0.524597 0.00140032 Ge
61 2 6.87062 6.9644 9.71222 -2.99481 -0.33275 -2.38353 1.27129 0.072544 0.0414785 Ge
48 2 9.71728 4.14757 9.71623 -0.223247 0.0550259 -0.40279 -0.575602 0.576255 -0.763369 Ge
59 1 8.28304 5.59422 8.32879 -1.94349 3.62914 -6.55184 0.807125 -0.530044 0.959108 Si
11 1 2.79646 0.0444725 8.26709 -1.0121 3.40288 0.314141 -0.587011 -1.03335 1.13038 Si
26 1 -0.0134895 8.37926 8.22557 4.57155 -1.41688 2.57353 1.07812 -0.482254 1.15865 Si
32 2 4.20139 9.70991 9.65403 2.49856 0.607682 1.82972 -0.979933 0.0552671 0.111529 Ge
58 1 5.50831 8.2673 8.24994 -7.26561 3.91283 -2.11229 0.390804 1.25132 0.865073 Si
52 1 8.35541 8.36654 -0.010403 3.93027 -0.796817 6.35109 -1.96893 -0.767386 0.233696 Si
43 1 8.37104 0.0105123 8.38578 -0.207443 2.98288 1.33987 -0.747786 0.626409 -0.495201 Si
64 2 9.75537 9.677 9.70669 -0.100975 1.43579 -3.00387 -0.0208376 1.25207 -0.0438387 Ge
ITEM: TIMESTEP
15500
ITEM: NUMBER OF ATOMS
64
ITEM: BOX BOUNDS pp pp pp
0.0000000000000000e+00 1.1085848640000000e+01
0.0000000000000000e+00 1.1085848640000000e+01
0.0000000000000000e+00 1.1085848640000000e+01
ITEM: ATOMS id type xu yu zu vx vy vz fx fy fz element
3 1 2.74974 0.0233027 2.80585 -4.65763 4.92016 3.61116 0.367753 -0.164833 -0.209203 Si
4 1 2.73242 2.80196 0.0295544 0.173376 0.0801182 6.93053 1.70015 -0.392379 -0.0623672 Si
7 2 4.17531 1.40155 1.41851 -1.55422 -1.01374 -0.083024 -0.109067 0.238929 -0.1032 Ge
34 1 5.59083 2.83154 2.8174 -2.0375 -1.64728 3.20112 -1.1192 -1.09493 -0.497444 Si
2 1 -0.0216415 2.77638 2.78116 -3.41979 -3.54313 2.82387 -0.3746 0.116132 0.0908937 Si
35 1 8.39348 -0.0409158 2.718 1.88732 5.80714 0.544907 -1.07498 1.6087 0.805146 Si
39 2 9.75089 1.39472 1.30121 -3.86361 -2.18532 -2.0386 -0.78692 0.13362 0.801274 Ge
6 2 1.37887 4.15575 1.41938 1.93966 1.78589 2.06734 0.121747 0.270836 -0.173156 Ge
19 1 2.81782 5.55571 2.72478 0.175324 2.79031 3.38689 -1.2432 0.493979 1.17191 Si
23 2 4.18427 6.96662 1.42929 2.65441 -2.97343 -2.90866 1.00662 0.0983876 -0.0944794 Ge
38 2 6.87597 4.15129 1.32535 2.52981 3.27278 -2.0145 1.20291 0.18717 0.0279752 Ge
49 1 5.49653 5.55991 -0.0116467 4.70465 4.86049 0.491768 0.146207 -0.0759918 -0.00861301 Si
51 1 8.28682 5.54975 2.70187 5.3482 -5.17661 0.821981 0.7541 -0.431547 0.110224 Si
55 2 9.7563 6.92878 1.36402 2.0588 -1.94933 2.16955 -0.823266 -0.00791027 -0.588222 Ge
20 1 2.80767 8.26855 0.0173274 -4.02864 0.946223 -1.66446 -1.04943 1.50332 0.382695 Si
22 2 1.34919 9.71144 1.43605 3.94355 -0.889795 2.69804 1.63072 -0.640574 -0.867997 Ge
33 1 5.53276 -0.0411953 -0.00255516 -1.45469 2.39276 2.66073 -0.606095 0.598568 0.359428 Si
50 1 5.60361 8.37028 2.86226 0.259288 -1.14806 -1.98572 -0.598956 -0.559119 -1.13886 Si
54 2 6.94849 9.70531 1.36951 -1.84717 3.32845 2.3423 -0.140497 -0.549561 0.252489 Ge
1 1 0.04646 -0.0184361 -0.00689493 0.436644 1.59794 1.14177 -0.467191 0.180686 -0.5934 Si
18 1 0.0078963 8.32468 2.80166 4.35195 0.317025 6.44193 -0.455078 -0.0234419 0.435466 Si
5 2 1.35701 1.39055 4.17304 -1.32714 0.81299 0.232211 0.262794 0.251472 -0.0151241 Ge
9 1 0.0219433 -0.0706551 5.52602 -0.162109 5.44745 4.27728 -0.18199 1.58749 1.62987 Si
12 1 2.76125 2.83469 5.50935 0.626895 3.34475 3.7866 -0.363901 -1.11747 1.35832 Si
15 2 4.14036 1.38854 6.94964 -1.24236 0.211047 0.79723 -0.764233 0.14317 -0.635097 Ge
37 2 6.93066 1.38131 4.18976 0.378501 0.386709 -3.38262 0.776698 -0.608904 -1.53526 Ge
41 1 5.51779 0.0229376 5.5568 -0.216677 -1.9221 -2.36226 -0.148942 0.0836752 0.022404 Si
44 1 8.308 2.77533 5.51327 4.66646 -1.00426 -2.96713 -0.78513 0.263037 0.42137 Si
47 2 9.6548 1.40856 6.88015 -2.09227 -0.39051 3.67907 1.31034 -0.943269 0.522553 Ge
14 2 1.34875 4.1396 7.00126 2.66367 1.77835 -2.09486 0.228133 0.320298 -1.37417 Ge
21 2 1.43634 6.97026 4.17901 1.08594 0.850337 1.42802 -0.343133 -1.37567 -0.394591 Ge
25 1 0.0104185 5.53962 5.55101 -2.80403 -0.474708 -0.266039 0.035296 0.168431 -0.0829933 Si
8 2 4.13995 4.20828 4.14772 3.1061 0.534366 -0.972744 0.895529 0.00434323 -0.058735 Ge
31 2 4.21457 6.96577 6.95724 2.05033 0.137203 4.09251 -0.252739 -1.37585 0.214544 Ge
46 2 6.88427 4.15997 6.86433 -2.54358 1.16094 2.24495 1.54515 0.307344 -0.133209 Ge
53 2 7.00385 6.91488 4.15389 -1.21111 -0.260244 -3.98903 -0.897726 0.354855 -0.697585 Ge
57 1 5.566 5.59321 5.49661 -1.85636 0.522012 -3.40913 -0.603202 -0.188078 0.594635 Si
40 2 9.63873 4.17677 4.17429 -2.62883 3.29105 -1.35654 1.07446 0.207864 -1.12354 Ge
63 2 9.70173 6.92973 6.92404 -0.568774 -0.949857 -1.18029 -0.121482 -0.769804 0.224573 Ge
28 1 2.79692 8.27882 5.61591 -0.0614139 -3.96819 3.64113 0.0915497 1.22114 -0.662606 Si
30 2 1.3798 9.63734 6.98047 -0.124622 -0.66723 2.79772 -0.121901 0.482242 -0.568398 Ge
24 2 4.14424 9.7272 4.2069 -1.95905 0.442329 0.900915 -0.268428 -0.351935 -0.0254365 Ge
62 2 6.8665 9.68623 6.88808 -0.544314 -0.0429626 0.694842 1.46763 -0.587299 -0.411819 Ge
56 2 9.69325 9.71269 4.21366 2.72172 -1.41564 -2.2638 0.596114 -0.861743 -1.96031 Ge
60 1 8.34838 8.28677 5.49081 0.245739 -5.73629 0.561311 -0.8396 0.649875 1.89343 Si
13 2 1.43091 1.40887 9.72134 -0.491813 -1.17721 0.0619771 -1.4608 -0.357717 -0.391468 Ge
42 1 5.58881 2.78548 8.22458 -1.31855 -2.6456 -2.12328 -1.35355 -0.78266 1.9917 Si
45 2 6.88799 1.32338 9.68204 -0.641621 -1.57311 -0.879594 0.682724 0.877053 -1.04885 Ge
36 1 8.30848 2.77232 -0.0896955 5.29809 2.24501 -5.194 -0.773698 -0.787912 1.41362 Si
10 1 -0.0662536 2.79138 8.35979 -4.6219 4.36978 -8.54848 0.838745 -1.47252 -0.618001 Si
17 1 0.0689522 5.51276 -0.0352658 -6.5266 -2.1527 0.16396 -0.804922 0.705125 0.213902 Si
27 1 2.77076 5.52236 8.31277 -3.63091 -0.938634 1.67922 0.953626 0.533119 -0.509065 Si
29 2 1.44806 6.93307 9.66215 -1.9162 -0.801507 -0.618975 -0.716062 -0.559403 0.973617 Ge
16 2 4.16186 4.14696 9.67212 -2.10471 0.618452 0.111759 -0.062876 -0.370355 0.201489 Ge
61 2 6.91539 6.88944 9.68705 0.715582 -1.41557 -0.876342 0.299638 -0.709295 -0.41922 Ge
48 2 9.67767 4.15683 9.7038 0.405133 -1.23255 -0.917732 0.760252 0.320452 0.200781 Ge
59 1 8.32927 5.4603 8.30356 -1.68529 -2.24013 4.94667 -0.964804 1.65165 -0.699949 Si
11 1 2.74148 -0.049525 8.35195 3.18436 1.31472 -3.76618 0.524363 1.06909 -0.701436 Si
26 1 -0.00851605 8.2748 8.33757 -3.96984 3.59351 -5.93898 -0.1672 0.317802 0.0394504 Si
32 2 4.13694 9.67826 9.68955 1.83884 -0.652475 -2.59578 0.641318 -0.360897 0.742254 Ge
58 1 5.59474 8.32147 8.34992 3.67544 -4.49798 1.58756 -1.02424 0.032599 -0.45203 Si
52 1 8.24894 8.27666 -0.052559 1.74217 4.10771 -3.38575 1.74237 0.280133 1.17466 Si
43 1 8.27586 -0.0292782 8.22933 0.537969 -3.5236 3.27601 0.389393 0.126927 1.13501 Si
64 2 9.68433 9.68907 9.70142 0.556184 -2.12851 -3.70009 -0.177288 0.131568 -0.54983 Ge
ITEM: TIMESTEP
15600
ITEM: NUMBER OF ATOMS
64
ITEM: BOX BOUNDS pp pp pp
0.0000000000000000e+00 1.1085848640000000e+01
0.0000000000000000e+00 1.1085848640000000e+01
0.0000000000000000e+00 1.1085848640000000e+01
ITEM: ATOMS id type xu yu zu vx vy vz fx fy fz element
3 1 2.81787 -0.0382532 2.704 1.52882 -2.35957 -0.953107 -1.46789 0.756797 1.66315 Si
4 1 2.77438 2.76963 -0.0342508 -4.18754 2.20647 -3.89721 -1.15415 -0.0579967 1.14894 Si
7 2 4.11624 1.40104 1.40074 1.65353 -1.58502 0.546385 0.843392 -0.271314 -1.49338 Ge
34 1 5.58235 2.7231 2.69095 6.1282 4.09694 1.48845 -0.565992 0.8448 2.09413 Si
2 1 -0.0144575 2.8068 2.76969 3.07922 1.51394 0.00769444 0.613453 -1.14965 0.781382 Si
35 1 8.26512 -0.00922914 2.75908 3.94325 -5.46775 -1.0065 0.934528 0.386935 0.51386 Si
39 2 9.76765 1.36872 1.4405 0.537742 0.0450994 0.988417 -1.44737 -0.63892 -0.6718 Ge
6 2 1.33868 4.14305 1.3773 -1.28932 -1.59488 -1.30578 1.21585 0.232891 -0.438071 Ge
19 1 2.75464 5.51831 2.73902 -0.206886 -2.49689 -3.98429 0.0313278 -0.130047 0.128726 Si
23 2 4.10759 6.91222 1.37775 -1.5992 0.437093 2.25905 1.03118 -0.592001 -0.722964 Ge
38 2 6.96842 4.12685 1.3779 -2.92899 0.0872943 2.32796 -0.464006 0.818948 -0.211907 Ge
49 1 5.54291 5.49471 -0.0407403 -4.14027 -7.02368 0.154636 0.490553 1.22126 1.37254 Si
51 1 8.28058 5.58605 2.7876 -2.41623 2.52571 0.319166 0.541258 -1.07143 0.411428 Si
55 2 9.7017 6.97409 1.44717 -0.928954 -2.47321 2.10517 0.386663 -1.61764 -0.852824 Ge
20 1 2.7834 8.33238 0.0104395 2.4251 -3.14206 -0.417533 -0.929056 -0.151738 -0.749378 Si
22 2 1.36492 9.73371 1.35831 -2.82995 0.891841 1.97405 1.16026 -1.0889 -0.118672 Ge
33 1 5.51078 0.0178752 0.000667569 2.65026 -1.61684 -4.43424 0.381955 -0.180137 0.392289 Si
50 1 5.49675 8.28949 2.73669 2.61846 1.41466 7.50564 0.683341 0.227212 0.371887 Si
54 2 6.92846 9.67971 1.36255 -0.54803 0.553657 0.247412 -0.666864 -0.00194071 0.0982801 Ge
1 1 -0.0104177 -0.04418 0.00207358 2.58589 2.55032 -0.564226 0.718185 2.19165 0.415987 Si
18 1 0.0502802 8.30616 2.70726 -4.77392 -2.52227 -4.79281 -0.764164 1.14781 2.14069 Si
5 2 1.39038 1.36842 4.14733 5.20348 -3.32982 -2.66095 0.332052 -0.176674 -0.930931 Ge
9 1 0.0051749 -0.0126059 5.53452 1.22168 -7.43609 -7.09808 -0.447786 0.700425 -0.161057 Si
12 1 2.80037 2.73775 5.50968 -0.670697 0.914464 -3.78742 -0.386772 0.736488 0.497062 Si
15 2 4.17597 1.36016 6.90558 0.418781 -0.322871 1.68047 -0.433885 0.499816 0.837083 Ge
37 2 6.91938 1.37376 4.20228 0.0727091 -1.9631 1.83877 0.00763374 0.314923 -1.52965 Ge
41 1 5.57245 0.0166035 5.55473 0.346285 -1.54764 1.20877 -0.54338 -1.04073 -0.27567 Si
44 1 8.2695 2.76995 5.55407 0.0520349 -0.289866 0.763805 0.920583 -0.355036 -0.138657 Si
47 2 9.7031 1.41094 6.89702 0.0955174 -0.512342 -0.56659 0.307667 -0.428815 0.585923 Ge
14 2 1.3813 4.1259 6.96472 -0.903473 -2.23553 2.34254 1.02191 0.182213 -1.1414 Ge
21 2 1.42311 6.92406 4.11612 -1.08157 0.584944 -3.80695 -0.120287 0.356832 0.097431 Ge
25 1 0.0481253 5.52486 5.48063 0.239026 0.369433 1.59344 -1.10077 -0.0226237 1.20102 Si
8 2 4.17184 4.16491 4.11387 -4.35831 -0.730879 0.620175 0.672841 -0.594624 0.270295 Ge
31 2 4.13524 6.9227 6.94569 0.0740337 2.92269 -0.677994 0.504594 0.871139 -0.519164 Ge
46 2 6.96266 4.13909 6.93985 0.114359 2.49426 -0.134698 -1.19423 0.618147 1.10523 Ge
53 2 6.8759 6.93525 4.17855 2.31946 -3.40118 2.32626 0.152969 0.338034 -0.266019 Ge
57 1 5.54519 5.54837 5.59776 1.89721 -0.87159 2.50054 -0.323042 -0.633691 -0.858265 Si
40 2 9.67012 4.10107 4.16683 -0.396679 1.77016 1.52473 -0.143789 1.74966 -0.310512 Ge
63 2 9.68483 6.95426 6.88626 2.9717 1.26421 2.99631 1.11597 0.148951 -0.552191 Ge
28 1 2.7755 8.34833 5.52231 -1.16382 -2.3989 -1.96643 -0.0672658 -0.569539 0.320101 Si
30 2 1.37199 9.72794 6.92071 0.394173 -1.42442 -0.440809 -0.0150578 -1.11925 0.559656 Ge
24 2 4.17817 9.70798 4.13988 -0.212725 1.50362 -3.40695 0.183758 0.102672 0.111295 Ge
62 2 6.95735 9.6989 6.90109 -1.82833 2.97428 4.39993 -0.503342 0.772502 0.981327 Ge
56 2 9.68283 9.72565 4.15154 -3.21367 2.82812 0.651735 0.649625 -0.829093 -0.978232 Ge
60 1 8.27763 8.36024 5.51361 2.58033 0.536243 -2.11854 0.71786 -1.01341 -0.166315 Si
13 2 1.36016 1.38645 9.69777 2.14278 0.693247 -1.51214 1.0679 -1.30577 0.703616 Ge
42 1 5.48762 2.77323 8.36662 6.44008 5.11521 -1.97634 1.13114 0.0709884 -1.16964 Si
45 2 6.90213 1.40463 9.72741 3.01029 -1.68077 2.19977 0.413355 -0.546247 -0.353661 Ge
36 1 8.32585 2.70721 0.0581326 -2.78695 3.41478 2.93278 1.07323 0.951708 -1.08551 Si
10 1 0.0487433 2.71627 8.34341 0.0149116 0.0295599 6.75239 -1.6237 1.19995 -0.924811 Si
17 1 0.0246989 5.58765 0.0260684 4.80309 2.85447 1.75576 -1.3227 -0.616206 0.0021075 Si
27 1 2.81154 5.5389 8.3117 -0.397878 -1.21262 0.656743 -1.42856 -0.26884 0.660712 Si
29 2 1.36048 6.92148 9.69508 1.75574 1.62345 -4.14215 1.57467 0.26354 0.242858 Ge
16 2 4.14079 4.15372 9.73777 2.93582 2.2447 -2.07624 -0.0776661 0.0673535 -1.09522 Ge
61 2 6.95261 6.96183 9.71708 -4.75085 -0.800557 -2.44259 -0.0855455 -0.665194 -0.490431 Ge
48 2 9.74145 4.14808 9.70203 -1.61028 1.6665 1.47109 -0.626477 0.0868938 0.452708 Ge
59 1 8.35788 5.59851 8.28023 3.43232 -2.44552 -4.36628 -0.535824 -1.24855 0.983875 Si
11 1 2.76249 -0.00138515 8.30927 -4.85464 -2.9617 2.28214 0.093154 0.319502 -0.0148197 Si
26 1 -0.0165663 8.30006 8.3594 1.45187 -1.12232 2.94153 -0.187577 1.02714 -1.1464 Si
32 2 4.16107 9.71886 9.7016 -0.986602 -0.0384022 -2.22061 -0.0904969 -0.362971 -0.367578 Ge
58 1 5.5535 8.32936 8.29352 -0.436357 2.19372 -0.6939 -0.0229218 -0.0167416 0.461615 Si
52 1 8.36796 8.28465 0.049398 -3.84722 -1.48471 0.0975063 -0.836175 1.25722 -0.844601 Si
43 1 8.33201 0.0280647 8.30833 -0.785527 2.24406 -6.05327 -0.322706 -0.15926 0.396548 Si
64 2 9.71766 9.74505 9.76202 -0.717954 3.08387 -1.24778 -1.07342 -1.5394 -1.42401 Ge
ITEM: TIMESTEP
15700
ITEM: NUMBER OF ATOMS
64
ITEM: BOX BOUNDS pp pp pp
0.0000000000000000e+00 1.1085848640000000e+01
0.0000000000000000e+00 1.1085848640000000e+01
0.0000000000000000e+00 1.1085848640000000e+01
ITEM: ATOMS id type xu yu zu vx vy vz fx fy fz element
3 1 2.74475 -0.0130009 2.78522 2.26662 -0.748667 -4.46335 0.49988 -0.114269 -0.579111 Si
4 1 2.8024 2.73584 -0.0300143 4.39694 -1.68028 1.49599 -0.359319 0.692377 0.0391166 Si
7 2 4.17129 1.35631 1.34455 -4.98895 -0.158265 4.13397 -0.381617 -0.269295 1.08427 Ge
34 1 5.44972 2.76152 2.83142 0.151902 -4.35429 -7.64032 1.75486 0.0282702 -1.20849 Si
2 1 0.0670591 2.73188 2.7105 -4.20057 1.7791 -2.41183 -0.895323 1.43964 0.0688035 Si
35 1 8.28651 0.0203353 2.80245 -3.01932 1.16246 -2.8502 0.676357 -0.635188 0.00775687 Si
39 2 9.66806 1.40016 1.39006 1.06098 -1.25408 0.458421 0.147681 -0.0399153 -0.117643 Ge
6 2 1.47554 4.1876 1.37168 -0.66314 1.66973 1.03533 -1.27162 -1.13788 -0.521091 Ge
19 1 2.79362 5.5249 2.80757 2.50099 1.46475 1.00871 -0.468275 0.568593 0.105022 Si
23 2 4.15723 6.88902 1.41559 -1.25922 -0.338663 0.856591 -0.790409 1.51948 -0.197037 Ge
38 2 6.89633 4.20458 1.47265 3.81082 0.771725 -1.47089 -0.136047 -1.29269 -1.1413 Ge
49 1 5.55926 5.63295 0.0588354 1.89916 2.91462 -4.44071 -0.479723 -2.36242 -1.18655 Si
51 1 8.33793 5.5183 2.7895 -0.826931 1.23738 -1.52954 -0.00515013 1.05072 0.366956 Si
55 2 9.64416 6.9152 1.30071 2.88637 0.376155 4.55976 0.850282 -0.0744419 1.35069 Ge
20 1 2.78133 8.31083 -0.0165641 2.96432 0.683778 3.73848 0.0767644 -0.288181 0.871655 Si
22 2 1.35822 9.69251 1.35486 -0.0521956 2.87468 2.33116 0.0342164 0.249112 0.595802 Ge
33 1 5.58788 -0.0300792 0.000353682 -3.30262 1.77487 2.41533 0.129613 0.987864 -0.353306 Si
50 1 5.55526 8.29603 2.72017 -3.60514 -0.435795 -5.08059 -0.0413071 0.277934 1.49827 Si
54 2 6.94995 9.68725 1.39047 1.94467 3.30629 2.20798 0.0721672 0.308834 -0.144378 Ge
1 1 -0.0312292 0.040865 0.00190831 -3.66136 -8.83507 0.982793 -0.137208 -1.18862 0.00696368 Si
18 1 -0.0590181 8.33428 2.77765 6.98858 -2.74058 -4.49432 0.893205 -1.74325 -1.89952 Si
5 2 1.34032 1.39242 4.13368 -1.8489 0.846404 0.932938 1.39774 -0.244433 0.555402 Ge
9 1 -0.019602 0.0633457 5.53852 1.28659 0.493234 3.338 0.0304837 -1.67417 -0.296173 Si
12 1 2.75436 2.74243 5.56786 2.55746 -0.179284 -1.67095 0.0398662 0.775823 -0.239958 Si
15 2 4.19858 1.37264 6.92934 -0.980365 -0.772485 -1.7814 -0.523038 -0.0736578 -0.43205 Ge
37 2 6.93323 1.43654 4.18919 0.686197 -1.15487 0.139954 -0.453457 -0.788421 -0.0829034 Ge
41 1 5.54244 -0.0264224 5.51951 1.61692 4.49816 0.379741 0.757749 0.657767 0.627336 Si
44 1 8.36441 2.77415 5.56104 -0.184523 0.448618 -1.40928 0.137779 -0.202664 -0.473108 Si
47 2 9.74132 1.41803 6.95428 -2.33618 -0.275277 1.43645 -1.11458 -0.772829 0.174415 Ge
14 2 1.39747 4.22712 6.9445 -0.255987 0.638099 2.73064 -0.0598325 -1.09182 -0.545682 Ge
21 2 1.31424 6.90381 4.14711 0.255417 0.568546 0.369714 0.818386 0.598032 0.102225 Ge
25 1 -0.0473304 5.56006 5.5928 3.46416 -1.16112 -5.87553 0.103495 -0.256598 -0.668476 Si
8 2 4.15974 4.15996 4.18476 1.72401 1.8406 -1.34413 -1.24523 -0.672185 0.342602 Ge
31 2 4.11557 6.87665 6.87341 0.938775 -2.34303 3.70499 0.693291 1.10546 0.130979 Ge
46 2 6.97328 4.11397 6.90925 0.704836 -1.06845 -0.963091 -0.977547 1.09342 0.432145 Ge
53 2 6.95443 6.96399 4.18515 -0.729901 -0.951567 -3.10086 -0.245458 -0.953928 -0.658441 Ge
57 1 5.54686 5.5058 5.50916 -0.449371 3.07298 0.295177 0.863709 0.546615 0.872217 Si
40 2 9.75057 4.11744 4.13674 -2.95101 -0.850778 -3.0002 0.0984645 0.24097 0.173394 Ge
63 2 9.65131 6.93481 6.98284 -3.26338 -0.432208 -0.92402 0.453196 -0.482527 0.325435 Ge
28 1 2.77656 8.32595 5.48737 0.798326 1.32471 2.36519 -0.930337 -0.721904 0.654591 Si
30 2 1.41171 9.74622 6.90055 -0.917977 2.20921 3.50024 0.359057 0.0918332 -0.00766528 Ge
24 2 4.17943 9.68735 4.17289 -0.951236 1.85024 -0.668657 -0.217903 -0.036397 -1.65674 Ge
62 2 6.91929 9.67777 6.92529 1.66362 -1.46753 -1.44372 0.0940152 0.827828 0.811387 Ge
56 2 9.71429 9.62677 4.15432 0.572827 1.47579 -0.589707 -1.2609 2.61958 1.24609 Ge
60 1 8.32323 8.30609 5.60381 -1.65046 1.60658 -0.441379 -0.0703579 0.141462 -0.87234 Si
13 2 1.35098 1.38032 9.70714 -1.7017 1.07287 -0.732606 0.766136 0.561526 -0.718039 Ge
42 1 5.55836 2.75201 8.28503 -6.76387 -4.98142 0.450611 -0.263527 1.06876 0.111032 Si
45 2 6.93633 1.44101 9.67094 -2.41958 -0.669864 -1.90217 0.182517 -1.16911 1.25745 Ge
36 1 8.32319 2.81593 -0.00653709 1.01239 -4.75799 -0.991631 -0.998132 0.0882527 0.765043 Si
10 1 0.0188915 2.80686 8.27516 2.37981 -2.45818 -1.30782 0.267562 -0.0100462 1.01466 Si
17 1 -0.0342139 5.4833 -0.0420967 2.09654 -1.19626 -2.24566 0.950062 0.845527 1.01213 Si
27 1 2.76767 5.57798 8.31212 3.22006 0.805148 -2.1604 0.0507913 -0.560253 0.311697 Si
29 2 1.39674 6.89214 9.73826 -2.28953 -1.69789 0.146437 -0.506541 0.818119 -1.04625 Ge
16 2 4.14433 4.17256 9.67349 -2.15474 -0.132796 2.89987 1.29527 0.277578 0.628478 Ge
61 2 6.89924 6.96522 9.71495 -0.430763 -0.102294 -0.107353 -0.669284 0.259084 -0.430505 Ge
48 2 9.6921 4.15152 9.66803 1.55626 -1.73008 -1.38191 -0.157178 -0.213476 -0.0753522 Ge
59 1 8.2436 5.54379 8.38487 0.94492 4.00977 2.96055 0.810417 -0.094165 -1.24487 Si
11 1 2.82651 0.031347 8.33666 3.02964 -0.497717 -0.468718 -1.08708 -0.378692 -0.197739 Si
26 1 0.0557256 8.31634 8.27049 -1.26795 -4.49339 2.16975 -0.39586 -0.345347 1.05323 Si
32 2 4.17568 9.71929 9.71961 0.9366 0.472262 -0.656384 -0.203703 -0.475223 -0.359804 Ge
58 1 5.47781 8.31224 8.28529 2.9824 -2.91502 -0.465516 0.549429 -0.410621 0.0240143 Si
52 1 8.29243 8.32836 -0.0453096 3.4534 -3.56476 -0.301326 0.0521235 -0.151258 0.637461 Si
43 1 8.33377 -0.0104371 8.37831 1.39003 -0.77115 0.87149 -0.0326907 0.132474 -1.54842 Si
64 2 9.72198 9.64655 9.70844 2.76492 2.57924 -0.636296 0.472064 1.05294 -0.355768 Ge
ITEM: TIMESTEP
15800
ITEM: NUMBER OF ATOMS
64
ITEM: BOX BOUNDS pp pp pp
0.0000000000000000e+00 1.1085848640000000e+01
0.0000000000000000e+00 1.1085848640000000e+01
0.0000000000000000e+00 1.1085848640000000e+01
ITEM: ATOMS id type xu yu zu vx vy vz fx fy fz element
3 1 2.76035 0.0478091 2.83417 -0.690738 -1.94759 2.45661 0.973328 -0.364928 -0.82883 Si
4 1 2.72555 2.81462 0.0535818 -0.370171 -1.17454 -5.38061 0.748003 -0.646631 -0.590996 Si
7 2 4.20396 1.41502 1.39691 0.545589 -1.54868 -1.70952 -1.37047 0.255149 0.626514 Ge
34 1 5.58582 2.8095 2.77655 -4.91405 2.08241 5.12389 -0.845597 -0.28187 -0.784841 Si
2 1 -0.0564514 2.79419 2.837 7.11615 -4.30823 -2.07145 0.202997 -0.590651 -0.323524 Si
35 1 8.3571 -0.00318112 2.77382 -1.69594 -0.555903 1.56409 -0.956954 -0.328649 -1.28654 Si
39 2 9.74421 1.37507 1.34021 -1.64038 -0.309949 1.90438 -0.556152 0.44224 0.666976 Ge
6 2 1.33412 4.16699 1.47204 2.50511 2.75031 1.10347 -0.00483123 0.487624 -0.756406 Ge
19 1 2.75365 5.59628 2.75287 1.20102 -3.87109 -3.26646 1.46462 -0.778689 -0.470273 Si
23 2 4.19989 6.94516 1.34602 1.13348 -3.83007 0.0862124 -0.594112 -0.0219818 0.0795564 Ge
38 2 6.91694 4.10422 1.30144 -0.758335 3.98147 4.76901 1.0936 0.959222 1.30619 Ge
49 1 5.54929 5.46405 -0.0613947 1.0319 2.11926 3.96428 0.476269 2.08028 0.287323 Si
51 1 8.33255 5.55035 2.74847 -0.82372 -1.26409 -0.859678 -0.732122 -0.0793519 -0.907644 Si
55 2 9.72799 6.99963 1.39326 -2.83108 -1.21434 -0.761107 0.0417615 -0.466842 1.19993 Ge
20 1 2.70608 8.33208 -0.0182187 -0.127625 -0.771145 -6.15106 1.88926 -0.687772 0.0554495 Si
22 2 1.43693 9.70641 1.41567 -0.241825 0.715771 0.739799 -0.909423 0.545122 0.374537 Ge
33 1 5.52219 0.0132631 0.0120206 2.32138 -5.89629 -2.48619 -0.163253 -0.859579 -0.0628728 Si
50 1 5.55155 8.3402 2.82822 2.41781 -1.93078 -2.1862 -0.947493 -0.0660472 -1.42478 Si
54 2 6.89022 9.65241 1.34271 -1.78084 -0.603562 1.67116 0.597476 1.81307 1.83188 Ge
1 1 0.0671384 0.00151153 -0.0190329 2.87889 6.42323 -1.42583 -1.26105 -1.17467 0.265884 Si
18 1 0.0686367 8.32325 2.84635 -6.15039 6.28942 4.78836 -0.00268 -0.0734835 -0.464448 Si
5 2 1.36666 1.39668 4.19996 1.14114 -1.28604 -2.066 -0.399409 0.379689 0.592244 Ge
9 1 -0.0301514 -0.0168626 5.59766 -1.96689 3.65637 -2.26699 0.611816 0.510392 -0.589065 Si
12 1 2.78065 2.804 5.57538 -0.921051 -3.98333 0.248661 0.347174 -0.454918 -1.16891 Si
15 2 4.1353 1.38239 6.95544 1.51876 -0.672037 1.19043 0.437129 0.591666 -0.200637 Ge
37 2 6.91319 1.39036 4.10475 0.407167 1.52765 0.391282 0.320922 -0.584996 0.821407 Ge
41 1 5.53695 0.0179792 5.55383 -1.1168 -5.19902 -2.58342 -0.255895 0.514236 -0.382261 Si
44 1 8.24705 2.7635 5.52016 -1.9641 0.341381 2.84924 -0.0237382 0.493697 0.686062 Si
47 2 9.65767 1.40265 6.91054 1.41652 1.6732 1.80146 -0.248123 -0.401046 0.309769 Ge
14 2 1.37732 4.1344 6.91513 0.855753 2.03312 1.73083 -0.320476 0.259273 0.623646 Ge
21 2 1.51295 6.91144 4.20674 -2.12566 -2.15666 -2.8047 -2.51357 0.390862 0.224359 Ge
25 1 0.00906257 5.51129 5.52914 -1.67563 1.95348 4.60774 0.923688 0.593126 -0.182035 Si
8 2 4.16091 4.19775 4.10501 -0.940342 1.13093 1.17398 -0.0559642 -0.00113322 1.1447 Ge
31 2 4.20186 6.94639 7.00625 -0.880371 -2.50957 0.311736 -0.275442 -0.729438 -0.262108 Ge
46 2 6.8572 4.17103 6.94281 1.33953 -0.731899 -0.228721 0.767055 -0.721662 -0.96076 Ge
53 2 6.93175 6.95015 4.10668 1.73965 0.414551 2.19623 0.265509 -0.850193 0.509251 Ge
57 1 5.56303 5.58484 5.5309 0.492602 -2.92237 -2.49291 -0.824153 -0.0261991 -0.112767 Si
40 2 9.64459 4.18718 4.20547 -0.0212582 0.383571 0.286996 0.136387 -0.509215 -0.706419 Ge
63 2 9.73261 6.89973 6.87297 0.210442 1.17603 2.45828 -0.722061 0.904312 0.244546 Ge
28 1 2.78782 8.29302 5.63074 3.9166 1.9635 -4.63828 0.875071 0.43665 -0.477775 Si
30 2 1.36397 9.65836 6.93832 -1.09969 0.983314 -0.065726 -0.308649 0.702526 0.102169 Ge
24 2 4.14402 9.71708 4.21722 0.6427 1.74977 0.486829 -0.233303 -0.197498 -0.160195 Ge
62 2 6.89066 9.69306 6.87881 -1.59155 -0.843775 2.1608 0.609114 -0.676085 0.179709 Ge
56 2 9.71876 9.72034 4.17814 0.357101 -4.13251 -3.02251 -0.0537932 -0.562287 -0.15556 Ge
60 1 8.29493 8.29904 5.4803 -0.268436 -0.280263 1.4591 0.613824 0.280386 0.980344 Si
13 2 1.40034 1.36702 9.69842 -2.42414 -1.12199 0.279377 -0.113987 1.15532 -0.280121 Ge
42 1 5.51617 2.80504 8.35621 4.14699 1.86686 0.340348 0.0165043 -1.5037 -0.642645 Si
45 2 6.88624 1.31311 9.69089 3.02055 1.68979 -2.04215 0.595011 1.17484 -0.651924 Ge
36 1 8.30184 2.74019 -0.0597281 1.51751 1.73841 -1.43576 0.685216 -0.40793 -0.148793 Si
10 1 -0.0217576 2.7584 8.30133 1.38824 -0.700535 -1.70445 0.610547 -0.310913 0.0504751 Si
17 1 -0.0253277 5.57304 0.05123 -2.29127 -1.83526 -1.72639 0.602601 -0.454412 -1.16893 Si
27 1 2.75101 5.49964 8.32681 0.760876 1.24668 1.30341 0.413527 0.841615 -0.895917 Si
29 2 1.39051 6.91058 9.66284 0.481301 -1.66635 0.583624 -1.20227 0.312698 0.85318 Ge
16 2 4.13468 4.16018 9.67474 -2.19366 2.55193 -2.64476 -0.800526 -0.630505 1.12035 Ge
61 2 7.06033 6.90448 9.71397 -0.730803 -0.131112 -1.94631 -1.59285 -0.379137 -0.343082 Ge
48 2 9.7211 4.16553 9.66117 0.170479 1.28258 -1.39971 -0.535026 -0.0670639 0.683113 Ge
59 1 8.3364 5.49429 8.21835 -2.40465 -3.04126 -0.589009 0.39415 0.85627 1.21151 Si
11 1 2.72195 -0.00610645 8.27226 1.89186 0.95567 2.81653 0.97054 -0.467567 1.01259 Si
26 1 -0.0382218 8.34289 8.31971 5.06531 2.08094 -4.1771 0.0603454 -1.46287 -0.0121624 Si
32 2 4.14937 9.70729 9.7103 0.697052 0.304668 -0.533458 -0.520788 0.229364 -0.360109 Ge
58 1 5.60517 8.32789 8.37153 -3.86244 4.10505 -1.96113 -0.142817 -0.339928 -0.00059648 Si
52 1 8.32604 8.34761 0.0482398 -0.46186 1.00699 -0.441671 -0.0444535 -1.24396 -0.558299 Si
43 1 8.26947 -0.0456256 8.2534 -0.396761 -1.10351 3.28207 0.413182 0.415133 0.923722 Si
64 2 9.63487 9.66434 9.72689 -0.486384 -0.44726 -1.05873 1.37482 1.77905 -0.645163 Ge
ITEM: TIMESTEP
15900
ITEM: NUMBER OF ATOMS
64
ITEM: BOX BOUNDS pp pp pp
0.0000000000000000e+00 1.1085848640000000e+01
0.0000000000000000e+00 1.1085848640000000e+01
0.0000000000000000e+00 1.1085848640000000e+01
ITEM: ATOMS id type xu yu zu vx vy vz fx fy fz element
3 1 2.78655 -0.0169851 2.70691 -1.78227 2.1286 -0.704014 -0.368844 -0.79938 -0.193928 Si
4 1 2.80248 2.74774 -0.000425529 0.904204 0.785029 6.24883 0.817631 -0.172931 -1.21638 Si
7 2 4.19455 1.36997 1.37951 1.76623 -1.66756 2.0409 -0.438498 0.104418 -0.0561932 Ge
34 1 5.55686 2.72238 2.78366 2.77234 -2.95516 0.789893 -0.372939 -0.160702 0.454043 Si
2 1 0.0151006 2.7597 2.76748 -4.92404 3.90885 2.9415 0.975124 -0.254724 -0.733017 Si
35 1 8.29171 0.0056129 2.76064 4.08751 3.09391 3.30124 0.118782 0.263224 0.777689 Si
39 2 9.70228 1.40854 1.42424 2.0825 -1.42485 -1.84078 -0.835524 0.000163233 0.20544 Ge
6 2 1.40739 4.09487 1.31752 -0.0900151 -0.227667 1.86739 -0.333275 1.3509 1.46083 Ge
19 1 2.7481 5.49903 2.81531 -5.37286 5.17935 3.16536 -1.01157 -0.0675806 -0.785621 Si
23 2 4.09405 6.93373 1.48956 -0.248012 0.71308 1.85695 1.17312 -0.56528 -0.677891 Ge
38 2 6.88557 4.14484 1.4679 -1.68916 -1.92934 -1.8901 0.318994 1.10699 -0.264583 Ge
49 1 5.50854 5.58097 0.078808 -0.49481 -5.47276 -2.73388 -0.127517 -0.83827 -0.177846 Si
51 1 8.3149 5.52543 2.81978 3.90181 -1.22702 2.59692 0.168845 -0.339462 -0.0941985 Si
55 2 9.62858 6.89359 1.32809 0.34501 1.17851 1.09818 -0.0194711 -0.503619 0.152162 Ge
20 1 2.83822 8.30722 0.0591597 -7.53119 3.66234 2.73599 -1.68128 0.755597 -1.48864 Si
22 2 1.30323 9.68023 1.34065 0.596143 0.338991 1.22002 1.09461 -0.0121249 0.515143 Ge
33 1 5.55801 0.0222097 -0.003906 -0.117598 5.91055 2.19492 -0.041329 -0.675506 -0.141879 Si
50 1 5.54371 8.32216 2.76055 0.736989 0.622117 3.38959 1.66869 -0.748808 -0.236563 Si
54 2 6.98186 9.70988 1.32196 -0.56077 -1.82517 -1.57588 -1.53875 -0.25765 1.19529 Ge
1 1 -0.081501 0.0215565 0.0309089 2.89696 0.162077 -2.15152 2.08538 0.728729 -0.789944 Si
18 1 -0.0965325 8.24636 2.67244 3.26459 -2.34967 -0.0956202 -0.185892 2.06126 1.41867 Si
5 2 1.41121 1.34347 4.08272 1.60326 -2.08066 -1.43238 0.337394 0.867128 0.434483 Ge
9 1 0.0684314 -0.0170358 5.45797 -1.00643 -1.95542 4.10101 -0.27275 0.0580571 1.08416 Si
12 1 2.74475 2.7765 5.51447 0.292323 2.28362 4.93767 0.205547 -1.17711 0.815704 Si
15 2 4.18335 1.37119 6.95151 -1.45304 -0.939383 0.413694 -1.2452 0.566542 -0.721149 Ge
37 2 6.90144 1.36571 4.21921 1.08621 -1.46806 -1.37492 1.23853 0.529657 -0.693801 Ge
41 1 5.51666 0.00631318 5.56263 1.03403 1.45762 2.05391 0.0978648 -1.31129 -0.487208 Si
44 1 8.41188 2.76489 5.55022 1.9707 -2.10289 -4.38702 -0.891675 -0.0334778 -0.41622 Si
47 2 9.78282 1.35183 6.87863 0.271592 0.697547 1.1669 0.125535 0.837012 0.803689 Ge
14 2 1.36584 4.15717 6.95586 0.708205 -1.32517 1.37223 -0.113557 -0.0389132 -0.655011 Ge
21 2 1.28743 6.95452 4.09329 3.23509 -1.12932 -2.15287 0.802941 -1.08311 0.165556 Ge
25 1 0.0156091 5.5786 5.56602 -1.93996 -4.00099 -1.78868 -0.13404 -0.598416 -0.190961 Si
8 2 4.14353 4.0813 4.11942 -0.652006 1.40084 -3.2932 0.296735 0.92098 1.05225 Ge
31 2 4.04239 6.96148 6.82779 1.67209 0.487857 3.64822 1.08323 -0.632647 1.34557 Ge
46 2 7.01962 4.16524 6.95283 -1.21481 2.21618 1.77352 -0.378038 0.277512 -0.080769 Ge
53 2 6.92136 6.89587 4.21842 0.694957 0.0838805 -2.91584 -0.133941 0.825904 0.312516 Ge
57 1 5.47261 5.48672 5.60028 1.02748 0.66685 -0.0201811 0.952903 0.0723496 -1.11708 Si
40 2 9.80566 4.13369 4.14873 -2.58213 1.89019 0.220424 -1.44991 0.937391 0.587459 Ge
63 2 9.72183 6.93585 6.96123 0.295887 -1.34202 0.210137 -0.0473713 -0.0587704 0.360121 Ge
28 1 2.69491 8.30474 5.44094 -3.51236 -3.53807 2.23245 0.819522 0.615908 -0.489309 Si
30 2 1.44811 9.71062 6.86864 0.0999288 -1.19782 1.22898 -1.79849 -0.543066 1.16404 Ge
24 2 4.17348 9.65317 4.07225 -0.47242 2.48222 -1.04145 -0.807619 1.42506 1.68661 Ge
62 2 6.9807 9.77305 6.9589 -0.730902 2.02838 -0.898775 -0.823996 -0.810698 0.606758 Ge
56 2 9.66974 9.73679 4.19362 -0.0177195 1.44544 0.288351 0.606397 -1.47077 -1.72121 Ge
60 1 8.37146 8.33079 5.62885 -2.0234 0.344622 -1.91248 -1.42729 -0.0614865 -1.13856 Si
13 2 1.40666 1.39097 9.66539 0.679472 -1.02892 -1.33533 -1.26304 -0.118739 1.43092 Ge
42 1 5.61656 2.7297 8.2646 -2.19386 0.685862 1.63351 -0.0900821 0.85462 1.07582 Si
45 2 6.9267 1.43135 9.78265 -2.1333 -4.15148 0.734263 0.987396 0.190414 -0.910389 Ge
36 1 8.29322 2.82304 0.117226 -2.80052 -0.348806 0.981709 0.0529695 -0.54969 -0.987055 Si
10 1 -0.0393084 2.80382 8.35759 -2.05726 1.58542 -1.01554 0.477931 -0.573624 -0.650445 Si
17 1 0.0399735 5.57643 -0.0122583 -1.554 2.106 2.87974 -0.343633 -0.641664 -0.279371 Si
27 1 2.74023 5.55956 8.27619 -1.70903 -3.10779 -1.60934 1.29549 -0.581488 0.596276 Si
29 2 1.4272 6.96453 9.66272 2.21093 -1.89528 -3.96618 -0.227337 0.0107861 1.18814 Ge
16 2 4.24122 4.13459 9.67156 0.809775 2.36888 -2.15271 -1.33946 0.692208 0.0395372 Ge
61 2 6.8364 6.95714 9.73218 0.961647 0.0170087 0.828451 0.473859 -0.417871 -0.469568 Ge
48 2 9.65838 4.16884 9.765 2.04585 0.0570981 -1.14444 0.526041 0.597719 -0.0254028 Ge
59 1 8.3336 5.62852 8.39267 -0.93017 0.979762 -3.02022 -0.755671 -1.132 -0.439308 Si
11 1 2.76592 -0.000320305 8.32543 -2.33971 2.20918 -8.5214 0.421119 0.0923421 -0.883696 Si
26 1 -0.0405029 8.31809 8.34698 -3.45716 4.56239 2.40952 1.71453 1.34732 -0.847878 Si
32 2 4.15541 9.73829 9.68493 0.87194 0.93338 0.0350816 0.394023 -0.905743 0.663563 Ge
58 1 5.49137 8.29016 8.28205 2.91698 -2.48859 1.98532 0.121566 1.23704 -0.607826 Si
52 1 8.26867 8.29286 -0.0381783 -0.0179128 4.54954 0.141958 0.70502 0.532272 0.0154481 Si
43 1 8.369 0.109506 8.34977 -0.318706 -1.78803 -4.66826 -0.397872 -1.23862 0.326439 Si
64 2 9.70774 9.73182 9.75753 -2.35146 -0.719169 0.0148955 -1.26188 -0.484278 -1.26544 Ge
ITEM: TIMESTEP
16000
ITEM: NUMBER OF ATOMS
64
ITEM: BOX BOUNDS pp pp pp
0.0000000000000000e+00 1.1085848640000000e+01
0.0000000000000000e+00 1.1085848640000000e+01
0.0000000000000000e+00 1.1085848640000000e+01
ITEM: ATOMS id type xu yu zu vx vy vz fx fy fz element
3 1 2.76519 0.00952796 2.82898 -0.10031 3.87168 4.31522 -0.543129 1.05583 0.973391 Si
4 1 2.72571 2.80139 -0.00733058 -5.9342 1.42053 0.415848 -0.694527 -0.533835 1.86069 Si
7 2 4.12379 1.43115 1.42619 0.44335 -1.34701 1.87485 -0.114226 -0.542607 -0.884007 Ge
34 1 5.5622 2.83591 2.6922 1.08316 4.06696 -0.570866 0.327623 -0.288996 0.509454 Si
2 1 -0.0379331 2.79317 2.7437 -0.518868 -2.69741 2.11517 -0.456998 -0.443908 0.683761 Si
35 1 8.30891 -0.0120793 2.76653 -2.18885 -2.48507 -4.43179 0.830324 0.660861 0.366257 Si
39 2 9.70513 1.37496 1.35093 -0.523012 -1.30775 0.395053 -0.118747 -0.49701 -0.175091 Ge
6 2 1.35057 4.20308 1.47315 0.957561 0.0667536 0.997573 0.844631 -0.865588 -1.8305 Ge
19 1 2.83005 5.5538 2.74315 5.36271 -2.46981 2.0641 -0.25086 0.847002 1.12666 Si
23 2 4.19395 6.91378 1.29909 -1.16847 -2.60313 2.1531 -0.15163 0.499578 0.973131 Ge
38 2 6.99555 4.15256 1.29664 1.91487 0.951956 1.19194 -0.626536 0.0123189 -0.406957 Ge
49 1 5.57049 5.54483 -0.0651668 -1.14919 5.19325 2.7605 0.54079 -0.412789 0.16646 Si
51 1 8.26804 5.58472 2.7201 -2.91645 2.88029 -0.989065 1.47272 -0.620164 0.192464 Si
55 2 9.76617 6.96177 1.40908 0.341898 -0.431649 0.968518 0.34478 -0.524935 0.756517 Ge
20 1 2.77615 8.28272 -0.0497619 9.73898 -3.3696 2.6575 -0.41549 0.523404 0.861114 Si
22 2 1.44404 9.71892 1.41228 -0.713028 0.875775 2.33488 0.178404 -0.895703 -0.292191 Ge
33 1 5.49432 -0.0145006 0.024843 -1.12282 -0.291717 0.355088 0.576995 1.09587 -0.294434 Si
50 1 5.51998 8.33537 2.75999 -2.95121 4.30199 -0.123473 -0.773802 0.206114 -0.0671675 Si
54 2 6.92208 9.72764 1.40356 3.03538 3.24466 -4.08076 0.127505 -0.930606 -0.591635 Ge
1 1 0.0211988 -0.0740894 0.0134637 -7.47645 0.0184735 5.68902 -0.15276 1.19062 -0.405264 Si
18 1 0.107521 8.36058 2.85643 -1.9841 -3.77501 -2.07076 0.0198008 -1.53902 -0.752018 Si
5 2 1.26751 1.45851 4.2291 -0.014234 -0.343113 -1.29044 1.74481 -1.31272 -1.01267 Ge
9 1 -0.0362606 -0.00639429 5.62071 1.71102 1.04812 -5.79795 -0.0896279 0.53458 -0.571331 Si
12 1 2.79462 2.80296 5.5098 -3.05687 4.98788 -6.00597 -0.143145 0.596695 0.537278 Si
15 2 4.16789 1.37568 6.91031 1.00362 -1.84097 1.72918 -0.884993 0.0472703 0.459587 Ge
37 2 6.90818 1.438 4.10142 -5.02589 -0.1649 -0.152119 0.0375768 -0.610587 0.34278 Ge
41 1 5.55842 0.012558 5.52442 -1.96249 2.22797 0.699483 0.207365 -0.105853 0.225684 Si
44 1 8.23205 2.81079 5.55795 1.41913 0.428263 3.49694 1.14801 -1.01006 -0.74445 Si
47 2 9.62668 1.38717 6.94099 -0.890408 -2.39134 -1.40435 0.0948591 -0.054186 0.469323 Ge
14 2 1.37964 4.23371 6.90568 -0.0376762 1.54695 3.26596 1.07299 -1.20684 0.617791 Ge
21 2 1.48415 6.92514 4.28891 -0.788612 1.47093 -1.31205 0.0332771 0.637374 -2.12962 Ge
25 1 0.00567029 5.54445 5.4911 1.73255 4.74737 2.54111 -0.888103 -0.329046 0.526398 Si
8 2 4.24312 4.20643 4.12959 0.319237 -1.93234 -4.45659 -0.774466 -0.212266 0.179506 Ge
31 2 4.18825 6.8992 6.98099 -4.6377 -0.338011 0.439879 0.494841 0.789881 0.413752 Ge
46 2 6.87333 4.12209 6.93806 1.73702 -1.2834 0.539201 -0.43455 1.29266 0.463626 Ge
53 2 6.90025 6.95495 4.08826 0.785553 -2.87201 -1.56804 0.184224 -0.0310056 -0.10304 Ge
57 1 5.59562 5.62083 5.52543 -4.24554 -1.19828 3.24364 -0.641202 -1.31227 0.511136 Si
40 2 9.66228 4.14108 4.12929 2.81514 0.00734903 -2.37361 -0.526816 0.993084 -0.000562734 Ge
63 2 9.63615 6.86636 6.86505 0.886872 -0.752957 -1.89921 0.548958 0.6132 0.338836 Ge
28 1 2.81603 8.35022 5.67842 -1.72356 1.39452 1.87252 -0.605713 -0.864118 -0.196958 Si
30 2 1.37061 9.72274 6.97695 2.12159 1.85362 1.0336 0.501082 -0.222892 0.265019 Ge
24 2 4.12035 9.6825 4.26081 0.546497 -0.293167 -4.0314 0.890293 0.554765 -1.7826 Ge
62 2 6.91841 9.62366 6.8828 2.73949 1.75675 0.87957 0.321115 1.50853 0.0104517 Ge
56 2 9.76764 9.69276 4.163 -0.0590539 1.79784 0.975273 -1.50517 0.603092 0.180306 Ge
60 1 8.27261 8.2934 5.44278 6.36522 -1.32035 2.09309 1.2106 -0.000766384 0.930082 Si
13 2 1.38917 1.37509 9.7031 -0.254598 -0.530278 -3.10162 -0.244968 -0.348481 0.387832 Ge
42 1 5.44969 2.79001 8.34805 2.12035 -1.87066 -5.55486 0.754062 -0.493342 -0.829252 Si
45 2 6.88915 1.37851 9.63255 -1.80173 -1.25274 1.50667 -0.696372 -0.699162 1.25509 Ge
36 1 8.34574 2.71629 -0.12267 2.61174 1.8833 0.776 -0.343336 0.370209 1.1035 Si
10 1 0.041633 2.75568 8.28729 -4.00149 1.25032 1.48383 -0.798033 0.2282 -0.535817 Si
17 1 -0.0181104 5.4821 0.000927862 0.700885 1.18352 0.419957 -0.555695 0.766061 0.350373 Si
27 1 2.80913 5.54651 8.39427 -6.25804 1.99333 2.09519 -1.57311 0.158505 -1.09502 Si
29 2 1.31775 6.90092 9.73226 0.735669 -0.276058 -2.57942 1.3061 -0.202147 -0.565023 Ge
16 2 4.09025 4.13176 9.75048 1.20734 -0.487238 -1.5494 1.35725 0.767858 -0.376367 Ge
61 2 7.06354 6.92024 9.70774 0.541046 0.255954 -0.405268 -2.06292 0.181984 -0.169412 Ge
48 2 9.69467 4.13629 9.62644 -1.68766 -2.16462 -1.57008 1.13813 -0.705407 0.914808 Ge
59 1 8.30423 5.47064 8.32796 4.49362 0.3434 2.40213 0.0208743 0.691156 -1.59784 Si
11 1 2.78881 -0.0229204 8.36707 -1.59248 -1.71421 9.81116 -0.115486 0.795127 -1.13472 Si
26 1 0.0220201 8.25062 8.26504 -5.45196 -6.02653 0.581459 -1.59627 0.190756 0.323903 Si
32 2 4.16503 9.6866 9.69629 1.4936 1.86809 -2.12976 0.271283 -0.398259 0.240893 Ge
58 1 5.59758 8.32411 8.33184 -2.06801 -1.60705 0.225839 -0.214154 -1.23823 0.394748 Si
52 1 8.37087 8.28592 0.0489243 -2.0487 -3.30503 1.77889 -0.336919 1.22743 -0.207376 Si
43 1 8.26511 -0.0679444 8.3431 0.561084 6.32722 1.30465 0.396466 0.257159 -1.29405 Si
64 2 9.71074 9.657 9.68601 2.0392 0.173166 2.15223 0.332022 -0.444395 0.13277 Ge
ITEM: TIMESTEP
16100
ITEM: NUMBER OF ATOMS
64
ITEM: BOX BOUNDS pp pp pp
0.0000000000000000e+00 1.1085848640000000e+01
0.0000000000000000e+00 1.1085848640000000e+01
0.0000000000000000e+00 1.1085848640000000e+01
ITEM: ATOMS id type xu yu zu vx vy vz fx fy fz element
3 1 2.83767 -0.0540662 2.69086 2.69604 -6.24646 -7.38862 -0.353019 0.477324 0.0753442 Si
4 1 2.85009 2.72817 -0.0437332 5.57577 1.20815 -4.67413 -1.15663 1.39886 -0.474275 Si
7 2 4.20981 1.40685 1.29728 3.08942 -1.44981 2.33585 0.392027 -1.85996 1.16099 Ge
34 1 5.4575 2.72332 2.85105 -1.01788 -1.27109 -2.37155 0.489423 0.608443 0.0772249 Si
2 1 0.0876502 2.76112 2.75843 -0.461231 6.75117 -1.43188 -0.716982 0.803703 0.866643 Si
35 1 8.30103 0.0198915 2.79667 -2.98408 -1.18713 2.56801 -0.0223999 -1.01488 -0.88916 Si
39 2 9.71706 1.44336 1.47096 0.924935 1.65274 0.196385 -0.198171 -1.08021 -1.57971 Ge
6 2 1.40709 4.12819 1.30601 -0.611533 1.81967 3.63914 0.421996 0.306652 0.543268 Ge
19 1 2.71846 5.56544 2.74439 -3.6207 -0.0163302 -1.25361 0.747308 -0.920792 -0.0910777 Si
23 2 4.17301 6.95172 1.41564 -0.769703 -1.9127 -0.46109 -0.914844 -0.753172 -1.24735 Ge
38 2 6.8231 4.13676 1.50183 -1.23405 -0.661069 3.29375 1.28051 -0.0611347 -0.320175 Ge
49 1 5.57083 5.50854 0.0259785 -1.1281 -2.57372 -1.45673 -1.26633 0.792178 -0.136019 Si
51 1 8.36518 5.4827 2.78299 -2.78867 -0.498387 1.30751 -1.65611 1.28642 0.733276 Si
55 2 9.61953 6.91757 1.32518 -3.56471 -0.0414547 -0.556465 0.906759 0.132861 0.34353 Ge
20 1 2.72499 8.35821 0.0185413 -5.21964 -0.00337454 -1.13279 1.37026 -1.11665 0.410074 Si
22 2 1.34001 9.7041 1.33361 -1.15038 1.42002 -0.122814 -0.186734 0.420552 0.864878 Ge
33 1 5.61871 -0.0413641 -0.0656113 -1.22812 -0.735039 0.920637 -0.509356 0.40493 0.807752 Si
50 1 5.56022 8.24487 2.78131 2.03424 -1.93043 2.51797 -0.0115651 0.681525 1.75522 Si
54 2 6.91034 9.59441 1.4348 -1.25966 0.00361502 1.47327 0.787036 2.27885 -1.13014 Ge
1 1 0.0121253 0.0649228 -0.04001 1.23186 -4.95602 -2.0025 -1.94109 -0.980493 1.84061 Si
18 1 -0.0745218 8.31129 2.71959 0.863067 3.22101 1.49723 0.0855604 -0.039943 -0.161713 Si
5 2 1.41299 1.29883 4.09499 -1.75997 -1.67061 -1.05772 0.699025 0.595463 0.640765 Ge
9 1 -0.0117633 0.0100752 5.51605 -1.12562 -3.80552 4.95644 -0.0567643 -0.785761 -0.704878 Si
12 1 2.76233 2.65866 5.61424 1.34249 -3.51922 3.51365 -0.497217 1.32205 -1.14248 Si
15 2 4.17273 1.35964 7.00387 2.43951 -1.48461 -0.174416 1.5244 0.312979 -1.20051 Ge
37 2 6.97309 1.37636 4.17386 1.30896 1.15481 -0.722183 -1.6036 -0.0681882 0.152264 Ge
41 1 5.55856 -0.0259932 5.54228 0.449356 0.652744 0.563077 -0.238164 1.34188 0.475313 Si
44 1 8.33131 2.75255 5.52065 -2.73015 5.02985 0.262132 0.342438 0.506663 1.03274 Si
47 2 9.75179 1.39649 6.92692 2.66619 0.547363 2.03766 -0.877558 -0.269912 0.00916492 Ge
14 2 1.35976 4.12279 6.94906 -0.463655 3.62737 0.761698 0.828183 0.0307574 -0.350179 Ge
21 2 1.32276 6.91195 4.08761 0.275067 -3.46782 0.718662 -0.27508 0.246637 0.641129 Ge
25 1 -0.0201309 5.53823 5.58884 1.01153 -1.4316 -3.2818 0.22626 0.608021 -0.190804 Si
8 2 4.08351 4.18403 4.22578 0.209346 1.20262 -1.4632 -0.47236 -1.42418 -0.904069 Ge
31 2 4.1713 6.95921 6.82964 -0.504561 -1.98811 -0.420632 -0.0779457 -0.281242 0.214587 Ge
46 2 6.94509 4.184 6.89785 1.41258 -0.189664 1.31434 0.0804572 -1.34224 -0.0206136 Ge
53 2 6.97785 6.95327 4.25333 1.89276 -0.242868 0.253706 0.151982 -1.32705 -1.19652 Ge
57 1 5.54032 5.48652 5.53332 3.1767 4.47156 0.0467395 0.322799 1.61121 0.0652868 Si
40 2 9.72744 4.14384 4.18983 0.388906 -0.67552 -0.609087 0.787388 -0.611408 -0.686059 Ge
63 2 9.74174 6.98562 7.03114 -1.98049 -1.48516 2.66185 0.401645 0.179298 -1.24392 Ge
28 1 2.79119 8.29207 5.40085 -0.548545 0.567182 -1.23356 -1.0611 0.0875731 1.44761 Si
30 2 1.40186 9.6957 6.83347 0.305612 0.880396 -1.98037 0.469771 -0.132583 0.294044 Ge
24 2 4.198 9.70188 4.17618 -2.54456 0.208846 2.07872 0.17123 -0.427053 -2.0199 Ge
62 2 6.87072 9.7222 6.95022 -1.70694 -2.30793 1.03914 0.387029 -0.575338 0.67155 Ge
56 2 9.64608 9.68314 4.14158 2.25381 -1.7742 -0.304563 0.668758 0.443199 0.845417 Ge
60 1 8.32416 8.36708 5.66501 -7.02835 2.7899 -0.723744 0.126671 -0.582244 -1.02481 Si
13 2 1.38315 1.36199 9.74834 0.860884 -0.845984 -3.40789 1.55631 0.599183 -2.15285 Ge
42 1 5.61505 2.78316 8.34342 -3.79216 2.9429 6.96565 -0.857228 0.401862 -0.992442 Si
45 2 7.0033 1.43999 9.676 2.93067 1.26054 -1.74283 0.00736371 -1.35861 0.768144 Ge
36 1 8.26251 2.80484 0.112334 -4.18804 0.368813 -0.0482704 1.0865 0.592352 -0.908612 Si
10 1 0.0253946 2.74472 8.354 5.7516 1.20171 2.43556 -0.862371 0.963921 0.736516 Si
17 1 0.00844461 5.57592 -0.00866769 1.68946 -0.783912 0.366073 0.142697 -0.123123 0.293896 Si
27 1 2.82648 5.56852 8.2053 7.09251 0.444872 0.979729 -0.89222 -0.2601 1.51689 Si
29 2 1.45674 6.91682 9.74336 -0.154309 -2.07704 -3.09166 -0.411106 0.213879 -1.60476 Ge
16 2 4.18272 4.18218 9.65516 -1.33477 2.03638 -2.46587 0.184121 -0.237518 0.246179 Ge
61 2 6.8612 6.90124 9.64435 1.75823 0.146482 -0.0782149 0.716539 0.678856 0.575416 Ge
48 2 9.69551 4.23219 9.741 -1.32947 1.98846 -2.35855 -0.989055 -1.40142 -0.968355 Ge
59 1 8.28357 5.59271 8.23408 -3.66988 1.6801 4.71018 0.673526 -0.670889 2.08547 Si
11 1 2.7655 0.00306455 8.24499 0.231842 -0.0527356 -2.43652 -1.04078 -0.596812 1.79667 Si
26 1 0.0944841 8.3863 8.36776 6.14639 3.24823 0.807383 -0.696509 -0.735212 -0.0207658 Si
32 2 4.07971 9.71188 9.71694 -0.132606 1.92075 -1.64402 0.923329 0.223576 -0.782058 Ge
58 1 5.46075 8.32064 8.31846 0.964431 2.56648 -0.825612 0.235793 0.181238 -0.31211 Si
52 1 8.27829 8.33516 -0.0669671 0.763108 -2.53701 -0.673602 -0.524457 -1.08427 0.311976 Si
43 1 8.32657 -0.0249691 8.27463 -1.29743 -2.93081 4.33242 -0.0709203 1.41572 0.168082 Si
64 2 9.66845 9.73804 9.69413 -1.51628 1.37363 -2.16474 1.24259 -0.0262387 -0.0116098 Ge
ITEM: TIMESTEP
16200
ITEM: NUMBER OF ATOMS
64
ITEM: BOX BOUNDS pp pp pp
0.0000000000000000e+00 1.1085848640000000e+01
0.0000000000000000e+00 1.1085848640000000e+01
0.0000000000000000e+00 1.1085848640000000e+01
ITEM: ATOMS id type xu yu zu vx vy vz fx fy fz element
3 1 2.68718 0.0392093 2.83464 -0.968978 3.80469 5.70789 0.602738 -0.975062 -0.537794 Si
4 1 2.69884 2.7825 0.068989 -0.297779 -3.956 4.71549 1.10093 -0.356879 -0.862555 Si
7 2 4.04865 1.41027 1.44519 -0.880222 3.12869 -0.0234566 1.39501 -0.211093 0.0604709 Ge
34 1 5.62747 2.7276 2.74746 -4.41636 0.275709 1.16155 -0.561531 0.755138 -0.944879 Si
2 1 -0.0539559 2.72471 2.7614 3.46181 -8.62329 -3.24794 0.0515623 0.989256 -0.450663 Si
35 1 8.39095 0.00288933 2.75805 0.894937 3.60892 -1.41607 -1.52776 0.257373 0.728315 Si
39 2 9.72752 1.29597 1.35081 2.02896 0.529417 2.44554 0.0636305 1.79545 0.0736081 Ge
6 2 1.35785 4.13396 1.39244 -0.515037 0.945737 1.67541 -0.547314 0.5769 1.01104 Ge
19 1 2.81009 5.50291 2.76408 2.1451 3.34474 -0.722022 -0.887103 0.710529 0.272965 Si
23 2 4.09972 6.9525 1.37365 1.23386 -0.299566 1.2511 1.10185 -0.36177 0.203684 Ge
38 2 6.99322 4.1788 1.30821 0.0679297 -1.01438 0.580578 0.0401869 -0.723499 0.437713 Ge
49 1 5.51042 5.58829 0.00325576 5.40956 1.96493 1.4837 0.49054 -0.636884 0.267428 Si
51 1 8.30704 5.58388 2.79215 3.72163 -2.06631 -4.83226 0.0122683 -0.457469 -0.977583 Si
55 2 9.78517 6.94101 1.42145 0.342392 1.18655 2.42523 -1.44243 0.0556069 -0.0805577 Ge
20 1 2.79508 8.29511 -0.0469387 0.314269 3.26894 -1.07462 -1.03158 0.585319 0.285324 Si
22 2 1.41014 9.67374 1.36633 1.83887 2.04019 1.25954 0.318429 0.646765 0.33963 Ge
33 1 5.48335 0.0297865 0.0666436 1.55157 -3.57905 -2.72745 -0.375479 -0.635242 -0.299602 Si
50 1 5.52326 8.34369 2.7325 -2.81991 -1.61485 -7.43518 -0.385933 0.177145 -0.895317 Si
54 2 6.96409 9.76827 1.40178 -0.0611945 -3.00651 1.0842 -0.697133 -0.719836 0.0743495 Ge
1 1 0.0374199 -0.000661923 0.0144886 3.29207 5.25635 -1.73875 0.546444 -0.849316 -1.08209 Si
18 1 0.0552437 8.33623 2.79182 0.683603 0.173561 1.74779 -0.246698 0.186644 0.32205 Si
5 2 1.3347 1.46535 4.17641 -2.75499 -2.27377 -2.11416 0.621682 -0.761449 0.203555 Ge
9 1 0.0172898 0.0153562 5.53912 0.652767 5.85737 1.23297 -0.113336 0.154124 1.13277 Si
12 1 2.81792 2.84341 5.46199 1.54481 -2.85154 0.0464194 -0.221734 -0.869238 0.80985 Si
15 2 4.14842 1.39872 6.88156 -1.97258 -2.69125 4.27919 -0.388468 -0.384876 -0.737652 Ge
37 2 6.94067 1.36406 4.16526 0.209309 0.286076 -3.04473 1.0216 -0.294732 -0.322289 Ge
41 1 5.54872 -0.0120412 5.52002 0.595648 -2.74827 -1.9739 -0.247058 -0.152325 0.0360876 Si
44 1 8.34003 2.72804 5.56471 -2.37198 -3.35327 -0.852347 -1.66492 1.49546 -0.189998 Si
47 2 9.66166 1.38054 6.92209 -1.23709 -0.637297 0.495597 1.50368 -0.250352 -0.198791 Ge
14 2 1.40348 4.14832 6.89076 -0.725964 0.732938 3.21482 -0.576113 0.190298 0.167008 Ge
21 2 1.42708 6.96111 4.19172 2.26513 0.564711 -1.04588 0.0201637 -1.15499 -0.231811 Ge
25 1 -0.0124218 5.52019 5.51095 -1.15194 0.583177 3.69581 0.474921 0.157402 -0.129632 Si
8 2 4.26654 4.14466 4.09309 1.96502 3.89701 -2.38385 -0.5512 0.356958 0.410023 Ge
31 2 4.17439 6.92629 6.99849 0.0286204 -0.363029 3.45305 -0.390075 -1.18318 -0.0667685 Ge
46 2 6.91574 4.17541 6.98955 -1.40532 0.828391 0.253967 0.835703 -0.743911 -1.51041 Ge
53 2 6.79825 6.92829 4.08448 0.982135 1.16314 -1.19209 2.06759 0.00819955 0.519149 Ge
57 1 5.5564 5.55067 5.53916 -2.74726 -4.6499 -1.6529 -0.626739 -0.160853 0.736651 Si
40 2 9.66784 4.13941 4.14652 -3.22569 1.27521 -1.87095 0.132235 -0.0926628 0.00915072 Ge
63 2 9.62976 6.87469 6.83802 -0.777088 -0.182164 -0.620068 0.315653 -0.100532 0.906596 Ge
28 1 2.77828 8.30622 5.64508 5.55346 0.876255 -0.596479 0.431253 0.610873 -1.04229 Si
30 2 1.38739 9.71389 7.00549 -0.444884 1.27192 0.962562 -0.578004 -0.0361316 -1.23082 Ge
24 2 4.15145 9.67089 4.12279 -0.237573 2.79104 3.81021 -0.831148 0.728604 1.37799 Ge
62 2 7.00184 9.74464 6.90029 -0.543727 1.01009 -2.36792 -0.406639 -1.59904 -0.667204 Ge
56 2 9.71845 9.74873 4.16181 0.291074 -0.518361 -1.58487 0.67742 -1.32857 -0.580105 Ge
60 1 8.31373 8.25429 5.40203 2.78483 0.310417 3.03247 -0.995706 1.27681 1.40796 Si
13 2 1.42352 1.41284 9.70684 -2.80067 -3.16609 2.63224 -1.38067 -0.118614 -0.592325 Ge
42 1 5.51028 2.73974 8.23845 2.14029 -2.80931 1.37316 -0.194836 0.598283 2.32575 Si
45 2 6.83051 1.33815 9.70761 -2.1105 -0.460646 -3.5644 1.73061 1.16923 -0.712044 Ge
36 1 8.42768 2.72338 -0.0947396 1.22216 -3.62148 0.636255 -2.45327 -0.432374 1.35231 Si
10 1 -0.0406843 2.77855 8.25743 -1.12323 -3.94559 -2.02767 1.57319 -0.516459 0.609192 Si
17 1 -0.00985975 5.51417 0.00410103 -3.07053 -1.10044 -1.92304 0.402669 0.467933 0.389962 Si
27 1 2.69808 5.49634 8.38853 0.576377 1.46347 -4.50602 1.30998 0.701899 -0.465814 Si
29 2 1.31663 6.95208 9.72318 2.04594 -2.60883 2.14423 0.0527871 -0.405452 -0.927837 Ge
16 2 4.13951 4.10554 9.77936 -1.90473 1.18307 -1.62214 -0.0448179 0.359935 -1.33217 Ge
61 2 6.96655 6.96318 9.77598 2.30751 -2.30151 -2.59059 0.198504 -0.662237 -0.980701 Ge
48 2 9.74763 4.13886 9.69651 2.00577 0.828382 -1.20272 0.203593 0.0609479 -0.531989 Ge
59 1 8.3443 5.48903 8.37675 -0.0311638 0.65518 -7.19246 -0.809855 1.53291 -0.461454 Si
11 1 2.79618 0.0212497 8.31452 3.99148 -1.14549 -2.83662 0.134394 0.0548485 0.386295 Si
26 1 -0.0989322 8.28937 8.24299 0.803599 -1.72331 -0.45554 0.794179 -0.0322426 1.12375 Si
32 2 4.1752 9.68451 9.68542 -2.10454 1.29259 -0.0460581 0.580311 0.347175 -0.053812 Ge
58 1 5.62444 8.2987 8.30238 -2.38859 -0.548606 4.74834 -0.159759 0.980907 0.45809 Si
52 1 8.34508 8.3584 0.0546612 0.399456 3.94218 1.28431 0.202996 -0.662553 0.340643 Si
43 1 8.33433 0.0392338 8.30095 -0.739357 -2.88001 -2.03733 -0.581759 -1.04397 1.44572 Si
64 2 9.70856 9.68518 9.7372 -1.49455 0.689784 0.414604 -0.0896222 0.924872 -1.12811 Ge
ITEM: TIMESTEP
16300
ITEM: NUMBER OF ATOMS
64
ITEM: BOX BOUNDS pp pp pp
0.0000000000000000e+00 1.1085848640000000e+01
0.0000000000000000e+00 1.1085848640000000e+01
0.0000000000000000e+00 1.1085848640000000e+01
ITEM: ATOMS id type xu yu zu vx vy vz fx fy fz element
3 1 2.8313 -0.0233803 2.7444 -0.895772 -1.17349 -3.1072 -0.650823 0.902508 0.339131 Si
4 1 2.76814 2.80391 -0.0881682 -1.07969 1.59893 -3.12252 0.656591 -0.832438 1.74132 Si
7 2 4.19734 1.39757 1.33778 -2.04725 -1.7139 2.28644 -0.504173 0.702907 0.130321 Ge
34 1 5.55621 2.84018 2.76745 5.46569 -4.01079 1.45038 -1.595 -1.09439 0.873688 Si
2 1 0.00777715 2.86427 2.80979 -0.925554 2.86326 2.42822 0.67398 -2.48086 -0.986404 Si
35 1 8.24394 -0.0236878 2.77806 4.56827 -1.7294 1.84296 0.555342 0.86184 -0.227931 Si
39 2 9.65084 1.3984 1.42369 0.242599 -2.79101 1.44082 0.300532 0.454767 0.0184283 Ge
6 2 1.40956 4.15679 1.34974 1.04623 -1.12864 -0.767216 0.117194 0.426615 0.630086 Ge
19 1 2.75308 5.5461 2.80021 -1.27348 -4.60894 -1.53526 0.612096 0.235567 -0.698896 Si
23 2 4.24165 6.94205 1.4332 -3.63238 -0.430661 3.3766 -0.586216 -0.698256 0.303894 Ge
38 2 6.8749 4.20901 1.39513 -1.4209 3.46984 4.36212 0.717477 0.0279757 0.119417 Ge
49 1 5.51863 5.49543 -0.0458526 -4.91575 -2.12094 -1.57623 0.396858 1.52446 0.519208 Si
51 1 8.34228 5.53427 2.75905 0.875332 -0.216755 5.41289 0.11114 0.117252 0.394766 Si
55 2 9.69202 6.90126 1.30978 -0.276579 -2.29024 -1.77117 0.13077 -0.237946 1.2001 Ge
20 1 2.80741 8.28711 0.0768278 0.97967 -2.21987 -1.03274 -0.111663 0.48656 -0.618205 Si
22 2 1.37434 9.67599 1.42102 -2.43838 -0.967653 -1.00302 0.135674 0.0414582 -0.402982 Ge
33 1 5.56784 0.0101547 -0.0417486 0.493236 4.6815 2.20301 0.119099 -0.494937 0.20411 Si
50 1 5.62087 8.35752 2.84555 4.33082 0.189322 6.67711 0.226987 -1.45413 -1.35037 Si
54 2 6.94543 9.68277 1.35127 2.43369 2.05689 -0.446187 -0.102545 -0.362322 -0.310772 Ge
1 1 -0.0509101 -0.0516423 0.0208399 0.825702 1.24736 1.60688 0.947278 1.62088 0.216153 Si
18 1 -0.0463295 8.2684 2.73553 -1.68 1.18074 -2.81777 -0.178374 0.838099 0.819183 Si
5 2 1.42995 1.40238 4.18961 -0.858883 0.202383 -3.49913 -0.902466 -0.605877 -1.3034 Ge
9 1 0.000148915 -0.0509544 5.50131 -0.165967 -4.28686 -4.83895 0.169533 1.21779 0.620069 Si
12 1 2.70031 2.7959 5.59959 0.52989 1.95653 0.178623 0.964782 -0.675973 0.272235 Si
15 2 4.12973 1.41532 6.96685 1.82007 -0.963853 1.53446 -0.452059 -0.394981 0.329421 Ge
37 2 6.8849 1.37643 4.16531 -2.53354 0.349665 2.33571 0.296464 0.745857 -0.368583 Ge
41 1 5.52646 0.0247899 5.58541 0.562431 -2.00204 0.227906 -0.334024 -0.715849 -0.164308 Si
44 1 8.30863 2.80669 5.4827 7.12594 -3.05793 -1.66546 0.482633 -1.17878 0.422916 Si
47 2 9.67592 1.36097 6.88739 0.727882 -0.267798 0.616733 0.5874 0.463803 0.117821 Ge
14 2 1.33819 4.15058 6.95543 -0.0699744 1.44999 3.26168 0.498882 0.594283 0.422801 Ge
21 2 1.37017 6.93615 4.15644 -1.46092 0.991637 -2.75295 -0.174181 0.110424 -0.835593 Ge
25 1 0.0525336 5.55957 5.53537 -1.27134 -1.68616 -3.31636 -0.670957 0.0642453 1.07448 Si
8 2 4.06764 4.15222 4.23057 1.34524 -1.78905 -2.73143 1.5479 0.288986 -0.96225 Ge
31 2 4.14015 6.93832 6.84577 -2.54609 -0.0483424 -1.05443 -0.578541 0.0457334 1.32036 Ge
46 2 6.93778 4.15051 6.85608 1.83376 2.12474 3.91503 0.0564003 0.335162 0.896063 Ge
53 2 6.98003 6.90772 4.20691 -2.76074 -1.08984 0.507664 0.0472171 0.464101 0.00782802 Ge
57 1 5.53621 5.54123 5.56828 4.12532 1.43857 -0.594666 -0.185427 -0.191512 -1.28908 Si
40 2 9.77423 4.17948 4.19411 2.69253 -1.11684 -1.19583 -1.57213 0.81461 -0.619318 Ge
63 2 9.77058 6.90862 6.99368 -2.50134 -1.22091 1.21961 -0.457515 0.591612 -1.39475 Ge
28 1 2.73108 8.32688 5.48699 -3.1436 -2.18574 -0.157771 0.959733 0.242204 0.40474 Si
30 2 1.39243 9.69419 6.93099 2.30991 2.49446 1.38502 -0.575774 -0.130113 0.455412 Ge
24 2 4.20026 9.67794 4.12588 1.64114 -1.4774 -5.8379 -0.670181 1.0779 1.42134 Ge
62 2 6.90271 9.68732 6.98264 1.6902 3.55786 3.50031 0.561278 0.771311 -1.11366 Ge
56 2 9.6479 9.73226 4.14369 -1.95549 2.52883 1.06377 0.624941 -1.57151 -0.222637 Ge
60 1 8.34829 8.33523 5.61953 0.573762 -3.21576 -5.96498 -0.0490388 -0.606503 -0.366982 Si
13 2 1.3775 1.41902 9.70234 1.01657 0.42911 -1.25185 -1.3509 -1.12446 1.12268 Ge
42 1 5.57866 2.809 8.2862 1.15677 0.161937 -7.7562 0.203573 -1.1436 0.0993453 Si
45 2 6.97816 1.37898 9.68049 -0.912021 -0.583107 0.660856 -1.06553 0.654663 -0.143528 Ge
36 1 8.21588 2.81661 0.0454947 3.99668 2.69568 -1.95036 1.87816 -0.446296 -0.7154 Si
10 1 -0.0059833 2.75516 8.33834 -2.05027 0.588959 -1.43298 -1.30252 0.145476 -0.704735 Si
17 1 0.053347 5.56872 0.00724556 2.47237 -0.00962007 0.863602 -0.958532 -0.827754 -1.11093 Si
27 1 2.77251 5.5461 8.31546 -1.77882 -4.23348 4.75505 0.215857 0.100142 -0.430533 Si
29 2 1.41622 6.95688 9.72178 2.07046 -0.145595 0.00562347 0.532465 -0.476784 0.329081 Ge
16 2 4.18732 4.12889 9.6707 0.57045 0.986174 -0.854911 -0.700193 0.760252 -0.707775 Ge
61 2 6.90959 6.88633 9.62834 -2.0779 1.79127 0.985996 -0.336622 -0.0933507 0.157983 Ge
48 2 9.65959 4.18486 9.68615 -0.901455 1.40147 -0.213916 0.484306 -0.340979 0.851091 Ge
59 1 8.31141 5.54235 8.24239 -0.311215 -4.95513 4.04318 -0.0976023 -0.52695 0.62953 Si
11 1 2.70691 0.00693526 8.40058 -2.4684 2.97431 0.452282 1.51939 -0.333165 -1.61249 Si
26 1 0.0114037 8.303 8.37654 -1.05982 4.24725 -2.92424 0.616579 0.5652 -0.872361 Si
32 2 4.15545 9.67291 9.71732 -0.816004 -0.451961 -1.60993 -0.0963208 0.145815 -0.106234 Ge
58 1 5.52528 8.30129 8.25948 2.13131 -1.99002 -8.21884 -0.689731 -0.394882 1.0269 Si
52 1 8.30905 8.22222 -0.0570961 1.14443 -0.129454 -3.89108 -0.449449 1.49908 0.0146629 Si
43 1 8.32715 -0.0172345 8.31055 3.52034 2.96744 -2.70769 0.0909189 -0.0279475 0.00190552 Si
64 2 9.70003 9.68362 9.69953 -0.683167 0.458469 2.76672 -0.640931 -0.476982 0.131645 Ge
ITEM: TIMESTEP
16400
ITEM: NUMBER OF ATOMS
64
ITEM: BOX BOUNDS pp pp pp
0.0000000000000000e+00 1.1085848640000000e+01
0.0000000000000000e+00 1.1085848640000000e+01
0.0000000000000000e+00 1.1085848640000000e+01
ITEM: ATOMS id type xu yu zu vx vy vz fx fy fz element
3 1 2.75687 0.000757086 2.7504 1.12811 -0.0746639 1.63499 0.399669 -0.506433 0.178211 Si
4 1 2.81578 2.74567 0.0885717 -2.9419 2.59792 -0.595077 -1.14845 0.573876 -1.7773 Si
7 2 4.1845 1.37173 1.36642 1.06774 1.40835 2.08734 -0.456709 -1.19633 0.968028 Ge
34 1 5.46157 2.71914 2.79824 3.42254 4.32531 -1.85264 2.78799 0.285112 -0.0256983 Si
2 1 0.00150802 2.71671 2.74839 -1.98387 4.10232 2.19932 -0.155266 1.44933 1.4414 Si
35 1 8.32698 -0.00898204 2.73243 -1.22444 -1.95394 -2.1581 1.20458 -0.677275 0.609111 Si
39 2 9.71262 1.38516 1.38841 1.91436 -1.87388 0.322559 0.0382936 -0.791763 -0.779279 Ge
6 2 1.37211 4.161 1.38975 -2.00015 0.395267 1.80815 0.0275245 -0.0633567 0.0619693 Ge
19 1 2.78892 5.5634 2.75444 1.19111 0.0921871 2.94583 -0.490602 -0.698785 0.195014 Si
23 2 4.1181 6.92967 1.30301 1.3478 1.42419 -0.627656 -0.959664 0.161917 0.333993 Ge
38 2 6.93056 4.0751 1.37795 -1.47464 -0.389015 -0.950224 -0.596366 0.984203 0.597372 Ge
49 1 5.58244 5.6097 0.0454207 1.61866 -1.58375 -3.11576 -0.502012 -2.42841 -0.740082 Si
51 1 8.25167 5.55436 2.77828 -0.026167 0.957524 -3.39637 0.794846 -0.822573 -0.253114 Si
55 2 9.67156 6.97216 1.43795 0.0267444 2.02871 1.65456 0.0888079 -0.475481 -0.687879 Ge
20 1 2.71827 8.33697 -0.0661572 1.81388 -1.36148 1.60223 0.23918 -0.390917 -0.365765 Si
22 2 1.38366 9.70712 1.34542 0.937863 0.35813 1.82442 -0.48936 -0.0119866 0.422747 Ge
33 1 5.54648 -0.0504279 0.0191811 -0.503857 -1.78247 -2.7301 0.365167 1.29633 -0.207235 Si
50 1 5.44082 8.25059 2.69197 -2.37681 2.34497 -0.687586 0.498174 1.54761 2.36214 Si
54 2 6.87846 9.69902 1.46877 -0.723204 -0.921238 1.96764 -0.144958 -0.0313642 -1.03362 Ge
1 1 -0.0150404 0.0123048 -0.0440066 -2.82583 -5.87559 -1.418 0.468773 -0.083536 -0.229394 Si
18 1 0.0416373 8.30924 2.8025 3.92621 -4.8254 -2.1031 0.251814 -0.38031 -0.799039 Si
5 2 1.39227 1.34719 4.16472 -0.441927 -0.303304 1.57043 -0.231881 0.456964 -0.370459 Ge
9 1 0.003771 0.0535001 5.61654 1.23429 -1.0506 -0.592488 -0.21322 -1.39764 -1.56795 Si
12 1 2.81491 2.71605 5.49307 -1.66859 2.71417 -4.06882 -0.444745 0.815121 -0.169097 Si
15 2 4.18607 1.40366 6.88593 1.08765 0.234437 2.07675 0.478936 -0.0879292 0.608 Ge
37 2 7.05792 1.35851 4.12887 0.220487 -1.30896 -1.45317 -2.70094 1.14522 0.946083 Ge
41 1 5.54714 0.0308271 5.51157 1.94028 3.86778 0.40198 0.797756 -0.580742 -0.173079 Si
44 1 8.29126 2.79619 5.6389 -4.4164 2.8503 0.192814 0.920695 -0.705764 -1.07853 Si
47 2 9.72555 1.4156 6.99769 -2.46522 -1.209 1.33237 -0.71522 0.427413 0.296645 Ge
14 2 1.43333 4.144 6.80063 -0.479423 0.785648 1.67198 -0.0942171 0.136545 2.22821 Ge
21 2 1.36799 6.86618 4.19239 2.96152 -1.45099 1.37695 0.650848 0.944761 -0.226344 Ge
25 1 -0.0315353 5.54128 5.59293 3.6687 -0.201745 -0.788112 -0.115992 -0.467903 -1.44023 Si
8 2 4.16628 4.16346 4.16823 -0.491825 2.3651 -1.06011 -0.622098 -0.0883371 -0.654346 Ge
31 2 4.22408 6.94772 6.93129 1.92188 -0.879744 2.98188 -0.368696 0.471205 0.384155 Ge
46 2 6.91582 4.16235 6.98307 -2.18732 0.605401 0.129605 -0.723412 0.82123 0.941308 Ge
53 2 6.88935 6.93884 4.11524 0.153678 -0.517409 -2.16171 -0.44507 0.259709 0.533078 Ge
57 1 5.52922 5.54785 5.52297 -1.32149 -1.93651 2.42387 1.06153 -0.229994 0.640884 Si
40 2 9.64888 4.15813 4.18839 -1.18708 1.09458 0.660496 0.681548 -0.245228 -0.422847 Ge
63 2 9.70611 6.9436 6.93542 -0.979913 -2.98637 0.42834 -1.10609 0.138329 0.368432 Ge
28 1 2.78816 8.28463 5.56111 -1.73628 -1.19044 1.2474 -0.631788 -0.837304 -0.247289 Si
30 2 1.38077 9.64787 6.87173 0.737773 0.638653 0.55275 0.305292 0.780339 0.84369 Ge
24 2 4.09753 9.68808 4.21793 -0.633023 -0.0886882 0.523971 1.09295 0.0917734 -2.13257 Ge
62 2 6.90702 9.70177 6.91689 -0.740828 -0.735406 0.205883 -0.48391 0.276655 1.03817 Ge
56 2 9.76056 9.68279 4.12176 -0.73264 2.81728 -0.210145 -1.15548 1.21382 1.54061 Ge
60 1 8.28374 8.33062 5.53942 1.19041 1.31681 2.38369 0.78336 -0.3344 -0.717862 Si
13 2 1.46948 1.37231 9.67086 2.48048 1.08209 -2.73123 -0.390005 0.195851 -0.111991 Ge
42 1 5.50435 2.74634 8.41076 -0.278423 1.49869 0.405303 0.508691 0.623763 -1.72859 Si
45 2 6.928 1.39006 9.71497 -0.125205 -2.85622 -3.11493 -0.147732 -0.526157 1.14524 Ge
36 1 8.37035 2.74351 -0.00577448 -2.84104 -1.13526 0.662628 -0.685634 0.448406 -0.151999 Si
10 1 0.0416549 2.84836 8.33372 2.56104 1.10047 0.58375 0.807674 -0.804846 -0.442072 Si
17 1 -0.0557447 5.539 -0.0122898 1.7198 1.19628 1.26592 0.841724 1.01038 1.30183 Si
27 1 2.79294 5.58243 8.23589 -1.81997 1.16459 -3.27836 -0.541879 -1.25949 1.16177 Si
29 2 1.29296 6.92086 9.64076 -1.14291 -1.40236 -2.07044 1.77053 -0.375881 0.541363 Ge
16 2 4.14364 4.14749 9.75189 -1.06912 -0.83839 -0.388478 0.0232874 1.50093 -0.0368085 Ge
61 2 6.94734 6.96034 9.77889 3.77468 -1.13487 -0.654527 -0.162851 0.852612 0.19159 Ge
48 2 9.72474 4.19043 9.72158 1.06317 2.05388 -3.73642 -0.961662 -0.597371 -0.444639 Ge
59 1 8.30883 5.61447 8.40867 2.97246 3.01434 -4.15105 0.241829 -1.06072 -1.50235 Si
11 1 2.83911 -0.043875 8.1885 -1.33608 -2.10631 1.44059 -1.26566 0.753631 1.12154 Si
26 1 0.00691759 8.31168 8.28347 -4.08453 -6.00612 2.07788 -0.830623 0.594673 -0.391413 Si
32 2 4.15403 9.75622 9.68303 -1.06323 0.476383 -1.18932 -0.610152 -0.93718 0.570767 Ge
58 1 5.53141 8.33184 8.43828 2.83891 0.300656 3.29836 0.869034 -0.153222 -2.25895 Si
52 1 8.27232 8.39673 0.0688408 -0.0694676 -3.48649 2.38632 1.17773 -0.523997 -0.771662 Si
43 1 8.27015 0.0254677 8.34203 -0.659163 -0.408369 -2.78947 0.471201 -0.157988 -1.36731 Si
64 2 9.68088 9.71638 9.62166 -1.41482 1.72124 -0.286345 -0.0570997 -0.327123 1.73346 Ge
ITEM: TIMESTEP
16500
ITEM: NUMBER OF ATOMS
64
ITEM: BOX BOUNDS pp pp pp
0.0000000000000000e+00 1.1085848640000000e+01
0.0000000000000000e+00 1.1085848640000000e+01
0.0000000000000000e+00 1.1085848640000000e+01
ITEM: ATOMS id type xu yu zu vx vy vz fx fy fz element
3 1 2.78113 0.0247216 2.83168 1.2821 0.791886 -2.40382 0.0762905 0.352911 -0.486086 Si
4 1 2.73765 2.75815 -0.0628431 4.67599 -2.4571 1.18912 0.209076 0.356042 1.18672 Si
7 2 4.09517 1.39029 1.34511 1.62346 -0.163104 -1.50338 0.748178 0.58452 0.971915 Ge
34 1 5.54099 2.81687 2.72423 -10.5484 -1.93846 0.0525014 -0.613343 0.00793203 -0.508873 Si
2 1 0.0277195 2.77034 2.74541 2.72716 -4.02825 -4.96124 -0.24927 0.0318112 -0.560678 Si
35 1 8.28206 0.0363093 2.8156 -4.0486 0.751694 -0.957463 -0.127594 -0.539077 -1.15701 Si
39 2 9.6159 1.39148 1.41225 -1.84162 0.915005 4.6316 1.35256 0.366177 -0.351225 Ge
6 2 1.42777 4.16872 1.3695 2.85295 1.258 0.820842 -0.660553 -0.281847 0.066831 Ge
19 1 2.74156 5.57256 2.78726 0.395798 2.43851 -3.22466 0.935967 -0.296257 0.534177 Si
23 2 4.22607 6.89355 1.4411 1.4543 -1.17422 1.64361 -0.677659 1.17965 -0.516267 Ge
38 2 6.99527 4.20777 1.34887 -1.05354 -1.32508 4.16796 -1.29468 -1.05609 0.830877 Ge
49 1 5.55255 5.48999 0.00836588 0.698776 6.92115 3.74359 0.375979 1.41626 -0.520359 Si
51 1 8.37472 5.52052 2.7374 -2.05356 1.69116 0.861033 -0.49694 0.989974 0.577708 Si
55 2 9.7599 6.87929 1.34676 -1.82584 -0.17017 -1.20949 -1.04797 1.71209 1.23909 Ge
20 1 2.79195 8.33783 0.0453705 -1.33466 -0.116502 1.87582 0.91236 -0.501663 0.910492 Si
22 2 1.42243 9.72435 1.45273 0.0172831 2.17749 1.2985 -0.491011 0.0698911 -0.364832 Ge
33 1 5.53852 0.0487269 0.0148735 0.71712 -2.56163 2.16694 0.172547 -0.762241 -0.485479 Si
50 1 5.6003 8.38331 2.79746 0.622102 -4.75084 -4.12825 0.0358749 -0.994876 -1.3024 Si
54 2 6.98484 9.74311 1.32843 1.56836 -0.0977971 1.04772 -0.272575 -0.454039 0.808198 Ge
1 1 0.0193624 0.0240659 0.0603458 -1.34657 1.96937 0.662793 -1.71604 -1.53096 0.544721 Si
18 1 -0.0269662 8.3565 2.79024 -4.65696 3.27665 2.82206 0.808176 -0.98056 -0.940004 Si
5 2 1.38286 1.44584 4.17526 -0.0427818 -1.86361 -1.66895 0.0322985 -0.95373 0.488546 Ge
9 1 -0.0226741 -0.0092954 5.52403 -1.79282 3.97131 3.60638 0.728337 0.0490673 -0.0654823 Si
12 1 2.74799 2.79321 5.6204 0.68437 -4.82766 3.245 -0.00715167 0.0619082 -1.43144 Si
15 2 4.06918 1.35941 6.94388 -1.7064 -1.32772 1.57225 1.40152 -0.14125 0.717754 Ge
37 2 6.86443 1.41541 4.10292 2.06942 -1.02491 -3.91195 -0.123417 -0.758895 1.17501 Ge
41 1 5.51669 -0.0487549 5.55464 -4.04484 0.743751 -0.558264 0.517458 1.66972 0.239956 Si
44 1 8.32446 2.7414 5.4449 1.01669 2.14145 2.16112 -0.153577 0.536468 0.464389 Si
47 2 9.66317 1.3503 6.85839 1.5252 -1.67143 1.21516 -0.404768 -0.496943 1.03441 Ge
14 2 1.33847 4.16024 6.93051 -0.675534 0.938629 -2.22938 0.241564 0.453474 1.27965 Ge
21 2 1.39495 7.00312 4.18084 -3.76347 -1.44997 -0.50391 -0.448061 -0.418632 -0.289384 Ge
25 1 -0.0209608 5.56663 5.50449 -1.64777 1.83929 3.56456 1.13891 -0.277439 0.245891 Si
8 2 4.15112 4.14853 4.18402 -1.05287 -0.702551 0.170023 -0.364777 0.460613 -0.279751 Ge
31 2 4.09565 6.93687 6.8835 -1.85351 -0.350908 -2.45806 0.296219 -0.709163 1.2959 Ge
46 2 6.95122 4.12065 6.86896 2.49126 -1.64886 -0.520245 -0.823359 -0.25243 -0.342221 Ge
53 2 6.91963 6.92516 4.14677 1.24691 -0.447018 -1.17395 1.16307 -0.137768 -0.0800208 Ge
57 1 5.53871 5.56112 5.547 -1.52817 3.44523 -2.94255 -0.119988 -0.418156 -0.24847 Si
40 2 9.75545 4.14539 4.10384 2.27278 0.470075 -0.725372 -0.714072 0.0526294 0.399366 Ge
63 2 9.77032 6.92586 6.93485 3.22146 -0.735154 3.21044 -1.53323 0.0799035 0.234569 Ge
28 1 2.78717 8.38503 5.5473 3.71199 3.12336 -2.00978 -0.744096 -0.125209 0.176022 Si
30 2 1.36663 9.72558 6.9935 0.664353 0.292205 -1.46362 1.01928 0.947523 -1.02807 Ge
24 2 4.19359 9.70614 4.14472 -0.799426 0.703244 1.20385 -0.677886 0.203287 0.391905 Ge
62 2 6.94926 9.69662 6.95832 0.0635721 1.539 2.11514 -0.123955 -0.125021 -0.934033 Ge
56 2 9.68897 9.72042 4.11158 2.00026 -0.61567 -4.26962 -0.579328 -0.0778774 1.36618 Ge
60 1 8.33054 8.30573 5.54296 -1.17004 1.3671 0.881527 0.224274 0.0781127 0.0219868 Si
13 2 1.30593 1.36109 9.77861 -0.920965 -2.46129 0.677359 0.834449 0.78757 -1.29043 Ge
42 1 5.53453 2.77522 8.29064 -2.17934 -0.736781 4.62533 -0.118557 -0.526906 -0.391777 Si
45 2 6.915 1.39967 9.69773 0.968999 0.229578 -2.88898 -0.345793 -0.372774 -0.37572 Ge
36 1 8.24558 2.7669 -0.004426 1.85952 0.449612 0.184116 1.26796 -0.174622 -0.0953 Si
10 1 -0.0202425 2.66419 8.28085 -2.07816 -0.448939 1.4022 -0.568213 1.45748 0.359745 Si
17 1 -0.00654936 5.53176 0.0272936 -1.64362 -2.48565 -3.1212 0.519036 -1.18036 -1.37052 Si
27 1 2.77747 5.51411 8.43469 3.67354 2.92649 -2.17915 -0.829944 0.944818 -2.12356 Si
29 2 1.39465 6.96079 9.80198 0.398189 -0.408365 0.604194 -0.0986331 -0.374062 -1.17812 Ge
16 2 4.17935 4.13035 9.72402 0.315578 -1.07386 -1.81716 -0.000405852 -0.386802 -0.229654 Ge
61 2 6.90958 6.89504 9.62187 -0.16168 -0.762757 -1.75669 -0.0666354 0.341137 0.703364 Ge
48 2 9.66201 4.0982 9.69143 -0.80903 1.55667 -0.984522 0.685838 0.36547 -0.320379 Ge
59 1 8.27687 5.47462 8.25198 -1.83684 1.48736 5.08396 1.54283 0.967294 0.472309 Si
11 1 2.73141 0.0341177 8.4447 1.65524 -0.670316 -1.01089 0.307386 -1.13097 -1.13213 Si
26 1 0.050656 8.34869 8.32521 6.56141 0.132565 1.40238 -0.155712 -1.88209 0.479228 Si
32 2 4.20284 9.6791 9.72746 0.59519 2.79245 -0.583109 -0.695817 0.681177 -0.115988 Ge
58 1 5.5063 8.32462 8.23173 -5.12552 0.118579 3.30049 0.344851 -0.713559 1.19645 Si
52 1 8.37057 8.28966 -0.0450051 -1.78367 1.02854 -0.229227 -1.02921 -0.89901 0.234325 Si
43 1 8.31822 -0.0458279 8.37151 -1.25315 -0.136919 5.98473 0.4265 0.717269 -0.765358 Si
64 2 9.75364 9.63318 9.70198 -1.19 0.625466 -2.86515 0.0554308 2.0091 0.633347 Ge
ITEM: TIMESTEP
16600
ITEM: NUMBER OF ATOMS
64
ITEM: BOX BOUNDS pp pp pp
0.0000000000000000e+00 1.1085848640000000e+01
0.0000000000000000e+00 1.1085848640000000e+01
0.0000000000000000e+00 1.1085848640000000e+01
ITEM: ATOMS id type xu yu zu vx vy vz fx fy fz element
3 1 2.72245 -0.0299572 2.72197 -3.67762 -1.34664 1.97236 0.398067 -0.770929 -0.366587 Si
4 1 2.78739 2.80166 0.0709177 -1.20496 -0.00301281 -0.947583 0.825444 -0.685281 -1.73512 Si
7 2 4.15447 1.37803 1.39999 -2.89047 -0.528206 1.20917 0.697419 0.112942 0.644296 Ge
34 1 5.63182 2.73371 2.84035 5.51741 0.349046 0.876575 -1.19511 0.0131925 -0.486187 Si
2 1 -0.0426525 2.7864 2.8296 -1.32697 0.915765 2.71807 0.422976 -0.489112 -0.895654 Si
35 1 8.38773 -0.0125052 2.76921 0.834238 3.41319 4.30104 -1.29442 0.601561 0.245085 Si
39 2 9.74461 1.38037 1.34447 -1.39391 -3.30907 0.967513 -0.340219 0.378638 1.25408 Ge
6 2 1.34209 4.11056 1.33577 -0.957642 -0.472106 0.470304 0.241363 1.03181 2.10019 Ge
19 1 2.7744 5.47745 2.78816 -4.16967 0.0958212 1.87581 -0.56992 0.645335 -1.54991 Si
23 2 4.09784 6.9524 1.38475 -0.717814 -3.04523 0.607034 0.710431 -0.881608 0.130015 Ge
38 2 6.89099 4.18247 1.36881 3.23817 2.29644 -1.27802 0.96713 -0.333055 0.900394 Ge
49 1 5.49635 5.55628 -0.0151762 -0.523626 -6.82524 0.830287 -0.166176 0.141765 1.08306 Si
51 1 8.28901 5.53888 2.84066 2.09295 -4.0367 -1.6297 -0.123854 -0.196856 -1.44377 Si
55 2 9.69111 6.90172 1.41759 1.76243 -2.04826 1.77653 -0.452586 0.0797762 -1.01355 Ge
20 1 2.77184 8.31265 -0.0555617 -3.74659 4.03667 -6.22132 -1.03358 -0.432399 -0.526045 Si
22 2 1.31716 9.62682 1.30481 0.664641 -1.03042 0.306269 1.10629 1.21229 0.556596 Ge
33 1 5.53124 0.00484427 -0.0211876 -2.28704 3.01271 1.0687 -0.465548 -0.719209 0.467563 Si
50 1 5.54493 8.28165 2.78957 -2.30601 4.98588 1.30497 -0.400381 -0.263 -0.214494 Si
54 2 6.89896 9.70457 1.44409 0.796343 2.87562 1.70106 0.235042 0.466875 -0.729854 Ge
1 1 -0.00299505 0.00827899 -0.0390414 5.74087 2.68319 -1.82168 1.48346 0.685207 -0.966382 Si
18 1 0.0174503 8.26788 2.74091 2.28716 1.96915 2.88343 -1.31243 0.876803 1.24719 Si
5 2 1.41684 1.35763 4.13606 -0.309743 1.2172 -1.21478 -0.676134 0.537577 0.0408704 Ge
9 1 0.0552478 -0.0423533 5.52303 -0.532093 -1.14273 0.980506 -0.85792 1.03334 0.843742 Si
12 1 2.78298 2.79885 5.48664 1.2559 2.97284 2.53912 0.316713 -0.965825 1.11113 Si
15 2 4.2268 1.42681 6.90523 -1.07973 -0.842407 -1.23219 -1.20713 -0.302303 -0.981552 Ge
37 2 7.01179 1.33876 4.27559 1.88335 0.650806 -2.74939 -0.129721 0.286727 -2.02647 Ge
41 1 5.56682 0.00749982 5.56762 1.01703 -5.46612 -0.614355 -1.05915 -1.1702 -0.938892 Si
44 1 8.31636 2.76566 5.61585 -2.52648 -2.01958 -1.66449 -0.310821 1.17779 0.190849 Si
47 2 9.73086 1.43372 6.9341 0.975558 -0.018522 0.680377 1.47367 -0.233389 -0.380858 Ge
14 2 1.41184 4.1368 6.93475 -0.158069 1.67575 -2.16704 -0.707026 0.298579 -0.999781 Ge
21 2 1.40028 6.89218 4.11355 3.08464 -0.443198 1.22288 -0.715451 -0.608377 0.653496 Ge
25 1 0.015625 5.51687 5.55096 -2.7864 0.464444 -2.52192 -0.557794 0.75529 0.22439 Si
8 2 4.16851 4.17259 4.16175 4.20457 -0.231703 -2.52697 0.86382 -1.0769 -0.327469 Ge
31 2 4.24034 6.95128 6.91822 -0.668232 -0.0369771 0.247975 -1.61301 -0.965774 -0.184529 Ge
46 2 6.91543 4.2307 6.97403 1.13396 2.06757 4.95624 1.5466 -1.45901 -0.00595295 Ge
53 2 6.91145 6.88829 4.18984 -5.09236 -0.935879 -3.22358 -0.142251 0.580754 0.0139858 Ge
57 1 5.55771 5.49041 5.55584 -0.666887 -2.48605 2.57654 -0.467252 1.34925 -0.122611 Si
40 2 9.63516 4.16751 4.21575 -0.0533534 0.439942 -1.357 0.948662 -0.473756 -0.0592621 Ge
63 2 9.6572 6.94248 6.94378 0.4722 -3.32503 -0.938972 0.766607 -0.669449 -0.82849 Ge
28 1 2.70465 8.2418 5.55582 -2.50059 -0.976902 0.845968 2.15062 0.644871 -0.871685 Si
30 2 1.39439 9.64048 6.91785 -0.562488 0.0117535 2.28804 -0.956612 0.414732 -0.136395 Ge
24 2 4.13383 9.65629 4.11237 -0.955079 -2.18398 -1.91275 -0.298018 0.682895 1.5508 Ge
62 2 6.90773 9.70794 6.93391 1.98338 1.25064 3.11419 0.881025 -0.249478 0.10263 Ge
56 2 9.65784 9.71227 4.20998 1.20512 1.75705 -3.30473 1.84406 -1.49812 -1.25959 Ge
60 1 8.28795 8.29397 5.55251 -2.71648 -1.02333 0.523185 -0.488316 0.390565 0.203251 Si
13 2 1.50789 1.45005 9.63864 2.24219 -0.160761 -1.51213 -2.02569 -0.890267 0.531085 Ge
42 1 5.60173 2.74831 8.27301 0.0169877 1.60427 2.78563 -0.617905 1.09102 1.92735 Si
45 2 6.93871 1.39662 9.74984 -0.0307986 -0.184714 -0.153741 0.932277 0.153277 -1.33614 Ge
36 1 8.36128 2.8024 0.0246494 -5.3465 -0.470764 0.675085 -1.0517 -0.127789 0.113045 Si
10 1 -0.0262221 2.88408 8.35462 4.20038 -1.18524 -2.53444 1.01044 -1.78166 -0.189059 Si
17 1 0.0447446 5.55538 -0.0317749 -2.49782 3.83328 5.43219 -0.560527 0.894607 0.754485 Si
27 1 2.73618 5.55315 8.24171 0.129363 -3.63319 8.3162 2.0751 0.0166269 1.09091 Si
29 2 1.34975 6.94645 9.58593 -3.00645 -0.536684 -1.49431 0.394936 0.0989681 1.27343 Ge
16 2 4.18053 4.15447 9.71454 -0.163035 0.626564 1.7019 -0.940738 -0.168269 -1.36938 Ge
61 2 6.8636 6.92749 9.74203 1.77408 0.0787198 -0.0171823 1.67383 -0.0864491 -0.310259 Ge
48 2 9.71122 4.21749 9.77439 -0.207528 0.415428 -1.46251 -0.321073 -0.205851 -0.976575 Ge
59 1 8.34861 5.58205 8.36642 -4.83945 -0.257815 0.518833 -1.33214 -0.0271338 0.346216 Si
11 1 2.8028 -0.0135724 8.18279 1.4904 2.02501 1.3203 0.140718 0.597045 1.40244 Si
26 1 -0.0923238 8.33214 8.28807 -3.6536 7.88225 -3.18205 1.22143 0.254826 0.0421258 Si
32 2 4.12376 9.68556 9.63308 1.61725 0.115201 -2.91346 1.04337 0.546996 0.349695 Ge
58 1 5.58969 8.28725 8.33368 1.08678 3.72824 -1.98465 -0.968595 1.08123 -0.344861 Si
52 1 8.24675 8.33837 0.0159352 2.37184 4.46869 1.45399 1.19177 -0.294788 0.258636 Si
43 1 8.33674 0.0727192 8.22431 -1.92123 -2.21057 4.08721 -0.701923 -1.09441 2.28597 Si
64 2 9.69571 9.7368 9.69214 -0.597819 -2.08369 -2.13991 -1.50217 -0.0125269 -0.361641 Ge
ITEM: TIMESTEP
16700
ITEM: NUMBER OF ATOMS
64
ITEM: BOX BOUNDS pp pp pp
0.0000000000000000e+00 1.1085848640000000e+01
0.0000000000000000e+00 1.1085848640000000e+01
0.0000000000000000e+00 1.1085848640000000e+01
ITEM: ATOMS id type xu yu zu vx vy vz fx fy fz element
3 1 2.85808 0.0285697 2.81392 1.45625 5.04912 3.85976 -1.30306 0.616784 -0.0261026 Si
4 1 2.72372 2.76993 -0.0663162 -3.21725 1.56651 6.06827 0.0685538 0.103115 1.94996 Si
7 2 4.14587 1.40431 1.34953 0.92643 2.12369 -1.32124 0.230707 0.113634 -0.217399 Ge
34 1 5.52469 2.79959 2.73328 0.16295 0.617654 2.29972 -0.17807 -0.00357851 0.98311 Si
2 1 0.00585311 2.77207 2.7565 -0.746179 0.387001 3.33719 0.124667 0.0856052 0.457446 Si
35 1 8.29535 -0.0394713 2.72694 3.50003 -3.15289 -2.53645 0.156174 0.818341 0.72233 Si
39 2 9.70411 1.37902 1.39248 -0.697277 -0.26342 0.814413 0.0266335 -0.447367 -0.283352 Ge
6 2 1.40647 4.19395 1.41552 1.02834 -1.04707 -2.81652 -0.239105 -0.993117 -1.0358 Ge
19 1 2.80177 5.57453 2.72256 3.33752 -0.398405 2.83365 -0.442813 0.37637 1.1043 Si
23 2 4.1996 6.94252 1.36113 2.57625 2.10197 3.44274 0.197487 -0.708816 0.705634 Ge
38 2 6.9481 4.1383 1.35389 -3.54085 1.41523 -0.497548 0.0529975 0.368246 -0.112862 Ge
49 1 5.55665 5.53652 -0.0195875 -1.6453 3.20323 -2.90786 0.146893 -0.17671 -0.217638 Si
51 1 8.30936 5.57302 2.73011 -0.902818 2.60765 4.68613 0.0493085 -0.695552 0.78822 Si
55 2 9.70917 6.95517 1.38464 1.60473 -1.858 0.606651 0.437306 -1.01584 0.241462 Ge
20 1 2.79191 8.28115 0.0688179 6.86092 -1.55517 7.81336 -0.523295 1.44799 -0.645351 Si
22 2 1.45182 9.75677 1.45429 -1.72758 -1.45259 2.52835 -0.690729 -1.23573 -0.546105 Ge
33 1 5.54615 -0.020653 -0.0069609 2.15405 1.97653 -1.33038 -0.230542 0.546177 0.192544 Si
50 1 5.52198 8.2958 2.81079 2.59939 0.219072 3.52929 0.33037 0.81113 -0.38582 Si
54 2 6.89076 9.6835 1.39633 1.94797 -1.1677 0.92219 0.741633 -1.07905 -0.654423 Ge
1 1 -0.00592785 -0.0378569 0.0218463 -7.02036 0.506317 4.2343 0.399338 0.556541 0.78251 Si
18 1 -0.0116985 8.3151 2.76203 -0.84232 -2.49595 -3.57478 0.82787 0.878235 0.273773 Si
5 2 1.3771 1.39601 4.17917 1.89167 -1.89264 -1.11663 0.119429 -0.504141 -1.06474 Ge
9 1 -0.0322603 0.0273713 5.53033 2.49018 -2.5263 -3.25549 0.350768 -0.545074 0.476404 Si
12 1 2.76565 2.73054 5.5173 -3.49373 2.22438 -2.33556 0.182924 0.741149 1.06941 Si
15 2 4.1428 1.38156 6.95997 -0.400326 -0.305432 5.94205 -0.325836 -0.189216 0.01668 Ge
37 2 6.92032 1.36685 4.13199 -0.051108 -2.17574 -0.140783 0.331798 0.957193 -0.563554 Ge
41 1 5.54106 0.0365604 5.5165 -0.260539 5.3444 4.33188 0.0872776 -0.112187 1.1901 Si
44 1 8.31605 2.79474 5.51886 1.54783 -2.83003 0.730208 -0.724081 -1.19309 -0.577479 Si
47 2 9.63184 1.37627 6.90082 -4.61706 -2.13299 -1.17568 0.695886 -0.214632 0.194487 Ge
14 2 1.39853 4.10181 6.93051 -1.19421 -0.720794 3.93684 -0.157802 0.639677 -0.050238 Ge
21 2 1.38737 6.95019 4.14507 0.606348 1.79444 -2.01024 0.890041 0.0142216 0.182703 Ge
25 1 0.0110974 5.54515 5.53567 2.08756 -1.62569 2.53431 -0.155712 -0.27564 0.261288 Si
8 2 4.09632 4.20225 4.18858 -3.72105 3.28835 0.57322 1.50007 -0.301463 -0.837536 Ge
31 2 4.18972 6.93779 6.98795 2.83407 2.33395 -0.526415 -0.392725 0.272474 -0.96577 Ge
46 2 6.89447 4.12147 6.84485 -2.17846 3.0931 -3.13533 0.226941 1.15057 1.11742 Ge
53 2 6.93521 6.94805 4.16216 3.41371 -3.64396 -0.223741 0.444456 -0.103608 -0.302805 Ge
57 1 5.54152 5.61483 5.55204 0.357898 -0.50694 0.600551 -0.331355 -1.23489 -0.29146 Si
40 2 9.68822 4.13687 4.14929 -0.581609 2.88095 -0.543301 0.390145 1.16457 -0.600516 Ge
63 2 9.69914 6.96276 6.93007 2.65248 -0.281322 4.10234 0.445188 -1.09231 -0.884326 Ge
28 1 2.86193 8.33865 5.54629 -2.85746 0.492291 3.71303 -1.88063 -0.209198 0.679261 Si
30 2 1.36971 9.7109 6.95176 2.37821 -2.28285 2.036 0.263123 -0.523878 -0.283325 Ge
24 2 4.19051 9.74558 4.19322 0.893541 -0.0934851 -2.34577 0.244305 -0.768193 -0.690019 Ge
62 2 6.89327 9.67887 6.87703 -2.64876 1.39264 2.2072 0.802258 0.388753 0.134298 Ge
56 2 9.7068 9.72203 4.13633 -4.17176 4.16505 -0.727736 0.0421242 -0.120371 -0.35508 Ge
60 1 8.3606 8.3347 5.50244 4.09475 -0.27686 0.865299 -0.939446 -0.0395905 0.557085 Si
13 2 1.32864 1.36161 9.74165 3.37748 0.536486 -0.24288 0.112842 -0.164762 -0.219362 Ge
42 1 5.51881 2.81248 8.31519 3.79367 -4.59533 -7.83889 0.380276 -1.04219 -0.203622 Si
45 2 6.91772 1.36269 9.67468 -0.110957 -2.53014 -2.00524 0.190968 0.374018 0.042424 Ge
36 1 8.35309 2.74141 -0.0234929 4.1029 1.17502 0.198467 -0.742875 0.10744 -0.157196 Si
10 1 0.00855666 2.66569 8.29066 -8.76654 3.0631 3.29478 -0.779534 1.55037 0.10316 Si
17 1 0.00217315 5.54244 0.0321267 3.10346 -2.84807 -5.1109 -0.441516 -0.301152 -0.277713 Si
27 1 2.78702 5.55789 8.31315 -6.23601 3.64235 -6.94011 -0.978812 -0.475611 0.860698 Si
29 2 1.3684 6.93992 9.77728 1.86445 0.354979 -2.18921 1.19021 -1.05135 -0.758788 Ge
16 2 4.12877 4.13399 9.71636 2.498 -1.2673 -0.630689 0.408972 1.10087 -0.619601 Ge
61 2 6.96902 6.90953 9.67011 -2.70748 -4.38389 -4.92309 0.0290737 -0.279762 -0.271874 Ge
48 2 9.71715 4.13673 9.67217 -0.862489 2.42937 0.591916 0.561991 -0.153473 -0.199134 Ge
59 1 8.34558 5.50079 8.22592 5.08541 -1.45574 -4.6549 -0.878522 0.0559384 0.822748 Si
11 1 2.71122 0.00921333 8.40461 -3.50784 -1.35264 -1.79673 0.992351 -0.377109 -1.22669 Si
26 1 0.0215184 8.22589 8.33842 -2.3368 -4.94565 3.72055 -0.209125 2.23008 -0.049502 Si
32 2 4.14321 9.69375 9.73975 -2.81219 -0.808258 -2.13307 -0.0645693 -0.490694 -0.390281 Ge
58 1 5.55086 8.32252 8.30824 -0.512592 -6.45406 1.00954 0.17454 0.179891 0.95119 Si
52 1 8.36806 8.26228 0.00809819 -6.12673 -0.913268 -1.79056 -1.38552 1.69313 -0.554834 Si
43 1 8.3 -0.0395792 8.29012 2.70588 5.46007 -10.0239 -0.235766 -0.0291917 0.0680426 Si
64 2 9.73827 9.70376 9.70313 1.15509 0.551369 -1.15025 -0.616456 -1.19397 -0.408392 Ge
ITEM: TIMESTEP
16800
ITEM: NUMBER OF ATOMS
64
ITEM: BOX BOUNDS pp pp pp
0.0000000000000000e+00 1.1085848640000000e+01
0.0000000000000000e+00 1.1085848640000000e+01
0.0000000000000000e+00 1.1085848640000000e+01
ITEM: ATOMS id type xu yu zu vx vy vz fx fy fz element
3 1 2.70825 -0.0447783 2.70388 0.988208 -6.00213 -4.79407 0.694257 0.76262 1.98603 Si
4 1 2.82787 2.73743 -0.00236441 1.19028 0.682654 -8.50224 -1.40357 0.577012 -0.113226 Si
7 2 4.11383 1.31306 1.37512 -3.69728 -2.12832 0.935254 0.924743 0.471665 0.021124 Ge
34 1 5.47824 2.74371 2.75971 4.32158 -2.53252 -1.56456 1.07318 0.0671429 0.161141 Si
2 1 0.05253 2.77466 2.68796 -2.64368 2.24887 -1.05581 -0.775735 0.0466 1.52232 Si
35 1 8.2821 0.0402714 2.81784 -0.576888 0.064847 0.889112 1.01226 -0.879211 -0.105378 Si
39 2 9.66456 1.40739 1.41567 -0.171947 -3.11205 2.47351 0.399754 -0.54989 -1.22931 Ge
6 2 1.43305 4.17525 1.38805 0.741996 0.868005 1.60747 0.0655637 -0.646474 -1.14258 Ge
19 1 2.75368 5.5436 2.79037 -2.05455 -2.03397 -2.83632 0.515168 -0.384473 0.655025 Si
23 2 4.13248 6.89887 1.41235 -2.53622 -0.582523 -2.60522 -0.15491 0.98473 -1.30413 Ge
38 2 6.95242 4.1843 1.43187 1.45727 0.552469 1.9086 -1.02697 -0.861301 -0.421884 Ge
49 1 5.57213 5.55969 0.034602 -0.506594 -2.64104 0.914242 -0.852086 -0.338166 -0.197102 Si
51 1 8.35854 5.52807 2.7685 -0.134834 0.464405 -1.95486 -0.432569 0.872518 0.725214 Si
55 2 9.70118 6.90851 1.35004 -0.960777 0.135987 1.16444 0.515992 0.518684 0.216503 Ge
20 1 2.73299 8.34585 -0.0393041 -4.3 -2.91483 -3.10836 1.34913 -0.592865 1.35035 Si
22 2 1.35296 9.71447 1.34866 1.61214 2.79831 0.594065 0.0524541 -0.969131 0.0681501 Ge
33 1 5.56165 -0.0193384 0.00933029 -1.99385 -1.14952 0.551491 0.344083 1.14222 0.101216 Si
50 1 5.59108 8.29841 2.67496 -2.11111 -2.49741 2.6156 -1.07075 0.647563 1.81894 Si
54 2 6.96307 9.73033 1.38368 -2.44403 3.99758 6.58005 0.351469 -0.322584 -0.529744 Ge
1 1 0.00458206 -0.0166651 -0.00148054 2.42843 -3.32072 -2.75383 -1.6026 0.755549 0.247148 Si
18 1 0.0126839 8.34225 2.77426 0.544911 -1.81471 0.70934 -0.460663 -1.22643 -1.07356 Si
5 2 1.3639 1.40747 4.15742 -1.23388 0.183142 -1.25917 0.653784 -0.620585 -0.329328 Ge
9 1 -0.0119448 0.0108636 5.56384 -2.22547 1.00649 1.70796 -0.183417 0.172341 -0.95388 Si
12 1 2.77889 2.76603 5.58608 2.56009 -3.70164 -2.21718 -1.09355 0.474258 -1.29846 Si
15 2 4.13357 1.37915 6.86614 1.57519 -0.391751 -1.23943 1.60872 -0.291186 1.4358 Ge
37 2 6.92711 1.41477 4.1904 4.28505 -3.14887 -0.199196 -0.915932 -0.315232 -0.519499 Ge
41 1 5.55479 -0.0364294 5.53188 2.10591 -0.553621 -4.77197 0.0872237 0.79473 0.162238 Si
44 1 8.33932 2.77552 5.51174 2.47425 4.88755 1.66143 0.768222 -0.578609 1.11122 Si
47 2 9.76597 1.41015 6.96013 -0.271325 0.727926 3.54329 -1.98112 -0.597484 0.282388 Ge
14 2 1.37762 4.19367 6.91439 2.21679 -0.934891 -2.56755 0.910492 0.216378 0.201713 Ge
21 2 1.34102 6.90755 4.14584 -1.22554 -1.39932 -1.75725 0.303403 0.522702 -0.201761 Ge
25 1 -0.0303093 5.54968 5.5268 -0.558753 1.05843 -3.80902 -0.252818 -0.121688 0.495604 Si
8 2 4.15761 4.12595 4.18717 0.78807 0.435269 -0.619733 -0.721698 0.1368 -0.95296 Ge
31 2 4.11309 6.8725 6.85495 2.25777 -0.56731 1.82148 1.14043 1.13104 0.728983 Ge
46 2 6.98419 4.09968 6.95033 0.764174 -0.20196 2.31236 -1.20837 1.27363 -0.215659 Ge
53 2 6.9313 6.97447 4.1519 -5.8525 -0.085867 -2.20396 0.260977 -1.45816 -0.849786 Ge
57 1 5.57362 5.49215 5.48118 2.17521 3.79213 0.90892 0.361473 0.45784 1.45049 Si
40 2 9.73177 4.11876 4.12858 -1.35296 -3.08757 0.249806 0.245395 0.426815 -0.296895 Ge
63 2 9.67543 6.93518 6.96558 -3.2501 0.0363021 2.84654 0.272866 0.0718962 0.274228 Ge
28 1 2.72379 8.31832 5.48577 2.59158 -2.19015 -3.18403 0.155522 0.269335 0.893277 Si
30 2 1.35729 9.76949 6.93147 0.425888 1.54965 1.0233 2.10896 -0.754678 -0.678578 Ge
24 2 4.17164 9.70374 4.13603 -1.21585 -0.658238 -1.40795 -0.314542 -0.795836 -1.27847 Ge
62 2 6.95263 9.68919 6.93073 -0.541709 0.93274 1.29087 -0.492854 0.657236 0.674507 Ge
56 2 9.71789 9.65349 4.15723 1.99162 1.84301 -2.98931 -1.03405 1.46692 0.630331 Ge
60 1 8.27688 8.30977 5.55893 -0.76053 0.664958 -3.30363 1.29755 -0.0515111 -0.0864012 Si
13 2 1.3427 1.38314 9.72078 1.79467 0.532474 -1.34228 1.99333 0.0321971 -0.997759 Ge
42 1 5.51821 2.76958 8.32746 -4.63769 6.15022 3.00638 -0.0484526 -0.107185 -1.12005 Si
45 2 6.91461 1.4492 9.70983 0.396818 -0.386973 -0.266313 -0.420483 -1.68724 0.36074 Ge
36 1 8.26855 2.78936 -0.002658 1.70836 -0.115877 1.07207 0.925774 0.114092 0.799221 Si
10 1 0.0521457 2.82647 8.29154 6.81452 -3.83435 -2.02856 -0.855103 -0.710009 0.839367 Si
17 1 0.00105261 5.48789 -0.0259206 0.390305 2.81608 5.62908 0.0707733 0.699781 0.567003 Si
27 1 2.81186 5.5249 8.34814 5.41826 -3.05153 2.51866 -1.3182 0.584876 -0.893405 Si
29 2 1.39892 6.91504 9.73496 -5.40532 1.37654 -0.0851191 -0.132356 -0.0111928 -1.32834 Ge
16 2 4.15995 4.17016 9.70026 -2.52644 -1.37483 2.69537 1.01514 -0.368496 0.881753 Ge
61 2 6.88606 6.97315 9.72233 0.835081 2.07218 2.2973 -0.176238 -0.0400485 -0.098859 Ge
48 2 9.68166 4.12923 9.6956 0.973339 1.89516 -1.03086 0.103728 0.287306 0.0398859 Ge
59 1 8.24913 5.55622 8.41202 0.696966 0.371449 1.97365 1.13539 -0.198312 -1.62775 Si
11 1 2.85211 -0.00853563 8.29897 -1.8249 1.54724 2.42862 -1.8167 0.704762 0.765604 Si
26 1 0.0921032 8.37261 8.29693 0.454926 -2.14648 -3.28652 -1.82716 -1.78878 0.585291 Si
32 2 4.20939 9.72201 9.73281 0.217612 1.74879 -2.7134 -0.956865 -0.552662 -0.79855 Ge
58 1 5.52348 8.35167 8.30172 3.13276 3.56104 -4.11093 -0.366121 -1.34338 -0.695133 Si
52 1 8.32232 8.32304 -0.0471984 8.23124 -3.32831 1.76702 0.0210889 -0.114614 1.21153 Si
43 1 8.30558 -0.0443852 8.42379 0.133706 -2.20112 3.18715 0.482167 1.69197 -2.32358 Si
64 2 9.72307 9.66838 9.69321 1.05932 2.83782 -2.64999 0.675422 0.244214 0.397678 Ge
ITEM: TIMESTEP
16900
ITEM: NUMBER OF ATOMS
64
ITEM: BOX BOUNDS pp pp pp
0.0000000000000000e+00 1.1085848640000000e+01
0.0000000000000000e+00 1.1085848640000000e+01
0.0000000000000000e+00 1.1085848640000000e+01
ITEM: ATOMS id type xu yu zu vx vy vz fx fy fz element
3 1 2.79291 0.0249856 2.83802 -2.19092 0.916364 -0.934647 0.0287086 -0.955776 -2.19277 Si
4 1 2.75205 2.78627 0.0490677 1.55055 -2.61279 3.22638 0.666446 0.209228 -1.06498 Si
7 2 4.22312 1.40924 1.4047 -2.88056 0.677108 -1.50521 -1.3851 -0.32019 0.222651 Ge
34 1 5.57678 2.79539 2.77421 -7.88782 3.29659 -1.51426 0.104744 -0.0363235 0.0532408 Si
2 1 -0.00848149 2.71868 2.85161 6.94928 -2.7695 -6.75617 -0.41558 1.25812 -0.54346 Si
35 1 8.33431 -0.0267265 2.72798 -3.72245 1.29747 -1.17087 -0.602458 0.292842 0.23224 Si
39 2 9.75005 1.39978 1.34685 -2.17998 0.429285 5.19691 -0.450635 -0.520856 0.992307 Ge
6 2 1.30072 4.15881 1.41335 1.0165 1.60996 0.12815 0.67548 0.203674 -0.0956093 Ge
19 1 2.79361 5.53138 2.74414 2.00615 1.30387 -2.34348 -0.798802 -0.457347 -0.151027 Si
23 2 4.13627 6.91132 1.3726 2.69907 -2.03996 5.22911 0.392449 0.163401 -0.464719 Ge
38 2 6.94428 4.1309 1.32501 1.20574 3.58496 0.787863 -0.138782 0.640294 0.993556 Ge
49 1 5.53719 5.53637 -0.0203352 4.71142 4.69837 0.93788 0.45889 0.201965 0.179009 Si
51 1 8.27539 5.55289 2.77404 2.66704 -1.02239 -2.26331 0.26717 -0.508176 -0.141556 Si
55 2 9.67718 6.96916 1.46006 1.21219 -1.54958 0.954531 -0.434563 -0.305429 -1.33186 Ge
20 1 2.80249 8.3013 -0.0473086 -0.238724 0.335786 -1.31138 -1.27431 -0.545318 0.0176161 Si
22 2 1.38503 9.65165 1.3527 -0.601266 1.51367 2.48928 0.503653 1.68156 0.454976 Ge
33 1 5.54394 0.0105847 -0.00963983 2.57189 -5.04433 -1.85347 -0.481277 -0.565446 0.195307 Si
50 1 5.46836 8.32215 2.76638 4.34221 -1.70842 -10.1871 1.24947 -0.631884 0.394365 Si
54 2 6.8779 9.6627 1.34234 1.87348 -0.134917 1.35499 -0.399565 1.51678 1.85878 Ge
1 1 0.0369508 0.0644618 -0.0617612 2.40223 -1.03684 0.532853 -0.129927 -1.89386 0.457486 Si
18 1 0.00785783 8.29619 2.78059 0.0743379 3.48174 2.05285 0.510863 0.203628 1.13065 Si
5 2 1.43958 1.3734 4.18597 0.661275 0.743148 0.360961 -0.796159 0.434547 0.100579 Ge
9 1 0.0172917 0.0117313 5.51321 1.03337 0.796554 -0.564181 -0.129862 -0.69636 0.571478 Si
12 1 2.77669 2.80481 5.52125 0.764044 -0.0737988 2.80994 0.638659 -0.435761 0.535008 Si
15 2 4.19346 1.42192 6.92711 -3.92004 -0.692732 1.2581 -0.426641 -0.396251 -0.548517 Ge
37 2 6.92946 1.38444 4.17038 0.916773 0.191187 -0.960541 0.104153 -0.709423 -0.396069 Ge
41 1 5.53474 -0.0298666 5.55665 -0.729295 -2.27636 0.608201 0.388597 0.79409 -0.181289 Si
44 1 8.26091 2.74899 5.61014 -3.15804 0.488936 -3.58996 0.269927 1.59022 -0.919863 Si
47 2 9.72288 1.41236 6.88482 0.387481 -0.383217 -1.09048 0.211264 -0.232333 0.54638 Ge
14 2 1.39931 4.15043 6.92184 -2.85885 0.600762 1.83843 -0.667176 -0.395501 0.377136 Ge
21 2 1.45834 6.87619 4.16279 0.0540116 -0.0275702 -0.813084 -0.972252 0.956238 0.371933 Ge
25 1 0.0162196 5.52402 5.57547 0.897168 -0.579605 2.05952 0.482446 0.208307 -1.26304 Si
8 2 4.15058 4.17213 4.12872 -1.21346 2.19474 3.16788 0.669707 -0.0375401 0.589382 Ge
31 2 4.16687 6.94005 6.99523 -1.77261 -2.11843 -1.94425 -0.18234 -0.408386 -0.85854 Ge
46 2 6.89838 4.21187 6.99492 1.55578 -2.08705 -1.46054 0.487551 -1.47491 -0.836508 Ge
53 2 6.92644 6.90953 4.17763 0.811825 0.997861 0.0910868 -1.29962 0.591278 -0.106456 Ge
57 1 5.51568 5.5352 5.60397 -1.08367 -4.46792 -4.04685 -0.00562124 0.437329 -0.97654 Si
40 2 9.65284 4.19863 4.20158 -0.481743 0.49561 -1.64997 0.18802 -1.43592 -0.0285852 Ge
63 2 9.73325 6.93412 6.8579 2.18632 -0.791561 2.71919 -0.861718 -0.139847 1.11062 Ge
28 1 2.82103 8.3033 5.58599 1.01604 2.67204 -1.41207 -0.812414 -0.449803 -0.558284 Si
30 2 1.34957 9.63647 6.91266 -3.1451 2.62723 3.85479 0.025476 1.0391 0.365789 Ge
24 2 4.14518 9.70572 4.19097 2.04172 1.95825 1.07847 0.0782656 -0.190341 -0.0681333 Ge
62 2 6.93475 9.69064 6.9222 0.172329 -0.319002 1.84636 -0.483097 -0.471803 0.631426 Ge
56 2 9.67473 9.68197 4.19231 -1.37859 -0.42068 -4.20595 0.730447 0.247009 -1.05052 Ge
60 1 8.31252 8.29519 5.55711 -0.504052 -0.106389 2.46686 -0.327564 0.170801 -0.488176 Si
13 2 1.4387 1.38695 9.6374 -2.23659 -0.415466 2.24696 -0.225474 0.645258 0.626087 Ge
42 1 5.58693 2.7414 8.33913 3.91836 -2.09455 0.791147 -0.752273 0.949104 0.301066 Si
45 2 6.92143 1.3614 9.73653 0.133113 1.61876 -4.38172 1.09333 0.268928 -1.03632 Ge
36 1 8.33939 2.74741 -0.00468197 -2.09268 -0.729768 -3.46009 -0.0765056 0.330078 -0.381245 Si
10 1 -0.0214522 2.77177 8.33382 -0.833101 2.11621 -1.03448 0.777264 0.349116 -0.666152 Si
17 1 -0.0439069 5.61011 -0.00920826 0.261963 -5.83498 -6.22302 0.405402 -0.479323 0.435085 Si
27 1 2.73429 5.56015 8.27579 0.235422 2.56006 -0.40129 0.938562 -0.741296 0.389966 Si
29 2 1.36311 6.92203 9.60297 0.105001 -0.505092 3.24912 -0.301527 0.787658 1.82185 Ge
16 2 4.17585 4.19056 9.66728 -0.689214 -0.57103 -0.809675 -1.09193 -0.974171 0.453742 Ge
61 2 6.96829 6.91006 9.71153 -1.10563 -2.49177 -4.70229 -0.192569 0.375195 0.219989 Ge
48 2 9.69798 4.17814 9.71172 -0.663681 0.567322 -2.46301 -0.406252 0.106365 -0.523091 Ge
59 1 8.34123 5.57487 8.25267 -2.098 -0.593736 0.755969 0.361986 -0.0524102 1.32999 Si
11 1 2.78426 -0.00173445 8.246 6.37488 -3.33947 -1.65198 -0.0683851 -0.515455 0.303609 Si
26 1 -0.106811 8.30633 8.32172 6.69729 0.987119 1.35139 1.38956 0.205946 -0.495258 Si
32 2 4.14439 9.71042 9.69919 1.22412 1.3519 0.996587 0.441787 0.289126 -0.525214 Ge
58 1 5.53578 8.27189 8.36604 -1.75047 0.574384 4.03745 0.886091 1.29323 -0.275308 Si
52 1 8.26364 8.36306 0.0671271 -4.66155 0.309489 -2.64084 1.1181 -1.87598 -1.20557 Si
43 1 8.31874 0.0572638 8.23365 -0.696369 -4.7768 5.08723 -0.104954 -1.17922 1.74269 Si
64 2 9.64376 9.68978 9.73035 0.364011 -1.49681 -2.56006 0.150859 1.59223 -0.631337 Ge
ITEM: TIMESTEP
17000
ITEM: NUMBER OF ATOMS
64
ITEM: BOX BOUNDS pp pp pp
0.0000000000000000e+00 1.1085848640000000e+01
0.0000000000000000e+00 1.1085848640000000e+01
0.0000000000000000e+00 1.1085848640000000e+01
ITEM: ATOMS id type xu yu zu vx vy vz fx fy fz element
3 1 2.79317 0.042257 2.74818 1.65034 -0.126727 2.0597 -0.382346 -0.127542 0.98286 Si
4 1 2.78715 2.78562 -0.0361834 2.37552 0.491047 0.261748 0.295419 -0.938993 0.664042 Si
7 2 4.20742 1.35208 1.38763 1.88855 -1.56985 1.19854 -1.20995 2.03462 -0.121638 Ge
34 1 5.56488 2.75266 2.79107 4.16992 -4.74621 0.327908 -1.47618 0.595615 -0.818222 Si
2 1 -0.0574461 2.83636 2.78419 -3.02353 -0.857096 3.99967 2.07672 -2.12312 -2.08098 Si
35 1 8.32778 0.00618205 2.78735 2.80459 -0.316124 -0.685807 -0.425544 0.086459 -0.614612 Si
39 2 9.65945 1.41093 1.33149 0.459397 -0.602274 0.0773213 -0.158958 0.402347 2.161 Ge
6 2 1.46073 4.15983 1.42302 -1.27759 0.254575 1.75043 -1.18195 0.0267278 -0.10015 Ge
19 1 2.73255 5.57974 2.84845 -0.359292 1.32302 -1.02364 1.00289 0.492891 -1.36109 Si
23 2 4.19933 6.96822 1.43638 -1.36181 0.0927869 1.78526 0.0635238 -0.468151 1.27416 Ge
38 2 6.89374 4.14078 1.39132 -0.244488 -0.313308 -1.26822 0.221899 0.565171 0.155823 Ge
49 1 5.49407 5.51926 -0.00547735 -4.45231 -3.81091 -3.66557 0.846735 0.664613 0.215665 Si
51 1 8.32844 5.51574 2.76765 -1.78043 1.38439 0.45759 0.468127 0.175803 -1.07766 Si
55 2 9.69448 6.89637 1.28676 0.061423 0.348806 2.50534 0.351017 0.278738 2.13322 Ge
20 1 2.79396 8.34284 0.112192 2.49542 1.8315 -1.36156 0.217401 -0.142544 -1.30163 Si
22 2 1.40429 9.72969 1.44949 -1.06455 -2.12142 -0.0656184 -0.666916 -0.30013 -0.258725 Ge
33 1 5.5245 0.0421909 0.0137933 -1.14675 4.46377 1.75406 0.654766 -1.73107 -0.696119 Si
50 1 5.63781 8.36883 2.88809 -4.55133 1.65414 3.75029 -0.35291 -0.566091 -3.00021 Si
54 2 6.96415 9.71253 1.3125 -0.511624 -0.400837 0.579133 0.225039 -0.557706 1.16583 Ge
1 1 -0.0772547 -0.0518439 0.0999334 1.4924 5.34695 -3.55022 1.73196 0.852603 -1.36662 Si
18 1 -0.0254585 8.33002 2.76134 0.333394 -1.9649 -3.69649 -0.584982 -0.0168557 -0.2624 Si
5 2 1.3385 1.40021 4.14717 1.34551 -0.43697 0.186216 0.304756 -0.0948161 0.274005 Ge
9 1 0.0174411 -0.0574808 5.57098 -0.25554 0.61951 1.18547 0.38838 1.33294 0.0490371 Si
12 1 2.73639 2.77408 5.57328 0.256568 0.762297 -0.410115 0.163447 -0.431971 -0.404724 Si
15 2 4.11818 1.36981 6.96921 0.302653 1.66711 0.289243 -1.22341 0.170173 -0.118407 Ge
37 2 6.85985 1.37701 4.13052 2.98391 -1.4933 0.0733199 2.10573 0.0890933 0.685124 Ge
41 1 5.51452 0.0813948 5.57977 -0.607014 -1.67386 -0.146832 -0.365393 -1.87732 -0.920107 Si
44 1 8.36621 2.76397 5.44823 0.416818 -5.28821 2.75291 -0.931457 -0.189628 0.671991 Si
47 2 9.67049 1.33576 6.90565 -0.394743 1.33737 0.718786 0.230964 0.469961 -0.0753745 Ge
14 2 1.38222 4.14624 6.97119 1.20689 -0.736622 -1.31504 -0.984143 0.243176 -0.69328 Ge
21 2 1.34117 6.99439 4.15957 2.08362 -3.28083 -1.0251 -0.0773964 -0.792267 -0.0154084 Ge
25 1 0.0129613 5.56831 5.51684 -0.902102 -0.815339 0.152988 0.0502223 -0.168999 1.25928 Si
8 2 4.10569 4.13992 4.13095 -2.13049 1.29561 -1.82271 1.04444 0.390382 1.21496 Ge
31 2 4.12426 6.94769 6.9193 3.14372 1.12819 1.96256 -0.067457 -0.35235 -0.0307827 Ge
46 2 6.91767 4.14409 6.84801 -0.753588 4.46469 4.27919 0.383031 0.0026613 0.213979 Ge
53 2 7.01728 6.92953 4.14853 -0.885126 -1.88938 -1.92781 -0.55714 0.017181 0.729341 Ge
57 1 5.53588 5.60478 5.5062 2.02107 2.75782 1.98782 -0.255636 -1.06101 -0.24793 Si
40 2 9.78392 4.16761 4.11271 -1.50242 1.66839 1.33307 -2.15227 1.15208 1.26292 Ge
63 2 9.695 6.9383 6.9592 1.46065 -0.541189 1.11328 0.406068 -0.381031 -0.357171 Ge
28 1 2.70144 8.31809 5.54096 2.71914 -1.29419 0.88962 2.18185 0.484921 -0.554552 Si
30 2 1.44151 9.6938 6.93875 -0.454487 -3.76842 1.02359 -1.55117 0.226445 0.738492 Ge
24 2 4.16509 9.71736 4.1229 -1.03113 -0.382529 -2.07075 -0.62813 0.647813 2.06981 Ge
62 2 6.91058 9.70459 6.87887 -0.509689 1.72443 1.62747 0.531061 0.568923 0.359766 Ge
56 2 9.71919 9.72796 4.21115 -0.635388 1.99737 0.217698 -0.256318 -0.671616 -1.48702 Ge
60 1 8.3499 8.3295 5.53444 -1.53135 -1.54516 -0.911489 -0.227223 -0.224541 0.63096 Si
13 2 1.30344 1.3703 9.73665 3.72053 -0.100014 -3.30745 -0.289758 0.253965 0.844816 Ge
42 1 5.51015 2.75475 8.24289 -2.27395 -1.73898 0.852267 1.39384 0.0723273 1.13949 Si
45 2 6.91149 1.37453 9.73515 -2.18079 -2.74878 1.48784 -0.305592 0.801673 -1.50328 Ge
36 1 8.2668 2.79296 0.00367823 1.33007 -1.6994 1.55088 -0.0867753 -0.563259 -0.163213 Si
10 1 -0.0625544 2.74557 8.30666 -0.532103 -2.68042 2.07407 0.439106 -0.240557 0.0729667 Si
17 1 0.0615041 5.53118 0.0264404 -1.64538 5.46177 1.58437 -0.0954922 -0.639072 -1.33866 Si
27 1 2.76726 5.50329 8.33452 1.70675 -2.29418 -0.448014 0.660848 1.02908 -0.603896 Si
29 2 1.4827 6.94283 9.72629 -1.77592 -0.496343 -6.53246 -1.35601 0.063466 0.447268 Ge
16 2 4.18195 4.1479 9.64512 1.67587 1.60532 -0.632353 -0.476463 -0.378818 0.540735 Ge
61 2 6.92264 6.9049 9.68708 1.00834 -0.818006 0.437326 -0.535215 -0.433845 -0.805997 Ge
48 2 9.67003 4.1059 9.71917 0.178317 2.83316 0.764053 0.917415 1.1797 0.139318 Ge
59 1 8.31564 5.48914 8.31448 -1.50737 1.17466 -2.27475 -0.455151 0.358707 -0.371714 Si
11 1 2.68929 0.0112817 8.39857 -1.09529 3.59074 -2.85695 1.66808 -0.505391 -0.707666 Si
26 1 0.0290662 8.32437 8.32838 -6.27663 1.7731 0.756704 0.673696 -0.500133 0.142005 Si
32 2 4.15668 9.68379 9.72934 -0.532723 1.03403 -1.60248 -0.0673454 0.524413 -0.150351 Ge
58 1 5.56034 8.33094 8.25732 -0.329791 -4.04721 -1.36297 -0.631906 -0.425321 1.14847 Si
52 1 8.35001 8.25585 -0.0923463 1.61506 3.69561 2.33308 -0.841909 0.961412 1.03622 Si
43 1 8.29484 -0.0132832 8.3234 1.14281 3.26864 -7.25134 0.126061 -0.523663 0.286605 Si
64 2 9.74355 9.68134 9.72773 -2.05314 -1.5692 -1.48603 -0.965994 0.211737 -1.10058 Ge
ITEM: TIMESTEP
17100
ITEM: NUMBER OF ATOMS
64
ITEM: BOX BOUNDS pp pp pp
0.0000000000000000e+00 1.1085848640000000e+01
0.0000000000000000e+00 1.1085848640000000e+01
0.0000000000000000e+00 1.1085848640000000e+01
ITEM: ATOMS id type xu yu zu vx vy vz fx fy fz element
3 1 2.71179 -0.0415274 2.80248 -0.325148 3.33239 0.187912 1.04239 -0.0206311 -1.20067 Si
4 1 2.70114 2.76016 0.0311155 -5.46775 1.86787 -0.6257 0.960758 0.117222 -0.524183 Si
7 2 4.1304 1.38508 1.40683 0.746262 -2.95477 -1.37928 0.0301222 -0.745378 -0.267719 Ge
34 1 5.54924 2.80066 2.74867 3.15961 3.0813 3.06935 1.10947 -1.74614 0.00579043 Si
2 1 0.0303032 2.71001 2.73469 -2.25236 3.43201 4.1357 -1.36886 1.14133 1.20067 Si
35 1 8.30846 0.0070605 2.79888 0.116334 -2.02732 0.467255 0.698298 -0.137095 0.050139 Si
39 2 9.75169 1.37062 1.37346 -2.16467 -2.15558 -1.01549 -0.818841 -0.718347 -0.0918424 Ge
6 2 1.32115 4.14232 1.40034 3.12494 0.0280039 1.61622 0.810414 0.104038 -0.426618 Ge
19 1 2.79264 5.47526 2.74214 -0.96706 -4.16842 6.0253 -0.19011 0.254048 0.183646 Si
23 2 4.06274 6.87612 1.26614 0.802789 -1.77223 0.941415 0.529995 0.389745 1.13898 Ge
38 2 6.99193 4.12978 1.41697 0.732898 1.34271 1.16967 -0.543257 1.00736 -0.165497 Ge
49 1 5.61795 5.57014 0.058318 0.0935303 0.160233 2.63852 -1.07066 -1.21601 -1.3809 Si
51 1 8.30314 5.56407 2.79878 -0.117765 -2.72797 2.09093 -0.287572 -0.293656 0.525399 Si
55 2 9.67565 6.95276 1.45724 -1.83941 -1.88169 -2.32727 0.457652 -0.510155 -0.811567 Ge
20 1 2.70588 8.27486 -0.113776 1.11812 -0.471744 2.21121 0.90455 0.913916 0.442835 Si
22 2 1.39246 9.69054 1.28759 1.75469 1.63454 3.40359 -0.419931 -0.640928 1.65376 Ge
33 1 5.54431 -0.0504017 -0.0179968 -0.178109 1.78052 -0.745715 -0.397134 2.23029 0.358929 Si
50 1 5.4488 8.26245 2.6641 3.03543 5.03317 5.15383 -0.156021 0.42133 1.81781 Si
54 2 6.86252 9.73503 1.43673 -0.841626 3.2756 0.0188444 0.634623 -0.380954 -0.0254418 Ge
1 1 0.0404867 0.0109468 -0.0530022 -6.27434 -4.00421 6.54948 -0.200773 0.380649 0.327825 Si
18 1 0.0207673 8.28896 2.80185 -0.448744 1.52343 2.61751 0.760683 0.360344 -1.07855 Si
5 2 1.36333 1.36085 4.12216 -0.457541 0.463813 -2.33798 0.505555 0.568812 0.379663 Ge
9 1 -0.0151645 0.0766294 5.52246 1.92906 -4.31298 -4.1243 -0.257801 -1.51557 -0.0407634 Si
12 1 2.78661 2.75195 5.46543 -0.98886 1.00119 -1.77307 0.785559 0.145473 0.864567 Si
15 2 4.25836 1.37091 6.88139 0.957642 -1.49503 3.06722 -0.824603 0.613435 0.514552 Ge
37 2 6.9413 1.41197 4.19451 -2.07081 -1.47589 -2.07824 0.0909549 0.417705 -0.361801 Ge
41 1 5.57835 -0.0647455 5.47751 0.666835 5.45638 2.28341 0.182335 0.626431 0.983981 Si
44 1 8.29408 2.8339 5.65799 1.60086 2.11318 -2.61041 0.948747 -2.05704 -1.2422 Si
47 2 9.76638 1.40302 6.98935 -0.847522 -2.66356 -0.111271 -1.35005 0.799901 -0.0829108 Ge
14 2 1.44624 4.21572 6.89158 2.09241 0.0523844 1.44518 -0.330236 -0.765245 -0.360199 Ge
21 2 1.41153 6.87299 4.13868 -0.65816 2.01255 -2.33568 -0.105263 0.208076 0.544696 Ge
25 1 -0.0313636 5.5438 5.56768 0.963804 1.40272 -1.95517 -0.00429416 -0.195668 -1.27987 Si
8 2 4.25926 4.12624 4.12266 -2.00752 -0.0602382 -2.29715 -2.29453 0.461623 0.474381 Ge
31 2 4.12109 6.88066 6.96261 -2.47198 0.34415 1.3724 1.32318 1.58209 -0.34368 Ge
46 2 6.93975 4.12819 7.02666 0.0482998 -0.413028 -0.330007 -0.0523765 2.21425 0.160843 Ge
53 2 6.86649 6.94479 4.16572 -0.228241 -1.0357 -1.88062 -0.326923 -0.611775 -0.160592 Ge
57 1 5.52444 5.46544 5.60025 -3.48627 -2.12241 0.901554 0.881158 1.15746 -0.114464 Si
40 2 9.6572 4.12041 4.15147 4.29753 -0.844345 -2.93409 1.12656 0.249665 0.334398 Ge
63 2 9.61096 6.94323 6.86899 -0.0895557 0.184473 2.95006 1.44786 -0.40212 1.15064 Ge
28 1 2.77763 8.29833 5.54406 -8.70432 -1.07246 1.23292 -0.748534 -0.459561 0.352518 Si
30 2 1.37536 9.76813 6.8712 2.56224 1.07469 0.98005 0.142774 -1.35273 0.403751 Ge
24 2 4.11915 9.66989 4.18437 0.842266 -1.30867 -4.59829 0.535701 -0.439621 -1.68581 Ge
62 2 6.9805 9.68052 6.89636 -0.175344 0.608539 0.468961 -0.804056 1.02454 1.49249 Ge
56 2 9.7281 9.63638 4.17208 0.486291 2.54895 -0.760546 -0.509394 1.85407 -0.0315573 Ge
60 1 8.29346 8.31984 5.5286 3.97662 1.64318 -0.830739 -0.25619 -0.376304 -0.86345 Si
13 2 1.41519 1.37582 9.64864 -0.827835 -0.846356 -1.30189 0.178778 0.38661 -0.132234 Ge
42 1 5.57239 2.82476 8.39331 1.95564 -1.06153 -5.6297 -1.16562 -1.28879 -0.821819 Si
45 2 6.95095 1.45999 9.74123 0.633799 -0.327644 2.95823 -0.362946 -1.35732 0.64866 Ge
36 1 8.36128 2.78655 0.0335143 -1.44539 2.70196 -0.276977 0.301879 -0.293517 -0.241206 Si
10 1 0.0792673 2.85523 8.29051 -1.69853 3.03286 -1.97223 -0.245875 -1.02099 0.310523 Si
17 1 -0.0495817 5.52346 0.0112524 1.63467 -0.628497 3.16446 0.0150532 0.899649 0.499988 Si
27 1 2.73024 5.6021 8.3123 -7.91577 -0.657807 1.72231 0.306547 -1.35985 0.970705 Si
29 2 1.30269 6.92165 9.67633 -0.671686 1.16372 -0.647091 -0.194425 -0.410865 -0.406862 Ge
16 2 4.11572 4.1708 9.72561 0.710576 -0.708871 -1.28356 0.398338 0.869956 0.70042 Ge
61 2 6.95483 7.0066 9.77683 1.08565 -0.0632959 0.057633 0.082982 -0.336995 -0.314732 Ge
48 2 9.72278 4.14541 9.69707 -1.34066 -1.80622 -1.41388 -0.205794 0.442984 -0.00213846 Ge
59 1 8.34014 5.59943 8.37426 2.70778 -2.22645 0.622873 -0.875254 -0.549626 -0.236137 Si
11 1 2.8243 -0.0186916 8.26507 -3.94159 -0.916883 5.1909 -0.257132 1.07191 -0.3227 Si
26 1 -0.0187764 8.28943 8.24419 -1.04171 0.599246 -2.55534 -0.573455 1.3977 0.149843 Si
32 2 4.16423 9.71617 9.66328 0.605812 1.22238 -1.44197 -0.616529 -0.781965 0.490452 Ge
58 1 5.55112 8.3489 8.34793 1.70264 4.15856 -2.197 0.234367 -1.05411 -1.22822 Si
52 1 8.30041 8.37788 0.122247 -1.20736 -1.86684 -3.34453 0.769723 0.318668 -1.36015 Si
43 1 8.31603 0.0303149 8.39406 -1.40645 2.56789 2.95632 0.214544 0.0434716 -1.60298 Si
64 2 9.72928 9.74278 9.71357 4.1821 -0.571092 0.519756 -0.597107 -1.6358 0.0766222 Ge
ITEM: TIMESTEP
17200
ITEM: NUMBER OF ATOMS
64
ITEM: BOX BOUNDS pp pp pp
0.0000000000000000e+00 1.1085848640000000e+01
0.0000000000000000e+00 1.1085848640000000e+01
0.0000000000000000e+00 1.1085848640000000e+01
ITEM: ATOMS id type xu yu zu vx vy vz fx fy fz element
3 1 2.84161 -0.0287019 2.70897 -3.11596 -1.17449 3.5135 -0.76963 1.10633 1.75966 Si
4 1 2.87568 2.77078 -0.040751 0.607413 0.0707598 3.0337 -2.33371 0.612471 0.352971 Si
7 2 4.20561 1.42417 1.39615 0.767631 -0.0876686 1.41357 -0.720201 -1.25975 -1.11165 Ge
34 1 5.44674 2.78126 2.77342 -5.64748 1.95378 -3.49982 1.16061 1.44239 1.10429 Si
2 1 0.0434943 2.81775 2.74587 0.766522 -2.27678 -5.31282 0.183787 -0.0746924 1.3608 Si
35 1 8.28862 0.0343255 2.75316 -2.52073 3.598 1.5769 0.0775126 -0.820703 -0.234953 Si
39 2 9.72856 1.48061 1.4167 0.974188 2.17137 1.57134 -0.617894 -1.79809 -0.890099 Ge
6 2 1.3871 4.20456 1.36064 -0.641158 1.3354 3.33001 1.12758 -0.511643 -0.872806 Ge
19 1 2.74709 5.6436 2.72876 -0.870485 4.48194 -1.07564 0.24994 -1.50538 1.41407 Si
23 2 4.22195 6.98791 1.48102 -0.319959 -0.923396 1.1412 -0.274953 -0.97658 -1.7564 Ge
38 2 6.87808 4.1406 1.37996 1.40151 -2.02282 -0.415422 0.132657 0.247719 -0.268459 Ge
49 1 5.50698 5.53872 -0.0511371 1.94125 2.92626 0.794019 0.473549 0.478614 1.09251 Si
51 1 8.3185 5.55545 2.73994 1.0421 4.31613 0.999282 -0.133759 -0.103216 0.0203034 Si
55 2 9.72454 6.91426 1.34696 1.25394 0.163549 2.08735 -0.0280831 -0.00569618 -0.0253073 Ge
20 1 2.78124 8.33634 0.126528 -5.73095 -1.70134 2.87177 0.600725 -0.463482 -0.399335 Si
22 2 1.3614 9.72699 1.39607 -0.379904 1.68335 -1.729 0.103966 -0.185288 0.313429 Ge
33 1 5.57004 0.0155497 0.0055431 0.915128 -4.00344 1.45665 0.592316 -0.581985 -0.334992 Si
50 1 5.62806 8.26991 2.83967 -0.547025 -4.57649 -3.95218 0.0768825 1.97082 0.4886 Si
54 2 6.9807 9.57639 1.31349 0.370078 1.07642 0.32355 -0.239619 1.64898 0.806124 Ge
1 1 -0.000359303 0.0126096 0.00984132 0.371381 -0.122531 -2.84803 -1.89427 -0.578087 0.81967 Si
18 1 -0.0152564 8.32714 2.75913 -0.956257 -3.64548 2.78295 -0.08146 -0.230856 0.630511 Si
5 2 1.40704 1.35882 4.18678 -1.36982 -1.35028 -0.927381 0.176609 0.19633 -0.309737 Ge
9 1 -0.0405606 -0.0408072 5.58088 -2.46962 7.01766 6.19449 0.598892 0.214618 -1.39321 Si
12 1 2.75741 2.77869 5.68168 -3.90814 -0.234873 1.11073 -1.28356 0.607995 -2.11184 Si
15 2 4.08916 1.3822 6.96316 -0.140841 -1.7224 -0.0446853 1.30524 -0.176195 0.496066 Ge
37 2 6.85574 1.4138 4.13609 1.1096 -0.889852 -1.37918 0.134729 -0.868258 -0.241503 Ge
41 1 5.53744 0.0387966 5.62181 -1.10751 -1.35742 -3.34722 0.371274 0.582043 -0.498238 Si
44 1 8.31656 2.7338 5.4281 -0.295755 4.57127 3.27025 -0.312083 1.04829 1.19703 Si
47 2 9.68808 1.38891 6.85421 2.16307 -0.604865 1.11168 -0.695881 -0.771095 1.01257 Ge
14 2 1.2971 4.14091 7.03711 -0.0769164 3.16005 1.40908 1.14241 0.0939325 -0.28519 Ge
21 2 1.38933 6.94551 4.18609 3.12251 -2.9784 -0.892276 -0.0298083 0.802707 -0.384753 Ge
25 1 -0.00535117 5.52343 5.53426 -1.45488 -0.590644 3.60034 0.152579 0.230532 0.546814 Si
8 2 4.09281 4.21385 4.21105 1.5999 2.11489 -1.20527 0.252595 0.0880208 -0.651262 Ge
31 2 4.17312 6.92699 6.868 -0.67142 -3.25178 -0.269986 0.0700607 0.117134 0.424666 Ge
46 2 6.92263 4.14432 6.842 0.420113 -2.68677 0.89514 -0.464224 -0.592108 -0.011499 Ge
53 2 7.04939 6.96387 4.22592 1.92219 0.0418978 -2.16767 -0.816128 -0.713369 -1.94976 Ge
57 1 5.6055 5.64582 5.48468 1.6126 1.97046 -0.55816 -0.910305 -2.05072 0.709085 Si
40 2 9.68651 4.18025 4.12495 -3.25476 -0.0727872 -2.71606 0.598952 -0.371103 -0.417129 Ge
63 2 9.75786 6.95492 6.93654 -0.982455 -0.301878 1.71873 -0.272606 -0.235594 0.981705 Ge
28 1 2.83873 8.36267 5.53844 4.16874 3.55655 0.380836 -1.5941 0.00589953 0.234456 Si
30 2 1.33737 9.68554 6.9584 -1.11813 1.85701 2.09472 1.60824 0.0198259 0.0386248 Ge
24 2 4.23463 9.7875 4.22197 -1.23416 1.60608 2.65256 -0.263154 -1.67066 -1.71043 Ge
62 2 6.89179 9.6611 6.9221 0.0326332 -2.16954 -1.14346 -0.539463 -0.265716 0.587488 Ge
56 2 9.64524 9.67165 4.1791 0.467757 -1.56741 -1.06204 0.401286 0.833389 -0.562767 Ge
60 1 8.30854 8.31552 5.59753 -3.14474 -0.13877 1.73911 1.17592 0.373032 0.229088 Si
13 2 1.32398 1.34785 9.75982 1.20694 -2.57225 -0.956155 2.43925 0.651795 -0.841054 Ge
42 1 5.49293 2.76472 8.29712 -2.99192 6.37728 6.37409 1.11484 0.409008 -1.3506 Si
45 2 6.9324 1.37081 9.57568 -1.1765 1.03634 -2.76555 0.0468221 -0.552396 1.52548 Ge
36 1 8.28363 2.74562 -0.0219079 0.561692 0.426735 2.18619 -0.188253 0.575112 -0.168217 Si
10 1 -0.0627169 2.6608 8.3771 -0.810669 1.5969 0.143773 -0.214706 1.61621 -0.620246 Si
17 1 0.00409589 5.5512 -0.0594965 -1.95326 -3.55275 -2.95417 0.337816 -0.427467 0.463504 Si
27 1 2.88526 5.52701 8.30507 3.98558 3.64282 -4.52615 -2.44581 0.546609 -1.10996 Si
29 2 1.56417 6.87802 9.77997 0.553499 -0.833078 -1.78819 -1.58863 0.801068 -0.736718 Ge
16 2 4.18012 4.1927 9.61953 0.157587 -0.985586 -2.25931 0.523666 -1.43266 1.65291 Ge
61 2 6.88551 6.83831 9.56958 0.546791 -1.17519 -2.0091 0.24126 0.879129 1.75872 Ge
48 2 9.65496 4.16178 9.67956 -1.45417 0.63555 -1.42878 -0.0288501 -0.414346 -0.10484 Ge
59 1 8.26767 5.51666 8.23716 0.605758 2.71004 1.61567 1.53042 -0.26072 -0.433763 Si
11 1 2.76351 0.000787135 8.32459 -0.655418 -1.13824 -2.98293 -1.02834 -0.870502 1.26993 Si
26 1 0.0884562 8.31668 8.44509 2.18878 -4.07112 1.38734 -0.784368 -1.04188 -0.899554 Si
32 2 4.12403 9.67164 9.79657 1.71481 2.59591 -1.11423 0.527345 0.59565 -1.44279 Ge
58 1 5.47607 8.25513 8.31561 -1.32298 -1.79301 3.30961 0.345938 1.40378 -0.0417826 Si
52 1 8.3415 8.20443 -0.111843 -0.678001 -1.50113 4.89283 -1.13815 -0.0954547 0.515098 Si
43 1 8.31782 -0.0816223 8.22836 1.08342 -1.30326 2.06633 -0.183737 1.47452 0.221217 Si
64 2 9.63354 9.68948 9.69753 0.897319 0.517701 -2.8497 2.00006 0.231749 0.143475 Ge
ITEM: TIMESTEP
17300
ITEM: NUMBER OF ATOMS
64
ITEM: BOX BOUNDS pp pp pp
0.0000000000000000e+00 1.1085848640000000e+01
0.0000000000000000e+00 1.1085848640000000e+01
0.0000000000000000e+00 1.1085848640000000e+01
ITEM: ATOMS id type xu yu zu vx vy vz fx fy fz element
3 1 2.7145 0.024896 2.81219 2.26528 -4.45657 -6.23975 -0.0498875 -0.890142 -0.844627 Si
4 1 2.70839 2.76415 0.0203177 4.07916 -1.38967 -3.27709 1.16399 -0.0205359 0.162625 Si
7 2 4.10427 1.35974 1.43972 0.808058 -0.266699 1.2134 1.10118 0.826759 -0.675345 Ge
34 1 5.67477 2.71922 2.78882 -1.06067 -0.877537 1.58905 -1.9439 -0.146049 -1.11917 Si
2 1 -0.0214556 2.73726 2.81514 1.45918 0.548012 -0.0600304 -0.97802 0.308078 -1.75315 Si
35 1 8.37562 -0.0605731 2.7606 -0.336814 -0.0166471 0.736343 -0.787576 1.43342 1.19559 Si
39 2 9.72936 1.30215 1.32139 2.78323 1.12219 3.51447 -0.30956 1.58758 1.47773 Ge
6 2 1.35431 4.12516 1.41173 -2.17769 1.83502 1.4481 0.210538 0.0142479 0.467646 Ge
19 1 2.82067 5.44205 2.76764 -0.947645 0.384042 -5.05095 -1.2886 1.94932 -0.383573 Si
23 2 4.06968 6.92929 1.29937 -1.90665 -1.46739 2.74591 1.46643 -0.166986 1.21594 Ge
38 2 6.95256 4.16479 1.40312 1.4074 0.299911 2.35385 0.224273 -1.05648 -1.11927 Ge
49 1 5.54271 5.53318 0.0278047 -0.531493 -1.34061 1.08703 0.0360767 0.59681 -0.228796 Si
51 1 8.29659 5.5136 2.75353 -1.95381 -2.72764 -2.58548 0.450676 0.990485 1.2989 Si
55 2 9.689 6.94953 1.4223 -2.33456 -0.62551 2.22065 0.0208423 0.464278 -0.267577 Ge
20 1 2.82029 8.31554 -0.15614 0.450175 1.3967 -5.4217 -2.40177 -0.513147 1.86538 Si
22 2 1.42587 9.66341 1.3539 -0.0543922 1.57409 -1.22195 0.70701 0.859577 -0.675563 Ge
33 1 5.49014 -0.0188373 -0.00638652 -2.03037 0.907722 -0.747132 -0.378406 0.0734936 0.882419 Si
50 1 5.46951 8.38827 2.70899 -3.40796 -3.61095 -0.68151 0.138454 -2.59689 -0.230451 Si
54 2 6.89069 9.7447 1.4338 -1.51356 -3.00069 1.30701 0.114975 0.235911 -0.928993 Ge
1 1 0.0501533 -0.0034937 -0.00732229 5.68614 3.55689 -2.03365 0.61377 -0.207106 -0.618601 Si
18 1 0.0363809 8.36584 2.74066 -0.993726 3.02893 1.03041 -0.863662 -0.913826 0.827969 Si
5 2 1.33139 1.41983 4.1464 0.356297 -2.77022 -1.85919 1.37066 -0.610999 0.0740845 Ge
9 1 0.056761 -0.00321079 5.49471 -2.67663 -3.51108 -0.194473 -1.31914 0.965977 2.33817 Si
12 1 2.82089 2.77796 5.40121 5.7497 -0.719579 3.67225 -0.0547005 -0.636934 2.24099 Si
15 2 4.22016 1.39794 6.88538 1.01961 -1.25835 1.14236 -1.1392 -0.707702 -0.598756 Ge
37 2 6.94946 1.37339 4.21286 0.861726 0.108503 0.569397 1.32024 -1.32361 -0.863722 Ge
41 1 5.55163 -0.0527561 5.49977 -0.412833 -2.03581 3.28925 -0.709155 0.375739 -0.153327 Si
44 1 8.27871 2.74018 5.63258 -2.87544 -1.10757 -1.5973 0.568371 1.46526 -0.356821 Si
47 2 9.68629 1.38932 6.99915 2.27065 1.64502 -1.75186 1.38032 -0.229816 -1.34313 Ge
14 2 1.46254 4.1493 6.87662 0.0163532 -1.0564 2.50577 -0.792395 0.132393 -0.625802 Ge
21 2 1.35815 6.93543 4.13038 1.72849 -2.64754 -2.2382 1.10173 -1.08595 -0.491412 Ge
25 1 0.018358 5.5557 5.53484 -1.61739 2.37825 -1.43018 -0.485422 -0.30867 0.0760913 Si
8 2 4.24074 4.08759 4.07938 -0.25825 1.86163 -1.7673 0.0164538 0.31095 0.476726 Ge
31 2 4.1811 6.91908 7.02982 0.154335 -0.801012 0.355552 -0.508549 -0.607394 -1.13148 Ge
46 2 6.89819 4.20577 7.01658 1.286 2.30136 4.04183 1.20505 -1.23465 -0.984227 Ge
53 2 6.84101 6.93404 4.11621 -1.22602 0.899855 2.98241 0.265613 -0.400358 0.0264062 Ge
57 1 5.50666 5.4485 5.5641 0.105865 1.7344 0.415143 0.145183 2.18099 -0.0610309 Si
40 2 9.70887 4.14304 4.18675 -1.89255 -0.969859 -0.618804 -1.01652 -0.259926 0.275607 Ge
63 2 9.58297 6.90937 6.83684 -0.303388 1.34423 -1.07539 1.7632 -0.29003 1.26687 Ge
28 1 2.74972 8.24468 5.55137 2.7075 -2.31581 -1.84957 1.08565 0.703278 -0.0710572 Si
30 2 1.4212 9.71763 6.8973 -2.37177 0.0232696 -0.383507 -0.252073 -0.269383 0.481761 Ge
24 2 4.11284 9.65893 4.08423 2.27388 1.68796 0.581668 -0.523335 0.826816 2.13693 Ge
62 2 6.98987 9.75579 6.87302 0.615459 0.623274 -0.243649 -0.107373 -0.824459 0.518754 Ge
56 2 9.74675 9.70398 4.21378 -0.902986 -0.482233 -0.263805 0.0192956 -0.512829 -1.90236 Ge
60 1 8.31017 8.30636 5.46942 -0.434859 0.0985995 1.41174 -1.22239 0.300224 0.140525 Si
13 2 1.38701 1.42856 9.66487 -1.17545 -1.96533 -1.9373 0.130016 -0.856417 0.213047 Ge
42 1 5.60223 2.7112 8.2747 0.46027 -2.34035 2.32227 -1.61825 1.4426 2.22372 Si
45 2 6.8977 1.37279 9.77847 0.240155 1.44428 -2.38996 0.240791 0.136946 -1.34379 Ge
36 1 8.34033 2.75336 -0.0339253 -0.938185 -1.77281 0.862645 0.115971 0.296592 1.25216 Si
10 1 0.0511306 2.82596 8.27359 3.45732 -4.01266 3.74134 -0.379307 -0.659071 0.21389 Si
17 1 0.0333932 5.5766 0.0655133 -1.73529 5.5279 1.94217 -0.835076 -0.219869 -0.478602 Si
27 1 2.67763 5.51855 8.36667 5.05797 -0.166207 5.71834 1.87639 0.597193 -0.484963 Si
29 2 1.30617 6.94581 9.66929 1.43304 -1.82948 -1.85166 -0.0772124 0.566684 -0.437825 Ge
16 2 4.12542 4.16328 9.73396 -0.689724 3.10896 -4.02063 0.698679 -1.17373 -0.847474 Ge
61 2 6.98168 7.01675 9.82961 1.01583 -1.41777 -3.04543 -0.567627 -1.21991 -1.9459 Ge
48 2 9.78415 4.14681 9.73576 0.00603682 1.79803 -1.27093 -0.546851 0.639756 -0.34651 Ge
59 1 8.34097 5.53449 8.3726 -4.41233 1.55386 -0.286062 -0.50059 1.00285 0.679887 Si
11 1 2.81927 0.014577 8.33255 4.53687 1.14019 -0.980391 -0.77891 0.683702 -1.52001 Si
26 1 -0.0993309 8.34058 8.2124 1.46692 4.11485 1.97957 0.616551 -0.173609 0.898457 Si
32 2 4.13929 9.6847 9.64391 -2.22398 0.968095 -0.0683651 1.971 0.838486 -0.191305 Ge
58 1 5.63879 8.37821 8.30298 -3.3441 0.943374 1.19355 -0.428985 -0.804114 0.490952 Si
52 1 8.31177 8.42603 0.0712295 3.32643 0.527757 -1.20525 0.662792 -0.977828 0.493095 Si
43 1 8.28699 0.0521368 8.35055 -2.92807 -2.89385 1.87556 0.486235 -0.934014 0.607476 Si
64 2 9.71049 9.73755 9.75111 -2.40525 0.795118 -0.675243 -0.42397 0.0260403 -1.49515 Ge
ITEM: TIMESTEP
17400
ITEM: NUMBER OF ATOMS
64
ITEM: BOX BOUNDS pp pp pp
0.0000000000000000e+00 1.1085848640000000e+01
0.0000000000000000e+00 1.1085848640000000e+01
0.0000000000000000e+00 1.1085848640000000e+01
ITEM: ATOMS id type xu yu zu vx vy vz fx fy fz element
3 1 2.83134 0.0145351 2.74509 -0.189601 4.68838 3.84799 -0.630947 -0.0220154 -0.0725441 Si
4 1 2.79738 2.76736 -0.0204777 -2.32586 0.602086 2.58679 -0.0875347 -0.0868253 -0.0821958 Si
7 2 4.2133 1.40382 1.35803 -1.75318 -1.81002 1.83801 -0.959238 -0.461206 -0.422468 Ge
34 1 5.4937 2.77564 2.74405 3.88518 -1.97413 0.67353 -0.117144 0.786143 1.25737 Si
2 1 -0.0156414 2.78661 2.74359 1.44261 -0.519914 1.51541 1.24261 -0.485287 0.273599 Si
35 1 8.28938 0.031458 2.78098 1.99592 -2.58018 -4.15007 -0.293531 -0.518515 -0.612254 Si
39 2 9.65962 1.42348 1.38051 -0.5629 -2.22179 -2.11328 0.459478 -0.700477 0.5126 Ge
6 2 1.40982 4.1383 1.3671 2.1107 0.771308 3.13558 -0.00945229 0.381586 0.331906 Ge
19 1 2.74948 5.569 2.81079 3.90113 -3.36072 2.03629 0.550386 -0.422227 -0.719517 Si
23 2 4.21894 6.95561 1.41834 -1.70643 0.812717 3.07751 -0.224006 -1.25263 0.974484 Ge
38 2 6.86896 4.17875 1.4204 -0.920458 2.45429 2.28449 1.26188 0.822161 0.00501211 Ge
49 1 5.5198 5.53807 -0.0522378 -2.08792 0.0356736 -2.5845 0.0661952 0.175807 1.21852 Si
51 1 8.36753 5.57056 2.84198 0.450055 0.136634 -0.306194 -0.484938 -0.893816 -2.01382 Si
55 2 9.67985 6.90955 1.30574 1.45069 -1.99635 -1.51643 0.0862345 -0.957525 0.46218 Ge
20 1 2.75542 8.29407 0.165029 6.37359 1.03073 1.59244 0.965866 0.549957 -2.67196 Si
22 2 1.3725 9.68547 1.4305 -0.248686 -0.543143 3.35961 -0.641411 0.670538 0.439503 Ge
33 1 5.59809 0.0375125 -0.0171338 1.43523 0.342683 0.0293825 -0.594536 -0.804527 -0.275579 Si
50 1 5.64517 8.28477 2.8343 3.44459 8.3508 0.606103 -0.779955 0.980776 -1.09805 Si
54 2 6.94574 9.69859 1.32726 2.32487 1.52187 0.213644 0.285727 -0.258697 1.25998 Ge
1 1 -0.0588264 -0.0363116 0.0296232 -3.16776 -2.80603 4.06897 0.956055 0.903857 0.198186 Si
18 1 -0.0572741 8.24609 2.72525 3.29392 2.96575 -6.09185 -0.0885668 1.56223 0.722487 Si
5 2 1.44004 1.39341 4.14263 -4.35482 2.07313 -1.67564 -1.23923 -0.111966 -0.339808 Ge
9 1 0.00337113 0.0106937 5.5161 6.02483 -1.44456 -3.84259 0.389206 -0.543109 -0.468013 Si
12 1 2.71677 2.74257 5.62069 -3.14208 1.75034 -5.28495 0.650257 0.505744 -0.572187 Si
15 2 4.14318 1.40323 6.97767 0.684729 -0.63054 3.88644 -0.20881 -0.473843 -0.343887 Ge
37 2 6.85397 1.40052 4.12565 -2.59295 0.802683 0.23236 1.66295 0.566966 0.388563 Ge
41 1 5.54014 0.0432927 5.55104 0.802528 -0.990262 -0.708477 -0.493406 -1.01646 0.591033 Si
44 1 8.40914 2.76356 5.47555 0.477828 -6.17045 0.046502 -1.63775 -0.354201 0.217696 Si
47 2 9.71836 1.33809 6.90659 -3.12242 -2.1715 1.324 0.26725 1.23174 -0.873112 Ge
14 2 1.34944 4.16661 6.94519 0.868449 1.43074 3.46252 -0.00574756 -0.893609 -0.0413507 Ge
21 2 1.33108 6.94469 4.14453 -1.52213 2.15937 -2.30472 0.614967 -0.129721 0.360473 Ge
25 1 0.0332838 5.50962 5.54375 3.26488 -2.02552 0.336578 -0.358257 1.5936 0.621124 Si
8 2 4.09079 4.13004 4.22139 -0.553303 0.684877 -2.99451 0.708289 0.469779 -0.631537 Ge
31 2 4.09028 6.9367 6.90662 -0.939442 -1.43939 3.46655 0.883781 0.235224 -0.823931 Ge
46 2 6.93273 4.12901 6.84543 -1.9995 0.502296 -0.600801 0.697359 0.337062 0.685102 Ge
53 2 7.01495 6.91198 4.19698 2.95459 0.380306 -2.48515 -0.854422 0.41075 0.563795 Ge
57 1 5.54302 5.57639 5.541 0.67475 -3.75852 -1.93406 -0.496643 -0.660474 -0.237761 Si
40 2 9.7902 4.19388 4.15301 3.39915 0.386015 -3.82349 -0.957722 -0.766979 -0.241207 Ge
63 2 9.74916 6.92356 6.98974 -4.33913 -0.663125 1.1384 -0.131215 0.052754 -1.54265 Ge
28 1 2.74357 8.35467 5.50753 -2.88569 0.748173 2.20049 0.0407116 -0.371986 -0.0361971 Si
30 2 1.39766 9.73272 6.91072 1.8436 3.27801 2.59583 -1.06315 -0.722336 0.163354 Ge
24 2 4.16661 9.70966 4.13295 0.744449 0.532632 -4.48778 0.869831 -0.101651 0.539957 Ge
62 2 6.9217 9.69816 6.9827 0.745039 1.86507 -2.79476 0.169247 0.418389 -1.3879 Ge
56 2 9.6541 9.69409 4.16134 -0.296816 2.12694 3.28935 0.968893 0.083076 -0.648528 Ge
60 1 8.32815 8.32978 5.57443 -0.679636 -1.68518 -1.90846 0.243873 -0.411829 0.96592 Si
13 2 1.3382 1.39474 9.71912 -2.80758 -0.348668 0.175902 -0.389441 -0.130661 0.0341726 Ge
42 1 5.54079 2.8015 8.2984 3.10052 -4.76878 -7.38738 1.22874 -0.902542 0.268888 Si
45 2 6.9983 1.38627 9.70558 -2.73594 -0.612518 0.0498724 -0.277723 0.913181 -0.927175 Ge
36 1 8.31392 2.8255 0.0498897 0.888175 0.0701827 -4.7951 -0.864785 -0.319147 -0.669074 Si
10 1 -0.0588521 2.76012 8.28394 -3.07028 2.00802 -2.5233 0.588333 0.10029 0.871831 Si
17 1 0.0170359 5.48098 -0.0455381 4.53045 -4.95989 -1.53482 -0.118719 0.883655 0.503759 Si
27 1 2.75276 5.54257 8.24358 -5.92766 -2.53878 1.21343 0.149034 0.0174664 2.08432 Si
29 2 1.43388 6.93606 9.75469 1.49656 -0.556779 1.55457 -0.0688007 -0.581082 -0.479321 Ge
16 2 4.17636 4.15514 9.66629 -0.595936 0.283043 -1.89332 -1.1674 0.401103 -0.339834 Ge
61 2 6.87694 6.90206 9.6636 1.62743 0.0432132 0.653632 1.10117 -0.589196 -0.649796 Ge
48 2 9.66208 4.1507 9.6947 0.829054 -1.14204 -1.00207 0.457081 -0.199415 -0.410641 Ge
59 1 8.33441 5.52566 8.27203 0.989046 -5.15994 0.842537 -1.23775 -0.107145 0.458643 Si
11 1 2.69347 0.0216175 8.3135 -0.200804 -1.19764 3.95132 1.85608 -0.516377 1.14808 Si
26 1 0.0400003 8.29955 8.35635 -0.122885 0.761918 -1.43065 0.222811 0.872 -0.0205059 Si
32 2 4.16405 9.67241 9.7452 -2.37397 -0.279158 -0.037144 -0.778344 0.236326 -0.501833 Ge
58 1 5.53461 8.25546 8.27116 3.53227 -0.31093 -1.84762 -0.986408 1.11201 1.0227 Si
52 1 8.27884 8.26091 -0.0629946 -4.85536 2.91942 -2.70135 0.0728142 0.765599 0.274512 Si
43 1 8.3921 0.00602087 8.26496 2.0668 2.55013 -3.58072 -1.44493 -0.66684 1.62184 Si
64 2 9.69462 9.69188 9.72134 3.09725 -1.00749 2.45623 -0.025198 -0.605451 -0.886956 Ge
ITEM: TIMESTEP
17500
ITEM: NUMBER OF ATOMS
64
ITEM: BOX BOUNDS pp pp pp
0.0000000000000000e+00 1.1085848640000000e+01
0.0000000000000000e+00 1.1085848640000000e+01
0.0000000000000000e+00 1.1085848640000000e+01
ITEM: ATOMS id type xu yu zu vx vy vz fx fy fz element
3 1 2.71505 -0.0122935 2.80726 2.39364 -1.98679 -0.397039 1.21 0.407579 0.240009 Si
4 1 2.76626 2.77972 0.0206566 -0.770504 -0.495448 -2.74065 0.046017 -0.0545166 0.474197 Si
7 2 4.16039 1.38577 1.44831 2.61146 -0.489957 2.85748 -0.518975 -0.0873762 -0.567085 Ge
34 1 5.53116 2.83682 2.78536 3.01166 -1.09022 -3.11603 1.2773 -1.70519 -0.960785 Si
2 1 -0.00229044 2.77158 2.80507 -4.61079 0.901221 0.0696684 -0.451509 0.492729 0.580147 Si
35 1 8.32899 -0.00567688 2.76891 2.4248 1.0793 4.10682 0.481413 -0.454418 -0.509943 Si
39 2 9.72609 1.40295 1.39285 2.17119 0.565741 0.837573 -0.177928 -0.722405 -0.589616 Ge
6 2 1.33157 4.18658 1.38423 -3.1159 0.252448 3.05641 0.520217 -0.168522 0.151253 Ge
19 1 2.76903 5.56574 2.75584 -1.53365 0.163934 0.835408 0.512863 -0.298991 0.216168 Si
23 2 4.16491 6.93786 1.30391 -1.36125 0.687133 -1.6997 -1.33797 0.0632076 0.661372 Ge
38 2 6.96986 4.07451 1.30123 -1.09256 -1.35291 1.05637 -0.738792 0.745838 1.09751 Ge
49 1 5.60803 5.55005 0.0486196 1.12862 -2.77518 -1.37646 -0.69351 -0.591249 -1.66305 Si
51 1 8.27624 5.52426 2.67047 2.18557 1.17087 2.99267 -0.11743 0.449057 1.62395 Si
55 2 9.73831 6.96847 1.47353 -2.49966 2.07834 0.73877 0.143123 -0.181165 -0.284012 Ge
20 1 2.72608 8.3156 -0.11179 -3.43646 -2.99896 2.96497 1.12587 0.321276 1.65019 Si
22 2 1.40281 9.73663 1.3475 1.16484 -0.167617 -1.54601 -1.00222 -1.44997 0.555033 Ge
33 1 5.52015 -0.0460208 0.019203 1.13603 2.15362 -2.41149 0.56003 1.3507 0.328907 Si
50 1 5.46807 8.30002 2.736 -1.85085 -6.1146 2.64171 0.244242 1.05347 0.928523 Si
54 2 6.91157 9.67592 1.40588 -3.2275 -0.163462 0.396378 0.532111 -0.0402143 -0.180301 Ge
1 1 0.018296 0.0276234 -0.0627268 0.329461 0.438791 -4.93653 -0.770411 -0.420171 0.389366 Si
18 1 0.0591591 8.30357 2.91172 -0.783396 -6.50186 -0.190809 1.2197 -0.0275028 -2.56792 Si
5 2 1.38433 1.37313 4.2278 1.17205 -1.3564 -0.997628 -0.7321 0.387268 -0.670512 Ge
9 1 -0.0539183 0.0135044 5.61076 -3.56707 1.61348 -0.609681 0.811668 -0.581108 -0.581581 Si
12 1 2.78569 2.82234 5.50125 2.15305 -3.35156 1.36872 -0.463368 -0.271675 0.126739 Si
15 2 4.11166 1.40638 6.84124 2.26846 1.10365 1.28394 1.16183 0.110452 1.8009 Ge
37 2 6.9527 1.38457 4.10326 -1.632 -1.72385 -0.894583 -0.773712 0.786028 1.253 Ge
41 1 5.55197 0.0191456 5.53588 2.03366 3.07846 -2.01973 0.570772 -0.134087 0.0480895 Si
44 1 8.23861 2.83702 5.57929 4.31315 3.11729 0.619645 0.926228 -1.80099 -0.0733756 Si
47 2 9.69448 1.42026 6.98898 2.38267 -0.253256 2.41157 -1.53688 -0.149477 0.0140251 Ge
14 2 1.37808 4.16243 6.89513 0.956529 1.89456 1.16487 0.470779 0.731925 0.554233 Ge
21 2 1.44401 6.89811 4.27388 2.32764 -4.23534 -2.29955 -0.318916 0.132188 -1.46579 Ge
25 1 -0.047489 5.57365 5.54882 -0.230798 -1.87594 -1.92578 0.905728 -1.83931 -0.759363 Si
8 2 4.21424 4.16986 4.15534 -1.31794 0.600157 -1.70423 -1.60319 1.04024 -0.357327 Ge
31 2 4.2355 6.93049 6.91455 -1.14717 -1.55117 3.42226 -0.590577 0.232218 0.98647 Ge
46 2 6.90455 4.16747 6.98896 -0.776095 1.43707 4.24623 -0.53365 0.756335 -0.420183 Ge
53 2 6.88037 6.95389 4.11247 -0.99334 0.00222466 -0.612878 1.14871 -0.589737 -0.122521 Ge
57 1 5.55662 5.54707 5.52336 0.70036 0.300544 3.21825 0.74013 -0.0508943 0.477408 Si
40 2 9.59432 4.18257 4.17305 -0.431396 0.557524 1.39767 1.41384 0.0814192 -0.656157 Ge
63 2 9.72875 6.92178 6.85302 -1.00285 -0.396206 1.92811 -1.28562 0.335868 1.85111 Ge
28 1 2.81272 8.28914 5.58972 1.91267 -1.59047 -2.11078 -0.412062 0.420532 0.53022 Si
30 2 1.34071 9.63544 6.94542 -0.252012 1.78986 -0.8153 0.866125 0.859395 -0.0921389 Ge
24 2 4.13234 9.72058 4.23812 -1.46858 -0.0630459 -1.49819 0.0946716 -0.555206 -1.85999 Ge
62 2 6.91727 9.65018 6.93574 0.370147 -0.360069 1.99555 -0.282695 0.726522 -0.377964 Ge
56 2 9.75467 9.67545 4.13076 -2.09676 0.186152 1.28416 -1.44619 1.37612 1.67527 Ge
60 1 8.34996 8.30672 5.53266 2.84476 1.99884 -2.78295 -0.915923 0.0982854 -0.917392 Si
13 2 1.45215 1.37549 9.68137 1.66552 -0.223286 -3.7533 -0.0935115 0.06537 -0.25212 Ge
42 1 5.50099 2.79252 8.35405 -3.3784 3.54833 0.93264 -0.377222 -0.790476 -1.15634 Si
45 2 6.88952 1.34921 9.65193 0.723949 -1.21214 1.03452 -0.938295 0.112835 1.58118 Ge
36 1 8.3065 2.69451 -0.060137 1.76345 0.477681 4.52605 0.657294 0.237329 -0.00679494 Si
10 1 0.055145 2.78658 8.33794 2.93677 -2.86324 -0.865267 -0.503843 -0.0151841 -0.108792 Si
17 1 -0.0541324 5.60542 0.0195914 -0.307676 2.8381 1.60131 0.833482 -0.842738 -0.504655 Si
27 1 2.83688 5.54915 8.29754 1.59676 0.243494 -6.81889 -0.788985 -0.4528 -0.549091 Si
29 2 1.40585 6.89422 9.65443 -0.930349 -0.875872 -3.07966 -1.04843 -0.0697358 0.0282594 Ge
16 2 4.14842 4.17466 9.73995 0.491946 1.53259 -2.53956 0.615951 0.298719 0.364989 Ge
61 2 6.95467 6.93335 9.71626 1.57855 0.683523 1.50059 0.18042 0.523073 0.44995 Ge
48 2 9.68861 4.15512 9.69836 -0.9758 2.88255 -0.777902 0.151075 0.318595 -0.0288417 Ge
59 1 8.32218 5.58121 8.29631 4.10526 1.69569 -5.86576 0.31476 -0.459194 0.0602667 Si
11 1 2.81806 -0.0463526 8.27925 -4.04123 3.31582 -4.30578 -0.804025 0.524178 -0.210972 Si
26 1 -0.0245671 8.25419 8.29664 -3.72552 -4.73472 -1.02208 -0.230368 0.606778 0.275603 Si
32 2 4.19349 9.70788 9.70315 0.353319 0.842436 -0.918755 -1.42943 0.0349978 0.00231165 Ge
58 1 5.52449 8.35374 8.38068 1.9921 -1.69236 -2.81989 1.22681 -1.56459 -1.21655 Si
52 1 8.38223 8.29668 0.0555915 4.65438 -3.13102 2.18386 -1.17784 0.751093 -0.760953 Si
43 1 8.21414 -0.0408126 8.35302 2.13929 1.05785 -3.93489 1.39838 0.943021 -2.15466 Si
64 2 9.63308 9.71744 9.63242 -2.6915 1.97234 1.10488 1.73402 -1.00575 1.65014 Ge
ITEM: TIMESTEP
17600
ITEM: NUMBER OF ATOMS
64
ITEM: BOX BOUNDS pp pp pp
0.0000000000000000e+00 1.1085848640000000e+01
0.0000000000000000e+00 1.1085848640000000e+01
0.0000000000000000e+00 1.1085848640000000e+01
ITEM: ATOMS id type xu yu zu vx vy vz fx fy fz element
3 1 2.80691 -0.0250162 2.70728 -3.46236 0.299977 -2.35304 -0.257961 0.0299341 0.344139 Si
4 1 2.79866 2.75213 -0.0201936 2.2673 0.840915 0.848359 -0.646821 0.00307851 -0.959474 Si
7 2 4.13773 1.38511 1.32099 2.11101 -1.43201 1.86834 0.44704 -0.297133 1.08531 Ge
34 1 5.51737 2.70979 2.75355 -7.6954 4.84634 4.24339 0.377178 0.888626 0.376958 Si
2 1 0.0563078 2.75929 2.73384 6.11401 -1.74514 -1.35787 -0.384384 -0.339207 -0.279613 Si
35 1 8.25785 -0.000308282 2.7701 -3.84487 -0.0719216 -2.9352 0.813126 0.22302 0.842882 Si
39 2 9.63351 1.37705 1.42033 -0.460998 1.94455 3.57497 1.04886 0.593474 -0.0162098 Ge
6 2 1.42699 4.12454 1.31156 0.86311 2.94835 1.18556 -0.418287 0.484585 1.03104 Ge
19 1 2.74202 5.5305 2.76472 -1.06144 0.246645 -0.598447 -0.00553065 -0.436841 0.891178 Si
23 2 4.14676 6.89027 1.40649 1.10671 -0.82903 3.12019 0.0479182 0.952235 -0.220829 Ge
38 2 6.93008 4.20265 1.47973 0.352659 -1.39031 0.987003 -0.776766 -0.404421 -0.880001 Ge
49 1 5.52461 5.55389 0.011124 3.13349 5.77425 4.2197 0.414257 -0.4148 0.421284 Si
51 1 8.31047 5.53631 2.87377 -0.279575 -2.4324 -3.15746 0.755137 -0.0270307 -0.699533 Si
55 2 9.66332 6.86861 1.38186 -1.47928 -1.29091 0.121425 -0.674012 1.31307 -0.760356 Ge
20 1 2.79586 8.33303 0.0216597 -2.83755 -0.292484 -3.67844 -0.415075 -0.705026 -0.00332739 Si
22 2 1.37584 9.67115 1.3912 0.520791 4.40365 0.353982 0.938592 1.19726 -0.83077 Ge
33 1 5.54688 0.0351651 0.0165606 0.779723 -5.68166 1.95784 0.452403 -0.517941 -1.2792 Si
50 1 5.55652 8.31972 2.74499 4.74412 -1.03282 -3.34301 0.468054 -1.10698 0.467722 Si
54 2 6.93737 9.73511 1.38523 1.19458 -0.823306 -0.576818 -1.18164 -0.232424 -0.137012 Ge
1 1 -0.01158 0.0030542 0.0768268 -1.78593 -2.23576 3.20997 -0.212806 0.0984643 -0.743403 Si
18 1 -0.0429501 8.37847 2.66562 -1.1385 2.38547 7.93231 -0.859876 -1.86394 1.29659 Si
5 2 1.44522 1.36536 4.09614 0.172306 -1.70557 -0.270778 -0.409489 -0.0333673 0.63911 Ge
9 1 0.0449234 -0.0178862 5.49957 1.02838 0.799089 1.95697 -0.627711 0.35163 -0.47901 Si
12 1 2.75112 2.7419 5.58287 -1.75972 2.24235 -0.641881 0.969009 -0.725754 -0.85132 Si
15 2 4.17747 1.35034 6.94473 -3.13646 -1.58299 0.879552 -0.0268234 0.347098 0.134185 Ge
37 2 6.92933 1.40493 4.1782 -1.55377 0.0592954 -3.96415 -0.954419 -1.45078 -0.0119716 Ge
41 1 5.52307 -0.0798819 5.55853 -1.20427 0.358479 0.718586 0.680127 1.54334 -0.517196 Si
44 1 8.34148 2.73392 5.53097 -1.48533 4.18058 -2.63336 0.724108 1.04089 -0.180798 Si
47 2 9.71583 1.34815 6.90648 2.21657 -1.76293 0.0192347 0.554861 0.49106 0.206247 Ge
14 2 1.4023 4.14811 6.88981 -1.17101 0.845821 2.21406 -0.297232 0.686523 1.78205 Ge
21 2 1.27006 6.98586 4.10515 -0.995846 -0.0472387 2.62509 1.6085 -0.596925 -0.184352 Ge
25 1 0.0246283 5.53955 5.54446 -0.937565 2.58498 2.00358 -0.458504 0.51845 -0.140621 Si
8 2 4.1681 4.07688 4.19257 1.02983 -0.10183 -0.615729 -0.775865 1.25149 -0.642716 Ge
31 2 4.08442 6.94674 6.87877 -1.79636 -1.54863 -2.00771 -0.0902537 -0.470291 0.945365 Ge
46 2 6.97001 4.15675 6.90106 0.889025 -1.61342 1.70316 -0.444155 0.0682418 1.14082 Ge
53 2 6.92149 6.89463 4.22361 0.598216 2.22649 0.722945 -0.873853 1.09708 -0.76135 Ge
57 1 5.51133 5.54332 5.56886 -1.08341 0.628239 -5.81356 0.0167374 -0.798073 -0.135503 Si
40 2 9.79654 4.14192 4.13733 -0.179039 1.03125 -3.13562 -1.25943 -0.438431 0.764019 Ge
63 2 9.7296 6.94964 6.93964 1.58024 0.024228 -0.878999 -0.650758 0.128837 1.23311 Ge
28 1 2.72639 8.34184 5.48209 -1.32877 0.790738 -1.09576 0.278928 -0.637991 -0.506652 Si
30 2 1.43156 9.72893 6.87231 -1.28916 0.228595 1.89822 -0.0793968 0.504185 0.879239 Ge
24 2 4.16783 9.67264 4.10121 1.96203 2.51002 1.98011 -0.310976 0.195547 0.445295 Ge
62 2 6.9672 9.75277 6.98095 0.164189 -1.12968 1.64959 -0.988418 -0.860051 0.367627 Ge
56 2 9.69008 9.68832 4.11501 1.23353 -1.39256 -2.16144 -0.817675 0.202282 0.881148 Ge
60 1 8.23929 8.31964 5.59125 1.35571 -1.96584 3.05014 2.13158 0.155772 -0.616675 Si
13 2 1.32702 1.37598 9.72219 -0.898881 -3.16944 -0.119689 0.822895 0.370407 -0.244079 Ge
42 1 5.59473 2.74209 8.33409 2.60865 1.27819 1.1692 -0.298887 0.765974 -0.573745 Si
45 2 7.00609 1.4481 9.75303 -0.304865 0.833046 -4.41347 -0.916097 -0.886279 0.024022 Ge
36 1 8.30888 2.84191 0.0688562 -0.347525 -0.649187 -5.02631 0.310054 -0.447511 0.187933 Si
10 1 -0.022188 2.79875 8.3041 -2.45664 4.30672 -1.78691 0.496903 -0.97682 -0.468509 Si
17 1 -0.00216262 5.50195 -0.0173855 -2.34253 -2.64266 -2.91542 0.0939705 0.744452 0.544729 Si
27 1 2.73006 5.56525 8.39338 1.58652 0.487687 1.08971 0.374538 -0.203157 -1.62785 Si
29 2 1.34919 6.9796 9.7456 5.80389 -1.23565 0.706319 0.41679 -0.0623255 -0.229146 Ge
16 2 4.17589 4.1519 9.71101 0.276293 0.825004 -3.75303 0.0179151 -0.107492 -0.35648 Ge
61 2 6.83536 6.95786 9.67199 -0.893918 -1.70912 -2.81791 0.557054 0.0359561 1.19531 Ge
48 2 9.72444 4.11972 9.73485 -2.49361 -0.589831 -1.46228 -1.11859 1.00685 -0.351347 Ge
59 1 8.26582 5.5628 8.42491 -0.580899 0.763848 4.28434 1.55705 -0.398104 -2.12986 Si
11 1 2.77285 0.0145376 8.3333 3.85906 -6.58265 -1.04616 -0.419202 -0.154923 -0.19532 Si
26 1 0.0633278 8.43673 8.32664 6.0358 0.579654 -1.21589 -0.536147 -2.14199 -0.963227 Si
32 2 4.148 9.6933 9.68792 0.827197 2.16131 1.38824 0.624176 0.461799 0.376264 Ge
58 1 5.50084 8.29305 8.27399 -3.2977 4.15715 4.08203 -0.082195 1.13903 -0.33109 Si
52 1 8.23225 8.3752 -0.0393518 -1.2247 -3.08723 -2.71503 1.77992 -1.4849 0.128405 Si
43 1 8.37165 0.0368628 8.37306 -3.3571 -3.5536 7.15983 -0.256729 -0.0439931 -0.421342 Si
64 2 9.76357 9.72367 9.70005 -2.38249 1.15593 -2.99053 -1.25171 0.374239 1.0979 Ge
ITEM: TIMESTEP
17700
ITEM: NUMBER OF ATOMS
64
ITEM: BOX BOUNDS pp pp pp
0.0000000000000000e+00 1.1085848640000000e+01
0.0000000000000000e+00 1.1085848640000000e+01
0.0000000000000000e+00 1.1085848640000000e+01
ITEM: ATOMS id type xu yu zu vx vy vz fx fy fz element
3 1 2.73591 0.0633317 2.852 0.92733 -1.41009 3.31391 -0.3983 -0.632543 -0.878231 Si
4 1 2.72972 2.78684 0.0336303 -0.958102 -1.94796 0.205601 0.757677 0.0879139 0.331316 Si
7 2 4.11906 1.41989 1.42798 -0.960591 -0.434494 2.38028 0.729044 -0.17191 -0.339665 Ge
34 1 5.62438 2.78774 2.7617 3.56567 -2.58887 -6.36783 -1.51049 0.36513 0.17468 Si
2 1 -0.123759 2.78257 2.7765 -3.25798 0.602242 -1.11188 1.36532 -0.091936 -0.316786 Si
35 1 8.40779 0.02308 2.78727 0.492327 0.323985 1.35398 -1.06038 -0.0578881 -0.932333 Si
39 2 9.71541 1.36314 1.25632 -1.51542 -1.68717 -0.984897 -0.388409 0.361226 2.13096 Ge
6 2 1.36524 4.13236 1.4089 -1.70147 -0.878579 3.2739 0.200339 0.980857 1.21971 Ge
19 1 2.81331 5.5788 2.80437 -0.00451432 4.01345 -2.52264 -0.474522 0.129189 -1.51124 Si
23 2 4.21971 7.00252 1.35257 -1.17955 -0.965179 -0.921802 -0.556714 -1.47734 1.42959 Ge
38 2 6.91342 4.1751 1.29207 2.57533 -0.486601 1.66587 0.559035 -0.529354 0.864134 Ge
49 1 5.47296 5.49188 -0.0402617 -2.01804 -4.6055 -2.32472 1.40744 1.67558 0.426338 Si
51 1 8.33589 5.56589 2.66443 -1.30028 1.06791 -0.746474 0.397355 -0.794695 0.0400603 Si
55 2 9.82854 6.93141 1.38143 2.18735 -1.31758 3.08148 -1.93715 0.00939092 0.0553156 Ge
20 1 2.80896 8.33782 0.0519898 2.68385 2.09562 -0.0361565 -1.47089 -0.772381 -1.11899 Si
22 2 1.39715 9.6629 1.45464 1.73456 -1.80761 1.62595 0.100581 1.69991 -0.812711 Ge
33 1 5.49297 0.0277445 -0.0404966 -3.13247 4.09121 1.78124 0.0570733 -1.4198 1.40844 Si
50 1 5.52449 8.3692 2.8377 -8.33013 3.9096 -2.78835 1.04467 -0.553475 -1.27023 Si
54 2 6.94892 9.73173 1.42655 0.29081 3.03141 1.36899 -0.268727 0.202971 -0.497865 Ge
1 1 0.0357692 -0.00114282 -0.0409292 4.27168 3.04823 -2.40029 0.594181 -0.98667 0.26408 Si
18 1 0.0259301 8.27272 2.7803 1.265 2.57181 -7.60877 0.118457 1.32506 1.47729 Si
5 2 1.33566 1.45196 4.2043 -1.74957 0.625342 -1.90098 -0.434195 -0.383367 -0.300341 Ge
9 1 -0.0211119 -0.00550954 5.58022 -0.671541 -0.0791525 1.288 0.437385 0.54488 0.821101 Si
12 1 2.79958 2.80082 5.527 -1.68327 1.95112 2.03152 -1.10815 0.505826 0.294167 Si
15 2 4.1297 1.43513 6.9136 0.895818 -1.1553 0.311549 -0.501586 -1.16426 0.498116 Ge
37 2 6.96416 1.36739 4.14745 1.32884 1.31801 -2.37466 -0.087879 0.249385 -0.287402 Ge
41 1 5.53441 0.0754709 5.55509 -2.66037 -7.38437 -0.686968 -0.599431 -1.46697 -0.763532 Si
44 1 8.27811 2.73922 5.54531 -3.41573 -3.63674 2.62464 0.00564655 1.31687 -0.513052 Si
47 2 9.61068 1.39659 6.95476 -1.40742 -2.24192 2.71103 1.9071 -0.310753 -0.719286 Ge
14 2 1.35687 4.13895 6.93099 2.00392 2.21758 -3.14243 0.179209 -0.0651666 0.140573 Ge
21 2 1.4348 6.95829 4.1882 0.0125924 -1.10769 -0.256426 -0.262933 -0.465051 0.440323 Ge
25 1 -0.0067001 5.56528 5.53483 0.492443 -0.237538 -0.691669 0.397487 -0.410129 0.010884 Si
8 2 4.15897 4.2011 4.16576 2.61942 -2.5864 -2.88513 1.21895 -0.72925 -0.355415 Ge
31 2 4.28082 6.93844 7.00469 -0.498413 -1.24791 3.09972 -1.99006 -0.651385 -0.70467 Ge
46 2 6.85549 4.17097 6.83022 -0.74303 1.21369 2.22525 0.759536 -1.79284 1.60441 Ge
53 2 6.9905 6.88168 4.05893 0.332862 -2.25622 -2.73576 -1.05919 1.42771 1.63583 Ge
57 1 5.55927 5.5689 5.54066 0.354138 2.75121 4.47495 -0.0842608 0.731282 -1.48739 Si
40 2 9.63926 4.20974 4.17506 2.87192 0.678523 -2.42669 -0.115714 -0.600718 -0.427565 Ge
63 2 9.67849 6.8818 6.92601 -1.63531 -2.15252 -1.93123 -0.110512 0.655904 -1.26505 Ge
28 1 2.80437 8.29483 5.65207 2.40364 1.21683 1.55064 0.361998 0.226531 -0.813336 Si
30 2 1.3897 9.66208 6.99393 1.28042 1.98682 -0.390911 -1.03525 0.478065 0.385443 Ge
24 2 4.09992 9.71254 4.1706 -3.11857 -0.347963 -2.7397 0.648109 0.731777 1.66649 Ge
62 2 6.89043 9.68472 6.87822 3.69188 2.16136 -1.42659 0.526706 -0.0450037 -0.421527 Ge
56 2 9.71544 9.72913 4.18805 1.69106 1.49208 -0.20413 0.975698 -1.0117 -0.978785 Ge
60 1 8.35044 8.3163 5.49522 -6.13019 0.35883 0.998563 -1.01423 -0.738183 0.488062 Si
13 2 1.40475 1.45346 9.7254 -1.7821 -2.03409 -2.12262 -0.377576 -1.55904 0.387463 Ge
42 1 5.48935 2.74704 8.28433 -1.57399 -1.84688 4.70801 1.20279 0.841908 0.820676 Si
45 2 6.91855 1.29204 9.66165 0.602054 -0.157784 1.05116 -0.40596 1.76097 -0.747761 Ge
36 1 8.28193 2.72734 -0.038549 -3.85373 0.62619 5.03648 0.218587 0.525617 -1.04641 Si
10 1 -0.0108092 2.70007 8.36149 4.60433 -2.55939 3.19349 -0.356459 1.5813 -1.30016 Si
17 1 0.0549202 5.56769 0.0372066 -0.35473 1.25651 2.05937 -0.398894 -1.50743 -1.0757 Si
27 1 2.77184 5.53317 8.31398 -0.205185 1.86269 6.38901 0.255102 0.0764455 0.175617 Si
29 2 1.36752 6.91016 9.70896 -3.6423 -0.417954 -1.79887 1.28141 0.645912 0.407966 Ge
16 2 4.12514 4.13474 9.73935 0.0371633 1.19329 -0.334953 -0.627781 -0.597466 -1.47471 Ge
61 2 6.95908 6.87119 9.70887 2.684 0.81181 -0.740687 0.572329 0.0705891 -0.283098 Ge
48 2 9.73129 4.15303 9.69734 2.09645 -1.32518 -0.38968 -0.655399 0.0386423 0.144966 Ge
59 1 8.32026 5.46591 8.18692 -5.29786 2.77772 1.76745 -0.673835 0.28563 2.39907 Si
11 1 2.74598 0.0497959 8.37995 -0.537141 5.86284 3.95472 0.705815 -0.902851 -1.2194 Si
26 1 -0.0870831 8.21357 8.33614 -2.61856 4.27304 2.90727 1.61101 1.39527 -0.149293 Si
32 2 4.1373 9.62766 9.68097 -1.05032 -0.0771014 -2.21011 0.325905 1.9673 0.371491 Ge
58 1 5.59877 8.31765 8.34043 -0.180461 -5.37887 -0.862855 0.409299 -0.170619 0.419034 Si
52 1 8.37882 8.30406 0.0555195 -0.893468 6.48072 4.97459 -0.898381 -0.104027 -0.688474 Si
43 1 8.27677 -0.0224406 8.21001 1.58781 0.703368 -0.000248926 0.153741 -1.16156 2.07675 Si
64 2 9.70197 9.68576 9.68274 2.26753 0.155963 -1.11039 -0.621731 0.430724 -0.30994 Ge
ITEM: TIMESTEP
17800
ITEM: NUMBER OF ATOMS
64
ITEM: BOX BOUNDS pp pp pp
0.0000000000000000e+00 1.1085848640000000e+01
0.0000000000000000e+00 1.1085848640000000e+01
0.0000000000000000e+00 1.1085848640000000e+01
ITEM: ATOMS id type xu yu zu vx vy vz fx fy fz element
3 1 2.81098 -0.037115 2.69341 1.6734 4.18242 -3.324 0.254412 -0.423805 0.489088 Si
4 1 2.78258 2.7916 -0.0243651 0.965021 1.95229 2.07712 0.271045 -0.3896 -0.326693 Si
7 2 4.14681 1.38717 1.3378 1.9037 -0.184496 0.72453 0.945627 0.115193 0.650891 Ge
34 1 5.50737 2.7645 2.84237 -0.285877 -0.953503 5.81227 0.570082 -0.295174 -1.15723 Si
2 1 0.0840196 2.77942 2.85299 -3.08796 0.787668 3.14305 -0.821888 0.167912 -0.923406 Si
35 1 8.24713 -0.0306608 2.76256 1.54673 0.355953 0.00775681 0.409747 0.250437 0.552729 Si
39 2 9.7251 1.36814 1.49386 1.43261 0.360316 -1.73968 -0.0734529 0.601943 -1.13837 Ge
6 2 1.37413 4.16498 1.27062 -0.830075 -1.22594 -1.97793 -0.4309 -0.874887 2.03383 Ge
19 1 2.74041 5.45378 2.72971 1.77586 -3.54856 4.76549 0.375917 1.29063 0.223195 Si
23 2 4.12285 6.88398 1.33462 1.31984 2.09302 0.473539 0.0257042 0.651165 1.45609 Ge
38 2 6.92467 4.18231 1.42576 -2.86826 2.03464 2.16723 0.529391 -0.884278 0.202751 Ge
49 1 5.60113 5.6052 0.0306374 -5.28847 1.02793 0.129677 -1.5779 -1.77869 -0.548232 Si
51 1 8.29078 5.52007 2.88785 -3.21007 1.40172 3.72359 -0.853625 1.02995 -0.892665 Si
55 2 9.62539 6.93335 1.43721 0.303614 -2.88831 -0.986458 0.787815 -0.261484 -0.470873 Ge
20 1 2.70848 8.26828 -0.0435624 3.33446 2.00902 3.09344 1.87269 1.45478 0.39719 Si
22 2 1.35851 9.69939 1.32733 -1.53857 -2.24875 1.73096 0.0635668 -0.966594 1.1594 Ge
33 1 5.58919 -0.0360334 0.0131958 -0.364988 3.92289 -5.11403 -0.830734 1.01087 -0.744375 Si
50 1 5.58248 8.22784 2.79329 3.92132 -1.29139 7.40709 -2.00008 0.50086 -0.746809 Si
54 2 6.87958 9.64569 1.41231 0.625355 -1.19484 2.79583 1.23359 -0.337272 -0.861593 Ge
1 1 -0.0398498 -0.0181028 0.0172513 -5.19217 1.40831 4.64721 0.755202 1.63426 -0.607151 Si
18 1 -0.0150214 8.32329 2.82164 -1.30802 -1.355 -1.12713 -0.197343 -0.156369 -2.77882 Si
5 2 1.50343 1.32297 4.14665 2.60999 -1.83371 -2.69786 -1.34622 0.282237 -0.435595 Ge
9 1 0.00515906 0.0168567 5.48606 1.70355 -3.83687 -3.47303 -0.391669 -0.779525 0.129074 Si
12 1 2.77643 2.72021 5.53215 4.97393 -2.55521 -0.393616 0.588266 0.468974 0.614438 Si
15 2 4.18358 1.38997 6.90889 1.28516 1.34239 3.7393 0.311155 -0.131822 0.32392 Ge
37 2 6.91928 1.36453 4.22232 -0.579385 -1.95696 -0.196467 0.89166 1.07115 -0.796634 Ge
41 1 5.57774 -0.00694458 5.54667 1.13852 9.73161 6.25055 -0.493226 -0.5487 1.03296 Si
44 1 8.34593 2.82323 5.58147 1.83087 -2.43262 -0.426548 -1.25186 -1.77865 0.327405 Si
47 2 9.73562 1.41666 6.92878 -0.86394 -1.22703 0.631676 -0.513195 -0.506982 -0.392233 Ge
14 2 1.40534 4.09681 6.93024 -0.589819 -0.58646 3.27991 -0.00654933 0.811143 -1.31447 Ge
21 2 1.33653 6.91615 4.08991 -1.84821 0.101193 -3.56948 1.12284 -1.33066 0.961362 Ge
25 1 0.0181653 5.4914 5.55109 -0.152193 2.42859 1.59865 -0.223688 1.14743 0.117282 Si
8 2 4.15036 4.1477 4.21424 -2.52325 2.10329 0.997389 -0.797965 -0.315972 -1.01776 Ge
31 2 4.15399 6.95701 6.88655 2.00846 0.684235 0.389092 -0.128147 -0.244587 0.111198 Ge
46 2 6.97178 4.18279 6.96674 -0.93167 3.73584 -2.0672 0.305271 0.83677 -0.268101 Ge
53 2 6.84581 6.92447 4.25649 4.19754 -2.78191 0.209419 2.04574 -0.714517 -0.678381 Ge
57 1 5.52118 5.50096 5.56308 -2.62022 -2.82088 0.522714 0.108709 0.484528 1.11166 Si
40 2 9.64936 4.15108 4.22246 0.686479 2.73546 0.0628974 2.21966 -0.143912 -0.871289 Ge
63 2 9.7471 6.9879 6.9239 1.41777 -0.151852 2.90875 -0.324161 -1.31924 0.0742923 Ge
28 1 2.75462 8.29925 5.45544 -6.11552 -2.14331 3.16051 0.120361 0.1758 0.502354 Si
30 2 1.35651 9.66993 6.882 2.06507 -1.06799 -0.468587 0.659789 0.523177 -1.19206 Ge
24 2 4.22973 9.68719 4.14051 0.803015 -0.700875 -4.21958 -0.886387 -0.157279 -0.598019 Ge
62 2 6.92114 9.71241 7.02121 -0.954009 0.967995 2.40679 1.36382 0.715619 -2.06344 Ge
56 2 9.66453 9.65952 4.08989 -3.68763 0.260643 1.04835 -0.101039 1.51443 1.74327 Ge
60 1 8.31132 8.3259 5.54713 3.16229 1.80744 -0.951335 -0.598248 0.24049 0.738563 Si
13 2 1.43657 1.40961 9.6801 1.48758 0.958423 -2.22682 -1.68049 -0.819261 -0.752294 Ge
42 1 5.59557 2.82845 8.29468 -0.576897 -4.36856 -4.12584 -0.980869 -1.17525 0.849064 Si
45 2 6.96899 1.422 9.706 4.67939 -1.72485 -1.57336 -0.315553 0.0636083 0.564502 Ge
36 1 8.39599 2.79926 0.00179232 1.6366 0.773241 -0.0333303 -1.1793 -0.427304 1.52792 Si
10 1 -0.0246934 2.84188 8.26124 -5.94359 1.77488 4.0969 0.74488 -1.33079 2.18517 Si
17 1 -0.0291559 5.55807 -0.0164788 2.49367 2.8159 0.530241 0.00337338 1.30022 0.53711 Si
27 1 2.76304 5.52251 8.23259 -3.53193 -0.708388 -2.17263 0.488981 0.67199 1.77203 Si
29 2 1.38886 6.94786 9.68897 2.44275 -1.46716 -1.58994 -0.870831 -1.34999 -1.45006 Ge
16 2 4.16843 4.17153 9.7194 1.27529 1.95151 -3.40343 0.692588 0.93016 -0.752455 Ge
61 2 6.84997 6.9582 9.69384 -2.76764 -4.16913 -2.2765 1.71295 -0.42684 -0.989261 Ge
48 2 9.70651 4.20335 9.72622 -0.737242 2.20809 0.00826241 0.604617 -0.655283 -0.768712 Ge
59 1 8.37216 5.57574 8.37453 3.11299 -3.83881 -2.13418 -1.25667 0.995803 -1.04509 Si
11 1 2.7664 -0.0574751 8.21957 -0.824904 -2.29106 0.184567 0.418652 1.2032 1.35561 Si
26 1 0.0333696 8.3604 8.28922 -1.54722 -0.622794 1.21523 -0.957673 -0.0910638 1.09686 Si
32 2 4.17908 9.70206 9.66983 -3.77808 -2.34418 -2.21623 -0.951703 -0.295321 0.494824 Ge
58 1 5.55437 8.35454 8.28955 -2.00979 3.0719 1.89346 -1.33478 -1.17523 0.423537 Si
52 1 8.26787 8.28036 -0.0729006 -2.99279 -1.15478 -3.7616 0.413471 1.25028 1.62322 Si
43 1 8.33298 0.0414328 8.35058 -2.25566 4.96008 -3.76756 -0.221828 0.480811 -1.09729 Si
64 2 9.66748 9.76185 9.68301 -0.617124 2.16103 -1.434 0.686406 -1.7895 0.29659 Ge
ITEM: TIMESTEP
17900
ITEM: NUMBER OF ATOMS
64
ITEM: BOX BOUNDS pp pp pp
0.0000000000000000e+00 1.1085848640000000e+01
0.0000000000000000e+00 1.1085848640000000e+01
0.0000000000000000e+00 1.1085848640000000e+01
ITEM: ATOMS id type xu yu zu vx vy vz fx fy fz element
3 1 2.72068 -0.0216043 2.83137 -1.11762 -1.23044 6.34397 0.375939 1.65417 0.0134991 Si
4 1 2.76373 2.7268 -0.0230521 -5.301 0.376381 -1.95227 -0.495301 0.514294 1.34247 Si
7 2 4.09365 1.35917 1.39751 -3.98482 -0.944616 3.33753 0.68383 -0.329507 -0.0595041 Ge
34 1 5.53447 2.78536 2.68592 2.83909 2.61073 -0.101338 -0.166241 -0.408043 1.40918 Si
2 1 0.0359417 2.75552 2.64042 2.1596 -0.102401 3.39136 -0.467212 0.254922 2.11633 Si
35 1 8.34268 0.0266503 2.80608 -0.965396 -0.0901333 0.236496 -0.423802 -0.559715 -0.666765 Si
39 2 9.63464 1.38596 1.38207 -0.0265141 -2.69792 2.59776 1.54623 -0.555438 -1.14289 Ge
6 2 1.45796 4.17751 1.39332 -0.477801 3.40153 -0.899441 -0.447438 -0.035477 -0.888483 Ge
19 1 2.76406 5.6234 2.80699 -1.07706 -0.527261 -1.2055 0.47671 -1.38274 0.790667 Si
23 2 4.18762 6.93954 1.43587 -0.895869 -0.601775 -2.62802 -0.818296 -0.562067 -1.7835 Ge
38 2 6.94645 4.17119 1.36107 2.2702 0.31108 -2.77832 0.039123 0.0523729 0.122764 Ge
49 1 5.5547 5.5148 0.00873053 5.45532 1.49611 2.56418 -0.382963 1.15875 0.231971 Si
51 1 8.38394 5.56118 2.68968 2.90468 -2.17082 -1.59761 -1.21565 -0.184525 1.30707 Si
55 2 9.75502 6.93276 1.36988 2.22131 0.105078 4.25629 0.305232 -0.869802 -0.350173 Ge
20 1 2.77574 8.33712 0.051566 -6.85626 -3.93181 0.707287 0.23983 -0.0934212 0.0577998 Si
22 2 1.38956 9.74588 1.4368 2.44193 2.25641 -0.69312 -0.351485 -1.04531 -1.05466 Ge
33 1 5.54992 -0.00641053 0.0280011 1.93471 -4.39679 5.4766 0.207392 0.971695 0.142499 Si
50 1 5.53202 8.34031 2.67821 0.329238 2.91158 1.1842 0.635587 1.46338 2.16834 Si
54 2 6.98032 9.7495 1.35799 -0.834366 1.62753 2.42003 0.1443 -0.727099 0.764693 Ge
1 1 0.0297677 -0.00751665 -0.0310919 1.99117 -3.40892 -2.47487 -2.01592 -0.465329 1.60793 Si
18 1 0.00367885 8.2989 2.73878 1.95523 -0.00663511 7.90832 0.747501 0.533703 0.889339 Si
5 2 1.35487 1.43226 4.18682 0.702584 1.05231 0.964068 -0.300283 -0.54992 -0.565782 Ge
9 1 -0.0261291 0.0299786 5.58967 -1.77301 6.15123 2.46122 0.592426 -0.349133 -0.771199 Si
12 1 2.72973 2.80463 5.55843 -5.8051 0.929671 -1.03705 0.189448 -0.222105 -0.677581 Si
15 2 4.08997 1.36782 6.85105 -2.80512 -0.659521 -2.05801 1.66045 0.331025 1.35539 Ge
37 2 6.94084 1.40525 4.11919 -1.01146 -1.82751 -2.18194 -0.903323 -0.287029 0.0117677 Ge
41 1 5.56376 -0.046207 5.49988 0.289765 -4.19858 -7.71014 -0.110648 1.69943 0.63371 Si
44 1 8.32925 2.75353 5.4848 1.02985 5.74856 1.65581 0.549502 -0.0625029 0.4842 Si
47 2 9.6899 1.38315 6.94976 -2.02134 -1.27184 3.67502 -0.473715 -0.164044 -0.250173 Ge
14 2 1.3643 4.1879 6.89607 1.47304 0.0898527 0.941832 0.56384 0.213533 1.45184 Ge
21 2 1.35565 6.9631 4.22143 0.385866 1.16711 -0.0699894 0.447373 0.352198 -0.990404 Ge
25 1 -0.0375275 5.55227 5.5218 -0.358301 -5.4641 -0.287614 -0.116922 -0.421211 0.28146 Si
8 2 4.16143 4.11763 4.18066 3.71745 0.571324 -0.733475 0.0929576 1.4223 -1.05308 Ge
31 2 4.14721 6.90124 6.9119 1.61564 -2.13151 2.53094 0.659793 0.12509 -0.385046 Ge
46 2 6.95637 4.09336 6.88715 -1.26281 -0.668731 2.12775 -0.88358 1.21843 0.385299 Ge
53 2 6.92785 6.96689 4.08404 -4.29095 1.18536 -2.46286 0.966439 -0.22946 -0.242031 Ge
57 1 5.60917 5.56493 5.48847 1.66482 -0.30663 -0.270655 -0.946052 -0.891029 0.691799 Si
40 2 9.72544 4.13053 4.08946 -4.09877 0.951414 -2.05937 0.189136 0.225232 -0.247671 Ge
63 2 9.68207 6.90048 6.9561 -1.6994 -0.161944 -1.97822 0.127915 0.392283 -0.685925 Ge
28 1 2.81078 8.35634 5.53903 5.95921 2.40747 -1.18649 -1.43752 -0.132832 1.24329 Si
30 2 1.37173 9.74672 6.9875 -1.08237 0.728703 5.64441 1.03064 -0.634789 -0.580086 Ge
24 2 4.13035 9.74689 4.17374 0.888112 2.26141 0.266472 1.10854 -1.57577 -1.4091 Ge
62 2 6.91904 9.68778 6.93328 1.00233 -0.80564 2.50553 -0.0781468 -0.726279 -0.223673 Ge
56 2 9.75687 9.71603 4.11727 1.53543 -1.1244 -4.21968 -0.945399 -0.46474 1.38287 Ge
60 1 8.31878 8.30507 5.55043 -0.212843 0.34641 -2.11996 0.365206 0.462833 -0.791389 Si
13 2 1.32411 1.38267 9.75743 2.29415 -0.977351 -0.200611 2.17588 -0.113111 -1.44725 Ge
42 1 5.49087 2.78615 8.33031 -0.0888969 8.12769 -1.30973 -0.0204366 -0.760864 -1.17974 Si
45 2 6.8863 1.36346 9.67218 -2.14412 -2.24055 -4.44778 0.512371 -0.255531 0.168609 Ge
36 1 8.25611 2.74585 0.00871496 -0.356781 -0.70116 -2.94971 0.592321 0.0695468 -1.18326 Si
10 1 0.0640908 2.70239 8.29302 2.20925 -1.28673 -7.12482 -1.38493 1.46886 -0.0994713 Si
17 1 -0.0144298 5.47153 -0.0131579 -1.37752 -2.39237 1.52596 0.45676 0.515778 0.274288 Si
27 1 2.82061 5.55128 8.36449 0.968955 -2.85049 -3.62265 -1.63368 -0.397042 -0.396174 Si
29 2 1.36578 6.92444 9.76183 1.40072 0.580525 2.02284 1.09194 -0.415231 -0.456934 Ge
16 2 4.131 4.13492 9.7814 -0.637757 -0.746834 1.62577 0.681918 0.270509 -1.37381 Ge
61 2 6.89472 6.97551 9.70669 -0.446458 0.822869 0.123321 0.921675 -0.875325 0.605563 Ge
48 2 9.7029 4.08695 9.66335 -0.0351945 0.492763 -0.900409 -0.710878 0.416987 -0.0876751 Ge
59 1 8.25913 5.56193 8.29738 2.20372 -1.54253 -0.12994 0.597261 -1.18904 0.701426 Si
11 1 2.80368 0.04519 8.3717 -4.23728 1.09679 0.806213 -0.586437 -0.833386 0.263049 Si
26 1 0.038967 8.25515 8.31229 -0.465291 -2.85067 -2.54952 -0.599823 0.585701 0.143064 Si
32 2 4.23443 9.70712 9.76997 2.14452 -0.0751385 -1.3531 -1.79068 -0.537885 -1.30717 Ge
58 1 5.50517 8.27723 8.29785 5.41261 2.9223 -3.66644 0.435523 1.10483 0.239085 Si
52 1 8.39664 8.30027 0.0550075 2.4653 -3.82427 -0.0201522 -1.55053 0.527934 -1.606 Si
43 1 8.33336 -0.0741097 8.31434 0.537204 -3.51327 1.40089 -0.562817 1.23113 0.197251 Si
64 2 9.73282 9.64886 9.67908 -1.10112 3.06968 -3.18892 0.409128 0.0698163 0.478078 Ge
ITEM: TIMESTEP
18000
ITEM: NUMBER OF ATOMS
64
ITEM: BOX BOUNDS pp pp pp
0.0000000000000000e+00 1.1085848640000000e+01
0.0000000000000000e+00 1.1085848640000000e+01
0.0000000000000000e+00 1.1085848640000000e+01
ITEM: ATOMS id type xu yu zu vx vy vz fx fy fz element
3 1 2.81224 0.0476755 2.72474 -1.76475 -3.86333 -7.29738 -0.633448 -0.89481 0.712612 Si
4 1 2.8004 2.79134 0.0524087 4.79141 -2.26353 -0.534252 -0.905273 0.201978 -1.27702 Si
7 2 4.20505 1.42432 1.34909 -1.29737 -0.826051 -0.249859 -0.469247 -0.555069 0.585473 Ge
34 1 5.51996 2.76116 2.79285 -5.41158 -1.36196 -2.1956 0.829505 0.608592 0.0175022 Si
2 1 -0.0519073 2.76932 2.8478 2.14965 -1.22475 -9.19122 0.143022 -0.148774 -0.605677 Si
35 1 8.30877 -0.0396079 2.70856 1.83132 1.60931 3.15118 0.215872 1.06788 1.22179 Si
39 2 9.7105 1.38826 1.33948 -3.42481 0.975024 4.22398 -0.284139 0.134204 1.36552 Ge
6 2 1.34192 4.11958 1.42177 0.909237 -1.07225 -0.527616 0.258781 0.797721 -0.376708 Ge
19 1 2.81203 5.51155 2.71625 -1.02838 1.8718 -0.514429 -1.13905 0.553609 0.403542 Si
23 2 4.19199 6.89784 1.33235 1.93999 0.111416 2.39553 -0.353968 0.771867 0.143723 Ge
38 2 6.91796 4.15362 1.38934 -1.17602 2.7618 4.30607 -0.270899 -0.465656 -0.793017 Ge
49 1 5.54285 5.54883 -0.061241 0.463428 -1.07985 -1.1473 0.770638 -0.65477 0.717938 Si
51 1 8.27637 5.52461 2.76683 2.62518 2.6993 2.45554 1.26706 -0.150572 0.24157 Si
55 2 9.67978 6.94905 1.41803 -1.78039 -0.755831 0.594792 -0.344662 0.399538 -0.87837 Ge
20 1 2.8247 8.3033 -0.0880655 0.691919 1.3758 -0.961265 -2.08191 -0.540402 1.36774 Si
22 2 1.38148 9.66547 1.424 0.0166499 0.893216 2.23023 1.47457 0.927143 -1.94855 Ge
33 1 5.5152 0.021061 -0.0373103 -0.376911 0.225914 -3.5304 0.284141 -0.988536 0.56954 Si
50 1 5.52368 8.30572 2.78041 1.70073 -10.9674 -8.68868 0.291793 -0.7505 0.330243 Si
54 2 6.87597 9.69663 1.39734 -0.668975 1.10997 1.8298 -0.41826 0.353245 -0.745496 Ge
1 1 -0.00270608 0.00229422 0.0170875 2.22218 1.231 0.10635 0.924653 -0.212209 -0.65974 Si
18 1 0.0283095 8.32478 2.76375 -3.43343 -0.807879 -4.75311 -0.866188 -0.747805 1.44371 Si
5 2 1.39575 1.37356 4.1702 4.07466 -1.39115 -2.34212 0.393716 0.202899 -0.463434 Ge
9 1 0.0238795 -0.0405465 5.51307 -1.82197 -2.4715 0.620738 -0.766128 1.29855 0.873063 Si
12 1 2.82229 2.77254 5.51985 4.3566 -1.44517 2.5245 -1.03975 -0.4405 0.900575 Si
15 2 4.20232 1.41044 6.9581 -1.49395 -0.851823 -0.885299 -1.0916 -0.511335 -0.351828 Ge
37 2 6.95455 1.39258 4.17087 1.38327 -0.62965 -0.562918 -0.858631 -1.04588 -0.697226 Ge
41 1 5.51747 0.0330988 5.59431 1.08314 0.184428 3.44327 0.361565 -0.738193 -1.70409 Si
44 1 8.27699 2.74961 5.56243 0.645249 -1.1479 -3.03968 0.377917 1.40431 0.165417 Si
47 2 9.68749 1.42436 6.92303 1.98539 -0.607836 2.69429 0.849151 -0.959698 0.352322 Ge
14 2 1.38298 4.127 6.91087 -0.342839 -0.22325 -1.28111 0.369545 0.608215 0.192373 Ge
21 2 1.4188 6.89759 4.15321 -4.00651 -1.46461 -2.38235 0.0289005 0.118982 -0.945109 Ge
25 1 0.0435395 5.57073 5.54917 0.397592 3.53029 -1.2181 -0.240376 -0.7445 0.0656507 Si
8 2 4.11692 4.17269 4.1501 -2.80835 -3.48783 3.32928 1.1739 -0.22463 -0.154268 Ge
31 2 4.19134 6.97722 6.9842 -1.6414 -0.953628 -0.671196 -1.01427 -1.21513 -0.174008 Ge
46 2 6.89709 4.19249 6.92318 2.51932 -0.52501 0.742816 0.0953791 -1.25977 0.58212 Ge
53 2 6.9637 6.87127 4.16307 -0.436323 -0.403706 1.04019 -1.57258 1.18521 0.156352 Ge
57 1 5.48639 5.55289 5.55688 3.19792 1.76887 -4.71464 0.639717 0.186982 -0.234732 Si
40 2 9.67441 4.19757 4.24073 2.26891 -0.262408 -0.598306 -0.208924 -0.505391 -0.965753 Ge
63 2 9.75964 6.92778 6.92157 0.669471 -0.30833 3.91372 -1.11542 0.301784 0.533076 Ge
28 1 2.74283 8.25195 5.58162 -2.28549 -1.38787 -4.25778 1.03598 0.579451 -0.987507 Si
30 2 1.36375 9.63958 6.86358 -0.668817 3.83821 -0.676713 0.328211 1.04348 1.50889 Ge
24 2 4.11815 9.68093 4.17377 -1.06685 2.36184 -2.74419 0.295533 0.555632 0.290822 Ge
62 2 6.89618 9.70701 6.91238 0.872829 2.70658 4.09214 0.672957 -0.559808 0.91143 Ge
56 2 9.69583 9.70864 4.1791 -1.26105 0.470496 -4.11587 -0.0173929 -0.650673 -1.28331 Ge
60 1 8.32765 8.28933 5.54116 0.20594 -1.41934 1.89584 -0.172748 0.247275 0.291705 Si
13 2 1.39818 1.43159 9.68154 -3.46741 -0.0358515 0.149287 0.389437 -1.13534 0.465238 Ge
42 1 5.59189 2.68435 8.34877 0.233296 -2.33044 3.42892 -0.297403 2.48567 0.369325 Si
45 2 6.97946 1.36105 9.76803 4.40387 1.01987 -0.471472 -0.488588 0.163329 -1.13569 Ge
36 1 8.35406 2.77719 -0.0328411 2.62244 0.443481 4.77314 -0.528458 0.52515 1.18803 Si
10 1 -0.0264001 2.83389 8.35756 0.863519 -0.107504 1.91278 0.579417 -1.18632 -1.32134 Si
17 1 0.0103217 5.59948 -0.000457482 -1.68863 -2.89555 -3.68978 -0.541018 -1.05352 0.591457 Si
27 1 2.72204 5.56573 8.31445 2.47135 3.64457 1.64931 0.86148 -0.555844 -0.969334 Si
29 2 1.32328 6.92221 9.6209 -2.01944 -0.147329 0.831229 1.0653 1.1337 1.49562 Ge
16 2 4.1299 4.18262 9.68376 -1.08411 1.73583 0.82397 0.535341 -1.01995 -0.22699 Ge
61 2 6.9881 6.89448 9.6915 -4.23145 0.407858 -2.68156 -0.747538 0.639437 0.36101 Ge
48 2 9.71624 4.17902 9.70911 1.35778 -0.173128 -0.354157 -0.317066 0.802054 0.361658 Ge
59 1 8.32975 5.53398 8.30968 -0.805989 4.16009 0.794096 0.620697 0.102423 -0.646908 Si
11 1 2.80209 -0.0460395 8.26263 5.44806 0.503276 -5.66832 -1.53542 1.12473 -0.153913 Si
26 1 -0.031095 8.36721 8.32786 5.2457 0.191395 0.0259474 0.165793 -0.740706 -0.865633 Si
32 2 4.13116 9.6955 9.65031 0.827196 0.622455 1.06533 1.34006 0.352385 0.578691 Ge
58 1 5.57079 8.28987 8.38528 -4.74559 -4.23388 1.07198 0.375607 0.825962 -1.17105 Si
52 1 8.25472 8.37061 -0.0107885 3.43292 -0.249385 3.38369 1.11437 -1.35023 0.767265 Si
43 1 8.29472 0.0269403 8.3154 2.50569 -1.94549 0.64386 0.571314 -0.739191 -0.177369 Si
64 2 9.68619 9.70211 9.71842 -0.337716 1.97392 -2.30264 -0.380977 1.04231 -0.208932 Ge
ITEM: TIMESTEP
18100
ITEM: NUMBER OF ATOMS
64
ITEM: BOX BOUNDS pp pp pp
0.0000000000000000e+00 1.1085848640000000e+01
0.0000000000000000e+00 1.1085848640000000e+01
0.0000000000000000e+00 1.1085848640000000e+01
ITEM: ATOMS id type xu yu zu vx vy vz fx fy fz element
3 1 2.80472 -0.0139135 2.78344 3.4549 1.99253 3.56699 -0.661076 -0.325186 -0.855768 Si
4 1 2.78146 2.77916 -0.0628914 0.914728 0.235255 1.08716 1.11391 -0.42857 1.00829 Si
7 2 4.19169 1.36469 1.3856 0.328257 0.109803 2.13838 -0.380429 0.75493 -0.0440529 Ge
34 1 5.61442 2.74516 2.7947 2.77358 0.350429 0.116116 -1.77252 0.307561 -0.338813 Si
2 1 0.00890292 2.78761 2.80459 0.0538762 0.63872 6.25081 0.365081 -0.247847 -1.53185 Si
35 1 8.30411 0.0251015 2.77984 -0.830754 -5.1435 -7.83507 0.516503 -0.457542 0.0232948 Si
39 2 9.7026 1.39094 1.37015 -0.831792 -1.11301 -3.27943 -0.359202 0.696494 0.651914 Ge
6 2 1.43447 4.15975 1.3455 -1.49977 0.521323 2.77422 -0.89725 -0.321321 0.993606 Ge
19 1 2.72866 5.53511 2.81429 4.777 -0.94723 -4.25255 0.362605 0.125053 -0.455371 Si
23 2 4.10163 6.93005 1.45685 1.28692 -0.333249 -0.428317 1.2797 0.675631 0.374183 Ge
38 2 6.90807 4.14943 1.40251 0.613936 0.46192 -1.16241 -0.141473 0.628234 0.395206 Ge
49 1 5.48197 5.52167 0.0505053 -1.68982 0.521904 -1.92265 0.444917 0.749695 -0.152978 Si
51 1 8.28493 5.52863 2.78785 -3.85879 -2.74556 -8.07902 0.544246 0.0233156 -0.302804 Si
55 2 9.66741 6.89077 1.35552 2.85612 -1.20276 3.91619 -0.23913 0.746123 0.37986 Ge
20 1 2.75604 8.32772 0.0592846 6.16955 -1.14556 -5.83941 0.620879 -0.0698247 -1.40007 Si
22 2 1.32956 9.69475 1.37067 -0.90327 -0.426744 6.05065 0.697486 0.637045 0.855186 Ge
33 1 5.56823 -0.0134445 0.014051 0.225344 -0.548146 0.891988 -0.525704 -0.0485573 -0.477489 Si
50 1 5.58785 8.38703 2.85644 -5.20633 11.817 3.25764 0.0571069 -2.04442 -2.38462 Si
54 2 6.9733 9.70599 1.33577 0.47562 1.6801 3.51645 -0.436806 -0.192167 1.36278 Ge
1 1 -0.0217847 0.00962961 -0.0179485 -0.0882508 -1.00043 -2.27527 0.386609 0.0568045 -0.0624781 Si
18 1 -0.0390902 8.30016 2.75665 4.61618 1.35246 -3.03378 -0.460666 0.193519 -0.25045 Si
5 2 1.40017 1.37004 4.13685 -0.434211 1.52617 2.22414 0.0814011 0.187315 0.336991 Ge
9 1 0.0533882 -0.0109664 5.53491 4.23597 -0.678859 -2.55199 -0.276219 -0.575838 0.134249 Si
12 1 2.72915 2.76166 5.56074 -2.49016 3.15777 -5.26445 1.17223 0.259217 -0.474213 Si
15 2 4.16598 1.37892 6.93978 -1.36039 2.26314 0.769408 -0.849255 -0.246215 -0.018879 Ge
37 2 6.90964 1.38315 4.20045 2.34022 0.233976 -1.95038 1.2544 -0.107392 -0.21111 Ge
41 1 5.53659 -0.02569 5.51524 -2.12032 -3.08547 -0.983022 -0.134668 0.376246 1.22793 Si
44 1 8.34843 2.7696 5.55914 -1.70446 -3.28634 1.14648 -0.403755 0.134727 -0.775981 Si
47 2 9.723 1.37216 6.88045 -4.39034 0.561748 2.42583 0.154401 -0.0703739 0.705141 Ge
14 2 1.37649 4.16029 6.95949 -0.189531 -1.3935 -0.320482 -0.347668 -0.709782 -0.60274 Ge
21 2 1.34565 6.9643 4.14159 0.0746424 -0.0239261 2.87604 0.16234 -0.799952 0.712303 Ge
25 1 -0.00285404 5.52566 5.56487 1.83022 -0.100024 1.17685 0.125699 0.891891 -0.226404 Si
8 2 4.17498 4.16257 4.13588 -1.13785 1.87645 -0.0321494 -0.463943 -0.856644 0.914049 Ge
31 2 4.11805 6.94923 6.88949 4.81755 1.28142 4.32073 0.509964 -0.285277 0.503593 Ge
46 2 6.97254 4.17909 6.9073 -2.77717 3.34874 -1.21242 -0.264127 -0.163716 0.464754 Ge
53 2 6.93983 6.91044 4.19024 2.93369 -2.94436 -3.17262 -0.535528 0.399194 0.43968 Ge
57 1 5.51814 5.52499 5.58736 -2.76051 -0.236218 2.668 0.485581 0.548753 -1.12391 Si
40 2 9.71543 4.16704 4.15712 -2.03994 4.10544 0.802307 -0.462976 -0.110986 0.320395 Ge
63 2 9.70824 6.9382 6.9506 1.70551 -1.39588 -0.844409 -0.685503 -0.23164 -0.409529 Ge
28 1 2.77323 8.33495 5.50448 3.27817 -2.35947 2.72743 -0.0551463 -0.768694 -0.157867 Si
30 2 1.42434 9.63766 6.92596 -1.38121 -3.91568 2.23793 -0.8496 1.61991 0.184841 Ge
24 2 4.18441 9.68142 4.15245 -1.09742 0.63706 -0.400344 -0.827757 1.01755 0.512428 Ge
62 2 6.91607 9.71089 6.95031 -1.8085 0.461391 -0.0165149 0.538547 1.02954 -0.918941 Ge
56 2 9.70514 9.69378 4.18417 1.17571 1.40152 0.807169 -0.324081 0.417809 -0.529777 Ge
60 1 8.28687 8.34441 5.57254 0.95113 -1.76831 0.390793 0.741231 -0.80827 0.0157177 Si
13 2 1.39995 1.39729 9.69295 1.866 2.12021 -1.9139 -1.53718 0.166205 0.498731 Ge
42 1 5.55078 2.83019 8.26679 3.36944 -4.13556 -0.884297 0.757224 -1.45571 0.504869 Si
45 2 6.89228 1.40273 9.73636 0.361747 -3.91098 -0.838832 0.445829 0.538844 -1.19396 Ge
36 1 8.25323 2.80683 0.0384125 -1.27091 -2.00142 -7.22058 1.07139 -0.843054 -0.56478 Si
10 1 -0.0195036 2.74712 8.30342 1.31058 1.39626 1.35057 -0.0978265 0.603504 0.552751 Si
17 1 0.0385714 5.56873 0.0186603 2.86103 4.53317 0.315291 -0.243413 -0.414873 -1.31826 Si
27 1 2.80142 5.4858 8.27957 -1.68439 -2.24667 1.15974 0.0887562 1.42761 0.604752 Si
29 2 1.44621 6.94906 9.6547 -1.11114 -1.51246 -3.56411 -0.798822 -0.410088 0.650529 Ge
16 2 4.21152 4.1486 9.66982 -1.50282 2.29623 -0.0538322 -1.11931 0.262033 0.299582 Ge
61 2 6.85004 6.93624 9.7153 1.80571 -3.17923 -0.918163 -0.0181257 -0.618713 -1.03409 Ge
48 2 9.66255 4.16208 9.72688 -0.261359 0.409223 -1.24249 1.00082 -0.131272 0.0670135 Ge
59 1 8.31106 5.54519 8.33919 -2.27091 -2.27338 -0.421856 -0.39867 0.682562 0.0266223 Si
11 1 2.69886 0.00721434 8.37379 1.23474 -2.90929 5.57673 2.26699 -0.826987 -1.57464 Si
26 1 -0.0168387 8.32871 8.29687 -4.03099 0.670243 2.45259 0.889159 -0.528214 0.432205 Si
32 2 4.1891 9.69449 9.68827 -2.1754 -0.708693 -2.4074 -1.07982 0.303304 0.736767 Ge
58 1 5.53932 8.36291 8.24171 3.21307 -1.1685 2.20438 -0.741225 -1.53567 1.32757 Si
52 1 8.27093 8.28546 -0.0696095 -3.96872 3.23015 -3.39344 1.01377 0.163491 1.03117 Si
43 1 8.31288 0.0470465 8.29642 -2.09192 0.0251249 -1.00874 0.00425328 -0.60581 0.756276 Si
64 2 9.7052 9.68757 9.6969 -1.29795 -0.196467 -3.89861 -0.764148 0.616491 -0.613406 Ge
ITEM: TIMESTEP
18200
ITEM: NUMBER OF ATOMS
64
ITEM: BOX BOUNDS pp pp pp
0.0000000000000000e+00 1.1085848640000000e+01
0.0000000000000000e+00 1.1085848640000000e+01
0.0000000000000000e+00 1.1085848640000000e+01
ITEM: ATOMS id type xu yu zu vx vy vz fx fy fz element
3 1 2.68977 0.0430923 2.82835 1.7669 1.37291 -3.54218 1.70663 -0.627981 -0.329038 Si
4 1 2.69113 2.75711 0.081083 -1.04338 0.76852 -1.62675 0.488563 0.0627907 -1.43909 Si
7 2 4.09159 1.40685 1.40215 -0.881198 -1.95237 1.10735 0.0905757 -0.465685 0.512434 Ge
34 1 5.49654 2.82079 2.70792 3.71667 -3.13751 -1.90441 1.68331 -0.835334 -0.309457 Si
2 1 -0.0353458 2.75587 2.69896 -3.07923 0.452821 -1.11766 0.666141 0.433182 1.48369 Si
35 1 8.3437 0.0429686 2.84045 -0.251835 2.97781 3.67357 -0.840573 -1.05061 -1.96445 Si
39 2 9.72264 1.36092 1.38517 -2.27373 -1.40344 2.62953 -0.864437 -0.26622 0.0136541 Ge
6 2 1.38105 4.1789 1.41124 1.49809 -0.110484 -2.35279 -0.631136 0.182089 0.321799 Ge
19 1 2.78211 5.5608 2.81299 -2.51815 0.417586 4.26779 0.840647 -0.333634 -1.55402 Si
23 2 4.17445 6.90246 1.3356 -1.24438 -1.73356 1.34086 -1.04968 -0.49968 0.0826843 Ge
38 2 7.00185 4.1468 1.32072 1.34828 1.2062 1.05474 -0.140091 0.363314 1.2682 Ge
49 1 5.62278 5.55815 -0.0106364 -1.23288 -2.14012 0.198126 -0.915425 -0.699153 -0.927671 Si
51 1 8.36984 5.57871 2.78867 -1.97411 2.11897 7.30455 -1.38723 -0.197202 -1.30201 Si
55 2 9.75852 6.9848 1.42648 -1.07469 -2.69661 2.14944 0.559071 -1.66963 0.715244 Ge
20 1 2.73113 8.31378 0.0142343 -1.85778 2.77263 7.37881 1.56024 0.117367 -0.465084 Si
22 2 1.43688 9.7349 1.37151 0.400061 -1.0393 0.567388 -1.62771 -0.781206 1.66397 Ge
33 1 5.49883 0.0430477 0.0107765 -0.215574 2.26894 -1.40467 0.550463 -0.276668 0.29592 Si
50 1 5.52862 8.23845 2.673 4.84948 -2.95482 3.78131 -0.619895 2.84544 1.54458 Si
54 2 6.9189 9.71467 1.36159 0.194337 2.33227 -1.33421 0.635969 0.495642 1.07307 Ge
1 1 -0.000745715 -0.00922928 0.0441288 -0.843025 0.586251 3.23417 0.378223 -0.323628 -0.390277 Si
18 1 0.0395537 8.32136 2.868 -0.0925095 -0.350742 -0.144383 1.53352 0.283169 -2.26915 Si
5 2 1.31982 1.39955 4.17455 3.89144 -1.1234 -2.13256 -0.167966 0.814549 0.703795 Ge
9 1 -0.0852856 0.0278261 5.59656 0.184759 -2.84208 -0.22095 1.47936 -0.552048 -1.25208 Si
12 1 2.80739 2.7892 5.54635 2.55306 -3.20102 5.25402 -0.74416 0.291604 -0.516264 Si
15 2 4.16216 1.34209 6.88824 -0.898866 -0.625867 -0.381721 -0.235633 1.6186 0.638639 Ge
37 2 6.89113 1.4074 4.12164 -2.65812 -1.52937 -0.24207 0.134875 1.09426 0.200793 Ge
41 1 5.56946 0.0612655 5.54852 1.28835 2.59848 0.23288 0.0643356 -1.91397 -0.566959 Si
44 1 8.28078 2.80877 5.51282 1.86597 -1.04455 -0.279384 0.177366 -1.76254 0.277119 Si
47 2 9.69078 1.39793 6.93107 0.118622 -1.97274 0.367557 -1.86468 0.268682 0.410921 Ge
14 2 1.38895 4.20936 6.95847 0.561829 1.44373 1.0214 -0.147487 -0.644388 -0.810275 Ge
21 2 1.4892 6.94438 4.17865 -1.75832 1.58399 -3.80551 -1.86236 0.187995 1.18965 Ge
25 1 -0.0310005 5.54457 5.49822 0.908349 -2.48058 -1.66438 0.751133 -0.408257 -0.167943 Si
8 2 4.2154 4.17123 4.10236 0.100519 -0.633379 -0.533169 -1.25359 0.175758 1.37427 Ge
31 2 4.13883 6.89365 6.95512 -3.51712 0.401092 -0.163412 0.757474 0.877731 -0.354134 Ge
46 2 6.91395 4.07913 6.94686 2.80955 2.11456 0.667473 -0.48089 1.84202 -0.299555 Ge
53 2 6.88751 6.96387 4.09186 -1.46983 -1.97566 -0.457662 1.36613 -0.871685 0.656304 Ge
57 1 5.57379 5.54428 5.50862 -1.55508 -1.37669 1.14585 -0.225088 -0.205837 0.870445 Si
40 2 9.64812 4.10845 4.09886 1.54276 1.33672 -0.704347 1.40883 0.93401 0.677495 Ge
63 2 9.66571 6.91559 6.87683 2.57252 -0.14628 2.68687 0.718728 0.245317 -0.122602 Ge
28 1 2.76284 8.36384 5.62849 -4.62299 2.65429 0.654373 0.321462 -0.252597 -0.337839 Si
30 2 1.35745 9.78292 6.97365 1.53821 -0.95114 0.923687 -0.422949 -1.49772 -0.38079 Ge
24 2 4.13794 9.71924 4.20426 0.416362 -0.942764 -4.11996 0.69872 -0.320238 -1.28314 Ge
62 2 6.94661 9.65736 6.88165 1.67114 1.06583 5.41516 -0.353669 0.602379 0.681782 Ge
56 2 9.73538 9.69808 4.12339 -1.0521 0.509644 -2.62992 -0.502107 0.89188 1.46116 Ge
60 1 8.34664 8.3236 5.45513 -3.57617 3.3632 -3.18853 -0.934504 -0.355401 0.515402 Si
13 2 1.34947 1.34847 9.7415 -0.230834 -0.127873 -1.45756 0.693913 0.634215 -0.967716 Ge
42 1 5.46414 2.75609 8.32452 -4.56551 1.2746 -2.78468 0.387393 -0.285976 -0.235309 Si
45 2 6.87318 1.37975 9.67331 1.50878 -0.77616 2.97174 0.531083 -0.110376 0.524027 Ge
36 1 8.35029 2.69806 -0.0206508 -1.32059 2.24563 4.68012 -0.46336 0.444226 -0.664183 Si
10 1 -0.00196826 2.74914 8.29007 -2.17577 -1.83542 -0.824259 0.934903 -0.097324 0.294554 Si
17 1 -0.059464 5.47789 0.000915114 1.10515 -0.544708 1.04889 0.870913 1.11627 0.425102 Si
27 1 2.7418 5.60592 8.35396 0.404622 -2.18929 -2.06334 0.351437 -1.60527 0.6062 Si
29 2 1.35436 6.91643 9.76107 0.207209 1.52456 -2.54207 -0.404874 -0.168408 -0.455313 Ge
16 2 4.10182 4.11466 9.75284 2.50243 0.519413 -0.483871 0.300814 1.30993 -0.0902069 Ge
61 2 7.01082 6.96723 9.69997 -3.68136 0.916629 -1.02835 0.0756824 -0.405998 0.180146 Ge
48 2 9.72272 4.08925 9.65796 -1.30808 -0.15598 0.718208 -0.974051 0.552712 0.272334 Ge
59 1 8.34474 5.52048 8.26557 3.50103 -1.39249 1.08124 -0.672263 -0.397665 0.779386 Si
11 1 2.79777 0.0224391 8.2742 -4.68087 2.18124 -0.669642 -0.238143 -0.349623 2.0768 Si
26 1 0.00819874 8.24801 8.30103 0.276106 2.48512 -2.43092 -0.372865 1.28407 0.385229 Si
32 2 4.20138 9.70723 9.72705 3.69383 -0.684315 -2.45574 -1.83005 -0.0230065 -0.492702 Ge
58 1 5.5272 8.30557 8.34398 0.12265 4.4119 -4.23827 1.00535 -0.170498 -0.775025 Si
52 1 8.41076 8.31569 0.101783 -2.31773 -1.15427 -3.15966 -1.52622 0.727313 -1.86288 Si
43 1 8.29393 -0.0388738 8.35028 0.139917 3.42023 -1.44566 0.534926 0.0995462 -0.639189 Si
64 2 9.75085 9.68422 9.75751 1.36582 1.09145 -1.1374 -0.505087 -0.370604 -0.95242 Ge
ITEM: TIMESTEP
18300
ITEM: NUMBER OF ATOMS
64
ITEM: BOX BOUNDS pp pp pp
0.0000000000000000e+00 1.1085848640000000e+01
0.0000000000000000e+00 1.1085848640000000e+01
0.0000000000000000e+00 1.1085848640000000e+01
ITEM: ATOMS id type xu yu zu vx vy vz fx fy fz element
3 1 2.8166 -0.10159 2.68628 -5.94179 0.940222 6.11241 -0.16344 1.77167 -0.059783 Si
4 1 2.84268 2.78278 -0.0922684 -2.50271 -1.25082 3.91005 -0.687447 -0.152517 1.14655 Si
7 2 4.2537 1.38876 1.30705 -0.952819 -0.927059 0.440052 -1.37393 -0.402841 1.35643 Ge
34 1 5.48509 2.74501 2.89595 -5.81049 5.26987 2.85599 0.260516 -0.227129 -0.618094 Si
2 1 0.0858457 2.79707 2.83938 1.40325 -2.81601 -1.38314 -1.07144 -0.497599 -1.19507 Si
35 1 8.27088 -0.03476 2.731 1.37881 2.8054 3.42631 1.17107 0.714698 1.15206 Si
39 2 9.73981 1.43898 1.41061 0.169853 -0.279603 -0.76576 -0.472687 -0.341342 0.108775 Ge
6 2 1.41643 4.14135 1.36989 1.52101 0.980158 -0.230908 -0.361021 -0.416945 -1.24644 Ge
19 1 2.74438 5.51701 2.69246 -1.82746 -0.976554 4.70124 0.131328 0.13063 1.79501 Si
23 2 4.12681 6.92372 1.4133 0.978237 -0.36107 -0.335841 0.434932 0.821131 -0.671479 Ge
38 2 6.82549 4.14819 1.53061 1.43799 0.578028 -0.0353901 0.676307 0.053332 -2.05443 Ge
49 1 5.5015 5.54193 0.0161056 3.88373 3.50776 4.96595 0.204596 -0.222486 0.139761 Si
51 1 8.3025 5.50444 2.77206 5.70999 -1.8548 -1.24094 0.306772 0.718943 1.24642 Si
55 2 9.59792 6.91574 1.30642 1.28292 0.927253 2.43447 0.83265 0.0364337 0.839203 Ge
20 1 2.75528 8.29055 -0.0508451 -5.34892 -1.85608 -2.71395 -0.246213 0.48669 1.51178 Si
22 2 1.29842 9.7013 1.32685 0.405535 1.70916 -0.673549 1.43201 -0.876583 -0.196145 Ge
33 1 5.60802 -0.0513551 0.00196462 0.395724 0.0880434 0.74549 0.014269 0.770149 -1.3165 Si
50 1 5.52722 8.31444 2.84269 -1.35038 -2.60143 -5.12586 1.03526 -1.51287 -0.372483 Si
54 2 6.91705 9.60759 1.39997 -0.427856 1.62674 2.49777 -0.294308 0.918918 -0.0918082 Ge
1 1 -0.0139601 0.031886 -0.037081 -2.85865 1.92888 -1.61727 -0.516389 0.369713 0.39195 Si
18 1 -0.0684474 8.30099 2.69204 -4.99531 -2.51488 7.80369 -0.387474 -0.408724 0.916323 Si
5 2 1.40296 1.30506 4.10479 0.274648 -2.23499 -1.80853 1.02504 0.348893 0.0482935 Ge
9 1 0.00980465 0.0228625 5.50339 -4.01919 7.77241 2.97343 -0.465684 -0.645074 0.0214358 Si
12 1 2.69327 2.74753 5.54503 -2.52397 0.0910964 -3.3247 1.85313 -1.13383 0.540234 Si
15 2 4.24171 1.38911 7.00048 0.313616 -2.10168 -1.34902 -1.19785 0.518054 -1.24689 Ge
37 2 6.97504 1.40372 4.22854 2.28223 -1.43915 -2.34795 -0.958416 -1.34299 -0.841326 Ge
41 1 5.5313 -0.0536675 5.53913 -0.255818 2.62097 -2.78129 0.484883 2.16121 0.395332 Si
44 1 8.34428 2.77143 5.58155 -0.0405491 5.60906 0.345545 0.258789 0.310991 0.00942522 Si
47 2 9.7724 1.43425 6.92023 2.28419 -0.248698 2.86287 -0.407104 -0.742715 0.730092 Ge
14 2 1.38409 4.11454 6.95027 1.05606 1.83721 2.04805 -0.0739661 1.3728 -0.172998 Ge
21 2 1.31439 6.8601 4.09076 1.81502 -0.694378 -1.81752 0.414922 0.717764 -0.435904 Ge
25 1 -0.00994037 5.5597 5.6081 -4.86564 1.77001 2.81727 -0.376912 -0.36203 -0.190058 Si
8 2 4.07881 4.17355 4.19786 1.72856 0.431507 -1.70339 0.469519 0.228892 -0.0716381 Ge
31 2 4.17957 6.93565 6.86233 1.2238 -2.23234 1.10584 -0.756736 -0.260833 0.592618 Ge
46 2 6.94902 4.15753 6.92662 -0.186833 -2.91335 1.04065 0.274537 0.929514 0.159668 Ge
53 2 7.00799 6.93006 4.26259 0.22504 -0.321479 -3.80666 -0.96579 0.11398 -1.79034 Ge
57 1 5.57618 5.56934 5.54584 0.441406 -1.01984 -1.37965 -0.544959 -1.29784 -0.0566396 Si
40 2 9.7217 4.13566 4.19923 -4.66038 0.00385629 -3.86614 0.016294 0.744131 -0.181611 Ge
63 2 9.69265 6.98253 7.01198 -1.1362 0.210544 0.843714 0.715638 -0.854833 0.778571 Ge
28 1 2.79127 8.2447 5.40072 2.93118 1.04629 -1.39543 -0.770742 0.600669 1.28611 Si
30 2 1.39762 9.68739 6.80975 -0.430639 2.22277 2.85149 0.718951 -0.0915055 1.14932 Ge
24 2 4.19485 9.70723 4.16478 -2.68239 2.3977 1.41368 -1.13034 -0.591645 -0.877515 Ge
62 2 6.85455 9.71162 6.92452 -1.04706 -0.99785 1.36834 1.16064 -0.489517 1.71907 Ge
56 2 9.67289 9.66416 4.19931 1.82096 -1.79524 -4.58812 -0.456956 0.185385 -0.589735 Ge
60 1 8.29426 8.29823 5.69547 6.66656 -0.384253 2.3889 0.520835 1.09914 -1.9141 Si
13 2 1.39943 1.38962 9.68625 1.10555 -1.45513 0.507881 0.139777 0.12255 -0.179366 Ge
42 1 5.63827 2.83864 8.36256 2.05398 2.76811 3.18452 -1.22653 -0.825208 -1.10211 Si
45 2 7.00537 1.45547 9.68208 1.03866 -0.817877 -3.05001 0.122772 -1.33793 1.38957 Ge
36 1 8.331 2.87184 0.0536162 0.107196 -2.07856 0.218038 -0.426418 -0.567646 0.305067 Si
10 1 0.0240973 2.82404 8.36017 -0.882733 1.26394 -1.90244 -0.521241 -0.709426 -0.172298 Si
17 1 0.000384376 5.57602 0.00311939 -4.43005 -2.46173 -0.52412 0.508391 -0.352006 -0.0928698 Si
27 1 2.80474 5.52845 8.27665 -2.08169 5.49226 -2.46464 -0.557814 0.668591 -1.18413 Si
29 2 1.44245 6.89582 9.67595 0.596178 -1.0271 -0.252661 -1.14446 0.422896 -0.22198 Ge
16 2 4.15223 4.19692 9.60893 -2.71394 -0.966335 1.36373 1.19505 -0.330406 1.65913 Ge
61 2 6.8926 6.91108 9.67723 -1.56783 -0.267901 -1.15151 -0.977734 0.565513 1.2419 Ge
48 2 9.70554 4.22936 9.70592 0.864863 -1.54802 -0.877981 -0.314254 -0.270932 0.275778 Ge
59 1 8.25066 5.58765 8.36654 -0.0320139 1.52215 -3.74083 1.55864 -0.867001 -1.3758 Si
11 1 2.77012 -0.00781187 8.30119 1.1835 0.238117 -3.57137 -0.557947 0.348403 -0.967332 Si
26 1 0.0465523 8.39366 8.36286 -1.171 -5.95191 -0.265971 -0.0765355 -1.06 -0.8641 Si
32 2 4.07797 9.73213 9.70204 1.54768 0.923491 -0.0270165 2.05755 -1.02704 -0.0272915 Ge
58 1 5.50299 8.27821 8.32064 -4.96577 -0.075227 3.25431 -0.502855 1.35455 -0.119042 Si
52 1 8.25622 8.31804 -0.0593095 6.45416 -0.432274 7.43931 0.168861 -0.469209 0.207857 Si
43 1 8.35836 -0.00500544 8.2923 -1.45146 -0.734378 3.25617 -0.821567 0.928635 -0.591915 Si
64 2 9.66619 9.71619 9.70904 1.40232 1.9265 -2.51835 0.643222 0.153787 -0.0245161 Ge
ITEM: TIMESTEP
18400
ITEM: NUMBER OF ATOMS
64
ITEM: BOX BOUNDS pp pp pp
0.0000000000000000e+00 1.1085848640000000e+01
0.0000000000000000e+00 1.1085848640000000e+01
0.0000000000000000e+00 1.1085848640000000e+01
ITEM: ATOMS id type xu yu zu vx vy vz fx fy fz element
3 1 2.77639 0.0702407 2.8382 1.58322 -5.2081 -4.43749 -1.18991 -0.634423 1.3182 Si
4 1 2.72993 2.78215 0.058963 1.52367 2.50701 -4.48671 0.0241593 0.230909 -0.304014 Si
7 2 4.09628 1.41332 1.48398 1.18282 0.127774 -1.26956 1.1163 -0.177376 -2.32523 Ge
34 1 5.64638 2.75393 2.65817 -0.139047 0.370336 2.57789 -1.38703 1.00471 1.48708 Si
2 1 -0.0819507 2.78218 2.72384 -0.404162 5.81264 4.04239 0.4995 -0.326664 1.06108 Si
35 1 8.37364 -0.0323254 2.75851 -2.6799 -1.8084 -2.00017 -0.970513 1.05655 0.361947 Si
39 2 9.73988 1.32863 1.32242 0.0212596 -0.876227 0.950831 -0.80933 0.311993 0.0232929 Ge
6 2 1.35061 4.17162 1.4724 1.29224 1.88833 2.51082 0.994714 0.492389 -1.14953 Ge
19 1 2.83412 5.58054 2.76997 -1.26096 2.75185 -7.53278 -1.35786 -0.282465 0.665061 Si
23 2 4.14533 6.95234 1.40463 0.356858 -2.27901 0.211074 1.42016 -0.384823 -1.02059 Ge
38 2 6.9831 4.14485 1.27708 0.0722666 0.000184636 3.51016 -0.217367 0.404109 0.0419053 Ge
49 1 5.52401 5.54249 -0.0503796 -1.13157 -1.22035 -3.25523 0.981567 0.777698 0.842446 Si
51 1 8.26744 5.60227 2.71751 -4.16169 0.0922367 -0.176826 1.30764 -1.26927 0.340773 Si
55 2 9.75048 6.96674 1.3961 -1.40321 -0.822439 1.47621 -0.168735 -0.0952733 -0.130301 Ge
20 1 2.8496 8.33144 0.0144104 -0.915018 -0.467309 -0.783693 -2.0725 -0.523616 -0.455235 Si
22 2 1.4639 9.71791 1.43902 0.128543 2.11098 3.5609 0.6022 0.395553 -1.02668 Ge
33 1 5.45634 -0.00370817 0.00624459 -2.12896 -1.76453 4.99157 0.0341728 -0.223031 1.36297 Si
50 1 5.5236 8.36276 2.74018 -1.1586 0.411729 5.56507 0.172728 -0.0293929 -0.180844 Si
54 2 6.9577 9.71332 1.33887 -0.624724 -2.15954 0.991336 -1.10034 0.530024 0.954608 Ge
1 1 0.0799879 -0.0498349 -0.00314084 3.15363 -2.88987 1.81296 -0.867829 -0.12544 -0.0786386 Si
18 1 0.0957851 8.35152 2.757 3.55781 5.62872 -2.54718 -1.0959 -0.263843 2.0371 Si
5 2 1.29128 1.47856 4.21943 0.866792 -1.484 -0.17576 1.70378 -0.865586 -0.619092 Ge
9 1 0.0369905 -0.0797023 5.56523 -1.4382 -3.88752 2.23234 -0.623819 2.80068 1.20536 Si
12 1 2.88354 2.8174 5.52584 -3.64151 3.87846 4.31445 -2.47701 0.48678 -0.361301 Si
15 2 4.11946 1.38523 6.90556 1.21196 -1.08641 2.76262 -0.134445 -1.29286 0.206319 Ge
37 2 6.88755 1.3924 4.1466 0.654514 1.31493 -0.745162 1.14622 -1.09742 -0.688461 Ge
41 1 5.53844 0.0169409 5.58014 -0.395078 -3.53454 3.53561 -0.370856 -0.26652 -1.32582 Si
44 1 8.24777 2.74442 5.53678 -2.69688 -0.870286 -0.912186 0.427165 1.42333 -0.375936 Si
47 2 9.61434 1.37531 6.89058 -2.31469 0.917496 0.598239 1.72375 -0.878268 0.588268 Ge
14 2 1.37823 4.16253 6.94314 0.854867 -2.96137 1.44028 0.855288 -0.578481 -0.377528 Ge
21 2 1.48148 6.96491 4.22889 0.180862 -1.51063 -1.15454 -0.555276 -0.0423106 -1.00458 Ge
25 1 0.0460829 5.53032 5.4906 2.85918 -0.610561 -1.98486 -0.505468 0.00233362 0.657225 Si
8 2 4.23125 4.18661 4.07018 -1.88819 1.59362 -0.00242246 0.493256 -0.886459 0.432683 Ge
31 2 4.16144 6.92703 7.05506 2.62183 -0.161141 2.83869 0.569256 -0.388993 -0.822196 Ge
46 2 6.89781 4.18243 6.93748 -0.897672 0.0390551 -1.21504 -0.309345 -1.64621 -0.164613 Ge
53 2 6.86524 6.95146 4.0826 2.64574 -2.02512 1.40359 -0.250802 -0.540103 0.64911 Ge
57 1 5.5123 5.53718 5.56844 3.82316 7.91094 -1.00315 0.255785 1.2658 -0.544227 Si
40 2 9.69664 4.15689 4.1558 -1.35663 0.778848 -0.015739 -1.53912 0.385995 -0.666733 Ge
63 2 9.62772 6.85212 6.83199 0.552361 0.937717 1.12351 1.03461 1.35155 0.0181097 Ge
28 1 2.7793 8.32291 5.71091 -1.49711 -2.55239 -0.44428 1.0486 0.0738951 -1.84443 Si
30 2 1.38993 9.6986 6.99338 -1.64918 -1.0029 -1.27041 -0.226584 -0.0413871 0.965606 Ge
24 2 4.15752 9.68859 4.18304 2.59715 2.70975 0.572453 -0.46985 0.539035 0.964614 Ge
62 2 6.97823 9.7007 6.82472 -2.62245 0.587463 -1.05334 -0.61522 -0.375049 1.22764 Ge
56 2 9.73566 9.75539 4.22841 1.28338 0.41604 -1.01624 0.29856 -2.07335 -2.92877 Ge
60 1 8.28288 8.31426 5.39791 -7.18262 -2.78248 2.77153 0.600402 -0.581583 1.7104 Si
13 2 1.35144 1.41085 9.695 -1.50871 0.0452643 -0.564038 1.3318 -0.786598 0.927909 Ge
42 1 5.46741 2.68379 8.24164 -0.479176 1.83683 1.14334 0.987977 2.26597 1.41255 Si
45 2 6.77132 1.32137 9.69329 1.36817 -0.0662121 -4.2173 1.91251 0.438102 -0.990502 Ge
36 1 8.29831 2.68459 -0.097375 2.33117 4.02877 -0.612927 0.473326 0.400659 0.108968 Si
10 1 -0.000893664 2.71345 8.30471 1.03649 1.73281 2.06608 -0.769228 0.740971 -1.36053 Si
17 1 0.0530508 5.55569 0.0101131 -2.08678 0.101729 0.937433 -1.63604 -0.844706 -0.0224439 Si
27 1 2.74992 5.52486 8.37801 2.77578 -3.63638 5.36811 0.054042 -0.117663 -0.337404 Si
29 2 1.35162 6.92194 9.69795 2.01115 -2.02873 -1.38401 1.33024 0.979823 0.577092 Ge
16 2 4.16527 4.13189 9.71184 -2.08975 2.77192 -4.39911 -0.781471 -0.802784 -0.352016 Ge
61 2 7.04515 6.95744 9.74598 2.49682 -1.98531 -5.15096 -1.79601 -1.38807 -1.46904 Ge
48 2 9.72473 4.13231 9.63536 1.06188 1.22026 -3.18206 0.179286 -0.079951 1.38623 Ge
59 1 8.3353 5.49698 8.28272 -4.24692 0.828935 5.85595 -0.463242 0.752245 0.572316 Si
11 1 2.7958 0.00535798 8.38418 -1.31499 0.439363 1.73562 -0.648116 0.10773 -1.00795 Si
26 1 -0.0551252 8.26143 8.29008 2.62552 7.14335 2.90231 -0.369766 0.0160287 -0.0626466 Si
32 2 4.19104 9.66316 9.68973 -2.00132 0.0163564 -1.568 0.20872 0.394646 -0.0717297 Ge
58 1 5.64969 8.3291 8.31582 4.68318 -3.66984 -0.448443 -0.162081 -0.191634 0.174382 Si
52 1 8.30984 8.32404 0.0331736 -3.48782 -0.237519 -3.66349 1.27684 -0.369816 0.579341 Si
43 1 8.26135 -0.0128836 8.29789 1.51309 -3.7894 -0.741141 0.428124 -0.543689 0.89694 Si
64 2 9.6803 9.63922 9.75967 -0.858693 0.441732 -2.07189 0.44839 1.38559 -1.6885 Ge
ITEM: TIMESTEP
18500
ITEM: NUMBER OF ATOMS
64
ITEM: BOX BOUNDS pp pp pp
0.0000000000000000e+00 1.1085848640000000e+01
0.0000000000000000e+00 1.1085848640000000e+01
0.0000000000000000e+00 1.1085848640000000e+01
ITEM: ATOMS id type xu yu zu vx vy vz fx fy fz element
3 1 2.79633 -0.00750567 2.72153 0.924133 3.36991 0.683317 -0.49242 -0.89315 -1.00011 Si
4 1 2.81713 2.73551 -0.0218729 0.167598 -1.72118 3.33332 -0.617255 0.280047 -0.207781 Si
7 2 4.20188 1.37826 1.35049 -3.06969 -1.19358 4.57961 -0.361376 -0.521192 0.104289 Ge
34 1 5.48581 2.74071 2.79002 3.58211 -3.3853 -4.04 0.576035 0.566464 -0.0259999 Si
2 1 0.0685964 2.71351 2.77443 0.488452 -3.3816 -4.85246 -0.661458 1.53291 -0.276185 Si
35 1 8.24097 0.0357066 2.76194 2.2813 -3.04862 0.137692 0.633663 -0.672162 0.433848 Si
39 2 9.69338 1.43062 1.46428 1.72486 -1.90945 -0.0592127 -0.489151 -0.768485 -0.752321 Ge
6 2 1.38841 4.11473 1.34606 0.498719 -1.4109 0.78591 0.545605 0.130725 0.463884 Ge
19 1 2.73924 5.4909 2.81743 4.67624 -1.43832 1.93579 0.0143218 0.463341 -1.59613 Si
23 2 4.15453 6.91702 1.44793 -3.88037 0.350209 4.78415 0.0492399 -0.168694 -0.372466 Ge
38 2 6.87283 4.18339 1.46367 0.354155 2.32973 3.05317 0.946005 -0.309804 -0.258563 Ge
49 1 5.54073 5.55882 0.0104428 -4.87524 -0.679071 1.34726 -0.705902 -0.437737 0.413258 Si
51 1 8.3855 5.50699 2.82938 -2.01157 5.03564 -2.20756 -1.42286 0.851636 -0.658128 Si
55 2 9.64462 6.91348 1.31336 -0.479184 -1.40104 1.59372 0.874416 -0.893665 0.930343 Ge
20 1 2.78106 8.31908 0.044566 8.24332 1.91551 -0.454785 0.394362 0.0725063 -0.614923 Si
22 2 1.31572 9.67228 1.33043 -2.00676 -0.757645 1.28244 0.363827 0.565202 1.52303 Ge
33 1 5.61235 0.0227595 -0.030594 0.852128 0.541126 -7.00462 -0.926009 -0.227391 0.218692 Si
50 1 5.62621 8.31866 2.74247 -1.85276 1.63428 -4.29528 -0.922186 -0.409853 0.507493 Si
54 2 6.94709 9.69838 1.32664 3.215 1.1751 -0.393353 0.395842 0.0564651 0.286951 Ge
1 1 -0.0796615 0.0358706 0.0259982 0.207629 2.79597 -1.17227 1.19688 0.159613 0.206292 Si
18 1 -0.071925 8.25043 2.74932 -2.16483 -3.20828 -8.85119 -0.208499 1.45291 -0.663277 Si
5 2 1.40817 1.33793 4.07915 -0.81259 -0.725864 -2.02874 0.719635 0.267438 0.711749 Ge
9 1 0.0380193 0.0673811 5.47777 4.5422 -3.7056 -6.4917 -0.435589 -2.41214 -0.0827179 Si
12 1 2.71997 2.68995 5.5382 7.79787 -1.85546 -3.92869 0.357033 1.49946 0.820488 Si
15 2 4.18627 1.37941 6.97217 0.896022 0.403623 -1.31058 -0.114159 -0.0184305 -1.06673 Ge
37 2 6.86376 1.38142 4.18195 -1.06514 -0.801214 2.90308 1.31636 0.640333 -0.405007 Ge
41 1 5.53248 -0.0181746 5.50115 0.134641 -0.534167 2.1192 -0.267618 -0.718269 1.71893 Si
44 1 8.40662 2.73957 5.51397 -0.427936 -4.58374 3.85453 -1.39418 0.143557 0.494085 Si
47 2 9.80629 1.37672 6.88596 0.538227 -0.232055 0.177352 -1.66134 0.277625 0.554189 Ge
14 2 1.33801 4.20506 6.97377 -0.137422 1.26265 3.12399 0.674274 -1.82585 -1.60386 Ge
21 2 1.34503 6.92616 4.08685 -1.18846 0.168009 -3.59212 0.0619807 -0.356926 1.30612 Ge
25 1 -0.000294353 5.55138 5.56965 -0.911572 3.29413 1.50974 0.213796 0.640889 -0.541643 Si
8 2 4.10972 4.11784 4.14805 0.5778 -0.621323 -3.12024 -0.0521868 -0.688643 1.05552 Ge
31 2 4.04502 6.94334 6.80936 -2.26445 -0.893464 2.05129 1.73443 0.127293 0.805118 Ge
46 2 6.99335 4.13256 6.96107 2.80187 3.27302 2.26812 -0.143884 0.00902748 -1.10247 Ge
53 2 6.96637 6.94825 4.2102 0.0980354 -0.920408 -2.27535 -0.0495025 -1.03563 0.0757675 Ge
57 1 5.50251 5.46837 5.55882 -4.51213 -7.89055 4.09397 0.888113 1.06696 -0.332279 Si
40 2 9.78281 4.13245 4.15892 1.52088 0.0737739 -0.971989 0.134636 -0.323986 0.118042 Ge
63 2 9.74676 6.95353 6.97834 -3.35252 -2.37983 1.27139 -0.321212 -0.51873 -0.416119 Ge
28 1 2.76025 8.36377 5.40045 -0.901401 0.108951 2.79334 -1.40241 -0.714212 1.24755 Si
30 2 1.40913 9.74768 6.88592 1.78067 2.38596 -0.278697 -0.665221 -0.95556 -0.603839 Ge
24 2 4.15408 9.67041 4.08809 0.109005 -0.331735 -5.05379 1.24512 0.990088 -0.461494 Ge
62 2 6.94228 9.71081 7.01195 2.0503 2.82513 -0.0835337 -0.138233 0.414982 -1.34594 Ge
56 2 9.63365 9.69307 4.15892 -1.38671 2.32757 3.17096 1.27256 0.875683 -0.440666 Ge
60 1 8.36734 8.33016 5.61348 1.78835 2.33474 -2.37918 -1.23702 -0.0853747 0.161777 Si
13 2 1.37854 1.36335 9.69886 -1.86267 1.83624 -2.61256 -0.502296 0.454505 -0.310134 Ge
42 1 5.59775 2.78451 8.34054 0.644686 -7.2514 -3.03911 -0.00872028 -0.6136 -0.0682703 Si
45 2 6.98735 1.44043 9.76596 -2.56711 -0.442761 1.80067 0.17465 -0.402051 -1.25475 Ge
36 1 8.31397 2.80058 0.0854276 -3.46636 -2.42924 2.14066 -0.349561 0.572473 0.422228 Si
10 1 -0.0406546 2.79007 8.29657 0.686021 -2.55572 4.1331 0.753561 0.122703 1.59612 Si
17 1 0.0195982 5.52969 -0.0262579 6.35212 5.67786 0.388248 -0.196167 0.425374 0.324447 Si
27 1 2.76324 5.55041 8.23739 -0.898261 3.4783 0.0414038 0.298743 0.245599 1.99331 Si
29 2 1.42526 6.95635 9.71452 -0.831908 -1.21224 -3.40968 -0.143304 -0.662222 -0.660312 Ge
16 2 4.18203 4.13254 9.67863 1.16304 0.875634 -0.944202 -0.432245 1.19503 -0.121644 Ge
61 2 6.87678 6.94583 9.71512 -1.38583 2.78435 1.56317 0.457106 -0.335255 -1.54377 Ge
48 2 9.65275 4.16671 9.75913 0.646178 -0.353746 -2.06621 0.905167 -0.406106 -0.965485 Ge
59 1 8.34828 5.54688 8.32179 1.72581 0.504476 -3.33256 -0.904228 0.705174 0.742157 Si
11 1 2.76003 -0.00948864 8.28239 4.00684 -1.36084 5.13238 0.432096 0.453434 0.985238 Si
26 1 0.0189268 8.33348 8.32918 -2.25784 -4.46243 0.535407 0.565674 0.993445 0.408 Si
32 2 4.15357 9.74098 9.7143 1.37411 -1.08639 -2.22735 -0.203264 -0.491387 -0.0808205 Ge
58 1 5.46041 8.32216 8.28692 -3.47934 2.45142 0.893643 0.213118 -0.574819 0.130868 Si
52 1 8.31324 8.2958 -0.0579542 -2.24408 2.6408 1.98195 -0.773893 0.390847 0.867584 Si
43 1 8.38158 0.0476197 8.33615 -1.32934 4.31783 -0.216381 -0.31419 -0.148331 0.279754 Si
64 2 9.70032 9.71076 9.77455 0.0709998 -0.219394 1.90043 0.109291 -0.0540801 -2.07328 Ge
ITEM: TIMESTEP
18600
ITEM: NUMBER OF ATOMS
64
ITEM: BOX BOUNDS pp pp pp
0.0000000000000000e+00 1.1085848640000000e+01
0.0000000000000000e+00 1.1085848640000000e+01
0.0000000000000000e+00 1.1085848640000000e+01
ITEM: ATOMS id type xu yu zu vx vy vz fx fy fz element
3 1 2.74037 -0.0220107 2.80793 2.90066 1.17595 0.403285 1.1433 1.31005 0.325393 Si
4 1 2.72946 2.78811 -0.00838355 1.60829 -0.72414 -0.657772 1.03668 -0.100237 1.27325 Si
7 2 4.21276 1.39284 1.40013 1.11273 0.631234 2.27307 -1.76099 0.494504 0.757805 Ge
34 1 5.569 2.83376 2.81225 -0.382742 -1.40127 -0.73481 -0.112301 -1.48368 -1.2523 Si
2 1 -0.0370971 2.82092 2.80269 -0.158415 -1.32096 3.50088 0.115155 -0.94578 -0.309125 Si
35 1 8.40042 -0.00517322 2.76862 -2.61194 2.61056 -3.0491 -0.827736 -0.465723 -0.723005 Si
39 2 9.72484 1.40543 1.34497 1.29154 0.200808 1.0788 0.477355 -0.251503 -0.183212 Ge
6 2 1.35774 4.2007 1.44059 -1.62687 2.01156 3.02214 -0.318093 -1.00174 -1.18994 Ge
19 1 2.75355 5.56701 2.74144 -0.85447 -0.321478 0.989751 1.10507 0.39608 0.600833 Si
23 2 4.15954 6.93007 1.30345 0.676961 -1.46435 0.609151 -0.662581 0.0400674 0.85449 Ge
38 2 6.93127 4.06602 1.32657 0.23005 0.184393 -0.136632 0.679836 1.11209 0.706827 Ge
49 1 5.61513 5.51744 0.0184837 3.94957 1.87207 -5.23537 -1.0427 0.321932 -1.07836 Si
51 1 8.2923 5.49751 2.71907 3.89545 -4.56046 2.30755 -0.425688 1.06553 0.310789 Si
55 2 9.6852 6.98993 1.40159 -0.162066 1.69919 1.14474 1.49715 -1.14442 1.51107 Ge
20 1 2.67405 8.28727 -0.0727062 -4.44679 -1.06634 4.56615 1.94045 0.736839 0.787876 Si
22 2 1.42414 9.7409 1.36991 0.692079 0.979331 0.892519 -1.29236 -1.41381 0.43807 Ge
33 1 5.52944 -0.0298735 0.0454156 1.04749 1.71814 4.65992 0.564953 0.598163 -0.92728 Si
50 1 5.47513 8.28275 2.81565 3.90518 1.83253 2.65444 -0.57348 1.07332 -0.467245 Si
54 2 6.87626 9.66304 1.43803 -1.44518 0.416169 -1.29054 1.34445 0.401441 0.147099 Ge
1 1 0.0456798 -0.00569665 -0.0663294 -0.973614 -3.83698 0.351226 -1.02979 0.0180787 0.467556 Si
18 1 0.0716893 8.34054 2.90442 5.08147 -0.316129 5.58782 0.885252 -1.44186 -2.74635 Si
5 2 1.31855 1.39465 4.1966 -1.71183 -0.680363 -0.700145 0.358365 -0.259409 0.0548597 Ge
9 1 -0.0630755 -0.0197301 5.63029 -0.363448 6.06319 3.44992 0.965093 0.558931 -0.734964 Si
12 1 2.75779 2.80171 5.54399 -3.89246 -2.56022 2.3825 1.2295 -0.711687 -0.823427 Si
15 2 4.17115 1.38148 6.94594 0.0587852 -0.370468 2.2609 0.0193084 1.12729 -1.01149 Ge
37 2 7.00207 1.41786 4.09042 -3.26931 0.138303 -2.92223 -0.684437 -0.220121 1.42215 Ge
41 1 5.57478 0.0364911 5.52055 0.655133 1.3542 -5.47353 0.0165451 0.122095 0.192206 Si
44 1 8.26469 2.84331 5.56589 5.07007 -0.637291 -5.28479 0.607409 -1.69331 0.346487 Si
47 2 9.67144 1.42947 6.99997 1.3434 -0.191553 -0.184238 -0.43575 -0.191388 -0.962711 Ge
14 2 1.40662 4.16964 6.86765 -1.73219 2.81548 4.33497 -0.236161 0.298507 1.19688 Ge
21 2 1.45409 6.87465 4.27813 3.40923 -0.774374 -0.80073 -0.993308 0.458799 -1.82864 Ge
25 1 -0.0278206 5.50424 5.52171 2.26014 -5.83532 -2.18493 -0.104879 0.42192 0.58178 Si
8 2 4.19001 4.21504 4.13227 -0.59325 2.43832 -4.00226 -0.736496 0.105346 0.812687 Ge
31 2 4.22519 6.92944 6.97575 -2.08747 -0.451912 2.71589 -0.0613938 -0.455565 -0.307056 Ge
46 2 6.86492 4.14059 6.97049 -0.912019 -0.951769 2.3839 0.825092 1.75333 -1.00028 Ge
53 2 6.8956 6.96045 4.12561 1.68801 0.65073 -2.34686 1.94493 -0.614785 -0.781673 Ge
57 1 5.62153 5.61465 5.49686 0.0280446 2.17258 -1.75285 -1.79719 -1.4699 1.54418 Si
40 2 9.64023 4.15391 4.16727 -1.93054 1.7945 -1.94724 0.307447 0.580293 -0.331669 Ge
63 2 9.67618 6.91683 6.89969 1.02794 -0.520622 -0.470091 0.0984084 -0.333576 -0.0874327 Ge
28 1 2.79196 8.25401 5.61698 3.88903 3.10046 -2.19535 0.371846 0.56348 0.408302 Si
30 2 1.37544 9.63648 6.92412 -2.09256 1.28653 2.98906 0.286855 1.23278 -0.236193 Ge
24 2 4.11968 9.70424 4.282 -2.2272 1.82494 1.46153 0.190343 -0.316308 -1.92525 Ge
62 2 6.87836 9.64569 6.88369 -1.10266 -1.84092 2.82273 1.10838 0.924031 -0.0742651 Ge
56 2 9.78416 9.67932 4.14893 0.282818 -0.329238 -1.32997 -2.06462 0.930537 1.5527 Ge
60 1 8.31401 8.30181 5.50925 0.665725 -0.282659 -3.67876 0.1139 0.306795 -0.326594 Si
13 2 1.45208 1.36232 9.68018 0.256624 -1.21486 -0.364006 -1.04577 0.738598 -0.572342 Ge
42 1 5.51375 2.82487 8.33515 -3.31168 3.37035 0.778949 -0.69029 -1.43278 0.180066 Si
45 2 6.89302 1.36616 9.64483 -0.144565 -2.25081 -0.698904 -0.0416871 -0.187869 1.0829 Ge
36 1 8.33014 2.75302 -0.0789448 3.6485 -1.07496 -5.10453 -0.169202 -0.589884 0.0853797 Si
10 1 0.0723687 2.79727 8.29687 -1.29042 0.297051 -6.30552 -0.64394 -0.177792 0.585466 Si
17 1 -0.0763409 5.50395 0.0214439 -1.59345 -4.82478 -1.57276 1.09413 1.53083 -0.0594258 Si
27 1 2.79698 5.52366 8.30669 0.044022 -5.0822 -4.42166 -0.506244 0.507314 -0.410799 Si
29 2 1.35188 6.88746 9.66602 1.39117 -0.886373 0.421584 -0.945591 -0.46296 -0.209877 Ge
16 2 4.1264 4.17976 9.71517 -2.26083 -0.570574 -1.39718 0.761123 -0.0752181 0.570922 Ge
61 2 7.02185 6.92335 9.73572 3.51357 -0.352439 -0.244328 -1.19089 0.288984 0.125979 Ge
48 2 9.70078 4.17933 9.66373 -1.9201 0.433975 -1.36459 0.0401128 -0.859652 -0.284806 Ge
59 1 8.29072 5.5459 8.30907 1.44894 -4.57315 1.70128 0.539396 -0.287623 -0.412935 Si
11 1 2.75645 0.0131743 8.23912 -3.02381 0.314507 -4.1428 0.53203 -1.0702 1.08349 Si
26 1 -0.00211737 8.30377 8.24545 -0.985823 1.73929 -0.6768 -0.784771 -0.753785 1.358 Si
32 2 4.13872 9.73701 9.70726 0.482978 1.27738 0.0593837 -0.26723 -1.00198 -0.719036 Ge
58 1 5.59985 8.3126 8.3436 4.98977 0.149494 -0.723356 -0.831226 -0.0480053 0.910525 Si
52 1 8.35548 8.32151 0.0509825 1.6672 -2.42296 -6.24579 -1.12135 0.9495 -0.815359 Si
43 1 8.25493 -0.0462617 8.28007 2.01213 -3.28958 -1.77459 0.0958645 0.511901 -0.162159 Si
64 2 9.66082 9.68701 9.64171 -1.85911 0.394147 2.51092 1.10242 -0.016806 0.679179 Ge
ITEM: TIMESTEP
18700
ITEM: NUMBER OF ATOMS
64
ITEM: BOX BOUNDS pp pp pp
0.0000000000000000e+00 1.1085848640000000e+01
0.0000000000000000e+00 1.1085848640000000e+01
0.0000000000000000e+00 1.1085848640000000e+01
ITEM: ATOMS id type xu yu zu vx vy vz fx fy fz element
3 1 2.78629 0.0259923 2.78267 -4.05136 -3.25453 -0.218242 0.49398 -0.526425 -0.240015 Si
4 1 2.78883 2.78129 0.00028242 -3.20568 0.307064 -4.74833 -0.539489 -0.34894 -1.52284 Si
7 2 4.13387 1.40606 1.32808 4.53628 -2.55742 -0.307759 0.437714 -0.932384 0.727266 Ge
34 1 5.48844 2.76787 2.73006 -0.569441 6.08795 5.22429 0.728932 0.222079 0.807793 Si
2 1 0.0140256 2.76791 2.71493 2.98462 0.655434 -1.40946 0.462286 -0.194548 0.670422 Si
35 1 8.25299 -0.000176169 2.80316 5.08339 0.244492 3.25162 0.44125 0.294972 -0.192369 Si
39 2 9.65113 1.38147 1.43592 -1.10968 1.75816 2.34502 -0.148152 0.0145691 -0.0430226 Ge
6 2 1.44124 4.13525 1.36884 2.61808 2.04771 2.10374 -0.619242 1.35058 0.403314 Ge
19 1 2.77717 5.57996 2.8104 -2.67233 -1.79316 0.241063 -0.193503 -0.782782 0.0544759 Si
23 2 4.2 6.92205 1.44773 -0.614034 -0.94092 0.946035 -0.655176 -0.183662 -1.24382 Ge
38 2 6.91853 4.19424 1.43268 -2.88771 -2.09955 4.25786 -0.209722 0.149396 -0.400315 Ge
49 1 5.50497 5.53965 -0.00652055 3.45284 -3.78537 6.59048 1.15146 -0.0333682 0.234957 Si
51 1 8.32046 5.60788 2.80421 1.80244 -2.37967 -2.71641 0.653383 -1.68561 -0.0459478 Si
55 2 9.70772 6.89094 1.33658 -6.48143 0.390055 -1.80133 -1.14852 0.445012 -0.330405 Ge
20 1 2.86664 8.33922 0.0425645 -2.47746 -0.522536 -6.47283 -1.70274 -0.466074 0.485828 Si
22 2 1.39361 9.70609 1.42816 0.636383 3.67717 -0.238608 0.339678 0.0841626 -0.945631 Ge
33 1 5.54719 0.0188485 -0.045326 0.956712 -4.56423 -3.69808 0.183953 -0.441141 0.505403 Si
50 1 5.57895 8.30371 2.72125 1.43521 -6.1298 -1.75444 1.12442 0.138438 1.03856 Si
54 2 6.98576 9.69866 1.34958 -1.64098 -2.80426 -0.186776 -1.81418 0.65263 0.247879 Ge
1 1 -0.0614863 -0.00572609 0.0889798 1.31245 3.20211 -2.68962 0.906375 -0.191525 -0.719095 Si
18 1 -0.0593494 8.292 2.65755 -6.69212 -0.102906 5.50369 0.252745 1.12171 2.4435 Si
5 2 1.39754 1.40069 4.13794 -0.333583 -3.21802 -2.16563 -0.0377684 0.27592 0.195596 Ge
9 1 0.0279999 -0.0223375 5.50019 -2.37302 -2.9426 -0.480075 -0.439656 0.429242 0.347344 Si
12 1 2.79003 2.78889 5.54943 -1.14352 0.601086 -1.43603 -0.64244 -0.978296 0.72992 Si
15 2 4.12535 1.33729 6.98683 1.11871 -3.1896 3.52407 -0.0637678 0.700993 -0.554299 Ge
37 2 6.88063 1.39793 4.16135 0.28398 0.855324 -1.48887 -0.68929 -0.358236 -0.075185 Ge
41 1 5.51509 -0.00851312 5.60164 1.49925 0.496862 0.841923 0.305593 0.0506149 -1.39639 Si
44 1 8.31032 2.73694 5.50415 -3.51429 5.60767 2.42023 0.479981 0.667893 -0.415796 Si
47 2 9.65687 1.33202 6.87201 2.23848 0.281729 4.23758 1.07858 0.594508 0.732824 Ge
14 2 1.37009 4.152 6.94713 0.660107 1.55318 0.434889 -0.0435796 0.583198 0.340806 Ge
21 2 1.34377 7.00105 4.13737 -1.17131 -2.36033 1.00285 0.0331373 -0.550755 -0.374855 Ge
25 1 0.010348 5.61015 5.55149 -1.69625 2.53413 1.13392 0.231236 -1.31219 -0.209768 Si
8 2 4.16333 4.13572 4.18821 -0.68908 0.448053 -2.03733 -0.313981 0.726261 -0.820778 Ge
31 2 4.09496 6.938 6.86902 -1.4406 0.270274 0.270245 -0.107566 -0.232339 1.10579 Ge
46 2 6.95129 4.14883 6.85841 0.928764 -0.529666 2.974 -0.355653 -0.198645 1.36581 Ge
53 2 6.92826 6.92448 4.1972 -0.785635 0.511931 1.48767 -0.500582 0.531615 0.0629478 Ge
57 1 5.5007 5.5334 5.57205 5.15869 -0.719794 -4.16927 0.704873 0.132618 -0.874006 Si
40 2 9.77722 4.13167 4.14238 0.420854 0.289613 0.0747839 -1.35983 1.06485 0.232739 Ge
63 2 9.72829 6.94117 6.9552 -1.24788 0.0932906 3.87403 0.0858172 0.501082 0.373958 Ge
28 1 2.73161 8.34329 5.52654 -2.60805 -3.67502 -2.51723 0.945164 0.222916 -0.796068 Si
30 2 1.44521 9.74826 6.92206 2.27874 -0.485623 -3.37262 -1.30161 -0.863639 0.810058 Ge
24 2 4.21723 9.65727 4.11586 -0.457952 0.79457 1.77147 -1.09058 0.997482 0.828082 Ge
62 2 6.96517 9.74359 6.91756 -2.6004 0.136198 1.14812 -1.01466 -1.05804 1.80489 Ge
56 2 9.64386 9.71753 4.15764 2.33761 -1.12553 -0.874513 0.927302 -1.29161 -0.456778 Ge
60 1 8.31408 8.30371 5.60394 3.27569 -0.888488 4.96514 0.219207 0.34798 -1.00906 Si
13 2 1.30628 1.36378 9.73387 -0.661914 -1.34079 -1.15523 0.892207 0.256265 0.400295 Ge
42 1 5.56582 2.7194 8.28859 6.43406 2.31667 -1.29858 -0.0808526 1.39585 -0.671626 Si
45 2 6.91883 1.43367 9.6906 0.426103 2.01796 -1.59787 0.928456 -0.819566 0.720854 Ge
36 1 8.29171 2.78364 0.0654692 -1.74636 2.02962 3.28549 0.078492 0.277458 -0.896241 Si
10 1 -0.0728229 2.74841 8.32877 2.6939 -0.858911 -0.442721 0.925316 -0.627164 -1.25727 Si
17 1 0.0323832 5.55239 -0.0173374 -2.17304 -2.43552 0.987428 -0.0818063 -1.25425 0.163158 Si
27 1 2.75551 5.59548 8.36195 1.8723 2.78411 -1.0361 0.357436 -1.3059 -0.880625 Si
29 2 1.40665 6.9594 9.75842 3.28991 -1.91389 -3.00816 0.783894 0.295141 0.181745 Ge
16 2 4.20993 4.13015 9.67184 -0.223151 3.08341 -3.63296 -1.22739 0.339209 0.00890252 Ge
61 2 6.88307 6.90834 9.63601 -0.31707 0.475074 -0.919088 0.219718 0.367622 1.18651 Ge
48 2 9.70756 4.12454 9.69634 -0.059217 2.12445 -1.25239 -1.04917 1.2334 0.681197 Ge
59 1 8.31489 5.56648 8.2847 0.610884 2.75714 -4.34739 0.184353 -1.27688 0.164684 Si
11 1 2.77771 -0.0303697 8.39608 0.463617 0.633476 -2.95845 -1.01754 0.970709 -0.678124 Si
26 1 0.054159 8.31222 8.36957 4.66397 -1.85117 -6.47134 0.102133 0.531761 -1.39422 Si
32 2 4.1487 9.68599 9.69286 0.578284 2.44948 -0.0512795 1.0813 -0.00167828 0.475469 Ge
58 1 5.4696 8.27411 8.29106 -3.88393 1.68653 -2.95933 1.24885 1.28548 -0.939568 Si
52 1 8.2827 8.31865 -0.0133372 3.69417 -1.44375 5.91388 0.972037 -1.25191 -1.07238 Si
43 1 8.34681 0.0221035 8.36445 -2.02592 1.8803 -0.127471 -0.389618 -0.650232 -0.448007 Si
64 2 9.75145 9.67274 9.72121 -2.16787 0.670199 -1.87937 -1.12319 0.56417 0.371535 Ge
ITEM: TIMESTEP
18800
ITEM: NUMBER OF ATOMS
64
ITEM: BOX BOUNDS pp pp pp
0.0000000000000000e+00 1.1085848640000000e+01
0.0000000000000000e+00 1.1085848640000000e+01
0.0000000000000000e+00 1.1085848640000000e+01
ITEM: ATOMS id type xu yu zu vx vy vz fx fy fz element
3 1 2.74729 -0.0392484 2.72825 0.852317 0.915605 0.950892 -1.33864 -0.131934 0.0616716 Si
4 1 2.76409 2.7661 0.0176429 4.661 -0.309314 6.54276 0.291263 -0.0340236 0.491645 Si
7 2 4.11198 1.3959 1.44875 -1.67147 1.79403 2.30545 1.07675 -0.0685481 -0.84363 Ge
34 1 5.6397 2.71155 2.77926 -1.32491 -4.54226 -7.08475 -0.884583 0.66474 0.290943 Si
2 1 -0.0445193 2.75871 2.80673 -5.15487 1.61001 -0.59697 0.164264 -0.148761 -0.751594 Si
35 1 8.33864 -0.00112513 2.75061 -3.58618 -0.89629 -0.538393 0.897633 0.644943 0.645392 Si
39 2 9.77435 1.34027 1.3545 1.29408 -2.28597 -1.3332 -1.16363 0.884094 0.0993853 Ge
6 2 1.30116 4.09745 1.35909 -0.386931 -0.609145 3.32811 1.25423 0.951596 0.5961 Ge
19 1 2.78103 5.49255 2.71244 1.00915 4.21643 -0.773369 -0.683584 -0.332076 0.441772 Si
23 2 4.08983 6.95157 1.37752 -0.882895 -1.19866 2.29903 0.894174 0.434516 0.406769 Ge
38 2 6.92703 4.17034 1.35767 2.32863 0.00929008 1.26069 -0.494207 -0.234732 0.00168805 Ge
49 1 5.46818 5.57878 0.00833105 -2.2037 3.17448 -5.38036 1.07028 -0.453056 0.543426 Si
51 1 8.27119 5.53847 2.76069 -1.37926 4.40789 2.8526 1.33495 0.00803784 0.0974861 Si
55 2 9.768 6.93105 1.4143 2.72747 0.448422 2.80973 -2.20142 0.833718 -0.0954218 Ge
20 1 2.7357 8.3091 -0.0218694 4.43282 -0.42669 1.39952 -0.15425 -0.249443 -1.22214 Si
22 2 1.31422 9.6291 1.30697 0.209729 0.442059 2.65689 1.64934 1.78794 0.825028 Ge
33 1 5.51553 0.0116372 0.0543994 -2.14675 5.70711 3.89584 -0.26056 -0.332901 -0.553319 Si
50 1 5.48957 8.38208 2.80519 -5.53842 3.27773 -2.40473 0.988888 -2.02409 -1.63033 Si
54 2 6.94528 9.75094 1.44857 2.95244 2.37635 -0.417444 -1.06705 -1.0079 -1.08267 Ge
1 1 0.0755486 0.0257027 -0.0694397 -2.64529 -3.13013 2.14207 -0.45518 -0.243659 -0.0958244 Si
18 1 0.0368297 8.33235 2.77346 6.01885 -2.09883 -8.83999 -1.00864 -0.481027 0.675783 Si
5 2 1.37652 1.40062 4.12544 -2.50566 0.00528868 -0.957267 0.563737 -0.774031 0.403558 Ge
9 1 0.0193733 0.00706917 5.53648 1.46809 0.795415 0.999023 -0.102235 -0.0195754 0.198795 Si
12 1 2.78095 2.77014 5.52236 1.25178 4.49329 -1.2994 -0.135817 0.448632 -0.671849 Si
15 2 4.20373 1.45 6.86748 0.742175 -2.73242 1.86082 -0.766886 -1.69337 0.936198 Ge
37 2 7.01373 1.34707 4.21268 -0.589569 1.20557 -1.77249 -0.878286 -0.0786927 -0.635278 Ge
41 1 5.52468 -0.0483201 5.50167 -1.4589 -1.83759 1.81012 0.50303 0.614247 0.465263 Si
44 1 8.3336 2.74808 5.61102 2.64771 -3.44468 -2.01618 -0.513634 1.02564 -0.395274 Si
47 2 9.7436 1.42651 6.92063 -1.78478 -2.29082 -0.919112 0.42118 -0.859872 1.46541 Ge
14 2 1.38353 4.14014 6.91249 0.174367 2.11112 2.37851 0.361338 0.119007 0.315879 Ge
21 2 1.41276 6.89467 4.11441 2.7986 1.30277 0.42654 0.0273175 0.126077 0.775706 Ge
25 1 -0.00231572 5.51663 5.53528 0.73224 0.381305 -2.23351 0.126715 0.327483 -0.378975 Si
8 2 4.20221 4.13742 4.12586 3.70357 -0.220768 -3.79328 -0.263743 -0.320999 0.0914509 Ge
31 2 4.20016 6.92354 6.91123 -1.98363 -0.912369 2.30448 -0.848962 0.425271 1.60005 Ge
46 2 6.933 4.17765 6.98337 -0.758715 -0.163265 0.66558 -0.271747 -0.773812 0.245248 Ge
53 2 6.89113 6.91331 4.12911 0.224305 -1.79557 -3.29957 -0.841202 0.25115 0.595038 Ge
57 1 5.51402 5.51263 5.59267 -3.23823 3.59304 3.75817 1.24653 0.187712 -1.4332 Si
40 2 9.66888 4.12686 4.18416 0.412555 -0.767545 -3.33695 -0.39075 0.601232 -0.248479 Ge
63 2 9.67479 6.91045 6.88753 -1.7708 -2.45499 -3.15138 -0.951578 0.382783 0.83812 Ge
28 1 2.78998 8.31285 5.54424 -0.546317 0.110047 2.74157 -0.682822 -0.587131 -0.119928 Si
30 2 1.36612 9.67704 6.96422 2.04723 3.53177 1.63215 0.207983 0.619628 -0.374366 Ge
24 2 4.1127 9.67437 4.10219 -0.720381 -1.08937 -0.843415 -0.287934 1.14324 1.52798 Ge
62 2 6.96525 9.71922 6.93638 2.89968 2.37379 -2.63825 -0.76946 -0.163191 -0.529847 Ge
56 2 9.68731 9.72323 4.15919 -0.395314 2.44792 0.839796 0.717067 -0.394101 -0.452527 Ge
60 1 8.26386 8.33617 5.47565 -3.15396 -2.06431 -1.5236 0.793878 -0.738918 1.00847 Si
13 2 1.51085 1.41212 9.65245 -1.3659 -2.04043 -1.80886 -1.99155 0.0643462 1.21096 Ge
42 1 5.50383 2.78145 8.35572 -3.69117 -4.36314 3.00538 1.56206 -0.38617 -0.21329 Si
45 2 6.93791 1.34867 9.7296 -3.69589 -0.78143 -1.06118 -0.683748 0.865923 -0.303084 Ge
36 1 8.32296 2.77215 -0.00268943 2.97669 -1.78545 -0.863072 0.489726 -0.418994 0.379357 Si
10 1 0.0560681 2.7953 8.37724 -3.12976 3.54617 1.01862 -0.839881 0.0630128 -0.950721 Si
17 1 0.0296485 5.61249 0.0292753 -0.675374 2.07586 -2.28912 -0.699916 -1.41504 -0.704288 Si
27 1 2.7709 5.4996 8.32698 -1.96764 1.19791 2.8258 0.0777303 0.963529 -0.377981 Si
29 2 1.31185 6.94761 9.64725 -1.60668 -1.00738 -0.378922 1.35788 -0.0104461 0.342156 Ge
16 2 4.15289 4.12374 9.75251 0.309963 -0.66328 -0.647445 -0.600159 0.860822 -0.47879 Ge
61 2 6.93586 6.94954 9.79069 2.33777 0.574841 -0.597713 -0.983515 -0.107788 -1.16478 Ge
48 2 9.70398 4.19861 9.74583 0.957498 -2.89396 -2.50396 0.732143 -0.430815 0.192506 Ge
59 1 8.28392 5.5386 8.41415 -1.84992 3.81071 3.90171 0.610001 0.901053 -1.44057 Si
11 1 2.77952 0.0389273 8.31424 2.08711 -1.75318 0.653713 1.10247 -0.531511 -2.13279 Si
26 1 -0.107349 8.35545 8.3372 -3.04457 1.07413 6.19877 0.930169 -0.897996 -1.17061 Si
32 2 4.12531 9.70926 9.65557 -1.08325 0.932896 -2.11916 0.744565 0.173055 1.46579 Ge
58 1 5.59708 8.3496 8.34295 1.70379 -8.6347 3.03246 -0.553934 -0.851684 -0.481624 Si
52 1 8.28766 8.35174 -0.00112341 -2.98518 4.31025 -0.416227 1.3269 -0.0677272 1.88171 Si
43 1 8.32427 0.0135558 8.31229 3.89635 -0.895457 2.04863 0.500339 0.533958 -0.200775 Si
64 2 9.68133 9.7364 9.71819 1.26201 -0.488254 1.58463 -0.255033 0.356625 0.0172231 Ge
ITEM: TIMESTEP
18900
ITEM: NUMBER OF ATOMS
64
ITEM: BOX BOUNDS pp pp pp
0.0000000000000000e+00 1.1085848640000000e+01
0.0000000000000000e+00 1.1085848640000000e+01
0.0000000000000000e+00 1.1085848640000000e+01
ITEM: ATOMS id type xu yu zu vx vy vz fx fy fz element
3 1 2.81614 0.0817099 2.80618 2.036 0.0710667 -2.71657 0.613551 -0.862846 0.118798 Si
4 1 2.73497 2.81237 -0.0190155 -5.16602 1.57555 -5.7507 0.697809 -0.545371 -0.0285106 Si
7 2 4.17167 1.41776 1.32082 0.83216 -0.124256 3.02852 0.063118 0.19628 0.80628 Ge
34 1 5.46971 2.85117 2.82356 3.88451 2.57778 4.11889 0.532715 -0.55077 -1.43699 Si
2 1 0.0550856 2.78156 2.7733 2.4462 0.031104 1.8226 -0.622403 0.648804 0.394561 Si
35 1 8.30548 0.0101182 2.75988 -1.11342 -1.57444 -2.20851 -0.93567 -1.02399 -0.22567 Si
39 2 9.66685 1.4099 1.45482 2.89943 -0.942634 2.40836 0.682753 0.0372902 -1.56795 Ge
6 2 1.42007 4.20839 1.36429 -1.76031 -1.27345 -0.388708 -0.440574 -0.821213 1.07955 Ge
19 1 2.76727 5.56504 2.81754 1.54528 -1.65602 -2.31658 0.476528 1.02626 -1.25516 Si
23 2 4.26958 6.92529 1.37112 -0.641223 -0.731845 2.96657 -1.75327 -0.44059 0.793799 Ge
38 2 6.90326 4.16274 1.32169 -2.10898 1.03341 2.28859 1.01407 -0.760979 1.83396 Ge
49 1 5.5916 5.51048 -0.027904 -5.28647 -1.86841 2.71633 -0.901255 0.61601 -1.09039 Si
51 1 8.34504 5.53753 2.7665 -5.84768 0.904521 -4.49785 -1.05571 0.411054 -0.300134 Si
55 2 9.69004 6.93899 1.34333 0.931269 -2.35114 -1.62708 1.379 -0.764264 1.43084 Ge
20 1 2.75603 8.32984 0.0680842 0.934197 2.30021 2.68401 1.35204 -0.473827 -0.136266 Si
22 2 1.45006 9.74054 1.45673 -4.02396 -1.45494 -0.689037 -1.52596 -0.430894 0.514272 Ge
33 1 5.56253 -0.0418034 -0.0516332 1.07894 -3.49441 -3.4875 0.281132 0.866504 0.794394 Si
50 1 5.64423 8.24575 2.79844 2.80662 4.20159 6.7576 -2.31865 1.758 0.29563 Si
54 2 6.90733 9.61564 1.38745 2.98909 -0.860015 -0.589382 1.53866 1.30237 -0.834491 Ge
1 1 -0.0341738 -0.0350311 0.06758 3.36557 4.25938 1.44258 -0.0453622 0.362751 -0.266097 Si
18 1 -0.0197791 8.32856 2.85185 -3.62589 3.94037 0.807552 1.0429 -0.584335 -2.68849 Si
5 2 1.4087 1.41251 4.20465 -0.280512 -1.53393 -3.30505 -0.599475 -0.618202 -0.0996764 Ge
9 1 -0.0265475 -0.0090037 5.57563 0.733925 -4.09002 -3.7082 -0.00183389 -0.090715 -0.824037 Si
12 1 2.77258 2.73656 5.60479 0.421271 -2.6607 2.63886 -0.405311 1.18827 -0.549518 Si
15 2 4.08649 1.38685 6.98823 1.09694 2.06055 1.95434 1.36287 -0.00241525 -0.416299 Ge
37 2 6.90105 1.38873 4.10611 -0.826915 -0.477203 0.292388 -0.124113 0.96586 0.404913 Ge
41 1 5.56617 0.108407 5.59592 -1.73317 -0.957093 0.607184 -0.490604 -1.7547 -0.0427622 Si
44 1 8.24991 2.8069 5.48343 -3.79942 -1.39906 3.27667 1.00368 -1.13758 -0.101299 Si
47 2 9.60919 1.38554 6.90308 1.01505 1.19403 -2.6196 0.00350436 -0.333159 -0.721862 Ge
14 2 1.36307 4.11756 6.92488 -2.77963 -0.0750677 4.20366 0.2274 0.352574 0.560367 Ge
21 2 1.38165 6.95274 4.18942 0.278317 -0.925553 -3.0707 0.272942 -0.0633047 0.497854 Ge
25 1 0.0149257 5.53517 5.56097 -0.268836 3.15167 2.94069 -0.100606 0.36793 0.0542851 Si
8 2 4.08458 4.22568 4.23784 -0.790955 1.59999 -1.88493 0.518251 -1.294 -0.608567 Ge
31 2 4.19313 6.93787 6.93486 -0.655181 -0.782362 -3.07882 -0.322444 -0.084464 -0.34921 Ge
46 2 6.91169 4.15115 6.83755 1.66883 1.10591 -0.406229 -0.222285 0.294247 0.371985 Ge
53 2 6.94439 6.96337 4.19486 3.98128 -1.15986 0.554621 2.03224 -1.34282 -0.371551 Ge
57 1 5.56819 5.55959 5.48224 -3.51922 -4.30042 1.77715 -0.722127 0.565514 1.53247 Si
40 2 9.70767 4.17501 4.17998 1.65635 0.0127305 0.470374 0.436397 -0.415368 -0.787057 Ge
63 2 9.75585 6.93475 6.98282 2.60546 -1.10959 1.54222 -0.24338 -0.331085 -1.84198 Ge
28 1 2.77856 8.33994 5.59558 -0.759538 1.79651 0.456564 0.436031 -0.264045 -0.809569 Si
30 2 1.36319 9.66099 6.96088 0.0757601 -1.21392 0.140289 0.35299 1.02676 -0.722479 Ge
24 2 4.22515 9.7295 4.21644 0.955328 0.467115 -3.47351 -0.205108 -0.160238 -0.847587 Ge
62 2 6.88253 9.6512 6.93947 -0.0277764 0.375174 2.831 0.624991 1.4847 -0.917106 Ge
56 2 9.69222 9.69007 4.09753 -1.88799 1.42175 -0.0704924 -0.41467 1.211 2.26099 Ge
60 1 8.36218 8.32897 5.57556 -0.576875 3.33567 -1.172 -0.366193 -0.252688 -0.0995594 Si
13 2 1.33342 1.38412 9.75876 1.82362 -0.565068 -1.98333 -0.0975315 -0.49827 -1.20041 Ge
42 1 5.54886 2.79445 8.25001 -0.911623 2.39823 -1.78026 -0.471607 -0.270471 0.790754 Si
45 2 6.94187 1.37524 9.60938 3.33643 -2.16197 -1.85601 -0.901115 -0.0125642 0.922902 Ge
36 1 8.29884 2.74657 -0.0553445 -5.32229 3.48372 1.42685 0.453979 0.50355 0.329457 Si
10 1 -0.0623268 2.7091 8.25585 2.43546 -2.64182 6.81866 0.69138 0.766671 1.32787 Si
17 1 -0.0110959 5.48235 -0.00750019 4.86806 5.68613 4.18796 0.144859 1.72289 0.00110861 Si
27 1 2.77436 5.5584 8.29337 1.10873 -2.12288 2.62328 -0.149705 -0.459286 0.498995 Si
29 2 1.4148 6.9194 9.76838 2.85815 -1.74386 -2.00884 -0.192222 -0.407069 -0.704985 Ge
16 2 4.15393 4.15044 9.68512 0.427782 0.134743 -3.83563 0.232357 0.298918 -0.407505 Ge
61 2 6.95263 6.84735 9.60242 1.5565 -2.07922 -0.735197 0.102644 0.972837 0.379026 Ge
48 2 9.70858 4.18498 9.65005 -1.13512 3.08181 -1.13897 -0.430758 -1.81519 -0.102384 Ge
59 1 8.35636 5.47514 8.18514 -0.925293 -5.98599 -0.0562584 -0.745338 0.749945 1.33893 Si
11 1 2.73432 -0.0254428 8.31241 -3.45502 0.971893 10.4224 -0.273601 0.0790296 1.69176 Si
26 1 0.0753451 8.26433 8.30506 -0.636028 2.88939 1.55372 -0.974454 0.41859 1.72222 Si
32 2 4.14967 9.68321 9.73469 -2.44038 0.602493 -2.30457 -1.04369 0.312899 -0.552911 Ge
58 1 5.50872 8.36368 8.32166 -2.29316 9.3098 1.06794 0.556604 -1.96973 0.485234 Si
52 1 8.34007 8.2467 -0.0295817 -3.27344 -2.74595 -3.97341 -1.23298 0.749235 -0.992471 Si
43 1 8.26076 -0.0311785 8.27082 -4.29196 0.323186 0.347756 0.930214 -0.443935 0.174759 Si
64 2 9.70059 9.67013 9.65358 -1.9073 1.62775 1.238 0.272393 0.0236296 0.492953 Ge
ITEM: TIMESTEP
19000
ITEM: NUMBER OF ATOMS
64
ITEM: BOX BOUNDS pp pp pp
0.0000000000000000e+00 1.1085848640000000e+01
0.0000000000000000e+00 1.1085848640000000e+01
0.0000000000000000e+00 1.1085848640000000e+01
ITEM: ATOMS id type xu yu zu vx vy vz fx fy fz element
3 1 2.72108 -0.0914145 2.80523 -0.498527 3.3074 1.66736 0.309955 1.56881 -1.45032 Si
4 1 2.83226 2.70514 0.00726084 3.02322 0.227347 6.40974 -1.19213 1.20456 -0.0422565 Si
7 2 4.12114 1.31464 1.34124 -0.624315 0.133843 0.166003 0.133422 -0.322076 2.35398 Ge
34 1 5.53436 2.68367 2.74294 -4.80258 -3.592 2.1332 0.287163 0.371958 0.714218 Si
2 1 -0.000451592 2.7528 2.74029 -1.12094 -1.27359 -0.414188 0.266825 0.0743349 -0.165185 Si
35 1 8.33372 0.00169915 2.84565 1.89923 4.09394 1.62571 -0.0805217 -0.219876 -0.978095 Si
39 2 9.63677 1.37787 1.40246 0.876545 -2.20636 2.33381 1.7651 -0.660685 -0.120047 Ge
6 2 1.43507 4.13906 1.37052 0.62701 2.64316 -0.107912 -0.829568 -0.306364 -0.230231 Ge
19 1 2.74963 5.52995 2.79948 -2.50765 -0.590084 6.38398 0.54234 -0.210131 -0.0788005 Si
23 2 4.10939 6.92244 1.35759 0.573695 -0.821621 -2.82681 -0.414734 -0.723325 -0.263369 Ge
38 2 6.92029 4.16687 1.44847 -0.88538 0.458754 -0.32639 0.73761 -0.324866 -0.180298 Ge
49 1 5.58293 5.56684 0.045823 4.90054 2.36563 0.0889526 -1.08796 -0.372243 0.353263 Si
51 1 8.37425 5.51664 2.82752 5.23015 -1.9819 6.8125 -1.72226 0.9082 -0.433448 Si
55 2 9.69022 6.93402 1.3858 -3.27785 2.2949 0.437684 -0.179821 -1.01478 -0.274079 Ge
20 1 2.77048 8.28634 -0.0787148 -6.90057 0.464948 0.489396 -0.244823 1.19576 0.711954 Si
22 2 1.36518 9.69153 1.34468 3.86248 1.6978 -1.24354 -0.254818 -0.556973 -0.602651 Ge
33 1 5.56816 0.0305469 0.0528024 -2.37198 1.39903 2.85563 -0.201201 -0.75815 -1.23654 Si
50 1 5.43732 8.3142 2.67812 0.408829 -6.1221 -4.76462 1.50099 0.0761295 1.21716 Si
54 2 6.91007 9.76732 1.45902 -1.94319 -2.39296 4.21028 0.51408 -0.886879 -0.571236 Ge
1 1 -0.0302491 0.0220598 -0.0761506 -2.98267 -4.4144 -1.07208 0.489551 0.0240245 1.29966 Si
18 1 -0.00938543 8.26044 2.72084 0.859777 -0.561213 6.64624 0.113687 1.32239 0.467964 Si
5 2 1.38884 1.39636 4.12967 -1.18693 -0.439255 -1.14816 -0.671672 -0.473561 -0.310373 Ge
9 1 -0.0151499 0.0875745 5.54585 -1.0834 5.18712 7.87849 0.436995 -1.82351 -0.0828513 Si
12 1 2.72708 2.77529 5.47133 1.22698 -3.21331 1.36985 1.65778 -0.981033 0.969606 Si
15 2 4.18144 1.35742 6.86508 0.413444 -2.44906 1.74199 0.496215 1.29272 -0.347303 Ge
37 2 7.01038 1.37824 4.18885 2.47307 -1.13657 -1.08743 -1.31984 0.262109 0.111575 Ge
41 1 5.55517 -0.0801962 5.45734 1.35437 6.01194 -1.25675 0.00744497 1.11382 0.870058 Si
44 1 8.40826 2.76621 5.57926 -0.196529 4.26021 0.752886 -1.42956 -0.155422 0.936787 Si
47 2 9.74095 1.39 7.02429 -1.0535 0.0197459 4.46889 0.458408 1.05834 -1.27066 Ge
14 2 1.44395 4.19503 6.81886 2.56397 1.747 -0.993246 -0.956688 -0.103681 1.51647 Ge
21 2 1.30769 6.90939 4.15009 0.219653 -1.71155 -1.31603 0.775672 -0.4402 -0.320351 Ge
25 1 -0.0476656 5.52821 5.55258 -0.855361 -5.73666 -0.202975 -0.186202 0.640732 0.0340609 Si
8 2 4.17668 4.08562 4.1703 2.69902 2.50281 -1.93404 0.297792 1.26344 -0.748682 Ge
31 2 4.16397 6.92869 6.87692 2.03598 -1.82563 3.82002 -0.352601 -0.763104 -0.245952 Ge
46 2 6.95994 4.15065 7.00347 -0.470847 1.08837 2.27705 0.688985 0.568031 -0.672378 Ge
53 2 6.8322 6.94217 4.12823 -4.85626 1.27605 -0.878146 1.89584 0.102705 -0.0314715 Ge
57 1 5.58947 5.5261 5.5636 1.92208 1.19961 -1.97215 -1.04054 -0.909732 -0.20613 Si
40 2 9.72232 4.10537 4.15953 -2.61315 0.447348 0.195662 0.562797 0.477938 0.171848 Ge
63 2 9.64761 6.95213 6.97572 -4.00078 -1.26197 1.26878 0.838214 -0.79499 -0.796221 Ge
28 1 2.79573 8.27487 5.42056 2.32274 -0.358674 2.77773 -1.42843 0.24034 2.35701 Si
30 2 1.43096 9.73865 6.90312 1.91359 0.728076 0.915041 -0.521981 -0.959749 -1.20878 Ge
24 2 4.11644 9.64227 4.10653 -1.23352 -0.14797 2.61867 0.895806 0.449798 -0.22943 Ge
62 2 6.93851 9.74321 6.95021 0.725031 -0.60003 -0.586465 0.308721 -1.13441 -0.189776 Ge
56 2 9.7151 9.67481 4.13676 2.05866 -2.18652 -3.57057 0.436491 -0.0208889 1.15346 Ge
60 1 8.31359 8.29488 5.57469 -1.1791 0.76843 0.235168 -0.995953 0.783207 -1.14194 Si
13 2 1.43689 1.39506 9.69014 1.22298 -0.658351 -1.6106 -0.356794 0.134869 -0.999227 Ge
42 1 5.56208 2.78065 8.3594 -1.16046 0.484397 1.05138 -1.10482 -0.23834 -0.615472 Si
45 2 6.90321 1.43623 9.76131 -1.90266 0.110746 -4.05395 1.77107 -0.841572 -0.302308 Ge
36 1 8.3458 2.78753 0.0662831 1.30006 -3.77347 -1.82457 -1.53927 0.427874 -0.613206 Si
10 1 0.0740674 2.84657 8.28445 -2.29201 0.167817 -7.68636 -0.183057 -0.389243 0.88036 Si
17 1 -0.0347002 5.50902 -0.012458 -3.85946 -5.7025 -1.63062 1.03287 0.928749 0.839941 Si
27 1 2.77471 5.5478 8.27695 -1.07631 2.73822 -3.88192 0.106827 0.228642 1.12468 Si
29 2 1.30497 6.96767 9.6833 -1.90224 -1.75564 -0.97126 1.14233 -1.7121 -0.632428 Ge
16 2 4.17782 4.15733 9.7913 -0.617872 0.405372 0.0370301 -0.0198562 0.515244 -1.77167 Ge
61 2 6.84668 7.00855 9.76659 1.57966 0.241811 0.529237 2.21868 -0.431413 0.370522 Ge
48 2 9.69534 4.15571 9.73991 3.48091 3.62731 -2.44242 -0.302859 0.25915 -1.35943 Ge
59 1 8.27429 5.65309 8.39571 -0.0372135 2.70438 -0.563968 0.0785646 -1.75725 0.360259 Si
11 1 2.82016 0.0309734 8.24256 1.72456 1.27112 -11.8954 -0.135767 -0.519844 1.4277 Si
26 1 -0.00935558 8.31509 8.26838 0.243827 -2.75923 -3.4246 0.575759 0.823487 -0.317018 Si
32 2 4.20858 9.73155 9.68458 0.499974 0.653286 -2.40189 -0.0876825 -0.812499 -0.717019 Ge
58 1 5.55869 8.22141 8.26014 1.46499 -1.44651 -0.0218613 -0.695809 3.12977 0.585197 Si
52 1 8.34503 8.38885 0.0534701 3.65517 1.80315 3.63583 -1.13451 -0.171847 -0.675907 Si
43 1 8.37842 0.0239949 8.34292 -1.164 1.10486 -0.874193 -2.04828 0.15673 0.629728 Si
64 2 9.73847 9.68475 9.64259 -0.270259 0.277352 -1.90157 -0.623987 0.186862 0.975075 Ge
ITEM: TIMESTEP
19100
ITEM: NUMBER OF ATOMS
64
ITEM: BOX BOUNDS pp pp pp
0.0000000000000000e+00 1.1085848640000000e+01
0.0000000000000000e+00 1.1085848640000000e+01
0.0000000000000000e+00 1.1085848640000000e+01
ITEM: ATOMS id type xu yu zu vx vy vz fx fy fz element
3 1 2.78214 0.036832 2.70722 -3.21943 -5.63535 4.65766 -0.00236843 -0.248583 2.25119 Si
4 1 2.71935 2.81678 0.00667687 -1.70536 -3.4636 -6.29124 0.71062 -0.908743 0.40829 Si
7 2 4.15016 1.44047 1.40197 -0.804078 -0.935954 -2.20179 0.781814 0.240999 -1.24929 Ge
34 1 5.60395 2.85231 2.7469 -0.0969789 3.85137 -0.589246 -1.22904 -0.676344 0.284831 Si
2 1 -0.0253737 2.78788 2.80107 2.77023 0.159559 -0.534559 -0.0592913 -0.902751 0.344929 Si
35 1 8.31192 -0.0287762 2.68107 -0.843179 -0.932721 3.52454 -0.131834 1.55688 1.06897 Si
39 2 9.71423 1.39575 1.36767 -3.38511 -0.0357787 3.29142 -0.0159716 0.105257 0.160323 Ge
6 2 1.31043 4.11806 1.40196 2.58751 0.823028 1.45809 1.14832 1.33409 -0.432449 Ge
19 1 2.79913 5.53009 2.67964 -0.381577 -0.219062 -0.401349 -1.03064 0.126845 2.00663 Si
23 2 4.21432 6.93425 1.4276 2.99194 -0.312946 2.83818 0.346416 0.419055 -1.10815 Ge
38 2 6.97055 4.15897 1.27373 -2.07766 2.40105 2.49278 -0.863278 0.208263 0.674157 Ge
49 1 5.50787 5.5113 -0.0467908 1.53951 -1.14941 0.802206 1.05069 0.857353 0.657071 Si
51 1 8.24997 5.5807 2.68615 3.09341 -1.65413 -2.28336 2.06236 -1.17169 1.07145 Si
55 2 9.77847 6.92553 1.43073 1.67393 0.127889 -2.48352 -1.55441 0.960042 -1.14607 Ge
20 1 2.82222 8.3057 -0.000907734 3.63405 -1.85209 -0.495637 -1.30599 -0.131325 1.09471 Si
22 2 1.37613 9.68109 1.44801 0.369651 2.50373 4.39055 1.78364 0.36807 -1.92256 Ge
33 1 5.52483 -0.00333024 -0.0353555 1.60158 -0.0669707 0.801849 -0.421618 0.745511 1.32345 Si
50 1 5.60551 8.35357 2.83579 -0.948619 2.03935 -0.363945 -0.783592 -0.236987 -1.26323 Si
54 2 6.91081 9.7339 1.34931 1.52539 1.9516 -0.720899 -0.115379 -1.40875 -0.216497 Ge
1 1 0.059319 -0.000422298 0.058578 -0.470731 3.01137 -0.900774 -1.08171 -0.145227 -1.17947 Si
18 1 0.056471 8.34564 2.78097 -2.59542 -0.826486 -0.736736 -1.16111 -0.694979 1.79116 Si
5 2 1.41969 1.42093 4.19825 1.32099 0.365451 -1.93567 -0.172884 -0.767904 -1.02989 Ge
9 1 0.0387104 -0.122563 5.47368 -2.52131 2.36625 -4.38517 -0.452578 3.19846 1.68025 Si
12 1 2.80804 2.82696 5.55673 -5.64288 3.37317 -2.78508 -1.57457 -0.662921 0.367957 Si
15 2 4.10783 1.43002 6.93756 -1.95449 -3.85156 2.8419 0.400407 -1.7897 0.69317 Ge
37 2 6.91191 1.36948 4.11498 -1.0297 0.168468 -3.40472 0.0542234 -0.434683 -0.0237761 Ge
41 1 5.54708 0.00505021 5.61901 0.551117 -3.50256 -1.48313 -0.498788 0.479658 -1.33428 Si
44 1 8.26884 2.74969 5.49698 2.60972 -1.28376 -4.06693 0.375329 0.809568 -0.172486 Si
47 2 9.66829 1.39389 6.83863 -1.24753 -2.26226 0.729151 1.24144 -1.33965 1.11488 Ge
14 2 1.3116 4.10207 6.94543 -1.78529 1.51844 0.279071 1.33066 1.39988 0.187683 Ge
21 2 1.46708 6.9513 4.19469 -0.785483 1.4449 0.531437 -0.509545 -0.368343 -2.00634 Ge
25 1 0.0601902 5.5749 5.47996 -0.169581 2.0959 1.0119 -0.254546 -1.25606 0.919647 Si
8 2 4.11501 4.18439 4.17344 -1.82336 -1.21916 0.16581 1.46724 0.291223 -1.36346 Ge
31 2 4.14968 6.98112 6.95033 -2.02632 0.365085 -1.46623 -0.121675 -1.13127 0.88358 Ge
46 2 6.91344 4.15253 6.89629 0.389038 -2.37976 -0.363814 -0.0775637 -0.430655 0.0803143 Ge
53 2 6.94687 6.90996 4.13186 -0.55587 -0.152018 -1.61316 -0.519947 0.140158 0.442723 Ge
57 1 5.51919 5.56402 5.52579 5.05917 2.05855 -1.30493 0.0592234 0.339257 0.432058 Si
40 2 9.69689 4.17964 4.16529 2.7112 -1.13572 -2.54301 -1.15038 0.607519 -0.937647 Ge
63 2 9.81244 6.90793 6.89433 1.53216 -0.365809 3.1848 -2.00095 0.405064 0.316986 Ge
28 1 2.69095 8.32469 5.6377 0.953893 0.644514 -7.64412 2.32473 0.66305 -1.28808 Si
30 2 1.31127 9.6452 6.9884 0.834405 3.68035 2.83819 1.26898 1.48773 -0.119474 Ge
24 2 4.17215 9.71704 4.16465 0.544277 0.989696 -2.5901 -1.1275 0.141568 1.05255 Ge
62 2 6.92048 9.68893 6.9628 -0.959659 1.96234 3.26706 0.875328 -0.438557 -0.774496 Ge
56 2 9.67031 9.76637 4.13424 -1.76186 1.96838 -3.55663 0.193985 -2.48483 -1.14435 Ge
60 1 8.32666 8.28569 5.48382 4.664 -2.03461 3.94737 0.387418 0.542313 1.54692 Si
13 2 1.40439 1.4026 9.70731 -1.03707 -1.75493 2.39204 -0.415743 -0.739521 0.568762 Ge
42 1 5.55435 2.7207 8.29513 2.91881 2.47192 -0.0996391 0.0917728 0.823344 1.07248 Si
45 2 6.96336 1.32183 9.72649 -0.554475 -0.603736 -1.93436 -0.775603 0.94615 -1.31519 Ge
36 1 8.32825 2.75317 -0.0555977 3.02217 1.55024 2.85438 -0.0294836 -0.636424 0.877597 Si
10 1 -0.0422317 2.74935 8.37365 1.36402 -1.69406 0.373661 -0.343673 -0.681887 -1.57688 Si
17 1 0.0299657 5.57856 0.0127509 -3.02267 -4.45222 -0.649422 -1.28389 -1.35205 -0.508347 Si
27 1 2.75773 5.50761 8.38325 0.08145 -2.82927 0.110077 -0.414346 0.632039 -1.76869 Si
29 2 1.35377 6.95434 9.69735 0.775084 0.89361 3.7413 1.30106 -0.0914395 0.569367 Ge
16 2 4.14673 4.13507 9.72701 -0.546449 0.0493758 0.966772 0.109002 -0.716618 -0.942509 Ge
61 2 6.95943 6.85637 9.65761 -1.87846 -0.749563 -2.92006 -0.687748 0.265724 -0.123989 Ge
48 2 9.6553 4.12912 9.70006 -1.35693 -0.354445 -1.08112 1.88963 0.843612 0.688219 Ge
59 1 8.37207 5.46158 8.28054 0.435803 1.66074 -2.91348 -0.510459 1.5178 -0.917142 Si
11 1 2.75959 -0.0626432 8.38053 -1.27088 1.54412 3.35936 -0.558813 1.46518 -1.73954 Si
26 1 -0.00974469 8.34126 8.34524 1.26852 -1.23675 0.357789 -0.938845 -1.06787 0.202764 Si
32 2 4.13964 9.70683 9.7277 0.318955 2.08336 1.75022 0.772782 -0.463877 -0.0663203 Ge
58 1 5.55737 8.35479 8.36379 -0.626548 -5.09317 -2.9131 -0.229816 -1.12194 -0.336142 Si
52 1 8.26597 8.26874 -0.0263424 3.31263 -2.42182 1.77234 1.43881 0.25698 0.945273 Si
43 1 8.31679 -0.012716 8.30805 5.47112 -1.86975 -1.92437 0.431703 0.236679 -0.478432 Si
64 2 9.678 9.70684 9.7131 -0.0617353 -1.23173 -0.922 0.508007 0.0862684 0.704816 Ge
ITEM: TIMESTEP
19200
ITEM: NUMBER OF ATOMS
64
ITEM: BOX BOUNDS pp pp pp
0.0000000000000000e+00 1.1085848640000000e+01
0.0000000000000000e+00 1.1085848640000000e+01
0.0000000000000000e+00 1.1085848640000000e+01
ITEM: ATOMS id type xu yu zu vx vy vz fx fy fz element
3 1 2.82878 0.0266928 2.78623 1.00113 2.21672 -9.87256 -1.74209 -1.00586 -0.466302 Si
4 1 2.83867 2.77314 0.00652232 1.03505 3.35014 4.49769 -0.872607 0.0419171 -0.888468 Si
7 2 4.18419 1.37729 1.35514 -1.4542 -0.240845 4.14881 0.201175 -0.608739 0.297378 Ge
34 1 5.53988 2.7045 2.77205 4.44682 -2.06094 -1.33975 0.386932 1.42938 0.876573 Si
2 1 -0.0055739 2.76613 2.76197 -2.58435 2.96626 1.13762 0.0959309 0.779477 0.225168 Si
35 1 8.3053 0.0144171 2.75858 2.25094 -4.09539 -5.00442 0.663133 -0.529631 1.14739 Si
39 2 9.67034 1.40851 1.38297 1.67553 -1.18837 0.942543 0.00794739 -0.26457 -0.422859 Ge
6 2 1.42813 4.15901 1.35602 -4.02939 -2.36667 0.119717 -0.174236 0.395344 0.919506 Ge
19 1 2.76021 5.59222 2.82317 1.97175 -1.58573 -7.81601 -0.0921053 -1.1647 -0.878051 Si
23 2 4.14863 6.93884 1.41653 -1.95251 -1.04691 2.00964 -0.0913518 0.0228476 -0.196268 Ge
38 2 6.91242 4.15861 1.39116 0.236972 -0.415408 -1.60173 -0.770534 0.02548 0.491375 Ge
49 1 5.51641 5.56541 0.0086716 -2.37271 -1.29672 -2.3728 0.0863624 -0.698981 0.262566 Si
51 1 8.31836 5.5116 2.77906 -5.31023 2.21214 -1.90041 -0.476543 0.183483 0.286902 Si
55 2 9.66835 6.87633 1.38796 1.05313 -1.13315 4.74476 0.00500343 0.895416 -1.21541 Ge
20 1 2.77709 8.32742 0.0386484 1.41802 -1.30539 -5.94335 -0.0267115 -0.435753 -1.52858 Si
22 2 1.34921 9.67105 1.364 -3.0878 -0.881509 0.83192 0.434148 1.31751 0.890762 Ge
33 1 5.56879 -0.0207413 -0.020783 1.07889 -0.981203 -2.4569 -0.307874 -0.265386 0.131603 Si
50 1 5.54083 8.32344 2.75772 0.861017 -0.175602 2.33782 0.750235 -0.816518 0.823963 Si
54 2 6.95214 9.67951 1.41142 -0.461155 2.15164 3.23546 -0.269483 0.410389 -1.15449 Ge
1 1 -0.0428156 -0.00063843 -0.0322385 3.23244 -1.30222 0.664435 0.822374 0.47033 0.47386 Si
18 1 -0.0475375 8.26745 2.7319 4.92915 -0.646331 -4.69879 0.0226541 0.872986 0.623249 Si
5 2 1.36545 1.39085 4.1813 0.0316624 -0.810181 -0.0064466 0.691738 -0.190957 -0.729242 Ge
9 1 0.0417935 0.03479 5.60444 4.36053 -10.075 -2.91642 -0.746867 -1.46682 -0.712886 Si
12 1 2.75944 2.73311 5.56054 5.98722 1.67828 -0.711985 -0.0206619 1.1995 -0.606207 Si
15 2 4.14124 1.41751 6.92581 -0.629077 2.8228 -0.34608 0.389208 -1.18493 0.242812 Ge
37 2 6.96142 1.36497 4.22486 3.49159 -1.83246 0.208047 -0.605468 0.307839 -1.24601 Ge
41 1 5.49894 -0.00641669 5.51061 0.938208 -1.21504 3.70048 0.625413 0.154919 1.17637 Si
44 1 8.32664 2.78346 5.58014 -0.179787 -0.23885 3.28197 -0.0357552 0.202189 -0.499656 Si
47 2 9.68262 1.38737 6.93958 -0.62104 2.5588 1.0901 0.130238 -0.0195912 0.480116 Ge
14 2 1.41084 4.14503 6.92696 -1.96795 -1.53702 -0.0414323 -0.376972 -0.0332904 0.214677 Ge
21 2 1.32125 6.93415 4.14187 1.31275 -2.08529 1.60385 0.853715 0.149588 1.22857 Ge
25 1 -0.0125177 5.53348 5.60732 0.931676 0.543073 -4.28934 0.0886206 0.547987 -0.716624 Si
8 2 4.14215 4.17031 4.18975 -0.434678 0.967767 -0.819557 -0.240521 -1.26628 -0.79384 Ge
31 2 4.19522 6.92644 6.88821 1.75908 1.86424 0.0725417 -0.515395 0.485323 0.64846 Ge
46 2 6.94361 4.21031 6.89616 0.678186 3.69276 3.64742 -0.525357 -1.12083 1.08214 Ge
53 2 6.9482 6.90695 4.18448 -1.74508 -1.43396 -1.72414 -0.898005 0.274536 -0.0890218 Ge
57 1 5.48322 5.5161 5.5767 -2.32037 -2.71416 -0.0467231 1.8865 0.636454 -1.30453 Si
40 2 9.69593 4.18367 4.19196 -0.550821 0.569742 3.07752 0.445175 -0.943538 -0.321643 Ge
63 2 9.68863 6.93972 6.98189 2.19417 -2.4569 -0.26427 -0.32503 -0.133267 -0.773821 Ge
28 1 2.8537 8.29845 5.51014 -7.0508 -4.6815 6.70972 -2.10913 -0.556483 0.045873 Si
30 2 1.43126 9.64168 6.92462 -0.937687 -3.35898 0.366387 -0.40263 0.550702 0.130626 Ge
24 2 4.17266 9.66563 4.1583 -0.81669 -0.664995 -2.25319 0.150367 0.935345 -0.894315 Ge
62 2 6.91235 9.71184 6.91353 -0.248952 1.80404 2.09642 -0.646608 0.294808 0.441367 Ge
56 2 9.71116 9.68299 4.19006 -0.333149 4.68418 0.547516 0.152806 0.931539 -0.462197 Ge
60 1 8.30502 8.34324 5.5864 -2.21283 -1.84253 -5.01277 0.356808 -0.911756 -0.474577 Si
13 2 1.38253 1.4128 9.69003 5.4743 1.9474 -4.52716 0.122239 -0.331924 0.573616 Ge
42 1 5.5538 2.77706 8.30053 1.46546 -5.36027 -2.61036 0.556543 0.318584 -0.641466 Si
45 2 6.91132 1.42124 9.71189 0.852585 -2.87381 1.54478 -0.0950827 -0.749887 -0.416295 Ge
36 1 8.24061 2.78484 0.01694 -0.0996558 -0.0858656 -3.17853 1.60999 0.304504 -0.222431 Si
10 1 -0.0126208 2.7706 8.30405 0.808748 4.78133 3.16813 -0.0139023 0.631008 0.486991 Si
17 1 0.0602933 5.59612 -0.018725 5.9316 6.65255 1.105 -0.635259 -0.953748 0.129993 Si
27 1 2.81029 5.57292 8.24225 0.976571 -0.080444 2.35066 -0.0279516 -0.856154 1.16643 Si
29 2 1.40812 6.9507 9.63387 -3.99537 -0.668765 -5.9261 0.806485 -0.115106 1.18926 Ge
16 2 4.20779 4.14072 9.67141 0.440011 1.4015 1.93926 -1.0411 1.06182 0.116476 Ge
61 2 6.86786 6.91051 9.69206 0.988195 -0.953936 1.93874 0.653665 0.794657 -0.000990397 Ge
48 2 9.70121 4.18162 9.73789 -1.36042 2.1757 -0.292724 -0.330419 -0.107766 -0.549548 Ge
59 1 8.28163 5.57343 8.32084 1.77833 -1.9882 4.75547 0.497062 -0.580999 0.516999 Si
11 1 2.75558 0.0077793 8.31388 3.07994 -5.2679 -1.51339 0.357269 -0.156872 -0.245476 Si
26 1 -0.0141334 8.28405 8.32572 -0.226958 3.49371 0.204783 0.882993 0.846883 -0.868761 Si
32 2 4.16176 9.67585 9.65263 -1.63396 2.61925 -3.63748 -0.349531 0.665263 1.22246 Ge
58 1 5.52721 8.30888 8.29848 2.94713 1.89211 2.17564 0.470962 -0.12301 -0.496112 Si
52 1 8.30161 8.32457 -0.0635305 -5.24848 1.09399 -2.41629 0.371787 -0.622221 0.900222 Si
43 1 8.27083 0.0132783 8.32032 -0.96849 1.51097 2.39921 0.627646 -0.00113441 -0.134198 Si
64 2 9.73443 9.70428 9.64442 -2.76631 2.33803 -2.82126 -1.43795 0.078688 0.506522 Ge
ITEM: TIMESTEP
19300
ITEM: NUMBER OF ATOMS
64
ITEM: BOX BOUNDS pp pp pp
0.0000000000000000e+00 1.1085848640000000e+01
0.0000000000000000e+00 1.1085848640000000e+01
0.0000000000000000e+00 1.1085848640000000e+01
ITEM: ATOMS id type xu yu zu vx vy vz fx fy fz element
3 1 2.71726 -0.0334783 2.80294 8.51239 2.62603 6.12057 1.62512 0.788815 -0.783616 Si
4 1 2.71308 2.74552 -0.0277785 2.50649 -1.30317 -2.75167 0.624735 0.529354 1.05209 Si
7 2 4.11996 1.3727 1.34497 -0.416966 1.47785 -1.95284 -0.68108 0.661437 1.85895 Ge
34 1 5.51584 2.79666 2.78699 -0.720662 -2.07259 -4.15455 0.910745 -1.0146 -1.39487 Si
2 1 0.00429992 2.74057 2.73108 1.53605 -4.31456 -3.31717 -0.130416 0.289048 0.152413 Si
35 1 8.32837 0.0257387 2.83385 -3.99148 2.15161 -2.99976 -0.458878 -0.958501 -1.60558 Si
39 2 9.69613 1.33425 1.37376 -3.74145 -0.360211 3.22067 0.44344 0.48082 0.505676 Ge
6 2 1.39817 4.16889 1.39974 2.46683 1.40913 0.372287 -0.757211 -0.925267 -0.412839 Ge
19 1 2.78175 5.49231 2.80979 1.51859 6.00095 5.40408 0.67551 1.08327 -1.45983 Si
23 2 4.14313 6.90217 1.29496 3.34571 -1.20768 2.92157 -0.785355 -0.0308686 1.67642 Ge
38 2 6.98436 4.17113 1.40793 0.230483 2.49289 0.118989 -0.359568 -0.40535 0.231964 Ge
49 1 5.59713 5.54898 0.0232661 -0.143298 1.43213 -2.27056 -0.375569 -0.404077 -1.0594 Si
51 1 8.31533 5.56183 2.84298 1.74321 -0.561285 -1.4499 -0.130598 0.456946 -1.50229 Si
55 2 9.69587 6.9718 1.39972 0.221906 -2.61756 0.365187 0.454399 -0.97658 1.52249 Ge
20 1 2.72404 8.33571 -0.0305868 4.05794 2.0505 8.24109 1.28866 -0.646812 -0.044073 Si
22 2 1.43591 9.70464 1.35558 1.08191 -0.47247 3.84548 -1.70392 7.21793e-05 1.12129 Ge
33 1 5.49419 0.0282647 0.0267487 0.762665 -0.502389 -1.16815 1.34095 -0.283686 -0.87253 Si
50 1 5.50665 8.25644 2.73442 -1.5555 2.69396 -3.23601 -0.928162 1.21601 0.0497963 Si
54 2 6.86229 9.73748 1.43289 1.13152 0.978423 1.99362 1.19894 -0.0217184 0.0694516 Ge
1 1 0.0234083 0.00016016 0.011888 -1.93887 -0.299405 -0.820231 -0.0756263 -0.645246 0.000886972 Si
18 1 0.0169725 8.37569 2.83143 -1.60878 -3.05077 -2.37391 1.31422 -1.90626 -2.95086 Si
5 2 1.38747 1.40504 4.14127 -0.416307 1.20119 0.354137 -0.654981 -0.492439 0.627499 Ge
9 1 -0.0588284 0.0430638 5.54942 1.84496 7.21298 3.24974 1.06905 -0.879112 -1.07913 Si
12 1 2.81087 2.73603 5.52815 -0.53214 -4.35296 1.3852 0.404872 0.339202 -0.197635 Si
15 2 4.23096 1.35249 6.88853 -2.84628 -0.962155 3.29591 -0.932101 1.35012 0.830083 Ge
37 2 6.94134 1.39721 4.14731 0.353978 -0.791627 -0.458034 -0.377491 0.681236 0.259169 Ge
41 1 5.59185 0.0295133 5.52583 -1.79002 -0.812454 -4.65226 -0.140126 -1.49785 -0.311844 Si
44 1 8.29774 2.77238 5.54305 0.625042 -3.09111 -2.38695 0.522478 -0.547995 0.476671 Si
47 2 9.72083 1.38719 6.9577 -3.60665 -3.10136 -1.60485 -1.20562 0.58754 -0.327649 Ge
14 2 1.45703 4.18097 6.86242 -0.0656477 1.61001 0.0286476 -1.21802 -0.543674 1.0951 Ge
21 2 1.40848 6.91653 4.11988 -2.10567 1.71846 -1.46391 -0.660629 0.268812 1.30468 Ge
25 1 -0.024199 5.53356 5.51986 1.30286 0.0463602 3.83136 0.0816267 0.201098 -0.269695 Si
8 2 4.19453 4.1448 4.16079 -0.594214 2.92993 1.72857 -0.319963 0.49542 0.879433 Ge
31 2 4.14859 6.9011 6.97572 -0.96823 -0.309309 -0.019517 -0.0274364 0.523184 -0.696301 Ge
46 2 6.91091 4.10269 6.96681 0.757356 2.17848 -3.55951 0.134758 1.48005 -0.460464 Ge
53 2 6.85307 6.94359 4.1316 0.391915 -1.82781 0.013113 1.76821 0.0516627 0.120622 Ge
57 1 5.60212 5.57071 5.52538 -5.49947 0.222661 3.51626 -1.66255 -1.24144 1.4122 Si
40 2 9.67505 4.10865 4.1128 0.94678 2.34033 -0.674119 0.757041 0.431929 1.04085 Ge
63 2 9.65054 6.95588 6.9191 1.82846 -1.06163 3.57454 0.46154 -0.568431 -0.475061 Ge
28 1 2.73753 8.33128 5.56237 10.5195 3.78543 -3.51097 0.586152 -0.59661 0.156374 Si
30 2 1.36187 9.76034 6.92478 1.98515 -0.020798 3.11161 0.344762 -0.0658805 -0.706569 Ge
24 2 4.14954 9.69074 4.16958 -0.217865 -1.55789 0.978027 0.3225 -0.0838607 -0.12235 Ge
62 2 6.94191 9.68392 6.91746 0.813828 1.45635 2.17562 0.0353842 0.730048 -0.170966 Ge
56 2 9.72637 9.65781 4.0944 -0.878373 0.260575 -2.59398 -1.24679 2.06297 2.58173 Ge
60 1 8.28587 8.32272 5.47673 1.05597 1.8364 2.23411 0.130747 -0.251996 0.37613 Si
13 2 1.37402 1.35786 9.72538 -2.32534 -1.00557 -0.0316635 0.120762 0.389946 -1.57229 Ge
42 1 5.48894 2.80161 8.36229 -2.44385 1.81612 2.78992 0.562099 -0.949246 -0.412718 Si
45 2 6.93969 1.4196 9.71671 -0.269676 0.294099 -1.43845 -0.490853 -0.455832 0.250443 Ge
36 1 8.38108 2.76126 0.0126216 -3.51279 0.0994795 0.785422 -1.10273 0.114677 -0.0749485 Si
10 1 0.037453 2.77298 8.29137 -0.380697 -5.27687 -2.10894 0.500345 0.271674 0.0273438 Si
17 1 -0.108813 5.4475 0.0221472 -0.160242 -0.0607303 -1.79321 1.95441 2.37015 0.48353 Si
27 1 2.72924 5.54068 8.37831 0.900485 0.696462 -4.04196 0.218979 0.419709 -0.42107 Si
29 2 1.31313 6.94263 9.75723 -1.82974 0.90444 -0.460273 -0.494703 -0.813586 -0.979624 Ge
16 2 4.10696 4.15778 9.74883 1.90592 -2.32859 -0.657577 0.691654 0.448321 0.0533951 Ge
61 2 6.96422 6.98441 9.72368 -1.77388 -3.03231 -3.36235 -0.124586 -0.169385 0.342217 Ge
48 2 9.71496 4.12769 9.68228 0.0433657 0.474761 -0.883742 -0.744152 -0.331627 -0.685861 Ge
59 1 8.29324 5.54014 8.33705 -0.487809 0.610937 -4.16721 0.289249 -0.0247481 -0.234991 Si
11 1 2.79141 0.0449852 8.26073 -3.06591 1.27646 4.81224 0.213328 -0.964092 1.35962 Si
26 1 0.0144466 8.34521 8.24953 -2.24697 -4.85103 1.24322 -0.482505 -0.751407 1.2826 Si
32 2 4.18518 9.69625 9.71269 0.761683 -0.377798 -2.89253 -1.26252 0.75808 -0.794452 Ge
58 1 5.54509 8.33934 8.31102 -2.26484 -0.736629 0.989088 0.269458 -0.663071 0.257865 Si
52 1 8.35566 8.36656 0.0887987 -0.120662 -0.131044 -4.2742 -1.19293 0.279806 -1.31727 Si
43 1 8.31712 -0.00287984 8.32738 -1.65324 -1.77127 -1.9823 0.333606 -0.278184 0.355157 Si
64 2 9.76 9.68089 9.72245 2.71881 -1.22198 -2.61951 -0.922667 0.628033 -0.417374 Ge
ITEM: TIMESTEP
19400
ITEM: NUMBER OF ATOMS
64
ITEM: BOX BOUNDS pp pp pp
0.0000000000000000e+00 1.1085848640000000e+01
0.0000000000000000e+00 1.1085848640000000e+01
0.0000000000000000e+00 1.1085848640000000e+01
ITEM: ATOMS id type xu yu zu vx vy vz fx fy fz element
3 1 2.73606 0.0140993 2.7693 -7.98763 -3.18002 -1.95179 1.06891 -0.256356 -0.377267 Si
4 1 2.76215 2.79502 0.0211508 -3.70968 -1.2715 -0.366678 0.894083 -0.643329 -0.815566 Si
7 2 4.17621 1.38179 1.38188 -1.67157 -3.18751 -1.484 -0.164093 0.420345 0.393881 Ge
34 1 5.51572 2.82412 2.81186 -3.27604 2.79161 5.39722 -0.405611 -0.760281 -0.642884 Si
2 1 0.0255482 2.81879 2.83616 0.37216 1.7847 -0.268787 0.340799 -0.97725 -1.51805 Si
35 1 8.30953 0.00608965 2.75823 4.17916 2.13704 5.73651 0.140103 0.200785 -0.453844 Si
39 2 9.73431 1.44358 1.38641 -0.884234 -2.88756 0.935654 -0.900199 -0.322473 0.866343 Ge
6 2 1.39651 4.15625 1.35999 1.13211 0.572098 0.0470044 -0.601178 0.210417 0.89054 Ge
19 1 2.74046 5.5482 2.72937 -2.34934 -7.62496 1.59907 0.574898 0.329436 1.01361 Si
23 2 4.18239 6.97307 1.46116 0.7569 -1.04524 -2.16006 0.172215 -0.331861 -0.790097 Ge
38 2 6.90382 4.14115 1.36078 0.645299 1.61375 1.07678 0.0992647 0.254184 0.576635 Ge
49 1 5.51633 5.51732 0.0109036 2.15809 0.689528 5.50843 -0.00417452 0.889841 -0.367984 Si
51 1 8.3576 5.52888 2.68698 0.649638 -2.5746 3.43512 -0.437785 0.159964 0.709804 Si
55 2 9.74544 6.92168 1.34791 1.03461 0.899004 -0.352882 -0.386324 -0.197097 0.0378289 Ge
20 1 2.7624 8.30455 0.0347693 -7.27801 0.90788 -5.77903 0.538912 0.675761 1.24686 Si
22 2 1.32148 9.72308 1.3798 -0.220534 1.00883 -1.03407 0.811902 -0.699892 0.327493 Ge
33 1 5.59666 -0.00669699 0.00146334 -3.94195 1.0103 1.86119 -0.560386 -0.058892 -0.0514112 Si
50 1 5.5996 8.37909 2.83979 3.52311 -4.65339 -0.186618 0.618071 -1.01936 -1.08971 Si
54 2 6.99333 9.64119 1.3176 -1.60302 2.26888 4.85376 -0.599972 0.92972 1.35864 Ge
1 1 -0.0527381 0.00466491 0.0210338 0.71273 0.882053 -0.261581 0.417909 0.231934 -0.356574 Si
18 1 -0.0130308 8.28086 2.75575 -2.29851 7.68834 10.2657 -0.212387 1.18598 0.975457 Si
5 2 1.40226 1.3697 4.17257 0.295035 -0.189719 -2.62177 -0.766336 0.705564 0.139069 Ge
9 1 -0.0108001 -0.0301016 5.50113 -3.80914 -1.86934 1.64724 0.379055 0.864984 1.14176 Si
12 1 2.67056 2.84635 5.56838 0.351068 -1.26108 -0.292883 1.30588 -1.82473 0.193137 Si
15 2 4.10529 1.40881 6.94216 1.25361 -2.08276 -1.25366 -0.233955 0.0205065 -0.162554 Ge
37 2 6.88818 1.38654 4.13935 4.18854 -1.98559 -1.7978 0.529385 0.119552 0.507333 Ge
41 1 5.53516 0.0203218 5.59613 1.40218 5.26156 1.83306 -0.113406 0.628668 -0.683984 Si
44 1 8.30736 2.7917 5.50409 -2.6146 4.28959 0.340201 0.13932 -0.863315 -0.29211 Si
47 2 9.71416 1.40309 6.88603 2.1602 0.683108 4.5566 -0.408362 -0.529862 -0.0184604 Ge
14 2 1.32233 4.10603 7.01197 1.65797 0.983457 -2.32319 -0.115457 1.93802 -0.914914 Ge
21 2 1.40371 6.93695 4.16155 1.15864 -1.61648 -2.28336 -0.77031 -0.451651 -0.357217 Ge
25 1 -0.0148877 5.54369 5.54259 -1.82824 -1.0288 -2.50314 0.5001 -0.230224 0.382374 Si
8 2 4.07828 4.17843 4.18407 0.423053 0.413247 -1.0506 0.69154 0.469179 -0.37505 Ge
31 2 4.18816 6.92471 6.87938 1.83568 -1.16534 -0.59119 -1.05715 -0.228397 0.216877 Ge
46 2 6.92379 4.11872 6.87732 0.0960443 -2.34843 2.70899 0.568706 0.851957 -0.0071763 Ge
53 2 7.04218 6.94244 4.15694 -4.12928 -0.245742 -3.34991 -0.854679 -0.322438 0.228254 Ge
57 1 5.57958 5.52778 5.51825 7.71492 1.29772 -6.44087 -0.232059 0.491067 -0.637047 Si
40 2 9.69474 4.16153 4.12511 -2.08969 -1.73507 -1.91292 -0.149326 0.727709 0.648986 Ge
63 2 9.75197 6.95288 6.96726 -0.568493 0.442339 3.82114 -0.0183919 -0.599702 0.29162 Ge
28 1 2.73381 8.33121 5.54666 -6.14681 1.16601 1.51119 1.57732 0.635055 -0.364019 Si
30 2 1.33611 9.68774 6.953 -0.851868 0.716572 2.04977 0.406703 0.149671 0.341616 Ge
24 2 4.22811 9.77417 4.15173 -1.58588 -0.168274 -2.19779 -2.21919 -0.772163 0.810907 Ge
62 2 6.86806 9.66542 6.91974 -1.44727 -0.386148 2.20263 1.22926 0.694196 1.14034 Ge
56 2 9.66896 9.72586 4.18847 1.99172 -0.487342 -5.97115 0.200054 -1.37242 -1.00254 Ge
60 1 8.35871 8.31608 5.64537 -1.67604 1.45579 -4.29401 -0.414824 0.276434 -1.57696 Si
13 2 1.37633 1.37814 9.7553 3.648 -1.14222 1.12432 -0.505463 0.17666 -0.365717 Ge
42 1 5.58905 2.76305 8.24851 -0.307511 1.06185 -0.759244 -1.46143 -0.00024106 0.99575 Si
45 2 6.92835 1.36395 9.63954 2.04227 -0.329452 -1.13223 0.41695 0.219539 0.634727 Ge
36 1 8.27519 2.76135 -0.000447906 1.7779 -1.45621 -0.844603 0.421697 -0.0920793 -0.636886 Si
10 1 -0.0474289 2.74214 8.34545 0.94085 1.66452 0.429925 0.280997 -0.388779 0.510253 Si
17 1 0.0531508 5.56952 0.00288095 -3.45063 -6.72916 0.695848 -0.530858 -1.00939 -1.06464 Si
27 1 2.77782 5.54184 8.29474 -0.682557 0.79357 4.18713 0.511303 -0.257446 -0.488055 Si
29 2 1.5094 6.90865 9.7359 -1.50351 0.0881997 0.355687 -1.95253 0.191096 -0.391787 Ge
16 2 4.15762 4.16102 9.65704 -2.27963 0.550292 2.52074 0.272961 -0.719908 0.357806 Ge
61 2 6.9083 6.86327 9.62708 0.574753 0.182413 0.748785 -0.0321921 0.394798 0.952348 Ge
48 2 9.66326 4.15696 9.68889 -0.0577487 2.05308 0.462744 0.459107 0.484668 0.59739 Ge
59 1 8.31333 5.52439 8.24098 -3.10627 -1.44242 2.22822 0.0506226 -0.283418 0.427531 Si
11 1 2.74296 -0.0125353 8.3684 1.90145 2.50554 -6.34728 0.124454 0.0815222 -0.413055 Si
26 1 0.0213457 8.30039 8.42107 4.93119 5.51911 -4.88595 0.454506 -0.128469 -0.827469 Si
32 2 4.12902 9.69871 9.78744 1.17981 1.73729 -0.703039 0.746321 -0.1972 -1.4615 Ge
58 1 5.49995 8.28914 8.3044 -1.0513 4.32996 -2.07314 -0.0637974 0.511712 0.779527 Si
52 1 8.32353 8.23722 -0.0340093 4.32584 0.933536 5.89088 0.00100879 0.0858512 -0.806819 Si
43 1 8.34462 -0.00445195 8.2887 -2.36416 1.64851 1.88678 -0.822599 -0.421447 -0.631065 Si
64 2 9.67828 9.70111 9.71226 1.68833 0.322105 -1.89524 0.0501044 -0.246709 0.247727 Ge
ITEM: TIMESTEP
19500
ITEM: NUMBER OF ATOMS
64
ITEM: BOX BOUNDS pp pp pp
0.0000000000000000e+00 1.1085848640000000e+01
0.0000000000000000e+00 1.1085848640000000e+01
0.0000000000000000e+00 1.1085848640000000e+01
ITEM: ATOMS id type xu yu zu vx vy vz fx fy fz element
3 1 2.81148 0.000445289 2.75693 -1.30086 0.458628 3.29338 -1.52923 -0.524074 0.731596 Si
4 1 2.81401 2.79176 0.0231128 -0.689509 2.54009 1.99756 -1.05397 -0.0951603 -0.52162 Si
7 2 4.1629 1.39567 1.43168 -0.646187 1.27713 -1.76222 0.128877 -0.599853 -1.45018 Ge
34 1 5.6273 2.67707 2.72658 1.13652 0.989948 1.76073 -0.281301 1.52149 1.4696 Si
2 1 -0.068145 2.74353 2.76464 -1.82131 0.809081 6.41333 0.861365 0.443238 0.957735 Si
35 1 8.31329 -0.0523374 2.76837 -3.75458 0.863075 0.221566 0.295287 1.05282 0.833702 Si
39 2 9.73651 1.35277 1.35026 1.86703 -0.46948 2.45715 -0.819883 -0.42272 0.424236 Ge
6 2 1.33781 4.14396 1.42318 0.341947 0.738988 -2.22387 0.720147 0.700196 -0.874981 Ge
19 1 2.79349 5.56023 2.75602 -2.49856 3.36495 -3.00087 -1.01702 -1.80154 0.512683 Si
23 2 4.05686 6.90613 1.34299 -0.142751 -1.15323 3.04369 2.08079 -0.184017 -0.376927 Ge
38 2 6.96825 4.14306 1.39791 0.569622 0.997541 -1.16593 -0.644572 0.919742 -0.565951 Ge
49 1 5.52533 5.57292 -0.0498698 -1.38267 -2.54179 -2.14944 0.662917 -0.546125 1.54896 Si
51 1 8.22388 5.58529 2.87354 1.4071 1.06068 -0.813093 1.39903 -1.66926 -0.766075 Si
55 2 9.6231 6.92135 1.45517 1.34587 -0.501016 3.04647 0.0133462 0.702755 -1.48609 Ge
20 1 2.81968 8.29448 -0.0574962 0.146038 -2.55512 0.982213 -1.89624 0.0917506 -1.4798 Si
22 2 1.43685 9.65912 1.32808 -1.56903 0.907323 0.556796 0.246125 0.962695 0.138048 Ge
33 1 5.49958 -0.00679041 0.00504408 2.63204 0.840304 1.88571 -0.540568 -0.041267 0.08972 Si
50 1 5.45167 8.25688 2.72983 -4.69563 4.09046 4.35145 0.829153 0.545998 0.253811 Si
54 2 6.8668 9.71806 1.38759 1.48021 -1.73106 -0.106622 -0.251768 -0.582412 0.511592 Ge
1 1 0.0634036 0.00996154 -0.0389083 -2.86921 0.293712 0.896038 -0.137322 -0.186832 -0.345753 Si
18 1 0.0466838 8.281 2.69286 1.49699 -7.28846 -6.01438 -1.04137 0.829679 2.21122 Si
5 2 1.37102 1.39654 4.17775 3.28296 -1.71804 -0.19168 0.813473 -0.235055 -0.927351 Ge
9 1 0.0301712 0.00928431 5.57092 -1.1958 2.28734 -3.12904 -0.382413 0.0946994 -0.0983762 Si
12 1 2.87137 2.75388 5.50291 -5.81968 6.81308 0.445273 -1.57538 0.535889 -0.0291199 Si
15 2 4.23207 1.41704 6.87282 -0.804392 -0.410532 2.78445 -0.81515 -1.41061 0.979194 Ge
37 2 6.94324 1.37227 4.25005 0.990034 -1.64644 -1.0695 0.595331 -0.780474 -1.53377 Ge
41 1 5.53578 -0.0598553 5.5314 -0.0499302 -2.89395 0.684051 0.171202 0.569893 -0.0586322 Si
44 1 8.33256 2.75185 5.63311 0.671342 0.127868 1.06932 -1.07443 1.63743 -0.421447 Si
47 2 9.70737 1.39718 6.92749 -1.85166 -0.241056 -2.06277 1.00066 -0.120036 1.39782 Ge
14 2 1.45648 4.16789 6.89889 0.460282 -3.46612 2.31934 -0.426492 -0.629054 -0.337986 Ge
21 2 1.38567 6.8861 4.1424 1.26894 -0.128021 -2.34513 0.290916 0.604227 0.0165312 Ge
25 1 0.0198026 5.54483 5.56592 -0.871991 0.126898 1.03119 -0.0832266 -0.456259 -0.536487 Si
8 2 4.21427 4.11857 4.10537 -1.83007 1.82331 1.58147 0.0941375 0.32758 -0.227658 Ge
31 2 4.15238 6.93032 7.01722 2.53694 -0.393435 0.49542 0.441642 0.105957 -0.621274 Ge
46 2 6.9414 4.25168 7.03237 -0.199725 0.922552 -0.373483 -0.117415 -1.67454 -0.310541 Ge
53 2 6.84444 6.91884 4.18759 0.024149 -1.61033 -0.162041 -1.44994 0.148278 -0.0377288 Ge
57 1 5.45695 5.52993 5.61958 -2.17672 0.325205 6.1744 1.39229 0.0534195 -0.670822 Si
40 2 9.69356 4.15546 4.22084 -1.86529 -0.33385 -1.17053 -0.597867 -0.0121833 -0.583954 Ge
63 2 9.62189 6.89527 6.84507 2.38998 0.209873 1.48558 0.453081 0.533064 1.17476 Ge
28 1 2.80757 8.23818 5.54833 -0.947258 -1.36475 -1.18938 -0.91572 0.532306 -0.0812957 Si
30 2 1.40644 9.67649 6.87856 -1.16956 -0.923533 2.5259 -0.352159 -0.575179 0.854971 Ge
24 2 4.13038 9.64481 4.1565 4.95298 1.46875 -0.822505 0.330508 0.300943 -0.251358 Ge
62 2 6.99534 9.74432 6.88481 -1.10877 0.360727 0.947527 -0.997355 -1.52217 0.84473 Ge
56 2 9.71695 9.69467 4.24332 -1.7585 2.81136 -2.56377 0.647965 -0.634076 -2.81294 Ge
60 1 8.25799 8.28998 5.46302 1.7132 -1.10334 9.35202 0.493827 0.416521 1.40374 Si
13 2 1.40006 1.4342 9.60641 2.51497 -1.29953 -0.407046 0.915886 -0.464889 1.50463 Ge
42 1 5.51376 2.76209 8.35169 2.53504 1.64314 -1.00997 1.51831 0.494325 -0.724069 Si
45 2 6.86409 1.40208 9.77888 -0.954677 -1.19958 -3.28995 1.75546 -0.014695 -1.11073 Ge
36 1 8.38327 2.79838 0.00441778 1.17979 0.33835 3.54194 -0.932523 -0.716133 0.00813533 Si
10 1 0.0161746 2.85147 8.31172 -2.5502 0.226956 -1.95796 0.0681515 -0.964798 -1.33065 Si
17 1 -0.00666325 5.6178 -0.00031796 -0.751017 4.81903 2.46575 -0.408661 -1.0867 0.551202 Si
27 1 2.76715 5.52466 8.29821 -1.53287 -0.525062 -2.75874 -0.0674727 0.326981 0.802793 Si
29 2 1.30175 6.95043 9.58448 0.511308 -0.202098 -1.12881 1.62347 -0.0781508 1.61585 Ge
16 2 4.19006 4.15621 9.67213 0.90556 0.215314 -1.11311 -1.24711 0.404659 0.703014 Ge
61 2 6.95411 7.00985 9.76652 -0.73224 -3.3557 -4.93855 -0.199895 -1.55978 -0.50581 Ge
48 2 9.74004 4.16812 9.70307 -0.0783282 1.8482 -2.03061 0.0812601 0.832679 0.844699 Ge
59 1 8.35831 5.60203 8.43207 2.36195 4.0498 -2.5159 -0.740732 0.0483674 -1.25564 Si
11 1 2.79727 -0.0133134 8.25553 -3.03286 0.644837 1.01107 0.121145 0.727133 -0.515983 Si
26 1 -0.102725 8.29911 8.25581 -6.06562 -1.78075 5.3304 0.563646 0.924738 -0.84746 Si
32 2 4.18356 9.67707 9.61702 -1.9439 1.56973 -0.248789 0.137032 0.426947 1.10681 Ge
58 1 5.63738 8.29521 8.34274 0.7453 -5.13503 -0.406708 -0.619212 1.18497 -1.54874 Si
52 1 8.25183 8.38205 0.00915145 -2.15097 -0.798043 0.826492 1.59643 -0.314641 1.38294 Si
43 1 8.31361 0.0206402 8.31937 5.73566 1.62826 -1.83218 -0.208268 0.754637 0.689082 Si
64 2 9.68648 9.7135 9.71189 0.646007 0.854602 -2.49047 0.0817924 0.146662 -0.316608 Ge
ITEM: TIMESTEP
19600
ITEM: NUMBER OF ATOMS
64
ITEM: BOX BOUNDS pp pp pp
0.0000000000000000e+00 1.1085848640000000e+01
0.0000000000000000e+00 1.1085848640000000e+01
0.0000000000000000e+00 1.1085848640000000e+01
ITEM: ATOMS id type xu yu zu vx vy vz fx fy fz element
3 1 2.82355 0.0342471 2.78076 2.31783 2.96886 -2.3179 -0.908717 0.38567 0.203113 Si
4 1 2.74417 2.73423 -0.0474207 0.0945494 0.413018 1.40627 0.365603 0.291793 1.35708 Si
7 2 4.20565 1.36659 1.36646 -1.67681 -1.63856 2.36206 -0.720285 0.723014 -0.69579 Ge
34 1 5.47917 2.84593 2.75527 1.26749 -2.13954 -3.55505 0.0143277 -0.963597 -0.0200873 Si
2 1 0.0788908 2.76579 2.69769 -2.52242 1.46929 -6.00081 -1.78453 0.0977579 0.963776 Si
35 1 8.2983 0.0223171 2.72341 1.92673 -5.85317 0.371744 -0.269121 -0.206189 1.08305 Si
39 2 9.64082 1.43993 1.37041 -1.10657 -2.02854 -0.182068 0.758076 -0.476198 -0.392293 Ge
6 2 1.44808 4.15847 1.44346 2.01284 -0.507448 3.2618 0.470941 -0.161072 -1.75089 Ge
19 1 2.79768 5.54378 2.82595 4.20794 3.33618 0.425376 -0.405801 1.65902 -0.755311 Si
23 2 4.24781 6.96869 1.4523 -0.70231 0.0808524 3.61152 -0.934896 -0.356609 -0.0743791 Ge
38 2 6.89201 4.1703 1.41295 0.52223 1.97785 0.987494 0.13798 -0.254542 -0.892266 Ge
49 1 5.54869 5.53795 0.0316349 -3.78502 3.43576 -2.12823 -0.551486 0.17604 -1.08013 Si
51 1 8.39361 5.49711 2.65055 -5.54964 5.11743 2.48629 -0.563897 1.34377 1.72454 Si
55 2 9.70776 6.9025 1.26291 1.30617 -2.90475 0.372624 1.50229 0.195412 1.86186 Ge
20 1 2.7922 8.35741 0.0935148 5.8008 0.376954 3.47068 0.507653 -0.745682 0.718484 Si
22 2 1.4004 9.73287 1.47442 0.424594 -0.828381 3.03864 -0.501028 -0.283032 -0.273034 Ge
33 1 5.575 -0.0104393 -0.0516719 -0.612831 -1.06713 -2.32622 0.260945 0.869596 1.06822 Si
50 1 5.67946 8.37511 2.76019 1.35042 -2.7105 -0.329889 -1.64796 -0.306445 1.1428 Si
54 2 6.94159 9.71688 1.32353 1.23893 3.69838 1.27158 1.41134 -0.24437 -0.399455 Ge
1 1 -0.0317546 -0.0449943 0.0623245 2.17357 1.68185 2.43774 -0.643603 0.615413 0.565154 Si
18 1 -0.0717539 8.36907 2.82449 -1.71939 2.24264 -3.80861 1.07987 -1.91716 -1.80733 Si
5 2 1.34345 1.40061 4.13886 -2.00176 2.46598 0.53617 1.45443 -0.794406 -0.0929816 Ge
9 1 0.0386432 -0.0247957 5.51543 0.633723 -4.89764 1.33666 -1.07135 0.535175 -0.063066 Si
12 1 2.73979 2.7043 5.5703 8.15565 -2.19302 -0.368434 -0.50127 1.82601 0.266451 Si
15 2 4.12328 1.36531 6.98802 -0.211973 1.25074 -1.96548 0.452982 -0.437503 0.0270687 Ge
37 2 6.8282 1.41181 4.08937 0.857819 -1.48197 2.12835 1.41739 -0.224737 0.0497438 Ge
41 1 5.52738 0.023048 5.53151 -2.04558 0.256657 2.90482 -0.315652 -0.193966 0.684481 Si
44 1 8.31864 2.76118 5.4219 1.12647 -2.76308 1.51488 1.02791 -0.589162 0.528314 Si
47 2 9.73316 1.33452 6.8975 -2.90243 -1.05379 -1.28556 -1.82186 -0.180564 -0.219044 Ge
14 2 1.31559 4.1905 6.96208 1.00327 1.59186 0.474455 1.6361 -0.974044 -0.154177 Ge
21 2 1.37353 6.97271 4.17671 -0.356936 -0.301637 -1.10743 0.357116 0.258329 -0.358441 Ge
25 1 0.0134754 5.57438 5.52814 -1.50974 3.53561 1.80364 -0.502096 0.26774 0.55549 Si
8 2 4.09505 4.16058 4.15723 -0.665959 -0.0878985 -1.18037 0.666026 -0.655378 1.09069 Ge
31 2 4.06787 6.94169 6.89905 0.401003 -1.09489 1.24554 1.87228 -0.159653 0.0130511 Ge
46 2 6.91548 4.06636 6.83042 1.43295 3.51011 0.358168 -0.359883 0.870498 -0.139561 Ge
53 2 7.06009 6.97149 4.14025 0.526604 -0.615356 -2.53566 -0.57376 -1.37682 -0.797248 Ge
57 1 5.5641 5.54464 5.46176 -3.51022 -1.06792 -0.938479 -0.461725 0.66049 0.958189 Si
40 2 9.79803 4.19051 4.08373 2.30063 -0.134168 0.0186345 -0.844495 -0.955025 0.030151 Ge
63 2 9.72227 6.94615 6.97756 -1.68943 -3.15926 2.11008 0.166314 -0.465539 -0.534592 Ge
28 1 2.77429 8.3935 5.53251 0.143723 -1.42908 3.51713 -0.794737 -0.630236 -0.000666111 Si
30 2 1.38666 9.76161 6.92051 1.60145 0.597841 2.09587 1.43868 -0.481146 0.861643 Ge
24 2 4.15231 9.73494 4.15102 -0.0899446 -0.837089 -2.96246 1.42385 -0.471322 -0.401274 Ge
62 2 6.88452 9.65772 6.92313 0.493437 3.48362 -0.515879 0.277706 1.277 -0.201252 Ge
56 2 9.69046 9.69354 4.18471 -0.0677407 2.80021 2.13159 -0.77371 1.67294 -0.339046 Ge
60 1 8.35478 8.34077 5.57211 -1.49739 -0.451696 -9.84207 -0.0973945 -0.508978 0.556886 Si
13 2 1.25626 1.36252 9.77153 -1.33717 1.34554 -2.05054 2.10679 -0.655114 -0.549673 Ge
42 1 5.57751 2.75235 8.31244 -4.21271 -2.16961 -0.615455 -0.82079 0.0259108 -0.14405 Si
45 2 6.97811 1.39794 9.70558 -3.6244 -1.9432 0.409187 -1.97636 -1.00049 -0.944444 Ge
36 1 8.19515 2.77431 -0.017794 0.124435 2.65522 -2.40355 2.05368 0.743842 1.03827 Si
10 1 0.00259663 2.68049 8.29714 0.11153 2.64299 6.95578 -1.27748 1.56425 0.307471 Si
17 1 0.0579803 5.45979 -0.0121101 3.9827 2.79373 -1.44546 -0.680766 0.443204 -0.193403 Si
27 1 2.77024 5.56343 8.36677 0.285879 0.394469 1.75911 -0.611086 -0.326952 -1.2162 Si
29 2 1.48186 6.92044 9.80962 -2.49713 0.320829 -3.7781 -1.05627 0.427085 -0.97245 Ge
16 2 4.12021 4.14703 9.66785 1.60857 -1.36622 -1.5159 1.40345 -0.178838 0.88007 Ge
61 2 6.93309 6.89623 9.66011 0.394672 0.879593 -0.501331 -0.860158 0.169985 -0.65546 Ge
48 2 9.64748 4.09261 9.68241 -0.651087 0.152762 -3.04718 0.654286 0.133625 -0.428279 Ge
59 1 8.25761 5.445 8.21886 -0.327024 -3.89603 3.85669 0.975245 1.0743 1.06517 Si
11 1 2.7669 -0.0188744 8.45107 -0.0129292 -2.52642 4.76418 -0.789655 0.554858 -1.06974 Si
26 1 0.131065 8.31844 8.32087 1.42334 -2.58772 0.791544 -1.60161 -0.398729 1.19356 Si
32 2 4.17066 9.69049 9.79834 2.17161 -1.09956 -3.5047 -0.635394 0.116754 -1.11546 Ge
58 1 5.4581 8.37582 8.30031 0.659611 1.2456 4.50639 0.686721 -2.2603 0.478985 Si
52 1 8.34952 8.2625 -0.0504921 -3.97784 0.326653 -3.82252 -1.42799 0.553544 0.0811533 Si
43 1 8.26517 -0.0571256 8.3546 -3.87081 -2.93735 0.294824 1.69327 0.265857 -1.04495 Si
64 2 9.71902 9.66014 9.74751 1.04016 -1.60521 -2.09892 0.513577 0.0349211 -1.5785 Ge
ITEM: TIMESTEP
19700
ITEM: NUMBER OF ATOMS
64
ITEM: BOX BOUNDS pp pp pp
0.0000000000000000e+00 1.1085848640000000e+01
0.0000000000000000e+00 1.1085848640000000e+01
0.0000000000000000e+00 1.1085848640000000e+01
ITEM: ATOMS id type xu yu zu vx vy vz fx fy fz element
3 1 2.71115 -0.0545958 2.76362 4.52324 -2.06036 -1.71319 0.920286 0.507795 -0.345101 Si
4 1 2.82725 2.76482 0.0421388 1.13479 0.115187 -2.60173 -1.23354 0.688921 -0.465197 Si
7 2 4.18397 1.38196 1.43177 1.15472 -1.50264 -1.10635 -1.37589 -0.631754 0.487112 Ge
34 1 5.55438 2.71467 2.78815 -0.0632309 -0.718212 0.348411 0.442215 0.982862 -0.419572 Si
2 1 -0.042816 2.75618 2.84999 5.05235 -2.26824 1.36888 0.534752 0.662596 -0.789799 Si
35 1 8.35734 0.041957 2.76969 -3.26093 3.8773 -6.78743 -0.0974528 -1.50285 -0.437604 Si
39 2 9.78345 1.41773 1.36655 -0.254638 -0.405402 2.76878 -0.391151 -1.4572 0.485484 Ge
6 2 1.28583 4.17386 1.37872 -1.18066 -0.355388 3.30816 0.92023 -1.37164 0.142456 Ge
19 1 2.72995 5.51598 2.71852 -1.29996 -4.84166 0.214266 0.845736 -0.169563 0.0292709 Si
23 2 4.06143 6.90989 1.27712 0.546432 -1.76992 0.0402075 0.807514 -0.186324 0.772003 Ge
38 2 6.97036 4.04717 1.37487 0.610722 0.743198 2.73322 0.0978836 1.10794 0.180269 Ge
49 1 5.61598 5.53668 0.00111336 2.53694 -0.900167 1.72337 -0.90438 -0.288717 0.37676 Si
51 1 8.30568 5.50629 2.80137 4.62898 -6.12537 -5.70655 -1.40847 0.998274 -0.784122 Si
55 2 9.67028 6.99525 1.48955 -3.31735 0.0224337 0.732177 1.07767 -1.36057 -0.836973 Ge
20 1 2.69437 8.30236 -0.109136 -4.66519 2.24194 -2.50561 0.963949 0.209087 0.233103 Si
22 2 1.37118 9.70394 1.25572 0.197388 0.735792 -0.0991836 -0.314426 -0.505201 1.6878 Ge
33 1 5.5228 0.0197 0.0768205 -0.616407 -2.03759 0.430395 0.413561 -0.73877 -1.57156 Si
50 1 5.42126 8.26821 2.7512 1.69528 2.84984 -4.02175 0.316426 0.364052 0.345464 Si
54 2 6.87648 9.643 1.41481 -4.95541 1.82408 3.40933 0.467824 1.68911 0.935973 Ge
1 1 0.00488439 0.0283883 -0.0950266 0.663838 -5.50569 -2.40328 0.458768 0.252474 0.680242 Si
18 1 0.128035 8.2764 2.82966 1.01813 2.34579 4.23875 -1.20685 0.828798 -0.987578 Si
5 2 1.35865 1.32465 4.17004 -1.51784 -1.08755 -2.3092 0.0552261 1.20934 0.204707 Ge
9 1 -0.0474076 0.058723 5.60032 3.92077 4.07072 0.255163 0.498516 -1.50816 -0.787525 Si
12 1 2.73085 2.80887 5.51747 -2.46661 -6.42212 0.566444 1.7265 -1.01565 -0.515625 Si
15 2 4.20364 1.39425 6.89648 1.14533 -0.23409 2.24996 -0.100718 1.10582 -1.50772 Ge
37 2 6.96056 1.41176 4.14201 0.52578 -1.43064 -1.81381 0.493656 -0.440346 0.903393 Ge
41 1 5.59019 0.00436474 5.49835 1.80838 -2.52432 -5.94683 -0.256979 -0.261761 0.738741 Si
44 1 8.3104 2.78661 5.61528 -2.3103 0.952365 -0.994405 -0.579926 -0.157498 0.561409 Si
47 2 9.77217 1.44533 7.02903 5.0281 0.0203657 1.70864 -1.3761 0.245406 -2.01864 Ge
14 2 1.41428 4.17125 6.91599 -1.07715 0.608224 -0.812032 -0.595509 -0.413632 -0.409823 Ge
21 2 1.43921 6.83882 4.19146 0.942271 -3.15949 -3.06915 -0.27632 0.341831 -0.196012 Ge
25 1 0.00617258 5.46007 5.52542 3.37786 -2.32272 -2.53824 -0.885283 1.44797 0.134406 Si
8 2 4.21036 4.17032 4.09964 -2.22367 2.44736 -2.37435 -0.936415 0.126858 0.98302 Ge
31 2 4.1929 6.92306 6.95278 -2.63994 1.05556 1.66981 0.033773 -0.0507605 -1.21687 Ge
46 2 6.89493 4.16389 7.06623 1.09886 -1.16995 2.87324 1.38986 0.904519 -1.50113 Ge
53 2 6.88138 6.9437 4.1517 -0.0291455 0.76925 -1.07003 0.912216 0.0200904 -0.508837 Ge
57 1 5.60386 5.56722 5.55042 -0.161195 -1.4236 -0.28376 -1.23427 -1.14055 0.562749 Si
40 2 9.59701 4.15552 4.17023 0.0928758 1.44364 -1.35922 1.85508 -0.7623 0.833142 Ge
63 2 9.68177 6.96562 6.8555 0.497129 1.22249 2.85557 0.876252 -1.36736 0.930425 Ge
28 1 2.78162 8.27594 5.53931 2.46018 1.62333 -2.71234 -0.280309 -0.221836 0.915478 Si
30 2 1.33803 9.66647 6.87817 -3.39966 1.57031 -1.62151 0.321683 0.362466 -0.11542 Ge
24 2 4.11056 9.7034 4.22066 -2.00898 0.40779 -0.592179 0.462135 -0.225599 -1.69839 Ge
62 2 6.94764 9.66132 6.90991 -0.615065 -1.266 1.43228 0.0307999 1.43053 0.417212 Ge
56 2 9.74664 9.6549 4.17417 0.907322 -0.653831 -2.59163 -0.452227 1.17326 0.0160186 Ge
60 1 8.29959 8.31009 5.55567 -2.05741 0.938735 4.65344 -0.105509 0.0926641 -1.7026 Si
13 2 1.4753 1.37367 9.65099 0.153349 -0.198915 -0.938385 -0.47921 0.837874 -0.587211 Ge
42 1 5.50643 2.76987 8.35758 2.76903 0.261108 4.6728 -0.187511 0.082183 0.131585 Si
45 2 6.89698 1.4065 9.70566 4.3011 0.941281 1.99649 1.10157 -0.83918 0.453835 Ge
36 1 8.42475 2.71441 -0.00987855 -4.69944 -1.65134 0.294505 -1.98558 0.676317 -0.217341 Si
10 1 0.0360978 2.83615 8.29736 4.09432 -3.34238 -5.41997 0.899174 -0.0418362 2.06089 Si
17 1 -0.0937112 5.53231 -0.00873235 -0.411547 -1.63058 2.27576 1.46417 2.22084 1.24902 Si
27 1 2.79396 5.52103 8.23049 1.11063 0.192638 3.23579 -0.0260828 0.599824 1.72017 Si
29 2 1.37221 6.88927 9.63532 -1.52887 -0.509486 -0.83435 -1.38 -0.213445 -0.453698 Ge
16 2 4.15838 4.20362 9.7076 -3.56858 0.70745 -0.395433 0.0967948 -0.573084 0.163001 Ge
61 2 6.97191 6.97441 9.7708 3.00759 -1.42664 0.0109663 0.34204 -0.0261834 -0.278282 Ge
48 2 9.71684 4.18078 9.75462 -1.06615 1.92914 -0.0287274 -0.600564 -0.564742 -2.18906 Ge
59 1 8.36049 5.64496 8.36704 -2.90625 0.139867 -0.765363 -0.514104 -1.47005 -0.173458 Si
11 1 2.79166 0.022891 8.11639 3.67306 -0.232283 0.590355 -0.309654 -1.22331 3.05993 Si
26 1 -0.0689476 8.33402 8.28119 1.54847 3.59253 -3.28554 0.685128 -0.248074 0.536056 Si
32 2 4.13004 9.7353 9.69359 0.150898 3.04035 -0.320732 0.649919 -0.2526 -1.44203 Ge
58 1 5.60013 8.25958 8.3063 -0.472854 5.07612 -1.67909 -0.9771 1.68137 1.21641 Si
52 1 8.33754 8.37027 0.0760434 3.37385 1.19949 1.03975 -0.364977 -0.289114 -0.626365 Si
43 1 8.35105 0.0588963 8.26563 -1.9439 -0.596631 4.54997 -1.68054 -0.860433 1.24409 Si
64 2 9.65478 9.74948 9.7039 0.494947 1.53034 0.858518 0.355748 -0.470979 -0.608084 Ge
ITEM: TIMESTEP
19800
ITEM: NUMBER OF ATOMS
64
ITEM: BOX BOUNDS pp pp pp
0.0000000000000000e+00 1.1085848640000000e+01
0.0000000000000000e+00 1.1085848640000000e+01
0.0000000000000000e+00 1.1085848640000000e+01
ITEM: ATOMS id type xu yu zu vx vy vz fx fy fz element
3 1 2.77178 0.0101389 2.7996 -2.82856 -0.729641 3.40853 1.28993 -0.412747 -0.606674 Si
4 1 2.72229 2.77372 -0.0616837 3.18339 -3.98875 0.556967 1.52481 -0.0552435 0.225478 Si
7 2 4.17678 1.40728 1.39596 2.26753 -0.164449 -0.18009 -0.199582 -0.022976 -0.962741 Ge
34 1 5.55507 2.84663 2.78219 -3.37958 0.743097 0.511926 -0.734177 -1.5212 -0.245499 Si
2 1 0.0304405 2.79289 2.73644 -0.00624115 -1.99221 -0.456106 0.572635 -0.702585 0.039758 Si
35 1 8.298 -0.0522536 2.85889 4.52035 1.04582 3.42829 -0.990783 1.70867 -1.89439 Si
39 2 9.66946 1.40135 1.39287 -0.250952 3.43491 1.32864 -0.500521 -0.0240411 1.31902 Ge
6 2 1.4322 4.18768 1.36683 0.706959 4.29942 1.76699 -0.433816 0.0963195 0.231187 Ge
19 1 2.78219 5.56025 2.81537 -0.31045 1.37072 0.549662 -0.427644 -0.094284 0.436169 Si
23 2 4.16257 6.94038 1.45922 -0.73224 0.304558 3.3915 0.863658 -0.592892 -0.369282 Ge
38 2 6.90405 4.20424 1.42985 0.754677 -1.55107 -0.624881 0.607116 0.41166 -0.361807 Ge
49 1 5.49421 5.51152 0.0130148 2.49454 1.19971 0.580468 0.500978 1.08774 -0.20211 Si
51 1 8.28338 5.60255 2.82697 0.911094 -0.718955 2.14461 1.14483 -1.47825 -0.7174 Si
55 2 9.67306 6.87913 1.32064 -1.08525 0.214218 1.1909 -0.669613 0.335392 0.704079 Ge
20 1 2.85427 8.29996 0.0394441 1.64425 -1.0697 1.28665 -1.38081 0.447635 0.711729 Si
22 2 1.40239 9.69865 1.41708 -0.366029 3.02887 0.132863 -0.376346 0.00436335 -0.662325 Ge
33 1 5.58502 0.00970286 -0.0838376 0.611047 1.96101 1.86862 -0.838083 -0.239219 1.55328 Si
50 1 5.60491 8.29416 2.82632 0.887757 -3.59245 -1.19041 0.405274 0.362065 -1.53886 Si
54 2 6.98831 9.66781 1.29858 1.90004 -2.72911 -1.92799 -0.947977 0.337059 1.7253 Ge
1 1 -0.0211787 0.0472478 0.0623194 -2.05811 4.26097 -2.33769 -0.208032 -1.79319 -0.476364 Si
18 1 -0.112654 8.30152 2.68399 0.846066 -1.37805 4.51152 1.12375 0.84355 1.56366 Si
5 2 1.43993 1.39036 4.15556 -1.2142 -1.41666 0.950991 -1.16081 0.47563 0.0459307 Ge
9 1 0.00466202 -0.0689529 5.45933 -3.59085 0.277125 0.958469 0.847219 1.39028 1.5996 Si
12 1 2.82046 2.79956 5.54208 -2.10552 3.55008 0.371713 -1.14347 -1.02146 1.33656 Si
15 2 4.16169 1.36581 6.96958 -2.33135 -2.54011 2.79895 -1.08271 0.29249 0.306852 Ge
37 2 6.82995 1.41007 4.18102 -1.40982 0.25652 -2.80002 1.627 -0.594582 0.0901594 Ge
41 1 5.52628 -0.00247022 5.62918 -0.0362729 4.31919 1.99795 0.202573 -0.0989957 -1.42306 Si
44 1 8.32469 2.77501 5.50817 2.1827 -0.0149475 -2.76776 -0.444831 0.0442353 -0.467435 Si
47 2 9.66675 1.33289 6.83918 0.0171874 -1.29942 1.68219 1.16201 0.400128 0.971765 Ge
14 2 1.38422 4.16357 6.99205 -0.733917 2.243 3.15652 -0.533615 0.157513 -1.28143 Ge
21 2 1.33516 7.00913 4.15818 1.3464 -0.91086 1.64 -0.287982 -1.07152 -0.817125 Ge
25 1 -0.0383626 5.61131 5.56156 -0.11268 -2.86058 2.00183 1.68489 -1.70511 -0.419652 Si
8 2 4.17745 4.12079 4.18736 -1.62285 2.43018 -1.95021 -0.31233 1.71085 -0.559576 Ge
31 2 4.1008 6.90142 6.90311 -0.65825 -1.19027 0.608129 0.125542 0.581636 0.209538 Ge
46 2 6.93142 4.16996 6.88385 -0.429139 0.188715 2.64117 0.709236 -0.464908 -0.248317 Ge
53 2 6.94314 6.92668 4.23778 0.729394 -0.137068 -1.44978 -0.628251 -0.0657948 -0.111241 Ge
57 1 5.51115 5.51667 5.57748 5.47821 3.25455 -3.2902 0.336139 0.603785 -0.656417 Si
40 2 9.77112 4.14274 4.13201 -2.11204 1.63414 -3.25474 -1.48854 1.12914 0.402312 Ge
63 2 9.69365 6.92439 6.90974 0.270171 -0.210515 2.13943 0.207286 0.732985 1.2372 Ge
28 1 2.74249 8.3221 5.52876 1.98154 1.93408 -0.844328 1.31787 0.605189 -0.332423 Si
30 2 1.44523 9.72583 6.93457 -0.381394 -0.578769 2.71431 -1.6257 -0.587602 0.13061 Ge
24 2 4.23651 9.69422 4.13202 0.881793 1.8365 2.85067 -1.55975 0.331519 1.36095 Ge
62 2 6.95229 9.72001 6.94273 -1.35387 -1.06869 1.04755 -0.185135 -0.973723 0.0965307 Ge
56 2 9.64366 9.69368 4.20205 0.220486 0.399692 0.0443966 1.2762 -1.22058 -1.77568 Ge
60 1 8.35066 8.30688 5.53935 4.67936 0.81036 1.04802 -1.26399 0.254745 1.34804 Si
13 2 1.28104 1.36831 9.71221 -0.454133 -2.34988 0.969359 1.17256 0.385472 0.288332 Ge
42 1 5.58946 2.79397 8.2288 -0.392051 -1.48287 -3.60174 -0.490622 -0.473631 0.891769 Si
45 2 6.91972 1.43148 9.66832 -4.51322 0.18149 -3.11912 1.02274 0.103677 -0.137773 Ge
36 1 8.28455 2.82374 0.0388171 6.13803 -3.39312 -1.48868 -0.0926582 -0.702378 -0.555236 Si
10 1 -0.0448913 2.73918 8.32803 -3.7014 -1.64119 -0.157483 0.0124873 -0.590299 -1.65526 Si
17 1 0.0455477 5.58608 -0.00175962 -3.36791 -7.16515 -6.14811 -0.565288 -1.6768 -0.889738 Si
27 1 2.76032 5.56542 8.34051 0.991611 -0.538205 -7.34913 0.407362 -0.421634 -0.270791 Si
29 2 1.46016 6.95446 9.74748 3.93566 -0.970259 -1.05736 -0.633555 0.0334115 -0.253364 Ge
16 2 4.21015 4.15524 9.61189 1.37387 1.23654 -2.1926 -1.33771 -0.473656 1.1539 Ge
61 2 6.85485 6.93076 9.64475 -1.1936 -1.65462 -3.27026 0.68144 -1.21601 -0.00047818 Ge
48 2 9.69947 4.10231 9.6715 -1.47919 0.790883 -0.58339 0.0215893 1.85906 1.15817 Ge
59 1 8.32918 5.49886 8.25305 3.35808 2.76842 -3.27687 -0.644899 0.862143 1.14199 Si
11 1 2.72552 -0.0128778 8.41522 -1.5918 2.34225 -7.47655 0.973879 0.404291 -1.06544 Si
26 1 0.0417935 8.29146 8.34065 1.06724 -3.48307 -0.600103 -0.0548308 0.45667 -0.626099 Si
32 2 4.15381 9.64606 9.71832 0.384355 1.3007 2.85253 0.233132 1.38498 -0.215416 Ge
58 1 5.47157 8.32553 8.27262 -0.113418 -5.83556 -1.96441 0.867428 -0.340921 -0.316085 Si
52 1 8.30076 8.24615 -0.0549833 0.870177 -2.62738 0.576775 0.193601 0.256577 -0.378059 Si
43 1 8.33335 0.00326588 8.31699 2.88981 2.52837 -7.11015 -0.0914224 -0.0275521 0.273063 Si
64 2 9.7125 9.67256 9.72145 -0.641769 -1.08524 -2.11653 0.220313 0.572911 -0.0593821 Ge
ITEM: TIMESTEP
19900
ITEM: NUMBER OF ATOMS
64
ITEM: BOX BOUNDS pp pp pp
0.0000000000000000e+00 1.1085848640000000e+01
0.0000000000000000e+00 1.1085848640000000e+01
0.0000000000000000e+00 1.1085848640000000e+01
ITEM: ATOMS id type xu yu zu vx vy vz fx fy fz element
3 1 2.75176 0.0337256 2.73423 -3.36836 0.618813 -0.796451 -1.48124 -0.62461 1.43698 Si
4 1 2.76923 2.80458 0.0776918 -4.18418 2.94374 -1.05036 -0.335661 -1.35172 -0.722456 Si
7 2 4.12636 1.38052 1.46861 -0.729145 -1.24523 2.90564 0.635279 0.50972 -1.9116 Ge
34 1 5.57877 2.70836 2.76003 6.33902 1.46842 0.407322 -0.05081 1.11365 0.417579 Si
2 1 -0.0872782 2.77737 2.77063 -2.67808 3.1238 1.88559 0.444117 -0.786956 -0.233673 Si
35 1 8.31178 0.038219 2.69714 -0.708596 -3.41226 4.36388 1.47695 -0.534893 2.01912 Si
39 2 9.74381 1.33337 1.29798 0.790724 -2.75868 -0.861407 -1.01019 1.14616 0.527149 Ge
6 2 1.34102 4.10648 1.4358 0.169491 -0.00135146 2.19551 0.704152 1.55302 -0.0282119 Ge
19 1 2.79422 5.56576 2.73727 -0.0401621 -1.51725 -1.66446 0.241986 -0.904326 -0.0750779 Si
23 2 4.16455 6.97359 1.32504 -3.53152 -1.7183 0.987087 -0.127628 -0.0887528 1.00297 Ge
38 2 6.91671 4.13445 1.36703 0.769899 1.50224 2.95745 -0.327757 0.567737 -0.484641 Ge
49 1 5.52688 5.57952 -0.0466382 -0.322671 -5.77874 -1.74136 0.419332 -0.861626 0.782827 Si
51 1 8.34699 5.53853 2.69333 -2.15403 2.79257 2.94791 0.132475 0.0209604 0.619858 Si
55 2 9.78169 6.96124 1.38146 -1.12201 -1.28014 1.45357 -1.03122 0.584058 0.0560337 Ge
20 1 2.70728 8.3238 0.0247798 1.31395 -1.72897 -6.29118 1.25952 -0.499424 -1.48116 Si
22 2 1.40261 9.66724 1.38624 0.974753 -0.505776 -0.439657 0.312429 1.0007 0.610007 Ge
33 1 5.48696 -0.015736 0.0619016 1.77004 0.438909 -4.18181 0.170784 0.239947 -1.08324 Si
50 1 5.51995 8.38049 2.76775 -1.71152 1.06658 5.11021 0.14961 -1.18518 0.0533646 Si
54 2 6.91825 9.75231 1.43833 -1.02815 2.3137 0.210266 -0.324325 -0.742067 -1.27561 Ge
1 1 0.04391 -0.104782 0.0108822 1.41042 -0.230634 1.71692 0.429369 2.27869 -0.882115 Si
18 1 0.083286 8.34504 2.78163 0.751112 -3.07206 -6.73304 -1.31158 -0.587193 0.627801 Si
5 2 1.31086 1.41486 4.13952 -0.229082 -0.968292 -1.24516 1.08124 -0.322089 0.269277 Ge
9 1 0.0257202 0.0376183 5.61568 0.741737 -3.24914 -3.66062 -0.987205 -0.15746 -0.980859 Si
12 1 2.75054 2.76542 5.54706 3.49748 1.84153 -4.68774 0.53567 0.465195 -1.28187 Si
15 2 4.18056 1.43672 6.89844 4.06412 -1.00242 0.546869 -0.550604 -1.71572 0.36696 Ge
37 2 6.96128 1.37827 4.15004 -1.66295 -0.80725 0.576386 -0.132128 -0.310907 -0.147445 Ge
41 1 5.519 -0.0164515 5.47197 1.23899 -2.71609 1.46738 0.139425 0.743573 0.750059 Si
44 1 8.30339 2.75978 5.56582 1.26899 0.734389 1.8853 0.27132 0.142723 -0.302129 Si
47 2 9.691 1.39932 6.98555 0.143866 -0.87841 -0.175088 -0.2733 -0.327086 0.191632 Ge
14 2 1.40034 4.14379 6.91788 2.94799 1.03983 2.73889 0.0496933 1.11588 0.127558 Ge
21 2 1.42044 6.91277 4.13526 2.05533 0.220821 -1.42639 0.275579 0.435553 0.662059 Ge
25 1 0.0282554 5.53136 5.49976 -3.37628 4.59025 -3.16578 -0.515189 0.281531 0.721427 Si
8 2 4.20886 4.13948 4.11436 2.53045 -1.24482 -2.36111 -1.40348 -0.0851719 0.281915 Ge
31 2 4.22125 6.91634 6.98599 -1.23077 -1.83656 2.11951 -0.895078 0.348209 0.241446 Ge
46 2 6.85449 4.11924 6.88664 -1.41307 1.9689 4.79019 0.401843 0.711126 1.58555 Ge
53 2 6.97566 6.92544 4.08581 -2.18701 -0.739943 -0.50028 -1.8719 -0.177858 0.0761946 Ge
57 1 5.5045 5.56108 5.51279 -1.89813 -2.65637 2.58056 1.43385 -0.0787943 -0.392723 Si
40 2 9.6861 4.16705 4.16173 1.16341 -1.6936 -1.34743 -0.641691 -0.0499954 -0.11188 Ge
63 2 9.6441 6.92207 6.87513 -3.22468 -1.02111 -1.46867 0.208237 -0.485771 1.3261 Ge
28 1 2.77401 8.2918 5.60359 -6.46455 -3.86299 0.437086 0.147021 0.2095 -0.652114 Si
30 2 1.37584 9.72286 6.9475 1.6538 2.56898 -0.218329 0.485025 -0.478493 0.891294 Ge
24 2 4.08355 9.72421 4.13044 1.30735 -1.86904 -3.38217 0.279158 -0.524227 0.532683 Ge
62 2 6.93305 9.69278 6.84063 1.31569 2.11409 -0.804296 -0.670259 0.428556 1.52721 Ge
56 2 9.73729 9.70908 4.19302 -1.22788 2.58847 2.55586 -0.695363 0.552072 -0.819888 Ge
60 1 8.24265 8.30613 5.50176 -0.561097 -2.423 -4.02844 2.03358 0.0247933 -0.380509 Si
13 2 1.40908 1.39953 9.68791 -0.29008 -1.06593 -2.95142 -0.314416 -0.0939192 1.21512 Ge
42 1 5.49134 2.75026 8.36479 1.66062 2.4198 -2.03144 1.09837 0.0940564 -0.7369 Si
45 2 6.93767 1.33064 9.69995 -1.81803 0.823699 1.73914 -1.53784 0.418109 0.652302 Ge
36 1 8.28073 2.77518 -0.0383717 -0.644994 2.4723 1.88435 1.12058 -0.900761 0.346094 Si
10 1 0.0251714 2.82179 8.30608 1.45228 4.31187 -0.270218 -0.359035 -1.09122 0.460135 Si
17 1 0.047105 5.55954 0.039896 2.61706 7.27606 5.48204 -0.790912 -1.04508 -0.481429 Si
27 1 2.7562 5.53738 8.36881 -0.725368 -0.457396 3.58806 0.249109 0.050065 -1.16524 Si
29 2 1.36154 6.91876 9.71941 -1.26841 0.393216 -1.64564 -0.0632174 0.752138 -0.315748 Ge
16 2 4.11125 4.1343 9.71763 0.65525 0.902128 -3.01159 0.544053 0.65087 0.517033 Ge
61 2 7.01399 6.9548 9.77733 1.57045 2.70526 1.22927 -1.49142 -0.014131 -0.821751 Ge
48 2 9.72548 4.14795 9.72071 -0.610593 -1.39036 -2.12885 -0.122588 0.709564 0.261957 Ge
59 1 8.25556 5.50685 8.39677 1.38936 -2.70072 -0.225586 1.06642 0.0354081 -2.28477 Si
11 1 2.80107 0.0166818 8.33978 -0.29762 -2.90424 1.5616 -0.266636 0.386156 -1.46521 Si
26 1 -0.0561692 8.33839 8.33775 -0.947079 3.01776 -0.383049 0.348078 -0.727415 -0.646113 Si
32 2 4.11666 9.67506 9.67143 -0.770599 0.0659487 -2.79436 1.00157 -0.0183968 1.38156 Ge
58 1 5.64348 8.32876 8.35542 1.03686 3.00749 -2.20409 -0.914689 -0.233844 -0.536803 Si
52 1 8.31093 8.37979 0.0220561 0.746573 1.38569 0.449428 0.974934 -0.431763 1.41306 Si
43 1 8.28401 -0.0669292 8.35943 1.56765 -0.906972 2.98092 0.673855 0.938258 -1.50243 Si
64 2 9.69902 9.72912 9.74907 0.726584 0.541146 1.44488 -0.297243 -1.07113 -0.748744 Ge
ITEM: TIMESTEP
20000
ITEM: NUMBER OF ATOMS
64
ITEM: BOX BOUNDS pp pp pp
0.0000000000000000e+00 1.1085848640000000e+01
0.0000000000000000e+00 1.1085848640000000e+01
0.0000000000000000e+00 1.1085848640000000e+01
ITEM: ATOMS id type xu yu zu vx vy vz fx fy fz element
3 1 2.82774 -0.0498876 2.76425 5.63956 1.69271 -3.31072 0.0185408 0.744611 -1.23663 Si
4 1 2.79296 2.74838 -0.0679566 0.656995 2.00576 1.88582 -0.361996 0.944769 0.699881 Si
7 2 4.2024 1.39493 1.3375 1.65857 -0.168512 2.47999 -1.05386 -0.527068 0.606641 Ge
34 1 5.45568 2.8019 2.80615 -2.62432 -2.50771 -0.378472 1.48179 -0.74916 -0.277242 Si
2 1 0.0992584 2.73721 2.78037 -0.325291 -0.374365 -2.03181 -1.16533 1.31949 0.82175 Si
35 1 8.29965 -0.00424465 2.76889 -2.19254 2.25166 -7.98756 -0.531065 -0.485089 -0.110545 Si
39 2 9.71951 1.43446 1.47068 2.27459 -0.80112 0.145753 -0.0164582 -1.00103 -1.12626 Ge
6 2 1.34989 4.16416 1.32808 -0.346767 -1.41019 3.0518 1.11362 -0.647151 0.128483 Ge
19 1 2.75132 5.49826 2.77787 1.13223 4.49793 -0.944263 -0.26799 0.697587 -0.744855 Si
23 2 4.14345 6.91572 1.34719 -0.0651306 1.67468 2.55245 -1.05159 -0.419715 1.12251 Ge
38 2 6.90892 4.12664 1.42751 -1.36533 -1.1116 2.92421 -0.15732 0.588695 0.099378 Ge
49 1 5.53449 5.55788 0.0595427 -3.60968 6.14692 -0.93074 0.375239 -1.04313 -1.55162 Si
51 1 8.27902 5.54074 2.80828 0.738635 1.15475 -4.9665 0.137207 -0.0173364 0.507065 Si
55 2 9.61911 6.93104 1.37905 0.98725 -1.6018 -2.12942 1.08612 -0.671526 0.576433 Ge
20 1 2.78444 8.33446 -0.00938757 -2.00296 0.737128 9.47107 -0.635076 -0.541257 -0.000176191 Si
22 2 1.37886 9.71274 1.36101 -1.21154 -0.119082 0.505976 -0.865116 -0.0234162 0.395376 Ge
33 1 5.55658 -0.00989398 -0.0380231 0.333432 -1.85166 2.90878 1.25351 0.193743 0.21458 Si
50 1 5.54095 8.21141 2.72564 0.238878 2.89059 -1.08476 -0.000945673 1.46649 1.85904 Si
54 2 6.91135 9.61059 1.36924 2.16211 0.267309 0.670093 0.00798405 1.74211 0.265742 Ge
1 1 -0.0214887 0.0910888 -0.0349409 -0.808847 -3.24838 2.39426 -0.434724 -1.71135 1.12352 Si
18 1 -0.0938462 8.32362 2.79403 -1.90875 3.38922 -0.444779 1.9422 -1.13934 -2.06414 Si
5 2 1.4764 1.33188 4.12385 -2.69074 -1.16153 -2.77706 -0.926379 0.0247784 0.61244 Ge
9 1 -0.0279991 0.0178005 5.49738 1.58792 0.674463 0.861844 0.569664 -0.963168 -0.591418 Si
12 1 2.78306 2.70116 5.56393 -2.65223 -1.87672 5.081 -0.384857 1.10048 -0.190846 Si
15 2 4.15966 1.38563 6.95468 0.880082 2.09187 3.88729 0.722445 0.285944 0.567166 Ge
37 2 6.91272 1.40716 4.16409 -0.636064 -0.388982 -1.3332 -0.352224 -0.118231 -0.144686 Ge
41 1 5.55562 0.0315536 5.58817 -2.44565 -0.961672 -2.48188 0.421217 -0.908372 -0.196269 Si
44 1 8.2854 2.7712 5.56632 -0.40721 -1.28932 0.385574 1.34951 -0.0633767 -0.431182 Si
47 2 9.74351 1.39802 6.92381 1.15632 -1.85226 -1.2958 -0.953492 0.16669 -0.445284 Ge
14 2 1.36458 4.13896 6.90216 -0.866278 -1.06654 2.77914 0.760893 -1.10522 1.49985 Ge
21 2 1.31146 6.88172 4.12968 0.00657323 -1.84138 -4.03867 1.1723 0.997047 0.721104 Ge
25 1 0.00114325 5.53108 5.62633 2.98071 -1.02647 1.53165 -0.279938 0.251891 -1.81508 Si
8 2 4.11879 4.15083 4.20614 -0.769203 2.17435 -1.55906 0.116943 0.212504 0.178542 Ge
31 2 4.12662 6.94435 6.90205 0.0192994 -1.30998 0.802416 0.500598 0.0706489 -0.0622984 Ge
46 2 6.98936 4.17497 6.93776 -1.67924 -2.12709 -3.79427 -1.25805 -0.170175 0.464461 Ge
53 2 6.92822 6.93922 4.26841 7.12321 -1.03292 -0.635408 0.269545 -0.087105 -1.37793 Ge
57 1 5.55316 5.53037 5.58346 -4.8265 0.606028 0.226661 -0.510368 -0.103119 0.101447 Si
40 2 9.71469 4.16646 4.20123 1.2159 1.54628 -2.23241 0.253009 -0.721868 -0.601942 Ge
63 2 9.76744 6.9621 6.94412 -0.183332 0.842381 1.94685 -0.941537 -0.137102 -0.0307553 Ge
28 1 2.82663 8.34227 5.47622 3.06302 0.775192 0.45099 -2.06343 -1.1563 0.13406 Si
30 2 1.36953 9.68257 6.85964 -0.353901 2.08374 0.130614 0.433459 0.426516 0.660493 Ge
24 2 4.19163 9.7191 4.16188 -0.238026 3.29905 -1.18128 1.35851 -0.730795 -0.808847 Ge
62 2 6.95525 9.69822 7.0085 -0.388504 0.382911 -2.36362 -1.32961 0.329883 -0.854386 Ge
56 2 9.66879 9.63555 4.11022 0.0409755 0.482943 1.04272 -0.510084 2.45766 1.72494 Ge
60 1 8.35516 8.35127 5.61331 -2.24169 1.47995 2.626 -0.548874 -0.664369 -0.396596 Si
13 2 1.36396 1.39035 9.68439 -1.38417 -2.11676 -0.867843 1.23307 -0.397187 -0.0559601 Ge
42 1 5.5814 2.78654 8.35707 -1.18684 -1.65352 1.7826 -0.00526063 0.281037 -1.18074 Si
45 2 7.01043 1.4349 9.6869 2.2705 -0.999555 -2.86558 -1.24637 -0.608818 1.0784 Ge
36 1 8.34817 2.77641 0.0572326 -2.52284 4.0514 -0.175393 0.138437 0.848025 -0.450364 Si
10 1 -0.00213934 2.71552 8.3656 0.0556158 0.274075 1.49253 0.0595297 2.11066 -1.25028 Si
17 1 -0.0627519 5.54004 -0.0273764 2.35508 0.937712 -1.55877 1.36644 1.41043 0.989359 Si
27 1 2.77186 5.56504 8.26394 -2.39353 1.59443 0.688499 -0.317143 -0.812101 0.300621 Si
29 2 1.40788 6.91051 9.68996 3.04611 -1.48144 0.740742 -0.381952 0.202325 0.404485 Ge
16 2 4.17563 4.19072 9.66696 -1.03598 -1.22509 -4.57036 -0.17615 0.0733652 0.625951 Ge
61 2 6.86666 6.91392 9.66656 2.66887 -2.70545 -1.28472 0.779263 0.480803 0.746412 Ge
48 2 9.73702 4.19503 9.71781 -0.0591794 1.07868 -0.541009 -1.85272 -1.1988 -1.09959 Ge
59 1 8.34055 5.60305 8.26481 -2.98738 -0.409529 4.40181 0.214618 -0.688093 1.38904 Si
11 1 2.75905 0.0115171 8.29359 -1.07228 1.71563 6.65513 -0.350053 -0.874107 0.218038 Si
26 1 0.0245651 8.29279 8.32081 -0.903165 -1.46549 2.91399 0.11841 1.27628 0.215538 Si
32 2 4.15354 9.70204 9.71637 -4.03867 0.765459 0.119175 -0.944177 0.908148 -0.441726 Ge
58 1 5.43994 8.32516 8.34277 1.52914 -2.16003 3.23097 1.75216 -0.331965 -0.784803 Si
52 1 8.30599 8.29173 0.0131449 -3.98226 0.162892 -3.87802 -0.770386 0.166347 -1.81516 Si
43 1 8.30545 0.0784104 8.27199 -1.53878 -2.03483 1.03435 0.953416 -1.05539 0.749342 Si
64 2 9.65693 9.72379 9.67077 0.433117 1.57551 2.0148 0.684874 0.0932683 0.335507 Ge
