ITEM: TIMESTEP
10000
ITEM: NUMBER OF ATOMS
64
ITEM: BOX BOUNDS pp pp pp
0.0000000000000000e+00 1.1085848640000000e+01
0.0000000000000000e+00 1.1085848640000000e+01
0.0000000000000000e+00 1.1085848640000000e+01
ITEM: ATOMS id type xu yu zu vx vy vz fx fy fz element
4 1 2.851 2.74368 0.0774386 2.19456 -0.566674 0.861696 -0.286617 1.42317 -1.64638 Si
7 2 4.17704 1.39948 1.49058 -0.640902 0.223759 -2.55985 -0.0315419 -1.29108 -0.121554 Ge
34 1 5.63483 2.69739 2.8614 0.167017 -5.61239 1.73141 -1.47679 0.875954 0.698622 Si
2 1 -0.0841953 2.7489 2.67527 5.17554 0.904335 1.84553 0.432529 0.848094 0.746049 Si
39 2 9.66591 1.37292 1.29246 0.362596 -0.682156 1.96615 -0.476414 0.355712 0.0306707 Ge
6 2 1.41084 4.13892 1.41502 1.25573 0.168087 0.0460904 -0.295988 0.183138 -0.987092 Ge
19 1 2.81906 5.52906 2.76257 -0.995533 -3.35693 0.229514 -0.421851 0.207209 0.569405 Si
23 2 4.16529 6.93935 1.41077 2.13957 -0.0285364 1.02761 0.0883723 0.0509819 -0.122018 Ge
38 2 6.8556 4.14255 1.4664 1.15268 0.918807 0.650044 1.32659 -0.964415 -1.13622 Ge
49 1 5.56842 5.53733 0.0927842 0.930792 -2.00025 0.984476 -1.66502 0.0182532 -1.58512 Si
51 1 8.27777 5.46594 2.74739 -0.180811 -1.31489 2.28144 1.00673 1.74755 0.484097 Si
55 2 9.71831 6.89709 1.34576 -1.72534 1.19777 -1.69759 -0.990646 -0.314943 0.536313 Ge
3 1 2.72231 -0.086672 2.71186 -3.1442 -0.563736 1.92128 0.122266 1.2205 0.841698 Si
20 1 2.73766 8.33011 0.031155 -3.87142 1.755 -3.5253 0.0780429 -0.881797 -1.08054 Si
22 2 1.33488 9.67512 1.33726 -0.687264 -0.618223 -1.05677 -0.107778 0.712523 -0.125851 Ge
33 1 5.4639 -0.0486993 0.102884 3.37767 -1.81624 -5.20814 0.483531 -0.236757 -0.467342 Si
50 1 5.58222 8.25165 2.8343 -5.75231 -8.59007 -2.52149 -0.701288 -0.23588 0.274131 Si
54 2 6.93902 9.60466 1.45473 0.636713 -0.889457 1.14207 -0.705745 0.814651 -1.27119 Ge
35 1 8.37522 -0.10421 2.68657 0.367195 0.664325 0.554808 0.097331 1.41146 1.99173 Si
18 1 -0.0141598 8.29975 2.7046 2.25759 1.34706 2.08048 -0.0394652 0.412274 0.232089 Si
52 1 8.3391 8.33764 0.0134669 -0.387671 -0.936998 -0.238818 0.341194 0.189674 -0.747587 Si
5 2 1.30804 1.38699 4.02407 -1.15357 1.25925 -2.12532 0.326828 -1.32758 1.25823 Ge
12 1 2.76665 2.69921 5.42401 0.66703 1.47246 2.37563 -0.853839 1.25018 0.719816 Si
15 2 4.17619 1.38987 6.81707 1.84584 0.456301 -0.505377 0.255274 -0.403123 0.85875 Ge
37 2 7.05313 1.33617 4.20624 0.92842 -2.23259 2.8981 -0.471536 -1.13339 0.0136566 Ge
9 1 -0.0479069 0.0192844 5.57111 3.05243 2.76423 1.9592 1.0134 0.632941 -0.820112 Si
44 1 8.36123 2.85369 5.56043 -2.42745 -2.87915 -1.7877 -0.871594 -0.663551 -0.325796 Si
47 2 9.64447 1.43925 6.91038 -1.94419 -0.366844 -1.73342 0.856564 -0.718963 0.0861059 Ge
14 2 1.37829 4.1561 6.86177 -4.30417 -2.71589 -4.13448 0.514567 -0.84173 -0.539369 Ge
21 2 1.41313 7.01303 4.04973 1.11119 2.52706 0.0679642 0.0538269 -1.87344 1.47935 Ge
25 1 0.0358299 5.59094 5.4924 4.31889 2.90744 -0.594197 0.33085 -0.66284 -0.990634 Si
8 2 4.18908 4.17123 4.21304 -1.05666 2.50344 2.76845 0.307062 -0.725246 -1.03385 Ge
31 2 4.18065 6.90545 7.01442 3.26327 0.808986 -1.17286 -0.375092 1.45883 -0.296764 Ge
46 2 6.96321 4.1618 6.99264 1.61041 -0.0424229 3.15292 -0.683595 0.476063 -1.21005 Ge
53 2 6.95608 6.84199 4.22152 1.8168 -2.04356 -0.546369 -0.106825 0.766693 -0.101903 Ge
57 1 5.51001 5.55738 5.63952 -1.46768 -2.76821 0.102293 1.35479 -0.946741 -0.368872 Si
40 2 9.70086 4.17701 4.13449 -1.34778 -1.89034 -0.959628 0.694953 -0.132167 -0.269831 Ge
63 2 9.74638 6.83441 6.93575 -0.553498 -1.0017 -0.234711 -0.759248 1.94234 0.461418 Ge
28 1 2.7535 8.26281 5.59613 -1.64077 -0.872796 -1.23126 -0.0520989 1.02163 -0.117563 Si
30 2 1.35866 9.7416 6.97096 -3.72198 -0.668898 -1.04843 0.383184 -0.401461 -1.56152 Ge
41 1 5.58526 -0.113832 5.60639 2.49385 0.938768 -0.13395 0.0244021 0.907634 -1.96099 Si
24 2 4.09269 9.64066 4.13219 -0.206815 0.357546 -0.70528 1.30766 0.0351847 1.27587 Ge
62 2 7.01813 9.68071 7.01187 1.80302 -1.88915 -0.481861 -1.10264 -0.732039 -1.10298 Ge
56 2 9.77725 9.67412 4.16815 -0.644441 -0.878261 1.88567 -1.43992 -0.511259 -0.341026 Ge
60 1 8.3589 8.27738 5.58332 0.101395 3.0591 -2.40713 0.391718 -0.227848 -0.305419 Si
1 1 0.0653846 0.0994333 -0.036525 -2.97895 3.66741 0.271904 0.435718 -0.165064 -1.28145 Si
10 1 0.00613649 2.74205 8.25581 5.69328 2.62604 -3.38586 -1.01515 2.4859 0.54915 Si
11 1 2.77664 0.0634119 8.23304 -0.835911 0.848248 2.65665 0.0421701 0.21705 0.0446482 Si
13 2 1.49884 1.50802 9.58102 -0.598921 -1.15615 -1.5722 -0.985603 -1.48371 2.25832 Ge
42 1 5.53627 2.7799 8.25266 -0.0531293 -0.556146 3.86454 0.0558496 -1.25988 0.807513 Si
45 2 6.82022 1.35601 9.77306 -1.59958 3.73005 -0.854078 0.646244 0.397338 -1.3477 Ge
36 1 8.24199 2.82134 -0.0286915 2.37006 -3.40064 -1.99155 -0.253437 -0.616354 0.791214 Si
43 1 8.28206 0.0586316 8.28282 1.95238 10.5362 1.84011 0.441434 0.543956 1.9846 Si
17 1 0.029678 5.5492 -0.0233424 -1.78687 0.441863 -1.12694 -0.0279404 -0.599912 -0.0109311 Si
27 1 2.76263 5.50476 8.27788 -1.7612 0.565963 0.548742 -0.185739 0.201126 0.841978 Si
29 2 1.3766 6.94381 9.65772 -0.115505 2.79607 1.69864 0.425419 0.0407323 0.301134 Ge
16 2 4.20067 4.14542 9.64455 1.05491 0.833611 3.24232 -0.450724 0.404686 1.95591 Ge
61 2 6.84025 6.99712 9.78257 -0.209072 2.11401 1.27023 1.84687 -0.822651 -0.473584 Ge
48 2 9.63391 4.21211 9.69649 -1.47054 -1.49071 -1.32087 1.66409 -1.32424 -0.392372 Ge
59 1 8.26723 5.57161 8.34971 -2.54361 1.02947 -2.60259 -0.182097 0.965811 0.500979 Si
32 2 4.01063 9.76948 9.69372 0.707692 0.790375 1.20411 2.12336 -0.574448 0.671276 Ge
58 1 5.54881 8.39787 8.38154 -1.50193 1.14911 -2.02674 -1.33544 -0.476345 -0.0111172 Si
26 1 -0.0175657 8.35951 8.2919 -0.237016 0.980451 0.88392 -0.129644 -0.790577 0.520392 Si
64 2 9.74394 9.81151 9.67429 0.917405 -3.02694 0.380144 -0.991527 -0.879789 0.369601 Ge
ITEM: TIMESTEP
10100
ITEM: NUMBER OF ATOMS
64
ITEM: BOX BOUNDS pp pp pp
0.0000000000000000e+00 1.1085848640000000e+01
0.0000000000000000e+00 1.1085848640000000e+01
0.0000000000000000e+00 1.1085848640000000e+01
ITEM: ATOMS id type xu yu zu vx vy vz fx fy fz element
4 1 2.6645 2.80604 -0.0779494 -0.529223 -2.75746 4.67162 0.735135 -0.914452 1.09518 Si
7 2 4.12662 1.42296 1.31213 -0.635067 2.93969 -3.25898 0.313931 0.44094 -0.4444 Ge
34 1 5.51572 2.81814 2.69781 3.54314 0.126639 -3.78594 0.242242 -0.653492 -0.994468 Si
2 1 0.00845807 2.73739 2.82587 -2.86786 -2.40921 1.66771 1.16394 0.377353 0.643364 Si
39 2 9.73361 1.39426 1.46968 0.79824 -0.121274 0.486432 -0.542947 -1.31645 -1.09934 Ge
6 2 1.3309 4.14823 1.38449 -0.116289 -1.86651 3.44246 0.940034 0.362402 0.56683 Ge
19 1 2.77388 5.57537 2.75228 2.07564 1.11419 -4.54394 -0.520492 -1.23697 -0.219473 Si
23 2 4.15671 6.95448 1.38742 -0.410363 0.39 -1.08486 1.39628 0.0181945 0.395245 Ge
38 2 6.93755 4.1609 1.3261 -1.09295 3.54256 -2.75714 0.11086 0.955773 0.553225 Ge
49 1 5.48859 5.54175 -0.0571551 2.67865 0.315233 2.07099 0.695033 -0.420748 0.875357 Si
51 1 8.33469 5.59428 2.78566 -1.90895 -3.41689 -0.565548 -0.821751 -1.47662 0.296126 Si
55 2 9.72803 6.94641 1.46239 0.483829 0.583608 0.312157 -0.431583 -0.235406 -2.04359 Ge
3 1 2.85977 0.0327748 2.77019 0.510822 -1.86359 -2.59973 -0.836908 -0.197148 0.0912881 Si
20 1 2.85076 8.29903 0.000878006 2.53167 1.97525 6.76479 -1.72169 0.65974 -0.469613 Si
22 2 1.45271 9.68773 1.43935 1.58795 -3.12989 0.992866 -0.0171568 -0.829353 -0.332051 Ge
33 1 5.56124 0.0458635 -0.0709316 -3.28063 1.47836 0.617878 -0.314046 -0.357075 0.26444 Si
50 1 5.58317 8.4213 2.76635 1.36372 4.36992 -1.402 -1.1234 -1.35565 -1.05675 Si
54 2 6.91564 9.77064 1.34893 1.68402 -0.149301 -1.79176 0.964991 0.0631208 0.301336 Ge
35 1 8.2518 0.0850599 2.8467 -0.956566 -3.62113 -6.59806 0.339093 -0.699601 -1.66472 Si
18 1 -0.0233635 8.3047 2.77672 -3.39202 -0.3016 -0.94477 1.3311 0.587974 0.539924 Si
52 1 8.31922 8.28462 0.014996 -0.235747 -1.96107 0.335296 -0.625999 -0.324819 0.107673 Si
5 2 1.49808 1.37428 4.23218 -0.525085 2.29701 1.49015 -1.42033 0.0558238 -1.19484 Ge
12 1 2.78838 2.8077 5.61043 2.22371 -4.88582 -0.913162 0.649753 0.063459 0.352111 Si
15 2 4.07566 1.4082 7.12347 -0.330555 2.93936 0.744626 1.34708 -0.12652 -2.56282 Ge
37 2 6.83373 1.48341 4.12256 0.806615 3.28447 0.161353 0.227886 -0.846192 0.791333 Ge
9 1 0.0399261 -0.0761292 5.481 0.189457 -2.94115 2.48 0.327552 1.18089 1.57536 Si
44 1 8.26713 2.74041 5.53533 2.23217 3.52974 1.99995 0.807606 0.205042 0.129952 Si
47 2 9.72845 1.35387 6.92141 -0.653691 1.02441 -1.46373 -1.01593 -1.07008 -0.51108 Ge
14 2 1.44352 4.21349 7.02711 -1.50474 -1.2732 2.6671 -1.58938 -1.40254 -0.8323 Ge
21 2 1.33244 6.86339 4.15368 0.462185 0.425202 -0.817455 0.445621 1.0322 0.720744 Ge
25 1 -0.0307529 5.47138 5.59545 -1.52544 -0.198129 4.15006 0.595999 1.59184 0.493844 Si
8 2 4.16963 4.11145 4.06892 -3.09424 3.1013 1.00131 -0.927405 1.48822 1.59339 Ge
31 2 4.12555 6.93699 6.88375 0.778416 -2.13138 -1.86801 1.25001 -0.586454 -0.132525 Ge
46 2 6.88006 4.15526 6.84446 -0.281281 -1.68497 -1.78925 1.12148 0.0634688 1.60723 Ge
53 2 6.86563 6.98146 4.11936 -1.33258 0.25822 -1.10148 1.5427 -0.535238 -0.14048 Ge
57 1 5.55699 5.54176 5.45241 -2.46534 1.96826 -2.62121 -1.67557 0.13146 0.471478 Si
40 2 9.71476 4.12944 4.20384 -0.336709 0.541721 3.09226 -1.15491 -0.0317267 -0.740879 Ge
63 2 9.66754 6.98026 6.94291 0.554177 -1.48533 -1.00768 0.464819 -1.54293 -0.764543 Ge
28 1 2.7791 8.33115 5.5052 1.08788 -1.07557 1.70183 -0.375829 -0.761059 -0.334948 Si
30 2 1.47234 9.69427 6.94634 -0.0647596 -2.277 2.64111 -1.93834 -0.66749 -0.726778 Ge
41 1 5.4581 0.088491 5.52396 -3.92723 -0.592505 3.72311 0.139203 0.164322 1.47912 Si
24 2 4.19198 9.71286 4.14964 -2.527 0.544794 -0.776063 -0.550029 0.565971 0.1299 Ge
62 2 6.85327 9.7342 6.90574 -0.461174 1.27913 -1.55876 0.494428 -1.14056 -0.292138 Ge
56 2 9.68508 9.72221 4.09719 1.39358 3.15221 0.854321 -0.64834 -0.718675 1.06733 Ge
60 1 8.28619 8.29416 5.5108 -1.52152 -0.193722 0.118339 -0.333647 1.58592 0.146265 Si
1 1 -0.0239612 -0.146266 0.0544705 1.14844 -2.90065 4.99511 -0.301735 2.05586 0.362509 Si
10 1 -0.0481195 2.74603 8.3337 1.55598 -10.1845 0.428996 1.90221 0.020373 -0.00446391 Si
11 1 2.77493 -0.0947769 8.39117 0.551462 -1.65121 -0.360544 -0.525574 1.28501 0.296506 Si
13 2 1.31307 1.29187 9.7434 1.75689 -0.30659 1.10617 -0.0320842 0.109397 -0.634548 Ge
42 1 5.58612 2.78605 8.36375 0.339205 5.80289 -4.9299 -0.159263 -0.106907 -0.177998 Si
45 2 7.04796 1.36597 9.69188 -0.879611 0.0673195 1.88861 -1.31536 0.43992 -0.126931 Ge
36 1 8.36349 2.74786 0.021853 1.87905 3.30702 -3.7371 0.719401 0.550179 -0.110032 Si
43 1 8.31551 -0.102818 8.32943 0.773617 -5.25593 -5.87818 0.124024 1.94075 -1.4942 Si
17 1 0.0388468 5.58585 0.0223775 2.04194 0.52784 2.31122 -0.769911 0.205482 -0.208322 Si
27 1 2.79899 5.60203 8.34071 2.65143 -1.50867 -0.692836 -0.342566 0.151918 -0.424348 Si
29 2 1.37316 6.97327 9.6579 -0.145195 3.17291 1.63665 0.675507 -0.0708364 1.35718 Ge
16 2 4.10248 4.15808 9.66793 3.13706 -4.07472 -2.51471 0.732167 0.0318288 0.375539 Ge
61 2 6.98338 6.80953 9.66531 -2.76605 -0.930521 0.632934 -0.447626 1.53645 0.833374 Ge
48 2 9.76407 4.17142 9.72047 -0.727791 1.17305 0.697935 -0.878397 -0.332004 0.505043 Ge
59 1 8.36914 5.48944 8.29792 1.35439 -3.56776 -2.52151 -0.681496 -0.289228 -0.916658 Si
32 2 4.21514 9.64275 9.66043 -2.83282 -2.0987 0.072369 0.294217 0.137406 1.24606 Ge
58 1 5.5661 8.22025 8.32588 4.45892 0.730024 0.23563 0.274271 0.64699 -1.19363 Si
26 1 -0.0221762 8.32571 8.29374 -2.23577 3.96282 -2.78583 0.439198 0.743154 0.0110209 Si
64 2 9.64627 9.66857 9.69676 3.27473 -0.650185 0.424173 1.23191 -1.20261 0.573584 Ge
ITEM: TIMESTEP
10200
ITEM: NUMBER OF ATOMS
64
ITEM: BOX BOUNDS pp pp pp
0.0000000000000000e+00 1.1085848640000000e+01
0.0000000000000000e+00 1.1085848640000000e+01
0.0000000000000000e+00 1.1085848640000000e+01
ITEM: ATOMS id type xu yu zu vx vy vz fx fy fz element
4 1 2.84456 2.74654 0.026416 -0.696229 2.52839 -5.81283 0.0298565 -0.0476512 0.875718 Si
7 2 4.20703 1.33168 1.52188 -2.41144 -1.47608 1.73964 -1.04581 0.843512 -1.84895 Ge
34 1 5.53596 2.78905 2.81551 0.186291 0.404039 6.21938 0.977161 -1.12589 0.444953 Si
2 1 -0.00764953 2.82837 2.70923 -3.85394 -2.58188 -4.47981 -0.624922 -0.843733 -0.198476 Si
39 2 9.65793 1.40823 1.34147 0.135647 1.52545 -0.778547 1.06712 -0.0698852 0.468557 Ge
6 2 1.41811 4.1732 1.36463 0.551937 -0.860613 -1.90222 -0.0979563 -0.117502 0.161662 Ge
19 1 2.74345 5.54001 2.86602 2.27082 3.9991 4.82268 0.887904 0.392136 -1.20168 Si
23 2 4.16003 6.92266 1.39292 -2.40658 1.14976 -0.472523 -1.42151 -0.337977 -0.41235 Ge
38 2 6.92508 4.09597 1.43677 -1.76751 -0.494167 -1.19737 -0.735224 1.93033 -0.842433 Ge
49 1 5.58269 5.57725 -0.000168975 -2.78475 0.855187 -1.48557 0.378419 -0.241895 0.0570831 Si
51 1 8.3008 5.55836 2.73337 1.99068 4.35053 -0.0240613 0.180103 0.41117 0.242057 Si
55 2 9.72638 6.94753 1.3293 -0.022389 0.854926 1.17603 -0.348622 0.0444555 1.04273 Ge
3 1 2.70794 0.0159791 2.81757 1.17679 -1.60681 0.787123 0.598609 -0.833531 0.0860316 Si
20 1 2.68906 8.28823 -0.0600882 3.22797 -3.06137 -2.332 1.19943 0.760952 1.33756 Si
22 2 1.31377 9.74237 1.40996 0.116294 2.22676 -4.57246 1.17073 -0.0751909 -1.41614 Ge
33 1 5.55704 -0.0193523 0.0650453 2.05487 -1.02037 0.195335 -0.120362 0.575614 -0.819738 Si
50 1 5.53234 8.25934 2.75581 5.34229 0.906163 3.30189 0.163577 0.879886 0.423754 Si
54 2 6.91481 9.67028 1.42959 -1.82026 -0.607874 1.0166 0.452856 0.079312 -0.578263 Ge
35 1 8.35266 -0.0278084 2.74267 0.420408 1.62116 6.49004 -0.283039 -0.124666 -0.186191 Si
18 1 0.0530265 8.31746 2.80222 -0.514771 -2.24925 -1.33892 -1.86208 -0.14774 -0.765813 Si
52 1 8.30727 8.35931 -0.00978442 1.53177 3.20518 0.629808 0.392519 -0.168761 0.168287 Si
5 2 1.27947 1.40992 4.12255 0.429277 -0.716356 -0.0927904 0.738922 0.282172 0.900459 Ge
12 1 2.73776 2.79446 5.49097 -1.58544 0.0475545 -3.58511 0.403841 -1.37818 -0.0823225 Si
15 2 4.17705 1.30915 6.77997 -1.33101 0.210313 2.13772 -0.178271 1.28964 0.763739 Ge
37 2 7.00116 1.35367 4.10615 3.83638 -1.35708 2.30258 -0.516949 0.664927 0.700568 Ge
9 1 -0.0738191 0.0431117 5.59074 -3.61687 -3.71369 -7.05346 0.365864 -1.30534 -0.775773 Si
44 1 8.35265 2.75288 5.53465 -1.61146 -1.5505 -0.789277 -0.47016 0.58069 0.127618 Si
47 2 9.67464 1.39105 7.00498 1.77864 3.5711 -1.13353 0.535203 1.03068 -0.337669 Ge
14 2 1.38438 4.13899 6.89211 2.51631 1.68904 -3.75131 -0.618469 0.778909 -0.0181507 Ge
21 2 1.37362 6.9877 4.2131 -0.588036 -1.55085 -1.59926 0.6271 -0.961551 -0.613095 Ge
25 1 -0.00608935 5.57239 5.49494 0.00396907 -4.02699 -5.38012 -0.398004 -0.77668 1.00195 Si
8 2 4.20823 4.14652 4.19671 3.2914 -2.41295 -0.12804 -0.813548 1.18431 0.4102 Ge
31 2 4.12111 6.93067 6.97314 -1.01277 3.90647 -0.154357 -0.000608782 0.00113357 -0.693428 Ge
46 2 6.96112 4.17897 6.95971 -2.37944 -0.478954 -1.4554 -0.453364 -1.06348 -0.271172 Ge
53 2 6.93537 6.96625 4.16419 -1.89995 -1.10801 3.86104 0.10098 -1.06838 0.469384 Ge
57 1 5.56081 5.57572 5.6231 4.356 -1.47246 0.854324 0.0117055 -0.120927 -1.10458 Si
40 2 9.68459 4.16625 4.0923 1.15666 -1.15751 -0.280916 0.252675 0.409909 0.819753 Ge
63 2 9.73623 6.93791 6.96456 1.49568 2.48834 2.94948 -0.190368 -0.445538 -0.479765 Ge
28 1 2.76803 8.32179 5.56016 -1.25833 -0.504867 -0.715053 0.27538 0.667299 0.468388 Si
30 2 1.36766 9.71533 6.96325 1.37919 2.72675 0.0757665 -0.0557263 -0.268396 -0.416283 Ge
41 1 5.65524 -0.057135 5.49301 3.11827 -1.45829 -4.81659 -0.892295 0.0440154 -0.51081 Si
24 2 4.18534 9.6673 4.13298 1.69735 -3.94525 1.52683 -0.610173 0.341878 0.42885 Ge
62 2 6.97575 9.69065 6.94109 -0.675238 0.14121 0.152419 -0.391265 0.219124 -0.244743 Ge
56 2 9.66292 9.65088 4.14747 0.333969 -0.83372 -1.54433 1.34655 1.15642 0.557534 Ge
60 1 8.33816 8.31915 5.57291 2.67573 -4.35453 -0.000581441 -0.0868532 -0.607389 -0.020393 Si
1 1 0.0109344 0.0955351 -0.0653956 1.04227 -3.99343 -4.65482 -0.426527 -1.33772 0.623546 Si
10 1 0.0103242 2.84005 8.35916 -6.26167 3.28317 -1.86845 0.108851 -1.52327 -0.77106 Si
11 1 2.7792 0.0634473 8.25027 2.21341 -1.29384 0.336595 0.329417 -0.906612 0.159813 Si
13 2 1.47177 1.41568 9.67608 0.688154 3.66546 -0.884505 -0.93292 0.930147 0.0314723 Ge
42 1 5.50711 2.69236 8.26694 1.34427 -3.44394 1.91966 -0.366732 1.90013 -0.199982 Si
45 2 6.8893 1.38873 9.64623 -1.70247 0.0349565 1.00436 0.00496626 -0.535069 2.09106 Ge
36 1 8.24429 2.76032 0.0403137 -5.32518 -4.26283 0.765816 0.283626 -0.201821 -1.78951 Si
43 1 8.28898 0.0198337 8.33177 -2.77591 -1.59513 6.02542 0.458487 -0.803844 0.0285185 Si
17 1 -0.065939 5.47386 -0.0219251 3.63917 0.7266 -2.4069 0.934013 0.173293 0.516829 Si
27 1 2.75573 5.48932 8.29536 0.036588 1.50543 2.28356 0.532772 -0.181235 0.185836 Si
29 2 1.39069 6.76482 9.71602 -2.45637 2.94266 -2.92967 -0.253079 1.22918 0.0253655 Ge
16 2 4.15803 4.18663 9.73702 0.939406 -1.41011 1.20733 0.899997 -1.14795 -1.14205 Ge
61 2 6.95873 7.02417 9.64589 1.19389 -2.04968 2.59861 -1.41025 -0.672936 0.85924 Ge
48 2 9.6415 4.13206 9.69668 -0.923968 -0.0323888 0.415743 -0.56545 0.2864 0.617724 Ge
59 1 8.30121 5.58675 8.33771 0.612048 1.88368 4.92611 0.701795 -0.401433 -0.37399 Si
32 2 4.13966 9.78321 9.68368 -2.18175 1.05507 0.362472 -0.414003 -1.26472 0.189841 Ge
58 1 5.49717 8.36619 8.25837 -1.86966 -2.28612 6.22119 0.509361 0.102685 1.28831 Si
26 1 0.0834456 8.2127 8.38106 2.13509 -3.67652 2.93549 -1.08122 1.59199 -0.569688 Si
64 2 9.70531 9.69672 9.68046 -0.754632 1.13393 -0.4115 0.745968 0.324604 0.110108 Ge
ITEM: TIMESTEP
10300
ITEM: NUMBER OF ATOMS
64
ITEM: BOX BOUNDS pp pp pp
0.0000000000000000e+00 1.1085848640000000e+01
0.0000000000000000e+00 1.1085848640000000e+01
0.0000000000000000e+00 1.1085848640000000e+01
ITEM: ATOMS id type xu yu zu vx vy vz fx fy fz element
4 1 2.718 2.7935 0.00724692 -1.47822 -1.59944 -0.902836 -0.297949 -0.121484 -1.69365 Si
7 2 4.16983 1.43906 1.29737 2.67773 -0.396873 -2.97149 -0.676891 -1.52021 0.724267 Ge
34 1 5.51023 2.70415 2.74555 -4.10019 3.47498 -6.03494 -0.336769 1.4967 0.383843 Si
2 1 0.0752745 2.77309 2.80142 4.60065 4.18311 1.35735 -1.08598 -0.503165 -0.684351 Si
39 2 9.6987 1.38717 1.43951 -1.41723 -0.0669965 2.62504 0.416364 0.805059 -0.204156 Ge
6 2 1.3239 4.16719 1.34631 -0.658839 0.729358 -0.831335 0.397657 -0.461683 -0.0150856 Ge
19 1 2.75696 5.46309 2.66131 -4.2978 -3.77042 -0.530952 0.183641 1.56526 2.05448 Si
23 2 4.21609 6.9109 1.44368 2.59218 0.0302849 -0.857543 -1.71568 -0.181586 -1.73952 Ge
38 2 6.94526 4.08522 1.4294 3.3154 -4.03556 -0.0297723 0.296653 0.567325 -0.688925 Ge
49 1 5.53233 5.48094 0.0409802 1.32956 1.83015 0.490295 0.338982 0.596661 -0.2085 Si
51 1 8.33233 5.50222 2.80606 -0.383035 -3.07738 -2.09163 0.20832 0.130256 -0.53709 Si
55 2 9.70159 6.91569 1.37824 0.872651 1.29886 -3.16814 -0.617804 -0.063646 0.670571 Ge
3 1 2.82106 -0.0118346 2.71999 -1.05944 3.71928 -1.99806 -0.0652672 0.529026 -0.311068 Si
20 1 2.78405 8.34764 0.0284291 -1.42222 -1.46763 -0.907481 0.792703 -1.05404 -0.424473 Si
22 2 1.38102 9.66982 1.40923 -1.92408 -1.05334 4.25012 -0.308217 1.3679 -0.779299 Ge
33 1 5.55064 0.00233183 -0.0165138 0.772194 -0.45928 2.10681 0.855791 -0.315834 0.431399 Si
50 1 5.4843 8.29328 2.82519 -2.31562 -3.19519 -2.43283 1.78642 0.675682 0.00584789 Si
54 2 6.93364 9.67126 1.44605 0.0567968 0.622032 0.666175 -0.953625 -0.0446966 -1.04458 Ge
35 1 8.29304 -0.00182966 2.7745 -0.511833 0.531131 -0.900717 0.0031996 0.0240251 1.10956 Si
18 1 -0.027032 8.32155 2.74308 4.94297 1.25047 2.03447 0.755118 -0.925632 0.616 Si
52 1 8.30592 8.2829 0.0175205 -1.13471 -2.54805 -0.805466 -0.202056 0.646691 -0.137775 Si
5 2 1.4835 1.38822 4.1068 -0.634017 3.48392 0.880727 -0.0167126 0.108099 1.10336 Ge
12 1 2.79788 2.76597 5.60723 -1.06466 4.31585 3.38611 -0.415535 0.309733 -1.04658 Si
15 2 4.14218 1.39656 7.00736 0.834182 -1.03622 -0.349841 0.0759442 0.364155 0.329697 Ge
37 2 6.8101 1.36459 4.15132 -1.85765 0.420851 -1.73146 1.69957 -0.45612 0.873885 Ge
9 1 0.10358 0.0386346 5.53184 1.0637 3.26888 6.31127 -1.70198 -0.531954 -1.00843 Si
44 1 8.26286 2.77031 5.53843 0.507311 -2.2952 -0.300644 0.345905 -0.673067 -0.365842 Si
47 2 9.68273 1.37328 6.89681 -1.03409 -1.83522 -0.301032 1.44397 1.2213 -0.47809 Ge
14 2 1.39299 4.19629 6.93575 -1.2967 -1.42842 1.13198 0.462941 -0.283102 -0.530224 Ge
21 2 1.42626 6.93442 4.11945 -0.332961 2.2864 4.15778 -0.322801 -0.33219 -0.0440164 Ge
25 1 0.0222826 5.57562 5.58457 -2.60573 3.2174 1.915 -0.101743 -0.573154 -1.7797 Si
8 2 4.11966 4.14054 4.13506 -0.887457 0.0974004 1.03241 0.363702 -0.791158 -0.234902 Ge
31 2 4.18538 6.88211 6.93326 0.10456 -2.44833 -3.51908 -0.243723 1.0821 -0.517824 Ge
46 2 6.9693 4.15443 6.99215 0.496122 0.0988045 -0.477957 -1.50425 0.114986 -1.26961 Ge
53 2 6.94205 6.92705 4.14654 -1.52329 3.33247 -2.45723 -0.683312 -0.455196 0.623895 Ge
57 1 5.52201 5.49471 5.52094 1.59958 1.61912 3.16438 1.18643 0.260753 0.393963 Si
40 2 9.74554 4.10498 4.16875 -0.407404 -2.04973 1.47709 -0.229907 0.974131 0.832397 Ge
63 2 9.64612 6.90155 6.88024 1.14504 2.04049 -2.10157 0.534477 1.47581 0.475965 Ge
28 1 2.80996 8.33058 5.54593 2.05401 0.589819 -0.308491 -0.0591953 -1.0013 -0.418757 Si
30 2 1.39359 9.68216 6.87783 -0.273493 -3.48767 1.79124 0.24878 0.735123 0.571448 Ge
41 1 5.47218 0.00767714 5.62351 0.266006 1.21844 3.24805 1.19042 -0.609471 -0.299027 Si
24 2 4.1519 9.733 4.16182 1.95349 1.20108 -0.765848 -0.0400097 -0.282601 0.459571 Ge
62 2 6.94666 9.67184 6.98988 0.12897 0.785174 -1.73615 -0.45952 1.30636 -1.04129 Ge
56 2 9.72704 9.67829 4.14674 -3.53025 0.704525 -0.206343 -0.169983 1.44837 0.622077 Ge
60 1 8.29238 8.34063 5.53458 -1.83566 1.04956 -0.349765 0.214114 -0.547536 -0.194693 Si
1 1 -0.0495033 0.0285555 0.0295598 -1.18321 2.23604 1.89278 0.637883 -1.1555 -0.523077 Si
10 1 0.0472884 2.80722 8.26209 2.12263 0.884999 4.06223 -1.64787 -0.563807 0.435034 Si
11 1 2.72692 -0.0231645 8.31717 -2.57738 -0.949452 -2.20277 0.579388 -0.163483 -0.0337291 Si
13 2 1.33164 1.36774 9.65331 0.405584 -5.08383 2.1183 0.569034 0.524017 1.24501 Ge
42 1 5.51683 2.84989 8.38792 0.679499 -3.66223 -0.123518 0.701189 -1.45558 -0.118663 Si
45 2 6.99218 1.39384 9.74505 2.5062 4.7618 -2.61581 -0.747774 0.994324 -0.764459 Ge
36 1 8.42016 2.81685 -0.0198538 4.45041 2.08375 6.94289 -1.12442 -0.7564 0.989836 Si
43 1 8.34406 0.0599927 8.28702 0.883459 -0.710563 -2.4967 -1.05202 -1.13076 0.784513 Si
17 1 -0.00420577 5.59186 0.00834841 -6.38989 -2.08158 1.72746 0.354464 -0.000972311 -0.903096 Si
27 1 2.74156 5.58292 8.28449 -0.813447 -2.60153 -3.65231 -0.119364 0.321937 0.472768 Si
29 2 1.37973 6.97992 9.67874 -0.465022 -0.994163 2.14812 -0.911904 0.991103 -0.385435 Ge
16 2 4.06695 4.22537 9.68065 -2.26319 2.35033 3.65098 0.59456 -0.726294 1.20773 Ge
61 2 6.90346 6.91295 9.73617 1.97095 1.64709 -2.33808 0.324075 -0.565311 -0.339414 Ge
48 2 9.75827 4.20534 9.68813 0.837842 -0.679378 -0.666392 0.0154668 -0.0686379 -0.735158 Ge
59 1 8.32593 5.55386 8.2956 -1.35526 -0.551817 -3.22104 -0.104546 0.22934 1.34964 Si
32 2 4.192 9.70309 9.67229 1.64461 1.72651 0.0392085 -0.947985 0.0191729 0.522665 Ge
58 1 5.5539 8.29806 8.31895 -0.0648643 -0.841018 -7.25546 -0.0762799 -0.589209 0.301406 Si
26 1 -0.0970688 8.42534 8.22173 1.97512 -3.82502 -1.47507 1.16322 -2.51908 1.02438 Si
64 2 9.64683 9.71829 9.6779 -0.196012 -3.73206 0.905181 0.200703 0.538448 0.885285 Ge
ITEM: TIMESTEP
10400
ITEM: NUMBER OF ATOMS
64
ITEM: BOX BOUNDS pp pp pp
0.0000000000000000e+00 1.1085848640000000e+01
0.0000000000000000e+00 1.1085848640000000e+01
0.0000000000000000e+00 1.1085848640000000e+01
ITEM: ATOMS id type xu yu zu vx vy vz fx fy fz element
4 1 2.81938 2.76364 0.0393497 3.66411 1.43717 5.17028 -0.00658645 0.414589 0.292992 Si
7 2 4.14961 1.41332 1.50335 0.351254 3.2755 1.86888 0.723258 -0.42441 -1.36623 Ge
34 1 5.60012 2.84004 2.78156 1.34467 -3.93298 3.57818 -0.466008 -0.0821787 -0.807116 Si
2 1 -0.0874067 2.72346 2.81624 -0.155812 -0.40843 1.99358 1.56246 0.98784 0.0499135 Si
39 2 9.73184 1.41097 1.33882 -1.387 1.92859 -2.42098 -1.48113 -0.845066 -0.341075 Ge
6 2 1.39597 4.10887 1.4729 -1.09003 -1.50666 -0.754798 0.439612 0.93722 -0.173138 Ge
19 1 2.7931 5.65118 2.83327 1.06497 -2.20194 -2.68822 -0.376089 -2.26884 -1.7828 Si
23 2 4.14666 6.97246 1.37385 3.30999 1.06182 3.28737 0.969354 0.0614376 -0.302777 Ge
38 2 6.86619 4.26788 1.31131 -2.85863 -0.536876 -2.06489 1.5336 -1.56745 0.661085 Ge
49 1 5.52942 5.57567 -0.0868661 -2.09412 -5.2541 -1.27679 -0.976143 0.197695 0.238346 Si
51 1 8.27995 5.59973 2.77799 -0.359791 1.26055 2.86873 0.141835 -0.475677 -0.517115 Si
55 2 9.73056 6.93509 1.42593 0.968671 0.123881 -2.85167 -0.492528 -0.0364246 -1.44776 Ge
3 1 2.73974 0.0199958 2.83946 0.545097 -2.88749 3.37823 0.0262684 -0.341868 -0.545128 Si
20 1 2.76395 8.31338 -0.0145364 -4.51585 0.641022 -1.49286 -0.139231 -0.429242 0.0911376 Si
22 2 1.42423 9.68001 1.42418 -0.45066 -1.19994 -2.51352 -0.680913 -0.105727 0.293185 Ge
33 1 5.49442 0.0184587 -0.0238473 -1.49391 -1.32858 0.0140453 -0.736347 -0.576259 0.695024 Si
50 1 5.58257 8.42535 2.69652 -5.35367 0.560455 0.882741 -0.932612 -1.64908 0.416488 Si
54 2 6.93504 9.72557 1.27935 1.16267 -1.85691 1.93373 0.349244 0.963441 0.908703 Ge
35 1 8.32328 0.0133626 2.73646 2.06081 -1.21883 -3.72913 0.356608 -0.0416208 -0.258996 Si
18 1 -0.0324093 8.31033 2.82164 -3.96107 0.715016 -1.32919 0.870961 0.485837 -1.00004 Si
52 1 8.31692 8.32715 -0.0319662 0.502274 1.06534 0.240069 0.546626 -1.17155 0.00581014 Si
5 2 1.33382 1.35423 4.21539 -1.0809 -1.16306 -2.22831 -0.459538 0.298782 -0.623941 Ge
12 1 2.76091 2.7553 5.5027 2.26463 -1.99667 1.31675 -0.353328 0.784003 0.888815 Si
15 2 4.11305 1.39671 6.91032 -0.446949 -1.39583 -3.65489 1.3152 -0.345244 -0.685328 Ge
37 2 6.99083 1.46387 4.12759 -0.192722 -1.03863 -1.02821 -0.279212 -0.893674 0.31338 Ge
9 1 -0.0613244 -0.0472913 5.54026 2.94907 1.03389 -0.248696 1.266 0.93187 1.79842 Si
44 1 8.36538 2.80371 5.55657 -1.14831 3.06432 0.863845 -0.30383 -0.225993 0.12604 Si
47 2 9.69106 1.36062 6.99059 -2.54611 1.54812 1.14384 -0.611444 -0.545086 -1.11005 Ge
14 2 1.40364 4.12286 7.01122 0.705472 0.476778 -2.54768 -0.114589 -0.0865203 -0.877223 Ge
21 2 1.33314 6.91081 4.13077 1.52529 -0.624502 0.557188 0.208721 0.610751 1.53592 Ge
25 1 0.0294219 5.509 5.54863 3.47607 0.768505 2.60352 -0.593566 0.376589 1.12198 Si
8 2 4.15546 4.15559 4.10786 -0.575409 1.4055 1.84003 -0.492671 0.519399 0.828256 Ge
31 2 4.12568 6.97111 6.9758 -0.494739 0.299642 0.95296 0.283088 -0.654533 -1.15868 Ge
46 2 6.91574 4.19029 6.85441 2.60324 0.898793 0.958356 0.121416 0.281456 0.465809 Ge
53 2 6.90037 6.9897 4.12964 -0.700951 2.81697 1.44463 -0.0350544 0.420065 -0.0648355 Ge
57 1 5.47158 5.5964 5.46565 -5.1782 -3.21848 -2.79771 0.6858 -0.0306968 1.33415 Si
40 2 9.68566 4.20762 4.15978 2.88885 -1.56409 -1.20616 -0.162772 -0.474342 -0.111366 Ge
63 2 9.67121 6.89862 6.98233 -0.435367 -1.95574 1.37756 1.22593 0.566579 -0.827422 Ge
28 1 2.71402 8.28339 5.5289 -1.35448 1.4898 1.29495 0.472514 0.726118 0.412913 Si
30 2 1.42454 9.74367 6.96899 -0.300331 -0.363468 -0.754913 -0.804659 -0.764576 -0.0304015 Ge
41 1 5.543 0.0336775 5.46825 -2.40389 0.416261 -2.00388 -0.357027 0.0464497 0.471276 Si
24 2 4.12321 9.67302 4.12485 0.328829 -1.407 1.51841 0.454142 0.585144 0.679879 Ge
62 2 6.90762 9.71536 6.88213 1.07983 -3.23241 0.200493 -0.126295 0.0423785 0.193404 Ge
56 2 9.71346 9.70186 4.17425 0.904102 -3.651 -0.991484 -1.49307 -0.138409 -0.799025 Ge
60 1 8.31044 8.33775 5.54319 1.0855 2.40772 1.37889 0.140267 -0.760593 0.250007 Si
1 1 0.0574789 -0.0434657 0.0223759 -0.766728 5.39993 -1.47539 -0.195504 0.891946 -0.161984 Si
10 1 -0.0269111 2.6831 8.36682 3.63742 3.8087 -1.40908 0.816162 1.5782 0.23918 Si
11 1 2.82799 0.045554 8.37748 -0.0506581 4.1301 0.117797 -0.840897 -0.673673 -0.970753 Si
13 2 1.43968 1.40515 9.74788 2.9245 3.59493 -0.852685 -0.540163 -0.886892 0.328882 Ge
42 1 5.58104 2.74173 8.22842 -3.56705 3.51446 -0.430879 0.338235 -0.721764 0.0895694 Si
45 2 6.89803 1.27906 9.66943 -2.10056 -3.69483 3.27918 -0.348524 1.74306 -0.702811 Ge
36 1 8.22196 2.74026 -0.0807487 -0.652667 0.711737 -6.70072 0.734113 0.476368 1.71272 Si
43 1 8.28488 -0.0608504 8.32681 2.81925 5.0973 0.222582 0.748584 0.0925836 -0.483204 Si
17 1 0.0740036 5.51671 0.00717291 2.79493 -0.132679 -1.00667 -1.5262 -0.694864 1.24219 Si
27 1 2.81961 5.54386 8.37807 -0.986259 1.64573 2.83394 0.108952 -1.35473 -1.13578 Si
29 2 1.42104 6.84546 9.71303 0.107523 -2.31961 0.548501 0.140522 1.51302 0.637797 Ge
16 2 4.23571 4.05588 9.63236 0.365321 -1.75289 -2.01583 -0.928756 1.4377 1.34689 Ge
61 2 6.93963 6.90789 9.63202 -0.461094 1.06441 3.06326 0.24946 0.84151 0.988094 Ge
48 2 9.68434 4.12979 9.73546 -0.10074 0.161027 4.00156 0.716079 -0.232529 -0.233596 Ge
59 1 8.32899 5.50082 8.34975 0.928551 -0.324114 -0.56346 -0.605911 -0.206313 -1.13819 Si
32 2 4.15134 9.64439 9.66809 -1.28953 1.49668 -0.775346 0.356361 1.16049 0.972777 Ge
58 1 5.56483 8.32825 8.30846 -1.92526 2.21469 1.50184 -0.0698159 -0.181479 -0.777711 Si
26 1 0.0503421 8.27836 8.38431 -3.90863 5.87329 -0.303807 -0.39802 0.212733 -1.28146 Si
64 2 9.73114 9.698 9.70815 1.43879 -0.305651 -2.39864 0.0270629 -0.297965 0.0849268 Ge
ITEM: TIMESTEP
10500
ITEM: NUMBER OF ATOMS
64
ITEM: BOX BOUNDS pp pp pp
0.0000000000000000e+00 1.1085848640000000e+01
0.0000000000000000e+00 1.1085848640000000e+01
0.0000000000000000e+00 1.1085848640000000e+01
ITEM: ATOMS id type xu yu zu vx vy vz fx fy fz element
4 1 2.71357 2.7719 -0.0859959 -4.37474 -1.26457 -1.95338 0.596789 -0.497574 0.749507 Si
7 2 4.14987 1.31931 1.32764 -1.54208 1.44709 -2.63568 -0.689489 1.85759 0.079096 Ge
34 1 5.52699 2.69857 2.77485 2.72427 -1.41784 -0.166491 0.165947 -1.04916 0.568895 Si
2 1 0.0401271 2.80081 2.67252 -1.30299 -2.79682 -1.26603 -0.681599 -0.334491 1.45509 Si
39 2 9.72152 1.33621 1.40949 2.92952 0.572287 1.39837 -0.0731709 0.184933 -0.130526 Ge
6 2 1.41042 4.20339 1.34955 -1.98629 -1.67373 -1.23649 -0.684064 -0.537089 -0.892292 Ge
19 1 2.78168 5.49413 2.76784 -0.135048 5.40894 2.92383 0.166978 0.644146 0.814202 Si
23 2 4.1038 6.90635 1.38871 0.332453 0.878729 0.691472 1.47807 0.434631 1.74028 Ge
38 2 6.95001 4.06329 1.51086 -1.66359 0.415433 -2.43044 -0.946242 1.81893 -2.06757 Ge
49 1 5.56463 5.60413 0.105533 2.93875 2.80743 1.42482 0.286232 -2.02305 -0.626627 Si
51 1 8.33922 5.50867 2.72441 -1.28192 0.339262 0.863984 -0.0882333 -0.13126 1.77083 Si
55 2 9.69063 6.94078 1.41682 2.34795 1.34601 0.725496 0.00119302 0.0995437 -0.708143 Ge
3 1 2.76838 -0.0248896 2.70028 0.956529 2.38973 0.0623994 0.0136604 0.0814639 1.2152 Si
20 1 2.82769 8.33589 0.0463298 3.89156 2.97214 1.74175 -1.96355 0.130898 -1.19276 Si
22 2 1.34832 9.71828 1.3684 1.38942 -1.19224 0.865583 1.07446 -0.158203 -1.0876 Ge
33 1 5.57063 0.00706963 0.01998 0.814797 4.36073 -3.35772 0.550019 -0.130442 -1.15778 Si
50 1 5.58976 8.19824 2.85784 4.20186 3.58262 -0.131022 -1.23087 0.304759 -0.898472 Si
54 2 6.87548 9.65766 1.45243 -1.81508 -1.4888 -1.58842 1.11242 0.198533 -0.127142 Ge
35 1 8.29989 -0.0139811 2.83071 -3.63323 2.84529 2.06683 0.123825 -0.270037 -0.602406 Si
18 1 0.0259904 8.33929 2.70231 -1.64037 -0.996739 2.61752 -0.960595 0.0451893 1.26752 Si
52 1 8.31506 8.31088 0.0376658 -2.37623 1.41733 -0.146717 -0.703867 0.590891 -0.0111721 Si
5 2 1.39628 1.41824 4.09106 3.16591 2.48546 1.13168 -0.0219692 -0.706765 -0.105896 Ge
12 1 2.75226 2.76747 5.50882 -0.759768 -0.905015 -1.44123 1.09294 -0.441219 0.59307 Si
15 2 4.17137 1.39808 6.98864 -3.11492 1.62655 4.79282 -0.480553 -0.500694 -1.2463 Ge
37 2 6.93973 1.36455 4.22718 -0.6482 0.922394 2.35537 -0.95712 -0.489934 -0.62631 Ge
9 1 0.0113475 0.029576 5.51558 -2.0082 -2.0754 -4.40094 0.547156 -0.147716 -0.937678 Si
44 1 8.29885 2.75866 5.54482 0.754461 -1.28818 -1.36525 0.183242 0.528691 0.239742 Si
47 2 9.72691 1.38935 6.84256 0.56192 -2.39063 -2.27156 -1.12373 -0.154804 1.21954 Ge
14 2 1.38848 4.17205 6.86703 0.777809 1.10595 1.22318 -0.928059 -0.0269093 -0.444539 Ge
21 2 1.38227 6.98971 4.09875 -1.56723 -0.294838 -2.49738 0.52471 -1.24438 0.959776 Ge
25 1 -0.0595933 5.55573 5.48519 0.752437 -0.133586 -1.19154 1.52325 0.0171865 -0.304389 Si
8 2 4.22252 4.09116 4.16046 0.393428 -3.80197 -1.78224 -0.308855 1.75523 0.972872 Ge
31 2 4.19341 6.93999 6.9706 0.467059 0.860043 -0.469772 0.0662881 0.254223 -0.448241 Ge
46 2 6.93062 4.10235 7.01654 -0.751717 -1.1735 -1.01851 0.838135 0.44962 -0.65814 Ge
53 2 6.99235 6.80865 4.21155 -1.41572 0.354186 1.43483 0.0143301 0.802104 -0.405692 Ge
57 1 5.64787 5.53599 5.67256 -2.21636 3.12237 -3.03092 -2.11928 -1.23692 -1.68419 Si
40 2 9.67418 4.12113 4.12737 1.4665 -2.02561 2.59754 0.634336 0.0209295 -0.490077 Ge
63 2 9.71861 6.94114 6.88514 -1.52414 -0.261772 -0.89414 -0.484014 -0.536289 0.906774 Ge
28 1 2.80634 8.34449 5.55674 -1.05275 -2.00409 -2.28727 -0.719992 -0.781123 -0.31047 Si
30 2 1.36749 9.73226 6.89623 3.3525 0.732122 -0.722207 -0.0107025 -0.909361 -0.611373 Ge
41 1 5.5654 -0.062838 5.61269 -0.112749 0.786309 1.69384 -0.476387 0.643036 -0.395092 Si
24 2 4.16355 9.66412 4.12634 1.27071 -2.75741 -1.41489 0.590251 0.600334 0.581223 Ge
62 2 6.98107 9.6938 7.02396 0.0272164 1.84687 -1.66087 -0.552694 -1.17887 -1.65897 Ge
56 2 9.73199 9.69678 4.15949 0.337812 0.812253 2.34323 -0.36842 -0.639244 -0.0114429 Ge
60 1 8.33204 8.25007 5.54412 -2.99032 2.12074 -0.896764 -0.109458 1.80513 0.0111194 Si
1 1 -0.0136304 -0.0108834 -0.042945 -0.778395 -3.96085 2.06304 -0.104794 0.666918 0.124499 Si
10 1 -0.0518102 2.80592 8.22281 -1.91229 -5.28026 -2.13289 0.670579 -0.0645631 0.0412173 Si
11 1 2.75017 -0.0695981 8.25719 0.228298 -0.0614339 4.4026 0.457453 1.60331 1.29867 Si
13 2 1.31399 1.3754 9.57889 -1.50294 -1.12215 -0.683414 0.635918 0.00756493 0.650626 Ge
42 1 5.54484 2.78153 8.376 1.36511 1.79154 2.61363 -1.41178 1.1371 0.250332 Si
45 2 6.95658 1.49158 9.68654 3.85181 0.134421 1.84 0.306224 -1.97567 1.83547 Ge
36 1 8.35123 2.7855 0.112868 0.46168 -0.346776 -3.21555 0.150624 0.0397354 -2.33759 Si
43 1 8.30275 0.0369873 8.30229 -4.2063 -1.52963 0.353386 0.610933 1.45578 0.154333 Si
17 1 -0.0696475 5.57374 0.0133186 2.19637 3.2322 -1.57733 1.33476 0.118986 -1.5253 Si
27 1 2.76923 5.51357 8.24183 0.143256 3.44525 -0.113082 -0.430665 1.57847 1.50008 Si
29 2 1.37213 7.00038 9.65781 -2.22059 1.26732 -2.0001 0.404188 -1.20571 0.685407 Ge
16 2 4.12709 4.25445 9.75376 -0.073734 -1.27117 0.254802 0.984113 -1.1614 -0.602887 Ge
61 2 6.90833 6.95084 9.73703 0.89204 -3.11684 0.226073 0.590533 -0.172453 0.576755 Ge
48 2 9.66384 4.18987 9.60546 -0.59893 1.76042 0.521662 -0.174394 -0.160081 2.15363 Ge
59 1 8.26666 5.60783 8.29554 1.4998 1.46233 3.36478 0.595698 -0.382544 0.0606345 Si
32 2 4.1581 9.71755 9.72459 1.07607 -2.61121 -1.14844 0.337093 0.0147817 -0.159933 Ge
58 1 5.56684 8.3242 8.38028 3.04493 -0.38218 2.00387 -0.592514 0.262854 -0.267943 Si
26 1 -0.024685 8.35143 8.26071 0.604956 2.51242 0.311575 -0.605583 0.846885 0.972147 Si
64 2 9.61174 9.77136 9.71868 -2.58987 -1.17864 2.11675 1.3403 -1.75241 -0.713585 Ge
ITEM: TIMESTEP
10600
ITEM: NUMBER OF ATOMS
64
ITEM: BOX BOUNDS pp pp pp
0.0000000000000000e+00 1.1085848640000000e+01
0.0000000000000000e+00 1.1085848640000000e+01
0.0000000000000000e+00 1.1085848640000000e+01
ITEM: ATOMS id type xu yu zu vx vy vz fx fy fz element
4 1 2.83604 2.77771 0.0315307 2.21325 2.80163 -0.58156 -1.02799 -0.0870671 0.199035 Si
7 2 4.20141 1.41541 1.43138 1.99826 -2.63104 1.62745 -0.334073 -0.833826 -1.02089 Ge
34 1 5.48403 2.90107 2.72958 -2.82338 6.95812 -1.94847 0.848095 -0.495564 0.297962 Si
2 1 -0.0180683 2.78733 2.89327 -1.44885 2.84342 -2.82754 0.268782 -0.537241 -1.69297 Si
39 2 9.68847 1.4159 1.41338 0.729609 0.992636 -1.48025 0.828737 -0.268018 0.053505 Ge
6 2 1.37456 4.15573 1.42607 2.33337 -0.776438 3.19418 0.0180387 -0.599821 -0.243322 Ge
19 1 2.75459 5.56893 2.75441 1.0978 -0.526487 -1.35049 -0.139608 0.64914 -0.13068 Si
23 2 4.16699 6.92698 1.33955 -1.06146 0.140861 -3.95418 -0.772632 -0.825562 -0.92583 Ge
38 2 6.96592 4.19731 1.38218 -0.214793 -3.09385 0.691537 -0.546516 -0.143743 -0.665933 Ge
49 1 5.53323 5.47277 -0.0910887 -1.59705 7.25337 -0.0247354 0.892391 1.87736 0.842131 Si
51 1 8.33023 5.54637 2.81285 1.15688 1.1682 -7.05886 -0.725406 0.535166 -1.08115 Si
55 2 9.66887 6.9281 1.42353 1.01386 0.814776 -1.16218 1.30932 -0.363888 -0.80715 Ge
3 1 2.75235 0.0379087 2.78137 -2.41186 0.402854 -2.48561 -0.0314533 0.135841 -0.0544439 Si
20 1 2.72327 8.28562 -0.0345232 2.26428 -1.69107 3.01877 1.99171 1.63501 1.7303 Si
22 2 1.39235 9.6844 1.43041 -2.9124 -0.490456 1.61345 0.0283692 -0.230398 -0.418667 Ge
33 1 5.5635 -0.0531111 0.0028026 -0.994097 -0.862925 6.13604 -0.500309 1.59164 -0.303803 Si
50 1 5.4681 8.35284 2.67626 3.21672 1.32343 -0.240329 1.1037 1.15447 1.00925 Si
54 2 6.97909 9.72975 1.34922 -1.54654 -2.98407 -1.11662 -0.334661 -1.25829 0.237968 Ge
35 1 8.34659 -0.0109122 2.76583 1.17844 -2.51049 -1.26271 -0.937944 1.04144 -0.00361966 Si
18 1 0.0267276 8.28856 2.82024 1.42662 2.16092 -3.27183 -0.250214 -0.243886 -0.687993 Si
52 1 8.33191 8.28923 -0.0380091 2.30575 0.28178 0.361979 -0.080096 0.429507 -0.141997 Si
5 2 1.35827 1.33176 4.22976 -5.97143 2.31113 2.01146 0.814277 1.66857 0.0203776 Ge
12 1 2.79015 2.80724 5.59017 -3.08843 0.528534 -2.95807 -0.872194 -0.447864 -0.910699 Si
15 2 4.16611 1.40198 6.91862 0.470993 -0.900522 -3.1139 -0.163424 -0.359563 -0.0972116 Ge
37 2 6.87919 1.49191 4.05365 4.31621 3.33004 1.15957 1.08464 -1.20238 1.14942 Ge
9 1 -0.0133393 -0.0100733 5.59667 -3.3824 0.514992 4.97767 -0.952373 -0.174955 0.0963964 Si
44 1 8.32011 2.75739 5.55315 0.558492 1.92167 1.89244 -0.22525 -0.0312619 -0.405495 Si
47 2 9.69646 1.41587 7.02665 -0.368986 1.38343 -0.984715 0.72977 -0.355968 -1.33048 Ge
14 2 1.35745 4.11948 7.00257 0.450228 -2.75735 -1.69991 0.615487 0.807023 -0.308117 Ge
21 2 1.39424 6.90297 4.20861 -1.78972 3.56187 1.2687 -0.0904737 0.018557 -0.823809 Ge
25 1 0.0107226 5.51353 5.55485 -6.4088 -0.735594 -0.83579 -0.914632 0.394748 0.997068 Si
8 2 4.10544 4.23334 4.12795 0.647643 -0.427225 0.699358 -0.0684594 -1.33541 0.364824 Ge
31 2 4.1341 6.88488 6.89323 -0.886363 -0.297886 -0.0160521 0.0908018 -0.527559 -0.423701 Ge
46 2 6.94943 4.16157 6.87633 0.0175457 -0.823762 -0.673864 -0.841064 -0.669742 0.212349 Ge
53 2 6.91108 7.00263 4.04879 -0.984795 1.55123 -0.262627 -0.364408 -0.606783 1.58431 Ge
57 1 5.5468 5.50208 5.46144 9.01498 3.65394 7.23514 0.496047 2.00977 0.525678 Si
40 2 9.65854 4.176 4.17411 -1.09226 -0.201659 1.04537 0.719159 -0.238485 1.14722 Ge
63 2 9.66097 6.96033 6.94362 1.05892 -0.401315 -1.68026 0.872358 -1.12043 -0.827214 Ge
28 1 2.77188 8.29156 5.53426 2.11525 5.14897 2.40371 0.0167955 1.06106 0.262634 Si
30 2 1.36153 9.67778 6.93936 -1.33874 0.928398 2.66713 0.811396 -0.449941 0.707888 Ge
41 1 5.55612 0.0663675 5.50408 0.996089 -2.73128 -0.664237 0.137327 -0.363264 0.250216 Si
24 2 4.12178 9.78853 4.16142 -0.654292 -2.19835 -1.65648 0.500423 -1.63825 -0.334562 Ge
62 2 6.88037 9.66439 6.93574 2.74402 -0.281735 1.08804 0.893213 1.56647 -0.725217 Ge
56 2 9.7239 9.68948 4.12209 1.76961 -0.413624 1.17158 0.0980172 0.7356 1.21863 Ge
60 1 8.31331 8.36652 5.51051 2.84844 -6.04056 -0.113642 -0.607524 -0.858385 0.00357456 Si
1 1 0.0139353 -0.0193247 0.0462007 2.27427 -0.909069 -0.936417 -0.526364 -0.252435 0.4108 Si
10 1 0.0400688 2.74824 8.42349 -4.46059 0.134662 3.29394 0.243771 -1.08018 -0.605856 Si
11 1 2.79233 0.0148949 8.32325 0.461903 -2.86799 -7.42527 -0.54739 -0.502787 -0.202004 Si
13 2 1.42464 1.32338 9.80901 4.44067 -1.11157 1.01375 0.362467 1.09053 -0.952834 Ge
42 1 5.54003 2.74879 8.26526 2.474 -3.63883 -6.20436 0.491305 0.767533 -0.0196927 Si
45 2 6.89856 1.35196 9.6387 -1.54774 2.6087 -3.75762 0.83366 0.00811281 1.19881 Ge
36 1 8.30429 2.7587 -0.0073094 -2.36334 0.254439 9.2032 -0.257733 -0.212182 -0.281406 Si
43 1 8.37453 -0.0297781 8.32927 0.209179 -4.43692 -0.877837 -1.48301 -0.671895 -0.210083 Si
17 1 0.00425819 5.51208 -0.0171705 -3.40764 -2.7068 4.72906 -0.148029 0.577813 1.25527 Si
27 1 2.77148 5.54745 8.35563 2.15244 -7.06716 -2.76151 0.0816443 -0.605182 -1.11957 Si
29 2 1.47087 6.90007 9.76869 0.841288 -3.31229 2.45772 -2.33842 -1.06903 -1.29784 Ge
16 2 4.15451 4.13024 9.64486 1.42357 0.422771 2.48412 0.0960551 -0.588903 0.269862 Ge
61 2 6.9223 6.94426 9.6021 -0.813716 1.99287 -1.93665 -0.164447 -1.07772 0.804486 Ge
48 2 9.73719 4.10501 9.69926 -2.48152 -0.818426 -1.39517 -1.14023 0.930729 0.394704 Ge
59 1 8.32653 5.48397 8.27429 -2.8364 0.502253 -2.98814 0.150161 0.753659 0.572925 Si
32 2 4.15444 9.69337 9.6904 -2.4079 1.65507 0.48856 -0.309441 -0.669638 -0.0391222 Ge
58 1 5.46557 8.27933 8.24316 0.823487 2.55697 -0.669565 0.666993 0.423613 0.887354 Si
26 1 0.043053 8.20826 8.36348 2.39148 -5.96355 0.785811 0.295434 1.07839 -0.75638 Si
64 2 9.78587 9.6611 9.67042 -0.4866 3.10889 1.54225 -0.69458 0.0557298 1.14479 Ge
ITEM: TIMESTEP
10700
ITEM: NUMBER OF ATOMS
64
ITEM: BOX BOUNDS pp pp pp
0.0000000000000000e+00 1.1085848640000000e+01
0.0000000000000000e+00 1.1085848640000000e+01
0.0000000000000000e+00 1.1085848640000000e+01
ITEM: ATOMS id type xu yu zu vx vy vz fx fy fz element
4 1 2.75151 2.73459 0.0344653 -0.148607 0.140919 -3.62104 0.461091 1.1639 -1.22563 Si
7 2 4.15066 1.40574 1.44242 -0.60636 2.80749 -2.47859 0.0644669 -1.60576 -0.72237 Ge
34 1 5.61786 2.64851 2.82283 -0.988517 -2.46249 1.15391 -1.47269 2.55182 -0.864882 Si
2 1 0.0427969 2.72535 2.72997 2.08923 0.0469736 4.20181 -1.00068 0.774037 -0.218913 Si
39 2 9.66447 1.37853 1.32949 0.162996 1.82045 0.406287 0.429096 1.05868 0.26703 Ge
6 2 1.40511 4.16313 1.36398 -3.16906 0.989711 -4.12919 -0.261618 -0.407447 0.424118 Ge
19 1 2.76968 5.49721 2.78104 -0.705457 -1.90695 0.166948 0.325194 0.300006 0.0638551 Si
23 2 4.13039 6.9514 1.45955 2.71314 1.17594 2.23265 0.294828 -0.798022 -1.50342 Ge
38 2 6.89681 4.165 1.43221 0.345564 -0.70077 0.489443 0.97063 -1.57958 -0.700612 Ge
49 1 5.54429 5.5105 0.0332694 -1.6943 -8.683 -1.3629 -1.19358 1.02505 -0.378094 Si
51 1 8.27388 5.54792 2.80054 2.38156 -0.772782 7.57948 0.92706 0.152608 -1.16187 Si
55 2 9.69757 6.92751 1.38977 -2.04168 2.06797 2.02476 -0.498145 -0.501703 -0.0581536 Ge
3 1 2.79511 -0.071965 2.78984 1.72584 -2.02878 -1.56258 0.0197412 0.479297 -1.12112 Si
20 1 2.77416 8.34976 -0.0149921 -2.35075 -1.1167 -5.06779 0.0700248 -1.5556 -0.163816 Si
22 2 1.39671 9.70844 1.32044 -0.409137 -0.484364 -3.38761 -0.971914 0.5278 0.827318 Ge
33 1 5.49114 0.00778346 -0.0326676 2.67844 -4.71311 -4.4069 0.258722 -0.543031 1.91469 Si
50 1 5.53903 8.26813 2.84482 -5.17895 -7.57124 -0.173577 0.862435 1.04851 -0.588338 Si
54 2 6.92932 9.74092 1.41665 -1.03996 -0.464414 1.37478 -0.848677 -1.05283 -0.542999 Ge
35 1 8.33147 0.0316863 2.74758 2.91475 0.855762 5.3856 0.100065 -1.05881 0.244252 Si
18 1 -0.00512148 8.29261 2.74026 2.92223 -1.82259 1.38894 0.319723 0.923004 0.0458801 Si
52 1 8.31976 8.31983 0.00482457 0.132005 -2.79557 -0.268858 0.111647 0.76425 0.691546 Si
5 2 1.43986 1.34437 4.09181 3.26412 -3.54464 -0.859818 -0.703703 0.162648 1.15136 Ge
12 1 2.78555 2.7277 5.53136 2.73474 2.92984 4.48317 -0.148236 0.776179 -0.0377468 Si
15 2 4.18066 1.37429 6.91282 -1.16532 2.21447 5.38644 -0.38776 -0.295183 0.75301 Ge
37 2 6.93606 1.30839 4.14074 -4.62928 3.00698 -0.249347 0.9545 0.316819 1.39623 Ge
9 1 0.0303026 -0.00226641 5.52032 4.23281 0.739896 -4.39551 -0.838448 0.196013 -0.310883 Si
44 1 8.30582 2.78122 5.502 -1.18254 -3.47737 -1.42386 -0.194662 0.1706 0.379473 Si
47 2 9.6981 1.40904 6.92053 -1.24205 1.87714 -2.37159 0.566606 0.167378 -0.821975 Ge
14 2 1.42392 4.20012 6.9318 0.745915 2.09434 -2.53966 0.736687 -0.665928 -1.38429 Ge
21 2 1.40385 6.93314 4.11751 0.806615 -1.57953 0.0686498 -0.326407 -0.396703 0.792948 Ge
25 1 0.0513958 5.56357 5.57918 5.85882 -1.16748 -4.00073 -1.11926 -0.142744 -1.38055 Si
8 2 4.18558 4.11302 4.15108 0.410637 -0.52034 0.455868 -0.238755 -0.474526 -0.0629494 Ge
31 2 4.15473 6.98726 7.01047 1.16296 -0.385038 -0.613485 -0.244578 -0.774488 -1.30216 Ge
46 2 6.91801 4.18092 6.97266 2.64807 -0.986278 -0.245191 -0.11979 -0.0102544 -0.911572 Ge
53 2 6.96743 6.8919 4.2022 -0.786289 0.78067 0.0886003 -1.38754 0.529052 0.463409 Ge
57 1 5.45555 5.56656 5.54795 -2.44273 -8.61919 -4.435 1.61635 -0.241939 0.983698 Si
40 2 9.69963 4.18691 4.09183 0.907992 -4.39542 0.911272 1.17352 -0.790941 1.37573 Ge
63 2 9.71591 6.90406 6.98488 -3.19503 2.98456 0.485118 -0.115577 0.745095 -0.654009 Ge
28 1 2.74252 8.29361 5.56555 -0.682708 -6.6075 -1.82734 0.474231 0.261356 -0.00132497 Si
30 2 1.37695 9.70539 6.91537 -0.00273388 2.68334 -4.7472 0.662149 0.967161 0.154021 Ge
41 1 5.54425 -0.0371613 5.5309 2.21565 2.51601 -0.239886 -0.130337 0.0264921 0.253027 Si
24 2 4.14132 9.66377 4.18908 0.0546175 0.875391 2.15698 0.273991 -0.38145 0.234122 Ge
62 2 6.92416 9.69361 6.92381 -1.56871 -3.3289 2.76343 0.272193 0.296398 0.64125 Ge
56 2 9.67373 9.68032 4.14582 2.36287 -3.2462 -2.18637 0.727196 0.287156 0.0257443 Ge
60 1 8.31426 8.30345 5.57852 0.754649 4.37996 -1.02185 0.50744 -0.371039 -0.0359001 Si
1 1 -0.0234353 0.0696926 -0.0470899 -0.383546 0.677472 -1.72811 0.495287 -0.979936 -0.38624 Si
10 1 0.0624521 2.82347 8.22174 2.36349 5.85011 -2.82379 -2.34206 0.450916 0.813308 Si
11 1 2.73976 0.0332896 8.3673 0.0134187 -0.0510518 5.09423 0.554709 -0.432872 -1.29337 Si
13 2 1.32349 1.5048 9.62985 -2.25409 -2.90943 0.798853 1.25977 -1.92656 1.5757 Ge
42 1 5.52587 2.77823 8.34097 -1.4533 -0.535136 7.92275 0.72337 -0.978919 -0.723949 Si
45 2 6.89204 1.34023 9.74131 -0.71689 -0.00759322 0.464722 -0.0812206 1.16284 -1.66352 Ge
36 1 8.28788 2.76317 -0.0915997 0.924865 -0.0301008 -2.71967 -0.266492 0.500033 2.49897 Si
43 1 8.29949 0.0565281 8.30872 3.75932 5.58509 2.38523 0.0233303 -1.30444 0.0537622 Si
17 1 0.0227175 5.55248 0.0129293 -0.377301 1.04516 -4.75652 -0.378052 0.0614009 -0.484753 Si
27 1 2.76391 5.56187 8.30153 -0.961533 5.65162 2.77403 0.340644 0.122665 0.563758 Si
29 2 1.36278 6.94409 9.64865 3.21334 6.61035 1.46091 0.143914 0.734638 0.775886 Ge
16 2 4.13633 4.13068 9.64485 -2.41066 1.60083 -0.23492 -0.338523 0.613086 2.13505 Ge
61 2 6.93602 6.96668 9.75187 0.210952 -1.51788 3.3577 -0.0672128 -1.44324 -0.0243332 Ge
48 2 9.72833 4.13891 9.71892 2.37315 0.543439 0.0340112 0.587569 0.279851 -0.951553 Ge
59 1 8.33138 5.54251 8.38462 -0.133657 -0.455449 1.61201 -0.36871 0.167355 -0.271483 Si
32 2 4.17869 9.66317 9.68825 -0.94615 1.19208 1.54824 -0.811462 1.1763 0.048507 Ge
58 1 5.58166 8.31076 8.35715 -3.97289 -4.33997 1.42717 -0.0196873 0.426817 -0.501749 Si
26 1 -0.0132138 8.40481 8.27341 -2.68143 1.40095 -0.907646 0.0826454 -1.93125 0.668206 Si
64 2 9.69586 9.69676 9.67861 0.0196217 -0.683621 -2.01396 -0.515035 1.27795 0.23868 Ge
ITEM: TIMESTEP
10800
ITEM: NUMBER OF ATOMS
64
ITEM: BOX BOUNDS pp pp pp
0.0000000000000000e+00 1.1085848640000000e+01
0.0000000000000000e+00 1.1085848640000000e+01
0.0000000000000000e+00 1.1085848640000000e+01
ITEM: ATOMS id type xu yu zu vx vy vz fx fy fz element
4 1 2.72861 2.77701 -0.0199111 1.23379 -5.89121 6.96352 0.326838 -0.329464 -0.201268 Si
7 2 4.1539 1.37738 1.33873 2.57665 2.45794 2.92514 -0.349102 1.02343 0.309409 Ge
34 1 5.51987 2.75473 2.74626 4.79384 -5.30568 -0.372852 0.674271 -0.824519 0.544671 Si
2 1 -0.0495706 2.79528 2.73561 2.3792 -1.43619 1.49574 0.829383 0.143346 1.00878 Si
39 2 9.7101 1.33164 1.43292 -0.543886 -0.883561 -2.4938 -0.210034 -0.0516154 -0.576581 Ge
6 2 1.3842 4.15786 1.38308 1.68598 -0.848525 1.92253 -0.392484 0.451438 -0.336904 Ge
19 1 2.77184 5.54544 2.77168 -0.513366 -1.51713 -1.71179 -0.477995 -0.222868 -0.163571 Si
23 2 4.11682 6.91744 1.38847 -0.243416 3.17315 -0.404632 1.76039 1.06586 0.999745 Ge
38 2 6.98209 4.10004 1.43734 -2.41956 1.84691 -0.308351 -1.37568 1.02104 -1.38702 Ge
49 1 5.56961 5.59083 0.042279 3.80015 -0.936314 -0.151941 0.231067 -1.27152 -0.724986 Si
51 1 8.3398 5.50288 2.70591 -4.53052 -3.02916 -0.598199 -0.134819 0.541285 1.64419 Si
55 2 9.70427 6.88961 1.38337 2.52555 1.11193 -2.81027 0.0265138 1.38361 -0.462626 Ge
3 1 2.7929 0.0619521 2.75693 -1.3595 0.0274511 3.97384 -0.189235 -0.198707 0.844241 Si
20 1 2.76493 8.30616 0.0451328 -2.17419 1.702 0.730225 -0.658266 0.0461209 -1.59427 Si
22 2 1.40897 9.70048 1.49153 0.553629 -1.70928 0.353053 -0.37471 -0.248325 -1.31148 Ge
33 1 5.58792 0.0521115 0.0394327 -3.15775 2.34324 -0.540077 0.17143 -0.912169 -1.84546 Si
50 1 5.62226 8.38203 2.76997 0.0925277 1.30922 -1.87894 -1.58782 -2.62961 0.249794 Si
54 2 6.93301 9.69245 1.38093 1.04783 1.49789 -2.09746 -0.228744 0.871076 -0.321194 Ge
35 1 8.24296 -0.034445 2.75468 -0.687993 -1.12004 -7.46592 1.03711 0.874354 0.88806 Si
18 1 -0.0729425 8.35768 2.80595 -1.31731 -1.14351 -0.352424 0.613173 -0.71609 0.130447 Si
52 1 8.28558 8.33793 0.0403071 -1.02967 -1.34536 -0.930769 0.335919 -1.59892 -0.855451 Si
5 2 1.4 1.48155 4.14411 -3.29073 2.27619 1.44006 -0.869354 -1.63428 -0.16396 Ge
12 1 2.76579 2.78994 5.54148 1.31596 -5.90991 -1.21563 0.0788578 0.612833 0.471626 Si
15 2 4.15623 1.41587 6.92353 0.477435 -0.287864 -4.93564 -0.490137 -0.0412918 0.213507 Ge
37 2 6.90422 1.33786 4.1882 2.28955 1.80805 -1.52451 -0.375121 0.950428 -0.0467216 Ge
9 1 0.0135226 -0.0183501 5.52802 1.1961 0.11345 6.35897 1.42792 0.31739 0.215021 Si
44 1 8.32424 2.76009 5.58689 2.75589 3.35029 1.56509 0.061051 -0.475901 -0.502606 Si
47 2 9.75884 1.31175 6.95404 -2.31773 -1.44639 1.7501 -2.27975 0.0570579 -0.759727 Ge
14 2 1.33852 4.11301 6.99753 -0.891485 -0.457967 3.34497 -0.0677532 0.296852 -1.29265 Ge
21 2 1.394 6.95587 4.1357 -1.05333 3.47962 1.0591 -0.517702 -0.176435 0.700399 Ge
25 1 -0.0253868 5.53872 5.54426 -1.71542 2.06698 6.81005 1.43409 0.126209 -0.216602 Si
8 2 4.15227 4.1337 4.10336 0.51113 1.08935 0.365331 0.399694 0.993363 1.55999 Ge
31 2 4.15904 6.94084 6.9303 -1.61039 1.54657 0.373898 0.0928706 -0.00339103 -0.0301519 Ge
46 2 6.89428 4.13714 6.96004 -0.805016 0.615548 -1.22386 1.12614 0.647815 -0.766158 Ge
53 2 6.98571 6.86611 4.15447 0.714143 2.13658 -1.08242 -0.755765 1.07804 -0.517065 Ge
57 1 5.56149 5.55454 5.57935 -4.5834 3.46066 -1.0621 -0.707934 -0.910924 -1.25516 Si
40 2 9.68458 4.19669 4.15081 -3.28131 2.57418 -0.542121 -0.160471 -1.23489 0.180374 Ge
63 2 9.71998 6.95718 6.86788 1.55845 -2.15946 -0.456583 -0.432939 0.0333504 0.921376 Ge
28 1 2.82394 8.34066 5.51583 -1.10409 1.89427 0.571037 -0.352125 -0.928934 -0.404069 Si
30 2 1.42468 9.61853 6.9279 -0.147725 -2.65954 2.87969 -0.785473 1.52793 -0.450655 Ge
41 1 5.47873 -0.00543252 5.59817 -2.46481 -1.46388 0.625979 0.969466 0.210125 -1.18355 Si
24 2 4.18107 9.72814 4.11507 -0.73464 -1.53388 -1.15345 -0.143936 0.340171 0.514971 Ge
62 2 6.9101 9.73007 6.9267 0.845017 1.58453 -4.12973 0.0538523 -0.666606 -0.70544 Ge
56 2 9.64396 9.76336 4.19507 -2.55039 0.481632 2.80267 -0.0827911 -1.09727 -0.612623 Ge
60 1 8.28892 8.31576 5.54497 -1.54899 -1.83112 1.34893 0.156019 0.418328 -0.178025 Si
1 1 0.00543127 -0.0752013 0.0480951 0.0632359 3.51445 2.49899 0.152863 1.13123 -0.45769 Si
10 1 -0.107087 2.71826 8.32733 7.11265 -6.9894 1.63116 1.81537 0.877521 -0.0365815 Si
11 1 2.79177 -0.0201591 8.26077 -1.96151 2.6888 0.273444 -0.231698 0.0720315 1.43048 Si
13 2 1.32299 1.39302 9.66146 0.746066 2.49283 0.970957 0.802314 -1.40521 0.807575 Ge
42 1 5.53874 2.79181 8.30472 -1.04294 3.27363 -5.2493 -0.117002 -0.377469 1.49666 Si
45 2 7.02462 1.46844 9.73069 -0.696044 -1.54936 1.88585 -1.2426 -1.00371 -0.350819 Ge
36 1 8.406 2.80219 0.0741241 0.9009 -0.902975 -4.83827 -0.125807 -0.265101 -1.17548 Si
43 1 8.28398 -0.0562437 8.30752 -0.0372979 -1.75078 -2.49099 0.92088 1.57142 0.807163 Si
17 1 0.0188791 5.56929 -0.0346303 1.63068 -1.56034 2.52377 -0.472925 -0.923536 0.156094 Si
27 1 2.75613 5.52944 8.30814 -0.141544 -3.38386 -0.896934 -0.00421396 0.312466 -0.0491633 Si
29 2 1.32341 6.91665 9.62702 -0.374833 -4.78578 0.584617 1.89121 0.698667 1.68054 Ge
16 2 4.13988 4.18213 9.72147 1.97596 -2.41492 -2.97904 0.615638 0.0135975 0.0577006 Ge
61 2 6.92725 6.96028 9.6328 0.467356 4.33577 -1.98143 0.584689 -0.245456 1.20551 Ge
48 2 9.69996 4.18831 9.64401 -2.18766 -1.63229 3.14822 -0.286057 0.0574383 1.42194 Ge
59 1 8.33702 5.56701 8.2487 0.777322 -4.45074 -2.82035 -0.572874 0.0254093 0.397267 Si
32 2 4.22906 9.65507 9.6838 0.638954 -1.65652 -0.219811 -1.11205 1.57989 0.966334 Ge
58 1 5.5796 8.35009 8.26597 2.99949 0.578148 -3.26784 -0.613846 -1.00879 0.243207 Si
26 1 -0.0213909 8.31677 8.32436 2.99662 2.06477 -0.923639 -0.670589 0.317485 -0.556226 Si
64 2 9.64659 9.68991 9.74652 2.7255 -2.13854 2.30383 0.860793 -0.285608 -0.575128 Ge
ITEM: TIMESTEP
10900
ITEM: NUMBER OF ATOMS
64
ITEM: BOX BOUNDS pp pp pp
0.0000000000000000e+00 1.1085848640000000e+01
0.0000000000000000e+00 1.1085848640000000e+01
0.0000000000000000e+00 1.1085848640000000e+01
ITEM: ATOMS id type xu yu zu vx vy vz fx fy fz element
4 1 2.8213 2.82879 0.0144757 -1.57572 3.48284 -3.2101 -0.0609008 -1.32609 1.45335 Si
7 2 4.14445 1.35467 1.48104 -0.915359 -0.369618 -3.48485 0.519673 1.25295 -1.66763 Ge
34 1 5.50751 2.9017 2.77331 -2.22282 -0.523824 2.00363 0.659305 -1.81227 -0.48939 Si
2 1 -0.012284 2.76874 2.7941 -4.52869 -1.3413 -5.51578 0.766664 -0.57311 0.10187 Si
39 2 9.68427 1.43916 1.37972 0.897835 -0.0325577 0.41631 0.227327 -0.933323 -0.359128 Ge
6 2 1.41256 4.14458 1.45413 -1.13425 -0.59508 -2.48377 -0.111086 0.378814 -0.347098 Ge
19 1 2.76563 5.6062 2.80706 1.8708 0.474527 2.91575 0.322613 -1.33688 -0.803158 Si
23 2 4.13861 6.90962 1.35367 -2.13049 -0.432224 1.23134 0.339952 0.858408 0.319777 Ge
38 2 6.9323 4.21562 1.3443 1.94755 -4.31215 2.56316 -0.827118 0.652709 0.315458 Ge
49 1 5.5034 5.5716 -0.0862113 -1.99961 1.49843 3.39455 0.667593 -0.785325 0.978869 Si
51 1 8.30291 5.63482 2.77483 3.07191 0.565232 -4.59903 -0.49444 -1.92477 -0.0429772 Si
55 2 9.66179 6.92015 1.42102 -0.958956 -1.90019 -0.456808 1.35479 0.659519 -1.3822 Ge
3 1 2.73687 -0.00811858 2.80529 2.13557 -0.919151 -3.15977 0.0875416 -0.507909 -0.131307 Si
20 1 2.80257 8.32089 -0.0275254 3.20384 0.0789352 3.99486 -0.768076 -0.0136576 1.01265 Si
22 2 1.38685 9.71626 1.37388 -0.123636 1.36638 -0.133424 0.168868 -0.537255 -0.329358 Ge
33 1 5.52075 -0.0367328 -0.0022604 1.3465 2.08239 0.649271 -0.20587 0.502597 0.363861 Si
50 1 5.49186 8.34841 2.75801 4.28683 5.01283 3.13278 0.319134 0.262396 -0.637108 Si
54 2 6.97617 9.7125 1.36084 -0.946155 -2.44024 0.65869 -0.141755 -0.00238757 0.688479 Ge
35 1 8.36602 0.0479415 2.82463 -3.39891 0.465778 3.39151 -0.354546 -1.03762 -2.00206 Si
18 1 0.0419483 8.27059 2.75633 -3.97797 2.06498 0.539586 -0.0725685 0.11238 -0.237769 Si
52 1 8.35809 8.3109 -0.053687 0.664418 3.99156 2.43107 -0.552484 0.13703 0.505744 Si
5 2 1.36452 1.2934 4.19648 2.7599 3.03576 -1.20759 -0.546588 2.22411 -0.368911 Ge
12 1 2.72651 2.80734 5.51672 -1.33169 2.41509 0.424574 1.1141 -1.95058 0.060024 Si
15 2 4.18578 1.37229 6.87684 -0.0285078 0.884901 0.606007 -0.435619 -0.322332 -0.368472 Ge
37 2 6.93297 1.42673 4.0847 -2.34501 -2.36814 2.17092 -0.18723 0.617395 0.28742 Ge
9 1 -0.0736438 0.00374964 5.55425 -2.81102 -2.57401 -5.51087 0.271797 -0.0885293 0.808213 Si
44 1 8.29627 2.76424 5.49594 -2.60746 -2.77016 -0.885452 0.805539 0.966092 0.769906 Si
47 2 9.72225 1.48659 7.00943 4.08052 0.995713 -2.00502 -1.0113 -1.42625 -1.17934 Ge
14 2 1.40691 4.11298 6.92312 0.748654 -0.52449 -0.0893921 -0.516586 1.71946 0.456216 Ge
21 2 1.39385 6.88852 4.17954 1.95952 0.216011 -0.0752833 -0.290462 1.39102 0.169546 Ge
25 1 0.0189196 5.50929 5.51801 0.895456 -3.09875 -1.13756 -0.738368 0.422826 1.64173 Si
8 2 4.12216 4.19331 4.16458 1.12294 -3.04982 -1.74587 0.253316 0.988734 0.454055 Ge
31 2 4.14661 6.95001 6.94452 -0.0373462 1.22323 0.38751 0.13295 -0.276295 -0.7062 Ge
46 2 6.92385 4.17078 6.90531 -1.04069 -1.24512 1.11641 0.37573 -0.0649398 0.570565 Ge
53 2 6.90603 6.99074 4.10745 2.11558 -2.48437 3.14114 0.261952 0.104562 0.85462 Ge
57 1 5.57336 5.59687 5.51314 1.502 0.0508981 3.02144 -0.963522 -0.331289 0.426659 Si
40 2 9.71015 4.18584 4.11857 1.30647 0.833304 -0.142803 -0.957028 -0.107273 0.447619 Ge
63 2 9.68714 6.92656 7.00712 0.0475792 1.58106 -1.9388 0.383549 -1.08628 -1.72882 Ge
28 1 2.72985 8.32998 5.56764 1.45484 0.687481 1.66802 0.0158858 0.00649912 0.24236 Si
30 2 1.31811 9.72404 6.95111 1.32165 -2.77911 -2.32891 0.470456 -0.711807 0.418098 Ge
41 1 5.63472 -0.000171605 5.44363 0.441487 0.0109993 -0.355264 -1.35195 -0.258075 1.81684 Si
24 2 4.11277 9.72817 4.19063 1.34662 -1.03452 0.968158 0.55002 -0.579247 -0.573455 Ge
62 2 6.91614 9.63577 6.94227 -0.0220631 -0.759538 0.2264 0.547953 1.27014 -0.660249 Ge
56 2 9.75308 9.65676 4.101 -0.402393 1.14114 0.830521 -0.764719 0.563135 1.21778 Ge
60 1 8.34596 8.3068 5.52833 0.698546 -0.414779 -0.079551 -0.18243 -0.132861 0.224647 Si
1 1 0.0230559 0.0287816 -0.0401729 -0.687753 -5.6477 0.0809033 -0.518958 0.150352 0.804295 Si
10 1 0.0325761 2.83867 8.3789 -8.07081 1.57699 -2.56038 1.1408 -1.70528 -0.650278 Si
11 1 2.78778 -0.0104366 8.33673 2.23927 -3.31347 -1.90479 -0.363299 0.727916 -0.908575 Si
13 2 1.46114 1.43488 9.75295 -3.02197 2.82844 -2.63002 -0.661468 -0.243207 -0.972804 Ge
42 1 5.5641 2.7001 8.29495 0.622723 -1.18192 1.55673 -0.836287 1.56767 -1.31799 Si
45 2 6.8471 1.31568 9.61248 3.01962 3.50325 2.27613 1.08862 0.175936 2.46433 Ge
36 1 8.20363 2.7292 -0.00768815 1.73433 -0.674244 2.60182 1.15197 0.0647802 -0.948874 Si
43 1 8.30197 -0.00284499 8.3319 -2.78874 -1.17628 0.155447 0.355199 -0.222991 -1.51604 Si
17 1 -0.0275635 5.47432 0.0671968 1.86515 1.5526 -1.34708 0.717568 0.735566 -0.295915 Si
27 1 2.80786 5.52605 8.30708 -0.665113 -0.381185 -0.521281 -0.423846 -0.543179 -0.104744 Si
29 2 1.45087 6.87059 9.75767 -4.08157 0.725012 -3.15424 -1.29838 -0.359113 -0.221975 Ge
16 2 4.17334 4.10168 9.66172 -2.8527 0.9666 1.9944 0.502939 0.776108 -0.272949 Ge
61 2 6.92361 6.9273 9.6666 0.180955 -0.0549015 0.967139 -0.388355 0.92346 0.961605 Ge
48 2 9.72961 4.08686 9.71698 1.95693 2.39413 -1.37775 -2.03947 1.44173 1.32358 Ge
59 1 8.3027 5.55814 8.39557 3.09687 2.94067 0.614178 0.580056 -1.65013 -1.56425 Si
32 2 4.14197 9.68315 9.68841 2.40224 -1.80793 -0.0752782 0.325292 0.301914 0.328663 Ge
58 1 5.49876 8.30651 8.33923 -0.621589 2.75307 2.01393 0.714158 -0.0974898 -0.588931 Si
26 1 0.0122532 8.22744 8.36706 -2.50186 0.764075 2.15426 0.77719 1.19062 -0.283535 Si
64 2 9.73159 9.7096 9.6391 -3.82506 1.22657 1.47195 0.0942116 -0.199064 1.17266 Ge
ITEM: TIMESTEP
11000
ITEM: NUMBER OF ATOMS
64
ITEM: BOX BOUNDS pp pp pp
0.0000000000000000e+00 1.1085848640000000e+01
0.0000000000000000e+00 1.1085848640000000e+01
0.0000000000000000e+00 1.1085848640000000e+01
ITEM: ATOMS id type xu yu zu vx vy vz fx fy fz element
4 1 2.70312 2.71755 -0.0386041 -0.0595063 1.12569 -2.25793 0.10572 0.943861 -1.00744 Si
7 2 4.13708 1.38085 1.31147 0.536662 -0.676859 3.42824 0.230394 -0.433641 0.418936 Ge
34 1 5.54056 2.69871 2.72713 -2.65504 9.25605 -2.65803 -0.279361 0.710709 1.08715 Si
2 1 0.106542 2.79675 2.77773 0.147337 1.43286 1.50276 -1.65062 -0.65771 -1.03103 Si
39 2 9.69372 1.36666 1.41836 -0.830037 2.46051 -0.57175 0.605907 1.50227 -0.0584614 Ge
6 2 1.3755 4.19901 1.30769 0.0333286 0.180549 -0.303465 -0.903218 -0.568279 -0.642378 Ge
19 1 2.75669 5.45621 2.6977 -2.59636 2.868 0.494593 0.553696 1.37705 1.55897 Si
23 2 4.16312 6.89082 1.4037 -0.454401 -1.23904 -2.58741 -0.740403 -0.258377 -0.64567 Ge
38 2 6.95899 4.14771 1.46493 1.34918 0.636573 -1.62024 0.0257698 -0.74247 -1.08329 Ge
49 1 5.57063 5.50178 0.0779724 0.329383 3.31236 -4.54929 -0.453635 0.494763 -0.563124 Si
51 1 8.32735 5.46428 2.85445 -0.839742 4.42177 2.75864 0.603652 1.10295 -1.10311 Si
55 2 9.67046 6.96118 1.45597 -2.06893 -0.842827 0.434722 -0.0735841 -0.850773 -0.423221 Ge
3 1 2.80175 -0.0183738 2.71329 -0.365075 3.02307 2.29394 0.19759 -0.161877 -0.0134732 Si
20 1 2.76459 8.3224 0.0184381 0.301291 -1.50867 -4.39256 1.54428 0.398401 0.37196 Si
22 2 1.39968 9.67891 1.38 0.0879218 0.497055 -0.630637 -0.487514 1.35027 -0.763156 Ge
33 1 5.56838 -0.00812734 0.00332216 -0.213191 -2.26456 3.94193 -0.0432258 0.195146 -0.355105 Si
50 1 5.52813 8.20351 2.79319 -0.688706 0.766138 0.304159 0.61412 1.60002 0.676878 Si
54 2 6.90236 9.69487 1.43951 1.92314 0.820815 -2.59 -0.489748 -1.01568 -0.592289 Ge
35 1 8.3214 -0.0493995 2.74107 2.26083 1.2217 2.49595 -0.328026 0.812806 1.56842 Si
18 1 0.0519789 8.33701 2.74577 3.83071 -3.08624 0.625731 -1.08681 -0.299826 0.531218 Si
52 1 8.26314 8.29573 0.0515086 -0.051481 -0.748354 -2.08879 0.678302 0.767014 -0.318256 Si
5 2 1.47449 1.37497 4.07759 0.406815 -3.91232 2.55089 0.00385967 0.436025 1.42212 Ge
12 1 2.8214 2.72768 5.57944 -2.58566 1.86241 -1.97978 -1.03788 0.885596 -0.347686 Si
15 2 4.1638 1.43359 7.05254 2.02831 1.75947 -1.52816 -0.449282 -0.0588812 -0.587647 Ge
37 2 6.90378 1.3438 4.18017 -0.0857295 0.724235 -1.3653 0.261586 -0.218154 0.539169 Ge
9 1 0.074894 0.0640155 5.51533 -1.5581 2.08983 0.365087 -1.13601 -1.13547 -1.42671 Si
44 1 8.3265 2.78609 5.57497 0.707067 -0.910607 -1.47028 -0.776107 -1.383 -0.613698 Si
47 2 9.69124 1.3407 6.87821 1.62202 2.65934 3.39219 1.15209 1.48531 0.124742 Ge
14 2 1.36775 4.20311 6.90791 0.39547 -1.75429 -0.33408 0.862075 0.303496 -0.777023 Ge
21 2 1.39338 6.93426 4.08932 0.967873 -2.33536 0.83655 0.458792 -0.803823 0.473331 Ge
25 1 -0.0522358 5.62792 5.52667 -1.64348 0.906604 -5.24332 0.856053 -1.70016 -0.92142 Si
8 2 4.15379 4.11604 4.16458 -2.32628 -1.05963 0.0807136 0.329953 -0.476463 -0.700055 Ge
31 2 4.22716 6.90459 6.94185 -0.751598 0.906851 -1.08914 -1.12242 0.147478 -0.466601 Ge
46 2 6.95186 4.1137 7.00509 -0.450892 -0.450679 -1.74554 -0.828077 0.436566 -1.47214 Ge
53 2 6.96406 6.84575 4.18349 -1.59708 2.85543 -1.51363 -0.920731 0.667412 0.836096 Ge
57 1 5.55148 5.46005 5.5799 3.65146 2.95395 -1.30699 0.590984 0.318536 -0.226915 Si
40 2 9.70597 4.08299 4.15289 1.30282 -0.809281 0.0816139 1.15351 1.10803 0.970372 Ge
63 2 9.68216 6.96659 6.89867 -0.708903 2.11632 2.12818 -0.588343 0.429928 0.676533 Ge
28 1 2.80746 8.2752 5.50633 -0.247095 0.669646 -2.24413 -0.149935 0.212297 0.351166 Si
30 2 1.41503 9.7408 6.84526 -1.13493 1.06783 -2.57077 0.630845 -0.261061 0.199218 Ge
41 1 5.46595 0.00529104 5.68818 2.07791 -0.469872 -1.71893 1.12791 -0.246866 -1.755 Si
24 2 4.14789 9.70447 4.14757 -1.09715 0.702267 2.79006 0.839242 -0.401911 0.332989 Ge
62 2 6.90432 9.70648 7.03233 -2.48567 -2.484 0.75565 0.420149 0.211655 -1.27107 Ge
56 2 9.71863 9.68332 4.1405 1.53465 -2.26265 -0.901435 0.529504 0.769338 0.571866 Ge
60 1 8.27599 8.35976 5.55638 -1.63369 0.824522 -0.150493 0.0801399 -0.444221 -0.216513 Si
1 1 -0.062205 0.0205122 0.0112885 1.01605 2.58088 -2.79405 0.579417 -1.53373 -0.429563 Si
10 1 0.0405129 2.76872 8.22043 0.130107 1.97308 6.27235 -1.92927 -0.0402673 0.303402 Si
11 1 2.72535 0.0267642 8.3048 -1.63051 1.98355 1.98786 0.777692 -1.05443 0.582755 Si
13 2 1.26956 1.34572 9.62372 1.66845 1.81 4.06663 1.34241 0.605901 1.2546 Ge
42 1 5.51016 2.86428 8.38453 1.5557 -4.68993 0.626558 0.763079 -1.37418 0.314517 Si
45 2 6.95129 1.42483 9.70704 -3.92495 -2.70878 -2.45363 0.0412234 0.257962 0.262138 Ge
36 1 8.37916 2.83453 -0.00161973 -4.48372 0.573312 3.1876 -0.87065 -1.05458 0.497612 Si
43 1 8.34955 0.0443047 8.29315 -1.60076 -2.40177 2.40381 -1.00514 -0.758955 1.07015 Si
17 1 -0.0543318 5.65876 -0.0592811 -3.26541 -1.98203 0.813268 0.706713 -0.736963 -0.0104531 Si
27 1 2.73921 5.62046 8.32276 1.59951 3.26178 0.98712 0.419314 -0.410946 -0.00137819 Si
29 2 1.41469 7.09295 9.68308 3.777 -0.38518 2.15306 -1.69527 -1.70066 -0.787422 Ge
16 2 4.12734 4.21832 9.72657 -1.16626 -2.64413 -1.16688 -0.760948 -0.300134 0.640823 Ge
61 2 6.89124 6.93462 9.76626 0.206461 0.662561 -1.17483 0.812349 -1.31456 -0.54006 Ge
48 2 9.7075 4.14906 9.6135 3.14908 -3.57744 -0.0453052 0.583703 1.06194 0.345962 Ge
59 1 8.27041 5.54224 8.27634 -2.71962 3.065 5.07204 0.891653 1.177 1.3235 Si
32 2 4.16786 9.69554 9.71127 0.132343 -0.639183 0.639144 -0.453426 0.176007 -0.434664 Ge
58 1 5.57007 8.2708 8.34248 -0.297924 -1.76761 0.45848 -0.814858 0.733122 0.677788 Si
26 1 0.0121234 8.41385 8.21472 2.02044 -6.07993 0.591739 -0.275348 -0.877356 0.908094 Si
64 2 9.66802 9.67453 9.67429 1.63761 -1.46017 -0.819399 -0.0238461 0.596559 0.693534 Ge
ITEM: TIMESTEP
11100
ITEM: NUMBER OF ATOMS
64
ITEM: BOX BOUNDS pp pp pp
0.0000000000000000e+00 1.1085848640000000e+01
0.0000000000000000e+00 1.1085848640000000e+01
0.0000000000000000e+00 1.1085848640000000e+01
ITEM: ATOMS id type xu yu zu vx vy vz fx fy fz element
4 1 2.88398 2.78563 0.0781737 0.477859 -0.654267 4.59504 -0.650034 0.00581704 -0.692282 Si
7 2 4.17305 1.39059 1.49434 -0.107787 -0.633336 -2.89805 0.506272 -0.800779 -0.88616 Ge
34 1 5.60168 2.75765 2.85137 2.1712 -4.7778 0.068739 -0.917156 1.71907 -1.36594 Si
2 1 -0.129122 2.77617 2.80898 5.04372 3.54819 1.95813 0.866625 0.592537 0.241414 Si
39 2 9.71409 1.35249 1.38001 0.407723 -1.69181 -0.226765 -0.367129 0.241648 -0.668722 Ge
6 2 1.45351 4.08836 1.5315 2.68711 -0.0602899 0.921173 -0.266912 0.834408 -0.857061 Ge
19 1 2.81256 5.64368 2.82254 -0.0195502 -3.2539 -5.49267 -0.948355 -0.206613 -0.704099 Si
23 2 4.14144 7.00035 1.34034 0.187199 -0.289263 0.017364 0.565176 -1.18118 0.00770217 Ge
38 2 6.86315 4.20289 1.3507 0.63737 0.771729 1.77033 1.04376 -1.72489 -0.140467 Ge
49 1 5.53655 5.55191 -0.0639946 -0.136661 -1.14122 2.41229 0.121295 1.49935 0.0138818 Si
51 1 8.29837 5.57181 2.65722 -0.744238 -2.22772 0.417327 -0.323459 0.380895 0.634068 Si
55 2 9.74723 6.93801 1.37198 -0.772376 1.55213 -0.0389335 -0.263873 -0.518673 -0.989591 Ge
3 1 2.69202 0.0216368 2.82431 -2.26132 -0.640304 -2.25704 0.0384634 0.857134 -0.193353 Si
20 1 2.73434 8.33151 -0.00148235 -3.99081 1.51347 1.5188 -0.341657 -0.879805 -0.772969 Si
22 2 1.40039 9.66918 1.4579 0.884092 -1.97759 0.553537 -0.647481 0.0859864 -0.28932 Ge
33 1 5.50957 0.030539 -0.0789567 0.540099 0.279186 -4.12986 0.263766 -0.498232 1.84996 Si
50 1 5.5392 8.35833 2.7093 -3.45261 -5.53972 -2.60725 0.380274 -0.439037 0.290166 Si
54 2 6.95201 9.70185 1.33241 -0.700532 0.305581 -1.0959 -0.30552 0.71573 -0.481016 Ge
35 1 8.32361 0.013371 2.75631 0.64604 -1.26856 -3.87374 -0.00911411 -0.387952 -0.117482 Si
18 1 -0.0943431 8.34974 2.8094 0.462418 4.02225 -2.71504 1.38496 -0.100473 -0.321388 Si
52 1 8.35522 8.30447 -0.0529782 -0.32362 -2.02726 2.7246 -0.443084 -0.0676579 0.304884 Si
5 2 1.2464 1.4201 4.21047 -0.777538 -0.332063 -0.717033 1.02924 -0.696787 0.114761 Ge
12 1 2.75002 2.80058 5.51709 2.32365 0.0896832 3.30602 -0.0832406 -0.174899 -0.369751 Si
15 2 4.1361 1.34343 6.81303 1.52206 -0.369351 -0.140387 0.896958 0.15953 0.529694 Ge
37 2 7.02488 1.44682 4.14026 -0.52803 0.414759 -0.309852 -0.244346 -0.930777 0.393698 Ge
9 1 -0.0458796 -0.0554833 5.62759 2.97793 2.94658 5.18351 0.405902 0.794764 0.611348 Si
44 1 8.33129 2.80939 5.57401 -0.644922 3.8241 2.02461 -0.00840067 0.203459 -0.241563 Si
47 2 9.66536 1.38866 7.00605 -0.685526 -1.47969 -2.31433 0.317201 -0.408542 -1.32155 Ge
14 2 1.35236 4.05395 6.99456 -1.75741 -2.63323 0.507554 0.822082 0.269001 -0.662768 Ge
21 2 1.32872 7.00481 4.17549 -0.47545 3.11597 0.969862 0.585069 -1.09937 0.45309 Ge
25 1 0.0824099 5.46746 5.57908 -0.702019 4.38619 6.12322 -1.65597 1.19932 -0.782158 Si
8 2 4.18826 4.24488 4.14362 -0.138111 0.856228 2.33644 -0.868816 -1.75781 0.239304 Ge
31 2 4.11885 6.9598 6.95226 2.80654 0.742102 0.175858 -0.19467 -0.779114 -0.666736 Ge
46 2 6.88792 4.1879 6.86921 0.607937 -1.40141 2.08714 0.356858 0.0729516 0.102629 Ge
53 2 6.96395 6.92702 4.08516 3.28887 -2.42049 -1.17926 -1.08302 0.66377 0.335374 Ge
57 1 5.48859 5.59339 5.49959 -2.60487 -1.33309 0.820311 1.46874 0.921344 0.714167 Si
40 2 9.59576 4.27121 4.13766 -2.98486 -0.517242 -1.5852 1.6103 -1.45476 0.707659 Ge
63 2 9.7331 6.86109 6.93657 0.310299 -0.897611 -2.80692 0.542842 0.721952 -0.255346 Ge
28 1 2.71726 8.34322 5.58748 0.602294 0.0833456 1.39133 0.540386 0.41719 -0.528213 Si
30 2 1.35917 9.64266 7.07988 -1.96177 -0.719464 -0.890328 0.08855 1.01302 -1.51198 Ge
41 1 5.60263 0.00843422 5.40363 -2.0705 2.19554 3.16732 -0.555942 -0.168805 0.973501 Si
24 2 4.1159 9.7188 4.07357 -2.58592 0.58817 -0.0398119 0.326175 -0.537792 1.74121 Ge
62 2 6.99371 9.72345 6.84911 0.451842 -0.9161 0.563454 -0.898062 -0.0769975 0.423493 Ge
56 2 9.6745 9.73284 4.1877 -0.16892 -0.0837845 1.78228 -0.312865 -0.242319 -0.149904 Ge
60 1 8.36257 8.27289 5.52329 2.1428 0.849441 0.434356 -0.309595 -0.206408 0.0850969 Si
1 1 0.0953745 -0.0282213 0.0473352 -3.66718 1.89209 3.80622 -0.445727 0.805495 -0.536754 Si
10 1 -0.0238047 2.69338 8.36161 5.49502 2.37756 -5.3231 0.0277455 0.940304 0.982316 Si
11 1 2.83086 -0.0110361 8.32703 -0.221472 -0.507085 -2.2583 -0.925913 0.347826 -0.473691 Si
13 2 1.47914 1.40934 9.72147 -3.49688 -1.06299 -1.26887 -0.21784 -0.623636 0.886471 Ge
42 1 5.55655 2.74547 8.20729 -2.84763 6.65278 0.885998 0.198345 -0.747256 0.203071 Si
45 2 6.93184 1.3846 9.66574 0.0445669 1.85558 -0.703916 -0.781318 -0.122303 -0.826792 Ge
36 1 8.27537 2.71339 -0.0322974 2.54401 2.45287 -2.15685 -0.115236 0.937152 1.55609 Si
43 1 8.32417 -0.00527514 8.33918 4.10577 4.28137 -2.09801 -0.0640959 -0.55157 -0.0572906 Si
17 1 0.0715125 5.42724 0.0564958 -3.5734 2.98325 2.22552 -1.2101 0.206621 0.348692 Si
27 1 2.79244 5.42145 8.30283 -2.10296 -1.93819 -2.06351 0.129368 1.09822 0.453424 Si
29 2 1.36949 6.78857 9.7105 1.60672 1.84477 3.51334 1.02238 1.28403 0.289708 Ge
16 2 4.27806 4.10406 9.65627 2.14408 0.0516128 1.05035 -1.78055 -0.0323095 0.431555 Ge
61 2 6.92312 6.97123 9.59044 -1.26702 3.93339 0.787133 0.35468 -0.64955 0.685269 Ge
48 2 9.63721 4.12354 9.73483 -0.234088 -3.19186 -1.14534 1.63166 -0.269113 -0.305266 Ge
59 1 8.34561 5.49884 8.2671 -1.93582 -4.28253 -5.74017 -1.31497 0.389436 0.537955 Si
32 2 4.14274 9.67094 9.67648 2.65955 -1.76185 0.976773 0.176319 0.592541 0.514293 Ge
58 1 5.51589 8.38871 8.24551 0.631737 0.501563 -1.92922 0.952318 -0.611893 -0.126046 Si
26 1 -0.0313442 8.26843 8.40623 -1.90261 4.45668 -2.76785 0.361857 -1.16943 -0.495787 Si
64 2 9.75319 9.72032 9.73108 -0.429101 -1.22751 0.256718 -0.461112 0.146232 0.135492 Ge
ITEM: TIMESTEP
11200
ITEM: NUMBER OF ATOMS
64
ITEM: BOX BOUNDS pp pp pp
0.0000000000000000e+00 1.1085848640000000e+01
0.0000000000000000e+00 1.1085848640000000e+01
0.0000000000000000e+00 1.1085848640000000e+01
ITEM: ATOMS id type xu yu zu vx vy vz fx fy fz element
4 1 2.64718 2.76438 -0.122525 0.489059 -1.31006 -2.08449 0.693569 0.372214 1.8385 Si
7 2 4.11383 1.41658 1.31762 -1.16962 1.31164 0.301905 -0.273503 0.0882928 -0.587322 Ge
34 1 5.4953 2.77029 2.67984 1.09886 -4.01178 2.69741 0.890692 -1.24081 0.968329 Si
2 1 0.0541407 2.70263 2.72477 -6.15269 -1.97031 1.37048 0.173833 1.01887 0.477826 Si
39 2 9.67417 1.3995 1.39916 0.924948 -2.17156 -0.742506 0.58796 -1.40936 -0.45611 Ge
6 2 1.29716 4.19345 1.29283 -0.575968 -0.978065 -0.909445 1.38432 -0.81435 0.645492 Ge
19 1 2.75709 5.462 2.77107 2.07645 2.95341 5.67649 0.178295 -0.250212 -0.86212 Si
23 2 4.15673 6.90415 1.45935 -2.39236 2.59904 -0.688048 0.779804 0.510254 0.353293 Ge
38 2 6.96967 4.11465 1.4253 -1.73386 1.71607 1.30097 -0.42405 1.13943 -0.434554 Ge
49 1 5.51537 5.51709 0.0680808 1.19454 -5.78915 0.471488 -0.275475 -1.16393 0.192169 Si
51 1 8.32468 5.51484 2.85351 1.20794 -2.6994 0.871854 -0.0667064 -0.247279 0.138868 Si
55 2 9.68622 6.91675 1.46496 0.080379 0.395485 2.17703 0.0155213 0.160185 -1.63506 Ge
3 1 2.87445 -0.0394217 2.72 0.727623 -0.746423 2.30786 -0.542139 -0.242672 0.0496708 Si
20 1 2.83764 8.29087 0.0173433 0.738012 1.6655 0.404956 -1.4228 0.673216 0.0336426 Si
22 2 1.38341 9.71542 1.35311 1.31611 -1.19922 -1.03052 0.679619 -0.693858 -0.0757021 Ge
33 1 5.54731 -0.00131266 0.0666349 -0.896541 1.61891 -3.55336 -0.0320934 -0.0935449 -1.62909 Si
50 1 5.61231 8.33553 2.86707 0.783768 1.06918 1.16249 -1.49425 -1.0632 -1.05666 Si
54 2 6.92482 9.71676 1.45917 0.720889 -1.41512 -0.998256 0.128579 -0.239845 -0.674207 Ge
35 1 8.26595 0.0252017 2.81092 0.641472 0.500782 0.706744 0.602161 0.0775884 -0.588786 Si
18 1 0.0630462 8.25483 2.75804 -3.57939 -1.23067 4.45579 -0.534784 1.02661 -0.371683 Si
52 1 8.28697 8.32999 0.0272551 -1.32741 0.636955 -2.55128 0.196513 -0.600652 0.508766 Si
5 2 1.56335 1.37401 4.08075 -1.02886 0.387475 0.0394606 -2.2529 -0.517693 0.0571194 Ge
12 1 2.7924 2.73287 5.55317 1.13063 -0.952402 -1.68993 0.462379 1.30985 0.935509 Si
15 2 4.13316 1.44214 7.08158 -1.07309 2.77755 -0.363712 -0.0640563 -1.35132 -1.84369 Ge
37 2 6.82244 1.36172 4.16297 1.61855 1.13121 2.9317 0.0836725 0.191698 -0.032731 Ge
9 1 0.0499297 -0.00509569 5.39463 -0.00836225 -1.6617 -5.6137 0.124506 0.475931 1.09567 Si
44 1 8.29655 2.71234 5.4855 3.44554 0.498325 1.63747 0.0527644 0.930775 0.775462 Si
47 2 9.73903 1.40629 6.87064 1.4958 0.38717 0.083899 -0.711748 -1.53862 -0.258415 Ge
14 2 1.43707 4.26452 6.93715 -1.93744 -1.46414 0.246858 -0.997672 -1.52822 -0.368301 Ge
21 2 1.41198 6.8541 4.10319 0.00917859 0.175858 -2.34566 0.0566103 0.732617 1.24526 Ge
25 1 -0.0347797 5.54114 5.49074 5.08844 -4.07379 -4.38094 1.03168 0.980969 1.76325 Si
8 2 4.17627 4.05459 4.10687 2.25353 1.38238 -1.14127 -0.0295649 1.86947 1.61199 Ge
31 2 4.17333 6.9093 6.95372 0.451771 1.5295 1.30655 0.763609 0.455498 -0.406505 Ge
46 2 6.94667 4.13172 6.94594 -1.27223 -1.95857 -1.02915 1.04026 -0.159363 0.653374 Ge
53 2 6.88867 6.91337 4.24151 3.5987 -4.76067 2.28116 1.48727 -0.449556 -0.826586 Ge
57 1 5.59118 5.50409 5.58603 -4.02941 -3.85771 -1.86001 -2.11344 -0.782275 -0.537682 Si
40 2 9.78633 4.09088 4.17979 -2.93813 2.03615 0.644299 -1.53403 -0.472752 -1.19564 Ge
63 2 9.69456 7.00189 6.94979 0.204977 0.39421 -1.30584 -0.158113 -1.25795 -1.0793 Ge
28 1 2.80231 8.28038 5.51392 -2.46407 -2.96983 -0.778572 -0.255212 -0.564735 0.138986 Si
30 2 1.42837 9.71611 6.85135 0.352871 -1.62042 -2.05696 -0.696604 -0.0288055 -0.130191 Ge
41 1 5.47272 -0.00481136 5.64418 0.37194 -1.12138 -1.02535 0.138145 0.673307 -0.0742873 Si
24 2 4.19756 9.67646 4.20069 -0.490038 0.497434 -1.65888 -0.316987 0.476616 -0.28551 Ge
62 2 6.87309 9.69997 6.9955 0.0710962 -0.457014 0.11004 0.196225 -0.98183 -0.908547 Ge
56 2 9.70673 9.67431 4.06019 1.05815 0.0193205 0.480258 -0.250984 -0.287818 1.3331 Ge
60 1 8.26731 8.32367 5.5411 -1.16355 2.73293 0.0271144 0.715175 0.980458 0.423262 Si
1 1 -0.0323895 -0.0248654 -0.0712367 4.93242 -0.376061 -1.9662 -0.584748 0.801214 1.02916 Si
10 1 -0.0369608 2.79671 8.29339 -3.72236 -4.91294 -1.34383 1.15792 1.02357 -1.34947 Si
11 1 2.72045 -0.012942 8.33575 1.51338 2.88193 4.04289 0.464721 0.0853475 -0.0827733 Si
13 2 1.29753 1.39916 9.62684 -1.45556 3.47872 -2.07712 0.0496529 -0.984853 0.232885 Ge
42 1 5.57918 2.75008 8.38538 -0.685141 1.01171 -0.749638 -0.751402 1.81439 0.459156 Si
45 2 6.98011 1.3851 9.73025 0.384894 0.601538 3.10082 -0.514819 -0.400817 0.674911 Ge
36 1 8.36257 2.79586 0.023173 0.50383 -0.652275 -4.13199 0.246294 0.476105 -1.05234 Si
43 1 8.26901 -0.0101994 8.27464 -0.738083 3.10504 0.0108281 1.09943 1.36374 -0.0287346 Si
17 1 0.018738 5.64457 -0.061925 6.79993 -0.689084 -4.7781 -0.543558 0.617642 0.251111 Si
27 1 2.77786 5.65775 8.3597 0.0781741 1.51183 2.45047 -0.706846 -0.73996 -1.00093 Si
29 2 1.37623 7.0861 9.60829 -1.53525 1.77281 -2.02725 0.693514 -1.59073 2.23907 Ge
16 2 4.04217 4.20128 9.70679 3.54371 -0.904408 -0.569607 2.36062 -0.573775 0.113845 Ge
61 2 6.91999 6.8204 9.79622 -1.41681 0.0325235 0.886292 0.273413 1.92686 -0.115968 Ge
48 2 9.77482 4.22404 9.67036 -1.6169 1.14823 -0.0264325 -1.49258 -0.618733 0.978953 Ge
59 1 8.33412 5.59539 8.37 2.70086 2.49161 1.12327 -0.0491443 -1.12401 -1.36649 Si
32 2 4.14424 9.67617 9.69874 -0.26975 -2.71283 2.59013 1.00673 0.546953 0.654705 Ge
58 1 5.57811 8.2341 8.39877 -2.16474 0.642643 1.67423 -0.645025 0.559272 -0.48619 Si
26 1 0.0175421 8.36923 8.25513 -0.866441 4.81937 1.72453 -0.999776 1.57337 -0.289748 Si
64 2 9.62405 9.71893 9.6492 -0.166703 0.0767056 1.91655 0.919558 -0.91877 0.217969 Ge
ITEM: TIMESTEP
11300
ITEM: NUMBER OF ATOMS
64
ITEM: BOX BOUNDS pp pp pp
0.0000000000000000e+00 1.1085848640000000e+01
0.0000000000000000e+00 1.1085848640000000e+01
0.0000000000000000e+00 1.1085848640000000e+01
ITEM: ATOMS id type xu yu zu vx vy vz fx fy fz element
4 1 2.88333 2.78082 0.107938 -0.107234 0.783852 -1.66954 -0.601915 -0.554239 -0.790438 Si
7 2 4.21351 1.36781 1.52642 0.941628 -0.0988251 1.4203 -0.101796 0.172184 -1.3291 Ge
34 1 5.57293 2.82696 2.83663 -1.15174 5.7746 -3.43054 -0.318182 -0.599368 -0.158088 Si
2 1 0.0107133 2.81453 2.72494 4.00436 -4.38175 -2.03106 -0.543702 -0.53771 0.824653 Si
39 2 9.66505 1.43745 1.38916 -1.74054 2.42568 -0.856322 0.523953 -0.938488 0.201727 Ge
6 2 1.43832 4.15285 1.4091 -0.214946 0.695031 1.08572 -0.785074 0.262248 -0.593333 Ge
19 1 2.77278 5.56615 2.74205 -0.00784434 -1.48647 -1.50253 0.0890063 0.584441 1.39802 Si
23 2 4.19004 6.90618 1.3329 -1.65271 -0.623158 -3.68846 -1.43246 0.644307 -0.310036 Ge
38 2 6.91774 4.14025 1.37911 1.03068 0.776176 -1.06288 -0.690151 1.53234 -0.314377 Ge
49 1 5.56609 5.60229 -0.0721527 -2.2566 6.95439 -2.02443 0.594503 -0.913566 -0.152139 Si
51 1 8.29564 5.59108 2.70229 -1.4349 3.55734 -3.34227 0.00770729 -0.346989 0.877551 Si
55 2 9.70687 6.92147 1.31852 -0.619584 -1.09786 1.36197 -0.0397846 0.361227 1.40292 Ge
3 1 2.72027 0.00560879 2.78772 0.131894 -0.367032 -1.00004 0.297667 0.297341 1.15936 Si
20 1 2.72336 8.3003 -0.0360592 5.6088 -1.19199 1.56188 0.914272 0.645495 0.287629 Si
22 2 1.35153 9.72674 1.43097 0.0405616 0.278431 -0.120005 0.618278 -0.360018 -1.69048 Ge
33 1 5.54061 -0.0397156 0.0524416 -2.02605 0.897626 5.07753 -0.174476 0.932152 -0.573371 Si
50 1 5.48562 8.32002 2.69327 3.4958 5.16509 0.703565 0.358972 0.755024 0.766314 Si
54 2 6.9499 9.68237 1.41302 1.44247 2.89088 -2.36339 0.162836 -0.214897 -0.876861 Ge
35 1 8.36544 -0.0466254 2.75604 -2.44257 1.79977 1.79285 -0.388317 0.73168 0.1156 Si
18 1 -0.00201074 8.33373 2.72461 2.87379 -1.45573 -3.44805 -0.72647 -0.693278 1.19188 Si
52 1 8.36545 8.32576 0.00775739 3.21309 0.66607 -1.17063 -0.719985 0.601784 -1.29988 Si
5 2 1.28833 1.39698 4.1677 2.79178 -1.43163 2.81399 0.473169 -0.352794 0.832221 Ge
12 1 2.72955 2.80613 5.53636 -3.17433 -2.79676 -0.867459 0.245158 -1.62747 -0.65596 Si
15 2 4.19079 1.32014 6.78149 1.54001 1.53408 0.342393 -0.224536 1.38912 1.19138 Ge
37 2 6.97954 1.36549 4.08715 -0.676935 2.4536 -1.51431 0.12182 0.275218 0.978391 Ge
9 1 -0.0925144 0.00134538 5.69193 -1.71597 -1.79722 1.47609 0.753235 0.0214042 -1.57576 Si
44 1 8.2929 2.7558 5.55482 -2.84628 -3.84713 -3.31512 0.679161 0.476263 -0.111614 Si
47 2 9.64435 1.41271 7.07462 1.49695 3.93228 1.13852 0.497415 0.274949 -1.03421 Ge
14 2 1.36816 4.12123 6.91944 0.730095 0.628972 2.46514 -0.405389 0.890769 -0.408717 Ge
21 2 1.36332 6.99867 4.19258 -0.600547 0.262922 0.342903 0.4611 -0.94027 -0.807536 Ge
25 1 -0.0205374 5.5757 5.58366 -5.18297 -1.78965 2.74928 0.443293 -0.935399 -1.13222 Si
8 2 4.1277 4.17584 4.1978 -0.472175 -2.17949 -1.61335 0.578699 0.964998 -0.42696 Ge
31 2 4.12467 6.93716 6.91222 -0.739712 0.887373 -1.48859 0.334598 0.0539929 0.159351 Ge
46 2 6.93559 4.20211 6.94238 -2.28719 1.12669 -3.7617 -1.00007 -1.25685 -0.960313 Ge
53 2 6.89183 7.03286 4.0753 -3.22348 2.94492 -0.126369 0.801682 -1.59204 1.11573 Ge
57 1 5.55821 5.61058 5.54945 6.88915 6.38323 2.31356 -0.138843 -0.300493 -0.775698 Si
40 2 9.70034 4.17145 4.11512 0.0963984 2.05045 1.68819 -0.521251 0.560086 0.775295 Ge
63 2 9.71596 6.90231 6.97037 0.785791 0.743203 1.39659 -0.777381 -0.310027 -0.135339 Ge
28 1 2.78505 8.35943 5.5651 0.431855 4.82877 2.01831 -0.849608 0.230363 0.0192125 Si
30 2 1.36724 9.7001 7.02733 -1.32548 -0.907801 1.56969 -0.197935 -0.886932 -1.43578 Ge
41 1 5.6332 -0.0317109 5.46453 0.015024 0.76394 -1.59977 -0.423452 -0.101278 -0.00100707 Si
24 2 4.1589 9.71105 4.14041 -1.98976 -0.892941 2.37193 -0.189869 -0.140992 -0.286074 Ge
62 2 6.95799 9.6908 6.92446 -0.634308 0.150239 -1.00248 0.278449 0.0976969 -0.69596 Ge
56 2 9.68705 9.66812 4.17927 0.912763 0.0137098 -0.41315 0.956186 0.463299 0.281777 Ge
60 1 8.35326 8.28239 5.56387 -0.810974 -6.82228 -2.48889 -0.897137 0.139443 -0.288604 Si
1 1 -0.0254782 0.0278873 0.0420004 0.44569 -3.9369 -0.510558 0.908852 0.196567 -0.790101 Si
10 1 0.0634412 2.81363 8.36574 0.694466 -1.52323 3.7462 -0.446315 -1.89731 0.569949 Si
11 1 2.80418 0.00944725 8.23129 -1.57699 -3.45555 -2.27612 -0.296123 1.15212 1.04792 Si
13 2 1.49974 1.38519 9.76428 0.614414 2.35629 3.27724 -0.885352 0.302558 -0.360814 Ge
42 1 5.52673 2.73521 8.27605 5.29385 -6.03397 -3.55121 -0.448221 0.440461 -0.55503 Si
45 2 6.8761 1.34958 9.65866 -1.96822 -1.3083 -1.50454 0.456703 -0.316029 1.51423 Ge
36 1 8.23631 2.73546 0.039528 -2.26305 -4.11878 3.33486 0.341197 -0.192742 -1.60283 Si
43 1 8.31722 -0.0693285 8.36904 -2.64941 -6.1014 -0.633973 -0.377213 0.727898 -0.29739 Si
17 1 -0.0831328 5.46146 0.0457959 -1.0727 -1.02217 5.04054 1.91958 -0.327786 -1.06545 Si
27 1 2.76778 5.456 8.23584 2.34056 -3.2674 -1.1072 0.286571 0.983087 1.19384 Si
29 2 1.41583 6.77262 9.73443 1.53119 0.696699 0.274338 -0.824083 0.538598 -0.341542 Ge
16 2 4.14268 4.15632 9.69015 -3.3772 -1.76745 -0.720662 1.05527 -0.381196 -0.229601 Ge
61 2 6.94082 7.04671 9.60237 -0.820937 -0.935459 -0.502603 0.0280154 -1.28862 1.0442 Ge
48 2 9.66558 4.07558 9.71153 3.78136 -2.86888 0.672295 -0.592568 0.906039 0.461004 Ge
59 1 8.2928 5.50206 8.30599 0.0164892 -1.17536 1.19367 0.891119 1.08069 0.939899 Si
32 2 4.13537 9.78097 9.63143 -0.274873 -2.91322 -0.368656 0.0755308 -1.7506 1.44587 Ge
58 1 5.5027 8.38543 8.24191 2.07297 -0.94424 0.599792 -0.0854535 -0.466195 0.52857 Si
26 1 0.0388361 8.1879 8.35465 4.34703 -6.70222 -0.0161976 0.447221 0.998812 0.387711 Si
64 2 9.78187 9.68166 9.66815 0.568975 0.479685 0.578955 -0.498115 -0.461087 1.35039 Ge
ITEM: TIMESTEP
11400
ITEM: NUMBER OF ATOMS
64
ITEM: BOX BOUNDS pp pp pp
0.0000000000000000e+00 1.1085848640000000e+01
0.0000000000000000e+00 1.1085848640000000e+01
0.0000000000000000e+00 1.1085848640000000e+01
ITEM: ATOMS id type xu yu zu vx vy vz fx fy fz element
4 1 2.67059 2.7569 -0.0501601 0.85495 -1.80026 -0.432058 0.642023 0.278458 -0.582451 Si
7 2 4.11891 1.4107 1.26906 0.0634062 -0.160865 -1.31075 0.582459 -1.23096 0.350079 Ge
34 1 5.49893 2.70347 2.72664 -1.14906 -0.678351 0.638516 -0.160154 1.39225 -0.168961 Si
2 1 -0.0107915 2.80191 2.84936 -2.23788 3.57244 -3.23123 0.694713 -1.06929 -1.68609 Si
39 2 9.74145 1.36482 1.45106 -1.19083 1.04975 -0.152591 -0.5402 1.40855 -1.09435 Ge
6 2 1.34935 4.12903 1.38739 0.296913 1.17247 -5.55682 0.164259 0.818186 0.247689 Ge
19 1 2.73455 5.55477 2.793 -0.0162305 -1.06965 -0.158915 0.416211 -0.693949 -0.457129 Si
23 2 4.19366 6.94698 1.48615 1.21229 -1.81902 1.08702 -1.17165 -1.24009 -2.54572 Ge
38 2 6.92801 4.10972 1.38513 2.20169 -5.07404 3.47798 1.40255 -0.401601 0.730197 Ge
49 1 5.58077 5.45825 0.0458293 2.74638 -2.12504 2.70309 -0.792136 2.39573 -0.0307102 Si
51 1 8.34105 5.51043 2.82376 2.85699 -3.43519 0.511146 0.124326 0.204464 -1.98747 Si
55 2 9.73056 6.98252 1.41537 -1.41747 0.0603175 -2.02078 -1.01935 -1.5245 -0.454863 Ge
3 1 2.80485 0.0484614 2.7894 1.90813 -0.65046 -5.13639 -0.211941 -0.48308 -1.54402 Si
20 1 2.74434 8.31507 -0.00493399 -4.32179 -3.39577 -2.08899 1.28737 -0.241858 0.760601 Si
22 2 1.38698 9.66955 1.4468 -1.40668 1.4021 1.05242 -0.422413 0.921638 -0.338502 Ge
33 1 5.62072 0.0283445 -0.121165 3.98465 -4.83652 1.77392 -0.441203 0.0296531 1.77845 Si
50 1 5.53661 8.28146 2.81876 -1.631 -4.13014 -1.57395 1.04144 1.01483 -0.0230413 Si
54 2 6.8853 9.68448 1.41154 -1.25859 -1.34285 2.30126 0.0604227 0.438074 -0.856044 Ge
35 1 8.27957 0.0278915 2.75517 1.87396 -5.63283 -0.516802 -0.415721 -0.383833 0.380334 Si
18 1 -0.038922 8.30741 2.86165 1.54405 1.51424 0.229233 1.03165 0.256212 -1.27082 Si
52 1 8.23663 8.28198 0.000418133 -1.30426 0.533823 5.34741 1.13714 0.539702 0.670034 Si
5 2 1.43795 1.43606 4.13536 1.41153 1.20299 -3.01826 0.329668 0.128706 0.767633 Ge
12 1 2.82818 2.77371 5.58189 1.93412 5.00181 1.8382 -0.892343 0.21999 -0.30712 Si
15 2 4.09294 1.36858 7.02326 0.919988 -0.387249 -2.46066 1.23777 0.571364 -0.248966 Ge
37 2 6.84926 1.39429 4.14708 -2.46359 -2.9197 -0.439485 1.26421 -0.0518103 0.794002 Ge
9 1 0.106422 0.00275442 5.46463 -2.20076 -0.450898 0.822886 -1.56521 -0.526701 0.690143 Si
44 1 8.32378 2.81002 5.53618 -0.625854 -2.34307 0.675266 -0.786671 -1.66931 -0.244707 Si
47 2 9.70039 1.33796 6.85771 0.701894 0.100571 0.269933 1.21235 1.16872 -0.453417 Ge
14 2 1.40831 4.15647 6.9486 -0.797246 -1.00153 -1.36678 0.198319 0.40631 0.137218 Ge
21 2 1.36957 6.90792 4.176 0.558637 2.70699 2.32212 0.305284 0.44042 -0.0967281 Ge
25 1 0.0397351 5.53275 5.52748 1.098 3.11199 -3.83083 -1.11999 -0.347198 0.779927 Si
8 2 4.16057 4.15449 4.13873 1.14778 -2.50391 3.38537 -0.753679 -1.07803 -0.789089 Ge
31 2 4.17726 6.90024 6.96661 1.0697 -0.711347 -0.0962868 -0.347949 -0.198527 -1.36779 Ge
46 2 6.95518 4.14125 6.95636 1.55237 -0.243528 2.42448 -1.06462 0.858026 -0.396148 Ge
53 2 6.97761 6.90558 4.13758 1.60139 -0.988817 1.2906 -1.19334 0.18329 1.2568 Ge
57 1 5.50277 5.48166 5.48063 -0.919055 -4.60755 1.30337 1.90649 1.27228 1.79563 Si
40 2 9.71123 4.12627 4.15909 1.0088 -1.95724 -0.80713 0.071193 1.32009 1.12956 Ge
63 2 9.6778 6.94471 6.89107 0.530088 3.68803 -1.7865 0.412932 0.467068 -0.175206 Ge
28 1 2.79397 8.26782 5.5183 4.58405 -5.51887 -1.79844 0.565004 0.753783 0.372174 Si
30 2 1.41899 9.6684 6.91707 0.588673 -0.343637 -2.65879 -0.107888 0.671728 0.0786518 Ge
41 1 5.48631 0.0164631 5.58107 2.26748 -3.04133 2.16148 0.403719 0.162757 0.104758 Si
24 2 4.18917 9.73711 4.1231 1.05918 1.93578 1.54886 -0.827293 -0.891564 1.24775 Ge
62 2 6.91683 9.71916 6.93084 -1.26089 -1.30289 2.12354 -0.155964 0.458637 0.418003 Ge
56 2 9.66645 9.72319 4.11539 -1.6566 -0.488823 0.271277 0.36875 0.830425 1.19984 Ge
60 1 8.28417 8.38736 5.53176 1.79337 4.60873 2.34357 0.408681 -1.22549 -0.262501 Si
1 1 -0.0287555 -9.73018e-05 0.00741324 -3.18575 -0.479165 0.666334 -0.018717 -1.51367 0.302361 Si
10 1 -0.0252978 2.75514 8.27548 -2.1837 4.29403 -3.02213 -0.290175 0.173027 -0.137746 Si
11 1 2.75055 -0.0193628 8.39653 1.73602 -1.54049 -2.42387 0.314058 -1.29582 -1.52462 Si
13 2 1.30685 1.31624 9.63535 -2.73654 0.0244762 -1.30389 0.115426 1.4044 1.4089 Ge
42 1 5.48822 2.84414 8.38103 -2.07255 0.479615 6.32694 1.7104 -1.78202 -0.973388 Si
45 2 7.07575 1.45174 9.67674 1.30721 3.25989 0.54 -2.08583 0.494821 -0.422636 Ge
36 1 8.42706 2.83027 -0.0448874 1.07667 3.47794 4.9725 -0.732463 -1.01625 2.13002 Si
43 1 8.35317 0.0647125 8.27803 1.99049 -0.544696 0.24498 -0.835206 -1.57031 -0.175118 Si
17 1 0.0260668 5.56054 -0.0214227 -4.33948 1.63651 -4.16078 -0.828027 0.198142 1.09576 Si
27 1 2.74178 5.62317 8.37883 -1.71248 2.01917 -1.01999 0.479485 -1.5631 -0.933629 Si
29 2 1.33114 6.9578 9.69133 -0.801327 1.30065 1.06505 -0.254998 1.36802 -0.0983488 Ge
16 2 4.1577 4.19785 9.72748 -3.47951 3.06315 3.3789 -1.75036 -0.0578456 0.661302 Ge
61 2 6.95002 6.88038 9.69694 -0.426538 4.50951 0.826543 -0.87195 -0.397599 0.455651 Ge
48 2 9.71603 4.21295 9.68509 1.81111 -0.34565 -2.49004 1.13601 -0.254546 -0.756665 Ge
59 1 8.34564 5.56922 8.31212 -1.69423 -0.647514 -0.45898 -0.364226 -0.377297 -0.511993 Si
32 2 4.22525 9.66835 9.67924 0.861347 3.16139 -0.0910234 -0.93831 -0.161402 0.316876 Ge
58 1 5.57916 8.25039 8.30262 -0.606022 1.29837 -1.81001 0.218568 0.801512 0.153014 Si
26 1 -0.0951814 8.40412 8.29744 -2.77571 -2.23483 -0.106391 1.28866 -1.84061 -0.261538 Si
64 2 9.60714 9.69109 9.68856 -0.727265 -0.235887 -2.1107 0.428466 1.037 0.964166 Ge
ITEM: TIMESTEP
11500
ITEM: NUMBER OF ATOMS
64
ITEM: BOX BOUNDS pp pp pp
0.0000000000000000e+00 1.1085848640000000e+01
0.0000000000000000e+00 1.1085848640000000e+01
0.0000000000000000e+00 1.1085848640000000e+01
ITEM: ATOMS id type xu yu zu vx vy vz fx fy fz element
4 1 2.83439 2.80836 0.0367837 -0.496089 0.363368 4.18175 -0.161559 -0.290779 0.098319 Si
7 2 4.14711 1.4042 1.51703 -0.194166 2.41992 2.63029 -0.473963 0.0964843 -0.60204 Ge
34 1 5.61533 2.77427 2.82361 2.51225 -4.7037 1.90343 -0.0842364 -0.0517779 -0.109873 Si
2 1 0.02121 2.71999 2.72334 0.944997 0.901966 5.77169 -1.29069 0.70496 0.563048 Si
39 2 9.70145 1.3931 1.30682 0.5052 -0.932382 -0.244604 -0.222348 -0.158064 0.592694 Ge
6 2 1.37626 4.13012 1.42994 0.123372 -2.4196 1.63662 0.713442 0.605038 -1.63203 Ge
19 1 2.80873 5.50168 2.72986 -2.09398 1.5524 -2.33349 -0.303528 0.740897 -0.005973 Si
23 2 4.16012 6.96642 1.37849 1.16749 3.68278 0.510654 -0.056305 -0.0563762 0.755742 Ge
38 2 6.87343 4.22633 1.37254 -3.88525 1.52536 -3.61143 0.273603 -1.16356 -0.191752 Ge
49 1 5.45799 5.58547 -0.005463 1.52545 -4.45826 -3.51421 0.791044 -1.12977 -0.213889 Si
51 1 8.27636 5.56243 2.75944 -2.55336 3.87526 3.74251 0.531457 -0.0969709 0.973028 Si
55 2 9.7328 6.91091 1.40779 3.30077 2.15657 -1.27907 -0.81844 0.3858 -0.981087 Ge
3 1 2.73205 -0.0700383 2.79177 -1.45306 2.07517 9.43582 0.543805 0.340657 0.00138327 Si
20 1 2.79151 8.33953 0.0182948 -2.2468 1.13185 -3.30836 -1.04828 -1.02401 -1.16355 Si
22 2 1.38134 9.68492 1.34083 1.31558 -1.77853 0.631644 0.0611002 0.768801 0.108315 Ge
33 1 5.41837 0.0117822 0.104127 -0.23926 1.37576 -5.40253 1.13753 -1.61788 -0.786489 Si
50 1 5.59039 8.3236 2.78613 -2.5876 -3.58639 2.38447 -0.589169 -1.2241 -0.37447 Si
54 2 6.95334 9.66445 1.40281 1.15974 1.08915 -1.51055 -0.209381 1.26697 -0.580999 Ge
35 1 8.34386 0.0157888 2.75926 0.814418 3.3743 -0.731078 0.804505 -1.02345 0.0861968 Si
18 1 0.0278819 8.30572 2.69992 -4.09957 -2.86882 1.04895 -0.0805787 -0.189695 0.49016 Si
52 1 8.36024 8.3141 -0.0235684 -1.06302 -4.41729 -4.82612 -0.448131 -0.546159 0.518282 Si
5 2 1.34947 1.36474 4.11419 -2.25284 -0.267886 2.58764 0.0784979 -0.645241 0.517787 Ge
12 1 2.72486 2.73509 5.48528 -0.284317 -2.6556 -1.30036 0.704135 0.916796 0.215277 Si
15 2 4.13245 1.40823 6.91565 -1.78576 -1.48515 -4.01457 0.342015 -0.0094074 -1.09904 Ge
37 2 7.04082 1.38927 4.21105 0.153953 2.07626 -1.15048 -1.57439 -0.160367 -0.266601 Ge
9 1 -0.0479925 0.0306053 5.53496 6.31624 0.676442 0.441172 0.630136 -0.638328 -0.0322154 Si
44 1 8.35498 2.79824 5.58204 0.991972 5.24441 0.826953 0.211331 0.154908 -0.226028 Si
47 2 9.67792 1.37686 6.96197 -1.23891 -0.112721 3.21963 0.234853 0.58184 0.0433171 Ge
14 2 1.40941 4.18958 6.89683 0.355944 -1.85417 0.544313 -0.451579 -1.17935 -0.250754 Ge
21 2 1.3769 6.8925 4.0421 -1.59558 -0.665355 1.58446 0.15978 0.251798 2.19843 Ge
25 1 -0.00831083 5.54846 5.5756 1.74056 -0.590015 3.57019 0.577668 0.0615174 -1.67314 Si
8 2 4.15966 4.14188 4.1124 0.25452 2.45188 0.579098 0.418041 0.262073 1.86065 Ge
31 2 4.14344 6.98086 6.9754 -1.42194 2.33507 0.747381 -0.612328 -0.0162779 -0.23514 Ge
46 2 6.93871 4.16565 6.93922 -0.552141 0.432 -2.76732 0.274338 0.403027 -0.438535 Ge
53 2 6.87808 6.92826 4.21748 1.65546 1.42774 -1.56584 0.944271 -0.320288 -0.583847 Ge
57 1 5.50718 5.57964 5.6227 -3.77652 1.56547 -7.0614 -0.264674 -1.03592 -1.20159 Si
40 2 9.72951 4.15103 4.1421 -1.73298 0.888366 -1.20647 -0.374668 0.0389563 -0.213581 Ge
63 2 9.718 6.87698 6.97927 0.828014 -1.51114 -0.226727 0.125901 1.68197 -0.212412 Ge
28 1 2.69917 8.34004 5.5446 -2.99915 2.64489 0.133131 0.719304 -1.23786 -0.427802 Si
30 2 1.40759 9.79007 6.9328 -0.641103 -1.54554 0.764647 -0.706438 -0.074677 -0.943417 Ge
41 1 5.53359 0.0128139 5.55998 -0.426786 0.348377 -4.02412 0.366411 -1.00223 -0.559016 Si
24 2 4.15861 9.59824 4.13132 -0.180456 1.51355 -0.591682 -0.156905 2.25705 1.18989 Ge
62 2 6.94136 9.69303 6.98565 0.0246301 -0.600524 -2.53121 -0.741514 -0.264355 -1.05544 Ge
56 2 9.75929 9.62635 4.13419 -0.924824 -2.11042 -0.949717 -1.3719 0.972738 0.326966 Ge
60 1 8.3186 8.26359 5.57379 -1.57368 -1.97293 -0.765789 0.437741 0.618927 0.160606 Si
1 1 0.0680683 0.0575319 -0.0456021 0.924987 5.4403 -0.723409 -0.209869 -0.114972 -0.356463 Si
10 1 0.0150242 2.81017 8.29521 4.20723 0.215642 3.1885 -0.67081 0.395804 0.436757 Si
11 1 2.77112 0.0749779 8.28483 -2.19735 3.12949 5.3705 0.311244 -0.59639 0.657379 Si
13 2 1.47229 1.49335 9.66029 1.65361 3.13043 0.602301 -0.992339 -0.70932 0.782092 Ge
42 1 5.58956 2.73488 8.22604 -2.99851 2.65234 -1.41557 -0.691764 -0.188496 1.68813 Si
45 2 6.81662 1.28807 9.73338 1.985 -3.05137 1.43641 0.392618 1.30401 -0.469783 Ge
36 1 8.20962 2.72889 -0.0270766 0.159997 0.242318 -8.21553 0.289411 0.812123 0.429936 Si
43 1 8.25898 0.0117813 8.32848 1.62749 3.39593 3.09362 1.01614 -0.384144 0.742245 Si
17 1 0.0386598 5.57301 0.0100875 1.92782 -4.18965 2.33112 -0.423691 -0.840114 -0.562387 Si
27 1 2.79187 5.48411 8.28607 -0.670258 -0.0680791 0.997758 0.390098 1.11736 0.325945 Si
29 2 1.41527 6.94163 9.61926 -0.257155 -5.42481 0.612379 0.484573 -0.119739 1.59839 Ge
16 2 4.21084 4.10799 9.64217 3.66298 -2.13094 -2.18393 -0.329182 0.541384 0.524454 Ge
61 2 6.88783 6.88929 9.74157 0.544694 1.32413 -1.9342 0.708453 1.39707 -0.425785 Ge
48 2 9.62854 4.16899 9.73637 -0.782652 -2.12547 5.00931 1.30665 -0.309878 -0.325576 Ge
59 1 8.294 5.55578 8.33091 1.94428 0.334968 1.72048 -0.34731 -0.465942 0.488499 Si
32 2 4.07951 9.7046 9.69049 2.68679 -1.85247 0.0951463 0.80319 1.34731 0.715384 Ge
58 1 5.52509 8.34817 8.39201 0.152848 -4.21101 0.017982 0.255166 -0.513781 -0.625877 Si
26 1 0.0726371 8.37916 8.28008 -3.41576 4.80734 -0.842851 -1.4725 -0.6555 0.285095 Si
64 2 9.72919 9.73694 9.69703 -0.303117 -1.08044 0.373606 0.140012 0.0288983 -0.547815 Ge
ITEM: TIMESTEP
11600
ITEM: NUMBER OF ATOMS
64
ITEM: BOX BOUNDS pp pp pp
0.0000000000000000e+00 1.1085848640000000e+01
0.0000000000000000e+00 1.1085848640000000e+01
0.0000000000000000e+00 1.1085848640000000e+01
ITEM: ATOMS id type xu yu zu vx vy vz fx fy fz element
4 1 2.74261 2.75445 -0.0449283 -0.848612 0.483764 -2.07186 -0.339475 -0.285564 0.946613 Si
7 2 4.1878 1.3685 1.295 -1.00985 0.44314 -2.92878 -0.156748 0.919651 0.0646424 Ge
34 1 5.46916 2.86779 2.69487 -1.53189 2.46292 -2.41778 0.855064 -1.85598 0.386006 Si
2 1 -0.029987 2.79516 2.81148 2.29217 -2.3376 -2.01507 1.32639 0.0917414 0.693437 Si
39 2 9.72434 1.4036 1.48708 0.480295 1.26981 -1.91815 -0.440082 -1.49562 -1.32232 Ge
6 2 1.39592 4.17186 1.44144 -2.48822 -0.859693 -0.658523 -0.0417294 -0.154475 -0.485812 Ge
19 1 2.76791 5.62184 2.83734 1.19523 -3.66982 2.68042 -0.229323 -0.935653 -0.820818 Si
23 2 4.16496 6.89107 1.35754 1.32777 -0.448303 -1.01213 0.207518 1.03914 0.620737 Ge
38 2 6.97636 4.13208 1.36593 1.56154 1.40215 -0.28008 -1.01615 1.58294 -0.272758 Ge
49 1 5.57579 5.58153 -0.0394971 -4.03003 2.81574 3.46216 0.17572 -1.22925 0.383789 Si
51 1 8.3464 5.52536 2.73856 -0.290897 -4.6424 -3.75885 -0.915449 0.253157 0.954271 Si
55 2 9.67881 6.95166 1.42252 0.498089 -0.357863 2.25792 0.870043 0.254854 -0.775023 Ge
3 1 2.77867 0.0668306 2.70789 0.349546 -2.10366 -5.57044 -0.334496 -0.48837 1.31705 Si
20 1 2.8159 8.32669 0.0377804 2.65706 1.78707 5.86214 -0.811834 0.26063 -0.168047 Si
22 2 1.36515 9.68163 1.46377 0.139098 -1.57697 0.916487 1.15961 -0.155283 -0.939112 Ge
33 1 5.60889 -0.000757469 -0.0805205 -3.75479 4.27111 3.6549 -0.427565 0.604196 -0.457891 Si
50 1 5.49826 8.39289 2.68877 3.22417 6.88733 -2.36103 -0.238821 -1.45285 0.426718 Si
54 2 6.90119 9.70629 1.36454 -0.639911 -1.89967 -1.01665 0.945323 1.02059 -0.145192 Ge
35 1 8.28057 -0.00104869 2.81153 -3.09138 0.946805 -1.99921 -0.0479441 0.491978 -0.533461 Si
18 1 -0.0204035 8.36707 2.82891 1.75146 2.33719 1.2284 -0.467653 -0.648749 -0.348731 Si
52 1 8.30875 8.35616 0.0121328 -0.688678 3.33237 2.06694 -0.202508 -1.27911 -0.633387 Si
5 2 1.39424 1.41496 4.2016 4.77501 1.06249 -1.26497 -0.151547 -0.361323 -0.144374 Ge
12 1 2.77914 2.80793 5.60551 0.496299 -0.0139398 2.16632 0.228334 -1.02485 -0.112971 Si
15 2 4.17646 1.38886 7.01867 -1.8635 1.61852 4.24597 -0.300813 -0.305298 -1.58767 Ge
37 2 6.8647 1.43748 4.11298 -1.07953 0.269556 1.82034 -0.355368 -0.236633 -0.317308 Ge
9 1 -0.017951 -0.0200405 5.59792 -4.22171 2.12393 -1.60561 1.30249 0.680278 0.0330777 Si
44 1 8.27023 2.73926 5.50568 1.42874 -1.52338 1.23409 0.27023 0.792304 0.49444 Si
47 2 9.66915 1.39652 6.89545 0.752452 -2.431 -3.16678 -0.240815 -0.949241 0.338358 Ge
14 2 1.35465 4.12728 6.96837 0.457538 1.54585 0.616433 -0.2144 0.531321 0.16846 Ge
21 2 1.35571 7.00498 4.17954 -0.729507 0.585055 -3.04301 0.495681 -0.656044 0.450746 Ge
25 1 -0.00647391 5.52622 5.49446 -0.796188 0.63839 2.84212 0.184069 0.650422 1.84131 Si
8 2 4.13311 4.15754 4.161 -0.156939 -3.95293 -2.00927 0.22976 1.19672 0.557024 Ge
31 2 4.19136 6.87214 6.89546 3.60816 0.127701 0.192368 0.244556 1.07242 0.0974313 Ge
46 2 6.92595 4.14272 6.91356 0.412664 -0.494542 -0.323069 0.0690843 -0.292071 -0.104977 Ge
53 2 6.88517 6.98337 4.04246 -2.03946 -0.335496 3.06943 1.16941 -0.350924 0.825956 Ge
57 1 5.61468 5.54714 5.51012 -2.88734 0.145623 6.51817 -1.09646 -0.210844 -0.670946 Si
40 2 9.69086 4.153 4.19723 1.97842 -0.730206 1.80175 -0.697367 -0.0827674 -0.988175 Ge
63 2 9.65893 6.91767 6.92163 -1.28485 -0.858398 -1.86981 0.618785 -0.485547 -0.737422 Ge
28 1 2.80093 8.32017 5.57492 -1.99572 -1.74557 0.207516 -0.580842 0.283086 -0.18811 Si
30 2 1.35843 9.64837 7.02703 2.27509 0.765491 -1.71029 -0.0128738 -0.4609 -1.40438 Ge
41 1 5.54421 0.0150773 5.528 -3.19529 3.39416 7.62361 -0.346486 0.223586 0.243463 Si
24 2 4.13933 9.72328 4.1096 -0.423277 -3.41984 -0.933235 -0.207955 0.570867 0.644675 Ge
62 2 6.97489 9.71199 6.89598 0.0167998 0.203701 1.84684 -0.688798 0.0761288 -0.571189 Ge
56 2 9.71995 9.76758 4.18881 2.47271 -1.01307 0.359717 -0.781514 -0.756755 -0.268391 Ge
60 1 8.32599 8.33821 5.4905 -1.45366 2.95378 1.07945 -0.394815 -0.523229 0.0162316 Si
1 1 -0.0219874 -0.109029 0.0743896 -0.121231 -2.17106 2.21034 -0.335498 1.39331 0.295493 Si
10 1 -0.0447522 2.66371 8.34399 -0.543719 -2.17946 -4.24929 1.77565 0.128448 -0.163313 Si
11 1 2.79919 -0.0836359 8.31112 0.949369 2.03296 -2.7318 -0.580997 0.96771 0.40818 Si
13 2 1.38716 1.19512 9.75645 -1.51195 0.0595626 -1.59967 -0.421492 2.07073 -0.800997 Ge
42 1 5.56001 2.77846 8.34599 2.44867 1.10669 -3.46569 -0.839597 1.43522 -0.477049 Si
45 2 6.98784 1.46666 9.60943 1.18735 -0.714946 1.495 0.568239 -1.87735 2.16382 Ge
36 1 8.36009 2.75967 0.0708172 1.19514 -0.106554 1.38065 0.46603 0.0486588 -2.13284 Si
43 1 8.33968 -0.0368499 8.29166 -3.58713 0.754144 -6.90473 0.137523 1.04853 -0.0269007 Si
17 1 -0.0172502 5.51982 0.0164004 1.86733 7.10365 -1.80506 0.268183 0.442618 0.0986754 Si
27 1 2.80253 5.55312 8.31104 -1.4121 -0.655332 -0.452416 -1.13432 -0.193436 0.237048 Si
29 2 1.42221 6.93221 9.76516 -0.431276 3.85547 -1.34331 0.00320947 -0.933087 -0.250852 Ge
16 2 4.12147 4.18569 9.7271 -1.63151 -0.0533439 2.13412 1.19705 -0.513878 -0.617374 Ge
61 2 6.94847 6.92271 9.62817 -2.09438 -2.60331 3.44542 -0.0698302 1.22175 0.747038 Ge
48 2 9.72493 4.13975 9.62227 0.820541 1.08664 -0.103558 -0.731968 -0.196456 2.20641 Ge
59 1 8.30154 5.51253 8.28474 0.841664 -0.230915 -2.32299 0.291039 0.0151282 -0.281572 Si
32 2 4.16542 9.6885 9.65639 0.0961041 -3.4515 -0.765666 0.931959 -0.491282 0.934245 Ge
58 1 5.55558 8.35274 8.23985 0.371915 2.5617 0.0959496 0.117244 -1.20121 0.440123 Si
26 1 -0.020575 8.20073 8.3794 5.6627 1.6284 1.30343 0.0458227 1.31271 -0.45582 Si
64 2 9.71431 9.68502 9.70047 -2.49067 -0.0713085 1.01634 -0.300472 -0.596772 0.169721 Ge
ITEM: TIMESTEP
11700
ITEM: NUMBER OF ATOMS
64
ITEM: BOX BOUNDS pp pp pp
0.0000000000000000e+00 1.1085848640000000e+01
0.0000000000000000e+00 1.1085848640000000e+01
0.0000000000000000e+00 1.1085848640000000e+01
ITEM: ATOMS id type xu yu zu vx vy vz fx fy fz element
4 1 2.78433 2.75603 -0.009228 2.24159 2.35818 -2.26238 0.385963 0.47423 -0.247378 Si
7 2 4.15676 1.38386 1.4412 1.96146 -1.98596 2.77576 0.112304 -0.839874 -0.658015 Ge
34 1 5.57194 2.68913 2.84435 -1.43804 3.71556 2.90926 -0.75817 1.04806 -0.238061 Si
2 1 0.00212039 2.77901 2.7138 -4.33786 0.766227 -2.78184 -0.254075 -0.159855 -0.609894 Si
39 2 9.68864 1.37733 1.34927 -0.506884 1.66654 0.325328 -0.0465579 0.617049 -0.273392 Ge
6 2 1.39441 4.16831 1.32784 1.70866 0.272794 -0.84756 -0.466409 -0.263881 0.0302044 Ge
19 1 2.77282 5.51004 2.72349 1.17926 5.94283 1.70589 0.248233 -0.21117 1.2684 Si
23 2 4.1447 6.939 1.45313 -0.237704 -0.942831 -3.68822 0.0128031 -0.731466 -2.2063 Ge
38 2 6.89336 4.09574 1.4691 -0.694982 -3.44849 0.133881 1.27986 0.894377 -0.255524 Ge
49 1 5.58242 5.50364 0.0521067 0.933651 4.8446 -3.60653 -1.00633 0.823325 0.0403125 Si
51 1 8.32186 5.56581 2.84052 1.77711 4.6552 -0.0822643 0.391695 -1.27848 -1.63581 Si
55 2 9.70869 6.94233 1.38044 -0.0649931 0.539866 0.0131571 -0.600155 -0.963974 0.118869 Ge
3 1 2.76375 -0.0328543 2.80652 -0.980186 3.27409 0.769595 0.0667135 -0.161163 -1.08207 Si
20 1 2.71859 8.28901 -0.0614185 3.63941 1.5283 -0.912831 1.1102 0.802673 1.56679 Si
22 2 1.35822 9.72505 1.31329 -2.75946 -0.695974 0.413638 0.360585 -0.067939 0.357375 Ge
33 1 5.57141 -0.0471174 0.0464853 0.571789 -2.14644 -1.14063 -0.813479 1.08518 0.533892 Si
50 1 5.56227 8.16417 2.87644 -1.93676 -0.644985 3.1387 0.021566 2.5378 -0.66999 Si
54 2 6.90642 9.66319 1.4918 -0.942851 -3.38349 0.0137509 0.456274 -1.08567 -1.02894 Ge
35 1 8.36278 -0.0291543 2.76122 2.30201 -0.522023 4.64025 -0.708891 0.370392 -0.0783511 Si
18 1 0.0394595 8.2675 2.70874 -1.51434 1.31058 -1.53359 0.0275303 0.676913 0.73828 Si
52 1 8.31572 8.29549 0.00593511 2.35507 3.02769 -1.24789 0.142175 1.50905 0.226977 Si
5 2 1.32526 1.37975 4.07683 -3.79314 -0.366157 0.812243 1.27151 0.137147 0.680193 Ge
12 1 2.77484 2.73863 5.46252 -4.50425 1.36434 -3.29493 -0.32843 0.414383 0.613619 Si
15 2 4.16255 1.37918 6.88712 1.43428 0.364597 -3.04029 -0.0633766 -0.132916 0.193214 Ge
37 2 6.99108 1.35698 4.16189 3.58701 0.86987 1.40295 0.12077 -0.582341 0.634395 Ge
9 1 0.0170814 0.00114278 5.48204 -0.665218 -1.66343 0.842556 -1.6533 0.0139584 0.128341 Si
44 1 8.32401 2.77739 5.55944 -2.21063 -0.714202 -1.72926 0.0837713 -0.383421 0.0494305 Si
47 2 9.7105 1.41472 6.94274 -1.93816 3.18528 1.46075 0.565603 -0.405541 -0.337496 Ge
14 2 1.42054 4.19374 6.86194 -0.840213 -2.32025 -3.74218 -0.213032 -0.156134 0.283207 Ge
21 2 1.40972 6.87508 4.14823 -2.23031 3.66911 -0.833619 0.0660603 0.948176 -0.666716 Ge
25 1 -0.020053 5.56841 5.51816 -0.461285 -2.9607 -7.28764 -0.0293314 -0.683238 0.162588 Si
8 2 4.19778 4.16991 4.17829 1.1338 -0.758677 2.97233 -0.400162 -0.809993 -1.04393 Ge
31 2 4.11221 6.91159 6.97328 -0.36253 -1.37575 0.263339 1.4771 -0.0149245 -0.821193 Ge
46 2 6.96572 4.12692 7.00548 -0.0823353 -1.01575 -0.909653 -0.7776 0.322413 -0.800723 Ge
53 2 6.98408 6.88569 4.22341 -0.31236 -0.273842 -0.96494 -0.376616 -0.153422 0.683483 Ge
57 1 5.59186 5.49825 5.55942 7.74805 2.56161 -0.469384 -0.579474 0.618842 1.57487 Si
40 2 9.70993 4.09426 4.12723 -0.0755374 -0.0951134 2.03315 0.0314203 1.40043 0.763844 Ge
63 2 9.73447 6.98567 6.95676 0.400286 -0.328321 -0.0595228 -0.923605 -1.19706 -0.858473 Ge
28 1 2.8121 8.30929 5.50749 1.35893 4.52357 2.09569 -0.765661 -0.146572 0.713668 Si
30 2 1.39419 9.74438 6.86127 -1.93469 0.888182 1.67438 0.506085 -0.581131 0.200646 Ge
41 1 5.58659 -0.036447 5.5275 2.89151 -2.87642 -7.2032 -0.0254981 0.617469 0.838404 Si
24 2 4.21586 9.6854 4.17539 -0.246194 -0.704058 -1.19076 -0.469427 -0.596446 -0.551812 Ge
62 2 6.88974 9.68065 7.00626 3.58464 -1.55562 1.85157 0.959342 -0.0495186 -0.314244 Ge
56 2 9.68504 9.63623 4.08842 3.40285 -1.27593 1.03304 1.27292 0.287101 1.16957 Ge
60 1 8.32224 8.30832 5.5703 1.48362 -2.57039 -1.14082 -0.201726 0.636716 0.331168 Si
1 1 -0.00796642 0.0758066 -0.0836003 2.62747 -1.49242 -3.87127 0.164382 -0.79178 0.284511 Si
10 1 0.012566 2.87397 8.28843 -5.17821 0.212427 3.15305 -0.581387 -0.42498 -0.374085 Si
11 1 2.73538 0.0378144 8.30328 0.736422 -2.65183 -1.83952 0.465172 0.117456 -0.754097 Si
13 2 1.37748 1.46368 9.62848 3.87 -1.9593 1.5371 0.0222319 -0.166639 0.678786 Ge
42 1 5.49735 2.76786 8.34882 1.46613 -4.37455 2.58503 0.699097 -0.342236 -1.00855 Si
45 2 6.88894 1.39563 9.71866 -1.20577 1.38052 -2.01316 0.245531 -0.370978 0.323262 Ge
36 1 8.27808 2.794 -0.0210258 -4.25985 -1.54453 4.57911 0.0195141 -0.349249 0.823941 Si
43 1 8.32649 0.0353896 8.36396 -0.121789 -1.12046 5.97178 -0.899802 -0.007475 -1.21323 Si
17 1 -0.0419253 5.55244 -0.0251903 -1.49095 -6.89936 1.7923 0.617248 0.279587 -0.20104 Si
27 1 2.7394 5.56559 8.344 4.6488 -1.34388 -1.28586 0.209623 -0.695117 -0.679859 Si
29 2 1.35335 6.96049 9.65301 1.59926 -1.87418 2.22883 -1.0345 -0.350176 0.0708662 Ge
16 2 4.17642 4.17843 9.68172 -0.0181618 1.44274 1.5199 -0.760969 0.060391 1.24023 Ge
61 2 6.93417 6.93721 9.73322 -1.22278 1.81892 -1.10543 -0.370543 -0.701996 0.681641 Ge
48 2 9.63986 4.19641 9.68882 -1.43836 -1.49314 -2.17223 0.619665 -0.0778195 -0.0701426 Ge
59 1 8.29117 5.60174 8.32959 -2.71508 3.94457 3.21397 0.657831 -0.1081 -0.270287 Si
32 2 4.0995 9.77927 9.73851 -2.87279 2.12585 -0.359741 0.597309 -1.61006 -0.523356 Ge
58 1 5.51165 8.2693 8.40809 -2.68512 5.03424 2.01398 -0.852885 1.32518 -0.704404 Si
26 1 -0.00562753 8.37941 8.24447 -3.52278 -2.88779 -0.516364 0.97029 0.0400665 0.777148 Si
64 2 9.71132 9.72526 9.64352 1.12176 2.73676 -0.456994 -0.296981 -0.405642 1.39523 Ge
ITEM: TIMESTEP
11800
ITEM: NUMBER OF ATOMS
64
ITEM: BOX BOUNDS pp pp pp
0.0000000000000000e+00 1.1085848640000000e+01
0.0000000000000000e+00 1.1085848640000000e+01
0.0000000000000000e+00 1.1085848640000000e+01
ITEM: ATOMS id type xu yu zu vx vy vz fx fy fz element
4 1 2.7785 2.77609 0.0760245 -1.99726 -3.79252 0.458911 -0.458744 0.419535 -1.48184 Si
7 2 4.14794 1.42997 1.4007 -1.62996 2.35846 -3.22257 0.340663 -1.43274 0.0657136 Ge
34 1 5.5684 2.78353 2.72094 1.06756 -0.80617 -4.35834 -0.763666 1.26072 -0.0166663 Si
2 1 0.0282118 2.7618 2.85306 2.64434 0.672666 5.24351 -0.730127 -0.306249 -0.33303 Si
39 2 9.72587 1.38833 1.42662 1.80248 0.121895 0.467366 -0.239913 0.55532 0.0670506 Ge
6 2 1.36928 4.1135 1.47568 -1.01496 -0.842214 -0.876961 0.143922 0.823241 -1.57355 Ge
19 1 2.75651 5.52894 2.74022 -1.69145 0.29514 -3.78839 -0.0639232 1.31518 0.339769 Si
23 2 4.16967 6.98348 1.4004 1.3634 1.72054 1.86817 -0.694905 -1.49421 -1.1645 Ge
38 2 6.9111 4.21885 1.31508 -1.39499 -0.798689 -1.8504 0.223989 -2.1596 -0.218447 Ge
49 1 5.48475 5.52051 -0.041913 3.89871 -3.11895 2.26545 0.500243 1.27461 -0.660794 Si
51 1 8.2762 5.51402 2.70328 -1.36031 0.387756 2.79084 0.353156 2.07305 0.778289 Si
55 2 9.72908 6.93336 1.3648 2.4379 2.88464 1.50979 -0.402376 -0.250887 0.823646 Ge
3 1 2.78436 -0.0250967 2.77007 -0.416743 0.410059 -0.994604 0.0459751 1.43951 0.684438 Si
20 1 2.76261 8.30172 0.00355506 -5.95658 -3.16099 -3.43486 0.414274 -0.0889274 -1.05876 Si
22 2 1.43303 9.69352 1.40914 0.79299 -1.3668 0.90059 -1.14596 -0.396125 0.146995 Ge
33 1 5.50731 0.032311 -0.019379 4.6708 -1.50586 -0.00611451 0.38253 -0.374052 0.114926 Si
50 1 5.53769 8.41015 2.65899 1.18132 -4.30207 -3.07039 0.171255 -0.0186116 1.71205 Si
54 2 6.95712 9.7769 1.35174 -2.0004 2.52788 0.611165 -0.476804 -0.682953 -0.999405 Ge
35 1 8.28944 0.0353949 2.73977 -0.526425 -1.88093 -2.10533 0.195748 0.185465 1.11557 Si
18 1 -0.000369658 8.31893 2.81222 4.14056 -0.889697 -0.768633 -0.134646 0.233207 -0.295021 Si
52 1 8.30516 8.27519 0.00757811 -2.68222 -4.60584 1.56074 0.0552648 0.50931 -0.405358 Si
5 2 1.4284 1.4044 4.22444 1.52132 -0.032545 2.297 -0.162696 -0.965516 0.3405 Ge
12 1 2.82343 2.80405 5.61884 5.85311 -0.552973 0.761522 -0.832989 -0.00281455 -0.95331 Si
15 2 4.13051 1.35517 6.97278 -2.65374 -0.483668 3.17306 0.614708 0.737462 -0.148375 Ge
37 2 6.86852 1.41776 4.11439 -3.58326 5.65787 -1.69588 1.33749 -0.161743 1.07926 Ge
9 1 -0.0111947 -0.0234709 5.61254 1.02664 0.635147 0.158927 0.661165 -0.0481693 -0.726798 Si
44 1 8.3241 2.78806 5.54368 0.231948 0.420098 0.59364 -0.61094 -0.195284 -0.486409 Si
47 2 9.70342 1.35652 6.9591 0.0873289 -0.593853 -1.69603 0.236204 1.19713 -0.306939 Ge
14 2 1.40916 4.15962 7.02368 1.92086 0.974545 1.30647 -0.102411 -0.589196 -1.97035 Ge
21 2 1.38635 6.90446 4.17656 -2.47173 -2.42774 3.47045 -0.684507 -0.506494 -0.1362 Ge
25 1 0.0248019 5.53943 5.64752 -2.25927 4.21365 3.22606 -0.518137 -0.447789 -1.79383 Si
8 2 4.11108 4.17292 4.07215 0.571667 0.00339312 0.56273 0.68422 -0.942324 1.21273 Ge
31 2 4.12547 6.98607 6.89983 -1.18737 -1.54915 -0.974178 -0.758641 -1.35903 0.0691341 Ge
46 2 6.89081 4.21086 6.89224 1.42017 -0.507985 -1.78408 0.00441936 -0.551076 -1.07005 Ge
53 2 6.86949 7.01653 4.08079 -0.546391 1.53813 -1.04323 0.237673 -1.61285 0.414632 Ge
57 1 5.39881 5.586 5.4976 -1.10744 -2.41315 -4.50146 2.40582 0.267817 -0.676969 Si
40 2 9.68341 4.19529 4.11414 -1.29582 -3.22266 1.35523 0.567525 -0.172468 1.70973 Ge
63 2 9.68806 6.88797 6.9808 0.424313 2.67072 -1.17356 0.45955 1.09115 -0.356446 Ge
28 1 2.70793 8.28516 5.53829 2.1748 -3.48292 -4.59428 0.922523 1.56318 0.116418 Si
30 2 1.39049 9.66636 7.02716 1.05996 0.689133 -0.82718 0.0342167 0.545152 -1.26713 Ge
41 1 5.51751 0.0486036 5.56918 -1.29445 3.09295 3.61063 -0.411933 -0.404928 -1.58135 Si
24 2 4.15269 9.70237 4.15248 0.940618 1.42162 0.936478 -0.0394587 -0.12064 0.462238 Ge
62 2 6.91859 9.73055 6.82343 -3.4093 0.544581 -0.0453315 0.512507 -0.56294 1.34608 Ge
56 2 9.6397 9.72982 4.17367 -1.29856 -1.79497 -2.55611 1.0659 -0.164357 -0.192179 Ge
60 1 8.3111 8.30334 5.53976 0.101075 3.23456 -0.978144 -0.193169 -0.390702 -0.368178 Si
1 1 -0.0136954 -0.0174824 0.0847009 -2.95512 0.555556 3.94797 0.697611 -0.159713 -1.195 Si
10 1 0.0713096 2.74623 8.32602 4.10378 0.683659 -0.0671031 -1.73598 -0.0224114 1.03164 Si
11 1 2.78777 -0.00737933 8.37481 -1.37257 -0.285724 3.42881 -0.288085 -0.390809 0.148029 Si
13 2 1.38634 1.39294 9.75628 -2.87283 -1.99277 1.00719 0.397506 -0.793733 0.633412 Ge
42 1 5.56061 2.78885 8.24737 -1.78033 3.0356 1.08325 0.230117 -1.20804 0.926284 Si
45 2 6.92772 1.35526 9.69421 3.9839 1.01713 -1.28039 0.292415 0.621334 -1.13065 Ge
36 1 8.3468 2.73966 -0.0239966 2.49367 2.97019 -1.7504 -0.825631 0.220172 1.08006 Si
43 1 8.32547 -0.0430542 8.2664 2.94389 -1.23055 -2.47213 -0.15377 -0.475014 1.48118 Si
17 1 0.0430743 5.55133 0.0222725 -2.63103 6.127 -0.517433 -0.301427 -0.980437 0.451968 Si
27 1 2.77289 5.52087 8.27553 -3.02461 4.92221 3.13202 0.938728 1.04348 1.15921 Si
29 2 1.37289 6.87953 9.66959 1.1501 1.76534 1.33377 1.30628 0.358132 0.991952 Ge
16 2 4.15777 4.09554 9.62823 0.0210281 -0.0665866 -0.507305 -0.674976 0.712037 1.21344 Ge
61 2 6.96965 6.89034 9.63566 0.910264 -2.77977 -0.823328 -0.494055 -0.632343 0.187164 Ge
48 2 9.73721 4.12941 9.77051 0.405735 -0.505312 2.02231 0.88067 -0.364979 -1.43408 Ge
59 1 8.3766 5.42064 8.28682 -0.801147 -4.85242 -2.8822 -0.921384 1.42594 1.09188 Si
32 2 4.22596 9.643 9.6566 1.25207 -0.655465 1.32468 -0.701772 0.123267 0.550026 Ge
58 1 5.59548 8.27478 8.19596 4.93266 -6.68641 -1.43133 0.181813 0.833697 1.2229 Si
26 1 0.0303027 8.29242 8.36871 0.906647 -1.62442 -0.35163 -0.988607 -0.781208 -0.658662 Si
64 2 9.74067 9.6298 9.73604 -0.772603 -1.04177 -1.5431 -0.984437 1.38227 -0.108056 Ge
ITEM: TIMESTEP
11900
ITEM: NUMBER OF ATOMS
64
ITEM: BOX BOUNDS pp pp pp
0.0000000000000000e+00 1.1085848640000000e+01
0.0000000000000000e+00 1.1085848640000000e+01
0.0000000000000000e+00 1.1085848640000000e+01
ITEM: ATOMS id type xu yu zu vx vy vz fx fy fz element
4 1 2.72091 2.77824 -0.0737248 3.22834 1.85587 5.92776 0.425083 -0.540453 1.62094 Si
7 2 4.19648 1.37554 1.34658 0.889411 2.45844 4.43079 -1.56114 0.792907 0.00900147 Ge
34 1 5.51035 2.73921 2.8016 4.24049 -7.1014 4.44829 1.44081 -0.736334 -0.123939 Si
2 1 -0.0389195 2.75927 2.68564 0.0808322 1.32441 -4.25734 0.547671 0.88825 0.712087 Si
39 2 9.66628 1.38217 1.38632 -1.35599 -0.0694332 -4.59614 0.700039 -0.909774 -1.38051 Ge
6 2 1.35828 4.18663 1.37841 -0.222833 -1.50778 -1.34681 1.01323 -1.03209 -0.102541 Ge
19 1 2.77878 5.50003 2.84578 1.68753 -6.0062 -1.94226 -0.113432 0.270739 -1.80272 Si
23 2 4.1634 6.88267 1.45333 1.18214 3.64713 1.04944 0.632474 0.657216 0.146426 Ge
38 2 6.99117 4.1048 1.45483 -2.24549 0.459652 1.32209 -1.20737 0.89865 -0.67507 Ge
49 1 5.56139 5.53551 0.0177539 -3.86092 -4.92708 1.23313 0.39523 -0.318471 1.0175 Si
51 1 8.35168 5.53454 2.81105 0.315883 -4.40773 -1.86475 -0.496393 -0.449071 0.0314704 Si
55 2 9.64296 6.88799 1.38001 2.19059 0.633653 -2.88015 1.27532 0.598535 -0.773144 Ge
3 1 2.81068 0.0293366 2.7874 1.44314 -7.28308 0.281763 -0.488801 -0.703237 -1.23667 Si
20 1 2.82305 8.32664 0.051678 1.23238 1.14999 2.64274 -1.55739 -0.392928 -0.466857 Si
22 2 1.33601 9.70864 1.40702 -0.74764 0.0525444 -2.8658 0.898297 -0.187097 0.256018 Ge
33 1 5.53707 0.000339277 -0.0178607 -4.93409 -0.446758 -1.05533 0.686418 -0.647367 0.227295 Si
50 1 5.56181 8.32423 2.87289 -1.24461 -1.21763 -0.25056 0.157414 -1.65225 -1.93681 Si
54 2 6.92335 9.64173 1.3985 -0.0887682 -1.47728 2.05902 -0.321384 1.42781 0.0628185 Ge
35 1 8.30003 -0.00659393 2.77457 2.14171 1.21765 -3.36303 0.134033 -0.740549 -0.746107 Si
18 1 -0.10166 8.31359 2.81206 -2.66277 -1.4411 -1.04963 1.20042 0.0978229 -0.989557 Si
52 1 8.32209 8.36244 -0.0215814 2.75485 -1.34828 -0.00961188 -0.153257 -1.17713 0.909906 Si
5 2 1.38223 1.4485 4.04844 -0.138706 1.90065 -2.27178 0.0351564 -1.02753 0.798164 Ge
12 1 2.6949 2.74605 5.52421 -0.980391 1.07175 1.1591 1.26346 0.739305 0.462672 Si
15 2 4.2063 1.44216 6.9212 -1.1282 -0.931392 -4.8725 -1.31254 -1.33866 -0.838592 Ge
37 2 6.92543 1.25393 4.17375 1.00686 -2.52176 1.49411 -0.715239 2.50038 -0.18739 Ge
9 1 0.0879768 0.0136393 5.46832 0.0261438 -1.39124 0.916507 -0.873089 0.260036 1.03658 Si
44 1 8.31028 2.74555 5.51549 2.23545 1.59938 1.49326 0.128962 0.231594 0.258704 Si
47 2 9.70124 1.36281 6.8937 -2.30858 -1.00278 0.755294 -0.406978 -0.815965 -0.366054 Ge
14 2 1.32868 4.14464 6.92567 0.816782 1.37151 -0.445344 0.454416 -0.319035 0.72825 Ge
21 2 1.45367 6.97865 4.10332 0.555566 2.98293 -1.68751 -1.21178 -0.18867 1.76042 Ge
25 1 0.0290881 5.52135 5.47794 3.82439 -0.0996399 4.24877 0.291787 1.91638 1.18154 Si
8 2 4.14539 4.11443 4.16753 1.58137 -1.71245 0.451352 0.447771 0.279178 1.4299 Ge
31 2 4.2029 6.91062 6.98725 -0.206767 3.05183 2.51002 -0.124861 0.16849 -0.592555 Ge
46 2 6.95145 4.12545 7.01358 0.626072 1.13851 1.37924 0.874071 0.559537 -0.506539 Ge
53 2 6.95501 6.89856 4.19125 -1.08585 1.3765 3.27721 -0.1499 -0.0390464 0.0286434 Ge
57 1 5.61732 5.49441 5.58702 -7.58928 -0.716337 3.88855 -1.46354 0.0010339 -0.10592 Si
40 2 9.77479 4.16077 4.14893 0.348127 0.444401 -2.2866 -1.58957 -1.12029 -0.414154 Ge
63 2 9.68867 6.95416 6.91964 0.545805 -2.17929 1.28738 0.695803 -0.490827 -0.901036 Ge
28 1 2.82471 8.34343 5.5875 -3.45511 -1.94765 2.48874 0.165359 -1.60595 -0.997567 Si
30 2 1.39582 9.64453 6.89911 0.329092 0.215253 0.735227 -0.255083 1.63474 0.136695 Ge
41 1 5.5062 -0.0619462 5.52584 2.79706 -2.95034 -0.868381 0.79856 0.642586 1.24241 Si
24 2 4.17896 9.67813 4.14382 1.11302 -2.43353 -0.691618 -1.13972 0.69203 0.835682 Ge
62 2 6.94668 9.70229 6.94532 1.3429 0.581317 -1.69193 -1.00348 0.0112014 0.0393472 Ge
56 2 9.68372 9.76839 4.1876 -0.683845 -1.9897 1.05196 -0.321222 -1.30667 -0.0531906 Ge
60 1 8.28987 8.29974 5.54965 1.42556 -3.3921 2.72045 0.77311 0.964252 0.0621589 Si
1 1 0.0325472 -0.00932705 -0.0708434 -0.66669 2.07379 -1.62652 -1.13989 0.365752 1.55104 Si
10 1 -0.102219 2.7102 8.31705 3.23071 2.11948 -3.9817 1.83048 1.12329 -0.961322 Si
11 1 2.77622 0.00681676 8.24326 0.592852 0.475956 -1.39865 0.0980415 -0.150352 0.162185 Si
13 2 1.37532 1.34806 9.62732 1.80039 5.35314 -2.16323 -0.0111982 0.698542 0.0552636 Ge
42 1 5.54199 2.75076 8.35587 -0.604643 3.06731 -1.58195 -0.308264 1.36375 0.328174 Si
45 2 6.92243 1.43543 9.73416 -3.32176 -2.30159 4.80969 0.240678 -0.829634 0.140681 Ge
36 1 8.35331 2.79807 -0.00200956 0.20915 -2.44822 -4.04967 -0.0206738 0.465306 -0.569843 Si
43 1 8.27494 0.0304525 8.34365 -0.209679 3.03865 -0.0391713 0.705394 0.0305643 -0.572006 Si
17 1 0.0346445 5.50461 -0.0410334 2.40093 -1.74337 -0.83919 -1.21436 1.81915 0.0559417 Si
27 1 2.77491 5.54033 8.35324 -0.0721717 -5.76331 -4.512 -0.87311 0.172474 -1.02134 Si
29 2 1.35266 6.98204 9.6605 -1.63806 -1.86624 -2.82241 1.13051 -0.360654 1.27937 Ge
16 2 4.1303 4.18208 9.73546 0.159987 0.122442 -0.675197 0.867562 -0.557113 -0.579663 Ge
61 2 6.90821 6.99207 9.73654 -1.01792 3.15073 2.03158 -0.423196 0.218625 0.0693184 Ge
48 2 9.70801 4.22874 9.59907 -2.23604 1.13696 3.27313 -0.644213 -0.944322 2.07196 Ge
59 1 8.30853 5.68342 8.35711 3.8236 -0.627692 -1.28625 -0.519077 -1.80071 -1.10267 Si
32 2 4.12364 9.72335 9.68285 -1.60279 1.22415 -0.415203 -0.0904528 0.660626 0.720286 Ge
58 1 5.5086 8.3871 8.36409 -3.85293 1.04181 -0.22517 1.00119 -1.16718 -0.761556 Si
26 1 -0.0400488 8.33935 8.28928 0.973897 6.27997 -0.529968 0.155561 0.12324 0.0287453 Si
64 2 9.6809 9.71951 9.69831 2.24207 -0.116633 1.06382 0.246293 0.275378 -0.692261 Ge
ITEM: TIMESTEP
12000
ITEM: NUMBER OF ATOMS
64
ITEM: BOX BOUNDS pp pp pp
0.0000000000000000e+00 1.1085848640000000e+01
0.0000000000000000e+00 1.1085848640000000e+01
0.0000000000000000e+00 1.1085848640000000e+01
ITEM: ATOMS id type xu yu zu vx vy vz fx fy fz element
4 1 2.82663 2.76732 0.00930035 -3.38597 -1.535 -7.7843 -0.311266 0.353722 0.366908 Si
7 2 4.14084 1.34592 1.43632 3.18058 1.0771 -4.48285 0.700131 1.33475 -0.185224 Ge
34 1 5.53021 2.84242 2.78312 -6.11479 4.7648 -3.24418 0.0179407 -1.20191 0.020722 Si
2 1 0.0194885 2.76073 2.79194 -0.831333 -4.61016 2.6108 0.0126257 0.217731 0.0441252 Si
39 2 9.73383 1.403 1.43352 -0.451278 2.06765 4.19677 -1.24976 -0.58012 -0.549476 Ge
6 2 1.42817 4.15134 1.45507 -3.45269 0.291071 1.04926 -0.637047 0.192912 -1.56784 Ge
19 1 2.76794 5.60918 2.75467 -1.00796 1.71196 7.72925 0.200573 -1.44082 0.382467 Si
23 2 4.12882 6.91124 1.35486 1.55785 -0.346063 -0.520081 0.343117 1.65842 -0.106547 Ge
38 2 6.90324 4.19286 1.38158 2.72769 -2.94011 -1.47954 -0.372656 0.474458 -0.0910093 Ge
49 1 5.5483 5.62234 -0.0200694 1.76547 0.713739 -4.27125 -0.213413 -2.15336 -0.349256 Si
51 1 8.30023 5.57286 2.74358 0.349179 0.302218 -0.102546 0.14921 -1.11973 0.487075 Si
55 2 9.66647 6.91659 1.39816 -1.30503 -0.522242 0.355155 0.859555 1.28673 -0.222633 Ge
3 1 2.71386 0.0153037 2.76756 1.70999 7.03479 3.44779 0.798211 -0.917662 1.12431 Si
20 1 2.75613 8.31155 -0.0540781 2.49379 -1.28768 -0.113733 0.564839 0.368908 0.77947 Si
22 2 1.41398 9.73632 1.33534 -2.11126 -0.559236 2.82199 -0.0824802 -0.449164 -0.259099 Ge
33 1 5.56322 -0.00764015 0.0751473 0.951817 2.58979 0.265656 -0.551631 0.0711458 -1.384 Si
50 1 5.54243 8.30386 2.74704 1.60997 7.45793 4.02057 -0.589628 0.120549 0.353238 Si
54 2 6.94556 9.69824 1.41942 0.0952827 -0.932339 -2.35459 0.164568 -0.00690183 -0.0480311 Ge
35 1 8.33868 -0.0280828 2.81774 -3.39482 0.417447 3.67673 0.375797 0.468942 -0.770384 Si
18 1 0.106355 8.30527 2.6975 -4.46469 -0.429388 5.0742 -1.58845 -0.574719 0.946556 Si
52 1 8.31915 8.3382 0.0110199 -1.84267 3.08755 -3.72808 0.0598191 -0.474695 -0.591348 Si
5 2 1.30137 1.33385 4.182 0.998954 3.58615 1.78384 0.818315 0.569864 0.303923 Ge
12 1 2.78507 2.7517 5.493 -1.97795 -3.77664 -0.606455 -0.0559217 -0.504896 0.257954 Si
15 2 4.18704 1.36334 6.92992 1.27376 2.10803 1.65938 -0.832903 0.352707 -0.655049 Ge
37 2 6.98962 1.42723 4.14824 -3.61964 -1.10707 -0.334736 -1.44171 -0.538659 -0.0227134 Ge
9 1 -0.127953 0.01502 5.596 4.2442 0.508162 -2.99157 1.6884 -0.493504 -0.794118 Si
44 1 8.29767 2.76788 5.55397 -1.21133 -2.19736 -2.28654 0.924814 0.982777 0.416147 Si
47 2 9.74339 1.47048 6.98358 -0.144266 0.971506 -0.536684 -1.87083 -0.815754 0.0266351 Ge
14 2 1.41677 4.13793 6.86513 -1.61214 -0.701754 1.26205 -0.304111 1.0313 0.359577 Ge
21 2 1.38051 6.86358 4.15874 0.308578 2.58158 0.0222063 -0.0713736 1.87805 -0.045573 Ge
25 1 -0.0433772 5.54174 5.53193 -0.171322 -6.59548 -4.52684 0.34001 -0.808536 0.0399167 Si
8 2 4.12814 4.22053 4.13897 -1.87548 -1.36192 -1.6638 0.778794 0.102059 0.580071 Ge
31 2 4.12822 6.96398 6.88954 0.843871 -0.755881 -0.95378 0.815383 0.0535753 0.755865 Ge
46 2 6.89702 4.14921 6.95578 -1.16433 0.0744051 -2.15177 -0.0178284 -0.371022 -1.0345 Ge
53 2 6.9575 6.94828 4.11479 -0.820959 3.50828 -3.12037 -0.0692991 0.437656 0.949598 Ge
57 1 5.58291 5.60336 5.54945 5.86447 -0.793262 -3.52295 -0.87183 -0.76663 -0.47176 Si
40 2 9.68701 4.13096 4.11039 1.94484 1.21516 2.85507 -0.484825 0.710997 0.831533 Ge
63 2 9.7069 6.91951 6.97044 -2.40775 0.959568 -1.29661 -0.8989 -0.623298 -0.593514 Ge
28 1 2.74502 8.33094 5.52134 1.24976 3.62002 1.55166 -0.766961 0.0605755 0.430856 Si
30 2 1.33865 9.75148 6.93632 0.239368 -5.159 1.4996 0.245849 -1.03254 -0.187001 Ge
41 1 5.59806 0.0293649 5.55957 -4.31813 0.214396 -0.94745 -0.174606 -0.938732 -0.345044 Si
24 2 4.15967 9.69458 4.19048 1.19564 0.547129 -0.372172 0.13885 0.832939 -1.08099 Ge
62 2 6.91403 9.64156 6.97424 1.71067 0.242917 -2.70899 0.677091 1.19367 -1.24666 Ge
56 2 9.7397 9.64054 4.12284 -0.258273 3.28295 2.11139 0.0930016 0.533608 0.356118 Ge
60 1 8.34945 8.33563 5.54707 -3.39895 -1.38537 -2.22541 -0.439859 -1.06478 0.0737499 Si
1 1 -0.00886576 0.0270311 0.00359847 4.94079 -3.71971 -1.4169 0.139388 0.0980944 -0.585004 Si
10 1 0.0473343 2.85667 8.325 -6.00852 -7.62664 6.87922 0.0512555 -1.00893 0.248171 Si
11 1 2.76445 0.0168932 8.31016 0.313053 1.30855 -0.374537 0.0587282 0.115155 0.250465 Si
13 2 1.40642 1.43169 9.71562 -0.380352 -5.14553 3.23762 -0.226152 -0.30682 -0.18992 Ge
42 1 5.5517 2.71026 8.29993 1.4589 -5.55948 -2.83431 -0.495522 1.14602 -0.577418 Si
45 2 6.87423 1.3657 9.63691 5.26073 2.2784 0.656481 1.17361 -0.809288 2.23548 Ge
36 1 8.22888 2.73843 0.0553481 3.35475 0.777303 2.21819 1.11256 -0.219285 -1.16014 Si
43 1 8.30314 -0.0265605 8.3039 -1.91471 -2.99281 -0.593605 0.415603 0.931345 -0.195628 Si
17 1 -0.0582628 5.54113 0.052977 4.37133 -4.9526 -2.67667 1.20456 -0.964658 -0.83707 Si
27 1 2.77919 5.55129 8.27419 0.290358 2.30186 4.865 0.054553 -0.562151 0.289297 Si
29 2 1.38592 6.91773 9.70971 -1.52181 -0.24031 -0.348583 -0.440231 -1.0123 -0.0700763 Ge
16 2 4.20774 4.1221 9.6486 -3.95466 1.43743 1.57806 -0.49209 1.17056 0.815283 Ge
61 2 6.96279 6.90094 9.67902 1.3757 -0.107974 -2.10043 -0.272313 1.2491 0.616079 Ge
48 2 9.659 4.10957 9.70734 2.90864 1.12098 -2.17903 -0.140262 0.671023 1.02634 Ge
59 1 8.26392 5.48228 8.32185 1.35647 3.95293 4.1119 1.44104 0.660341 -0.108303 Si
32 2 4.16035 9.72122 9.70347 2.35186 -2.40888 -1.99327 0.301169 -0.102408 0.17811 Ge
58 1 5.55433 8.30374 8.34087 1.50247 1.57694 -1.59637 -0.909804 -0.472911 -0.142945 Si
26 1 0.0168218 8.26386 8.3209 -0.122184 -7.25357 3.05857 -0.0692255 1.30185 0.0664057 Si
64 2 9.70702 9.70555 9.66585 -1.9898 -0.276859 2.09088 0.223515 -0.295353 0.855835 Ge
ITEM: TIMESTEP
12100
ITEM: NUMBER OF ATOMS
64
ITEM: BOX BOUNDS pp pp pp
0.0000000000000000e+00 1.1085848640000000e+01
0.0000000000000000e+00 1.1085848640000000e+01
0.0000000000000000e+00 1.1085848640000000e+01
ITEM: ATOMS id type xu yu zu vx vy vz fx fy fz element
4 1 2.71896 2.77347 0.0343102 2.19037 1.13861 2.82413 0.260108 -0.509331 -2.01705 Si
7 2 4.11157 1.37707 1.31784 -1.96564 -1.71605 2.66931 1.39408 -0.362036 0.311489 Ge
34 1 5.53376 2.78558 2.68792 2.00436 1.52845 2.90047 -0.715419 0.423907 0.342092 Si
2 1 0.0107277 2.83209 2.83473 1.22506 0.514876 -5.235 0.552153 -1.71637 -0.669669 Si
39 2 9.75569 1.36517 1.42912 2.61671 2.46832 -3.38039 -0.851977 1.76945 -0.561701 Ge
6 2 1.40176 4.15358 1.41336 1.61402 -0.659523 -0.0590319 -1.59277 0.726501 -0.785738 Ge
19 1 2.74735 5.54386 2.71544 -0.478239 0.536634 -4.86994 0.124168 0.0295861 1.65198 Si
23 2 4.12017 6.92014 1.4041 -0.555548 -1.58966 0.0154471 0.619425 -0.341096 -1.52201 Ge
38 2 6.94351 4.21112 1.3677 -0.631471 0.134448 0.472602 0.730223 -1.23271 0.136547 Ge
49 1 5.55122 5.51436 0.0114912 -1.59228 6.95835 2.87334 -0.44857 1.21867 -0.456839 Si
51 1 8.31725 5.54566 2.8084 0.263621 2.52229 -1.69605 0.100401 0.222219 -1.0039 Si
55 2 9.69661 6.99049 1.44695 -0.835254 -0.463524 -0.62007 -0.102604 -1.16446 -0.200656 Ge
3 1 2.79633 0.000105605 2.7657 -2.58936 -1.99438 -4.25644 -0.595717 0.584316 -0.240413 Si
20 1 2.78829 8.34214 0.0345953 -0.0560504 0.363591 -0.0583656 0.510686 -0.515551 -0.0373527 Si
22 2 1.43353 9.66463 1.42687 -0.182559 1.43647 -2.9817 -1.31438 0.837831 0.0852356 Ge
33 1 5.57218 0.009225 -0.108479 0.0243324 -1.42845 3.97805 -0.459108 0.794325 1.2204 Si
50 1 5.50392 8.3016 2.69722 0.40375 -2.92856 -1.25636 0.751173 0.852154 1.22534 Si
54 2 6.90636 9.74777 1.35032 -1.20548 -1.92627 1.17768 0.0162351 -0.809363 -0.306171 Ge
35 1 8.30497 0.0376136 2.71228 0.142763 -0.286079 0.542166 -0.697035 0.0427505 1.28726 Si
18 1 -0.000326549 8.3387 2.83336 8.38134 0.292275 -5.92408 0.421109 -0.255053 -0.0207423 Si
52 1 8.27295 8.26199 0.0291278 2.07584 1.3633 4.08766 0.347943 0.815332 -0.778283 Si
5 2 1.43307 1.39113 4.18546 -2.58313 -0.643994 -1.08377 0.117741 0.695194 0.113412 Ge
12 1 2.82157 2.81986 5.61113 -1.30163 3.12977 -1.28999 -0.829252 -0.722298 -0.388742 Si
15 2 4.13747 1.40075 7.06492 -0.0423171 -0.860569 -2.29769 0.145376 0.0511929 -1.26049 Ge
37 2 6.88399 1.44574 4.11535 3.36261 1.97129 0.587601 0.889748 -0.584771 0.830518 Ge
9 1 0.0684584 -0.0340552 5.53788 -8.73871 -0.00722332 3.89138 -0.824264 0.316572 -0.389944 Si
44 1 8.34657 2.7988 5.57235 -1.66048 -4.01095 -0.383142 -0.806453 -1.76927 -0.761186 Si
47 2 9.72782 1.3141 6.8993 3.48383 1.98713 0.0686584 0.26391 1.05072 -0.0475707 Ge
14 2 1.37118 4.15723 6.99971 2.57528 -0.766145 -3.00277 0.317258 0.796799 -0.99664 Ge
21 2 1.38833 6.87399 4.1873 -0.431376 -3.83065 0.610835 -0.317389 0.931377 -0.745091 Ge
25 1 -0.0357536 5.59181 5.58662 -2.36866 3.54885 3.20386 0.350231 -1.82754 -0.349288 Si
8 2 4.13554 4.18339 4.11538 -0.237984 -1.43402 0.819806 0.0986934 -0.873621 -0.359561 Ge
31 2 4.1582 6.90039 6.90628 -1.77653 0.953516 -0.633668 -0.0218091 0.183164 -0.221877 Ge
46 2 6.93324 4.11796 6.93126 1.54257 0.0213952 2.47672 -0.561956 1.47981 -1.03249 Ge
53 2 6.90695 6.91288 4.11264 0.375272 0.29732 2.42754 -0.380682 0.846099 0.798366 Ge
57 1 5.50553 5.51521 5.49481 0.637173 3.25054 5.88468 1.22608 0.150233 0.687983 Si
40 2 9.66881 4.14041 4.15325 1.54385 -2.729 -2.10263 0.770585 1.50473 1.32515 Ge
63 2 9.70057 6.97514 6.93871 1.75792 2.15189 1.31152 -0.559249 0.455275 -0.306295 Ge
28 1 2.78351 8.28612 5.50703 2.20473 -1.52139 -0.816722 0.0779064 0.343887 0.484489 Si
30 2 1.42826 9.69282 6.92789 0.320145 4.96939 -2.92112 0.322028 -0.196905 -0.262621 Ge
41 1 5.48782 0.039299 5.55736 3.09854 2.16043 0.109715 -0.0394666 0.544113 -0.425115 Si
24 2 4.1376 9.7187 4.11644 1.96152 -2.96925 2.97763 0.786101 -0.719393 0.635112 Ge
62 2 6.86339 9.73948 6.91608 -3.14238 -3.1507 3.39102 1.09289 -0.322941 0.424338 Ge
56 2 9.65757 9.75307 4.14216 0.999358 -4.96157 -1.88128 0.539242 -0.305191 0.432929 Ge
60 1 8.27405 8.35597 5.53705 2.63217 3.12051 2.47436 -0.122229 -0.413358 -0.278354 Si
1 1 -0.0575444 -0.0590085 0.0658733 -3.85518 1.38228 1.14741 1.52216 -0.589689 -0.634626 Si
10 1 0.0160872 2.71057 8.29534 3.23347 8.80647 -5.77504 -0.575572 -0.0687564 0.361792 Si
11 1 2.7693 -0.0658264 8.39637 -0.244327 -2.83917 -2.0921 0.0585576 0.522044 -0.591161 Si
13 2 1.31819 1.30086 9.71106 0.303968 4.55433 -0.734119 0.746452 0.742359 1.1099 Ge
42 1 5.52206 2.87843 8.34253 0.790093 -1.68753 3.78594 1.03554 -2.54202 -1.05064 Si
45 2 6.92799 1.43927 9.61075 -4.06884 -0.792622 -1.86715 0.899534 -0.128395 1.05852 Ge
36 1 8.35585 2.79089 -0.0237397 -6.69555 -2.11139 3.57955 -0.367224 -0.60377 0.503255 Si
43 1 8.36306 -0.00607581 8.31175 -1.97494 -2.0112 0.0904241 -0.9545 -0.764156 -0.0613933 Si
17 1 -0.0195965 5.59804 0.0126256 -5.90857 3.38404 6.26441 0.580622 -0.62731 0.110859 Si
27 1 2.80016 5.56661 8.34296 1.07261 -2.59364 -4.86042 -0.248816 -0.491391 0.403668 Si
29 2 1.43215 6.992 9.73879 0.371905 1.33249 0.578144 -1.0881 -0.426407 -0.870756 Ge
16 2 4.21012 4.12891 9.70263 1.83088 -1.81086 -0.62822 -2.46354 1.40909 1.5702 Ge
61 2 6.93579 6.87885 9.65738 0.51902 -1.29704 1.69866 0.100843 -0.22872 0.43136 Ge
48 2 9.72898 4.14096 9.65727 -2.0598 -0.463133 0.372999 0.251087 0.544711 0.275706 Ge
59 1 8.33737 5.5049 8.24325 -4.41104 -3.27156 -1.92916 -0.0354306 0.508096 1.04602 Si
32 2 4.19579 9.65583 9.72276 -1.4356 1.76333 1.44871 -0.172334 -0.311008 -0.64726 Ge
58 1 5.54904 8.26432 8.28617 -0.67507 1.66369 3.48955 -0.160706 0.554875 0.20852 Si
26 1 0.0115593 8.38046 8.29018 1.99529 0.498103 -3.4414 0.904173 -1.91908 0.434975 Si
64 2 9.72862 9.6153 9.70708 -0.0905612 0.493885 -1.712 -1.61791 1.39457 0.774218 Ge
ITEM: TIMESTEP
12200
ITEM: NUMBER OF ATOMS
64
ITEM: BOX BOUNDS pp pp pp
0.0000000000000000e+00 1.1085848640000000e+01
0.0000000000000000e+00 1.1085848640000000e+01
0.0000000000000000e+00 1.1085848640000000e+01
ITEM: ATOMS id type xu yu zu vx vy vz fx fy fz element
4 1 2.83852 2.77868 -0.0136231 -2.16494 -0.155803 3.52804 -0.225115 0.0563997 0.925301 Si
7 2 4.20461 1.38729 1.47129 -0.307879 0.197702 -3.16332 -1.25667 -0.316151 -0.480819 Ge
34 1 5.60827 2.66705 2.90102 -0.746542 -0.478683 -3.48865 -0.208177 1.00308 -0.536296 Si
2 1 -0.0474298 2.75144 2.7136 -2.25486 4.89206 6.84977 -0.556403 0.496178 -0.336655 Si
39 2 9.63279 1.33293 1.3448 2.69962 -2.12562 2.43686 1.40498 0.869934 -0.684092 Ge
6 2 1.40588 4.1557 1.41113 1.87805 -1.33309 1.36789 0.476652 -0.138917 -0.807097 Ge
19 1 2.82143 5.53476 2.82737 0.188591 2.60456 -2.27817 -0.352609 0.365478 -1.48305 Si
23 2 4.15814 6.95774 1.42552 -1.45829 1.17094 0.110576 0.129842 -0.857606 -0.602775 Ge
38 2 6.90044 4.11993 1.47591 -1.26361 0.33424 -1.52509 0.358755 -0.476913 -1.18713 Ge
49 1 5.53623 5.49951 0.0285976 3.63485 -4.88442 0.231159 0.0700107 1.12633 0.429445 Si
51 1 8.30904 5.52792 2.7593 -0.999066 0.369007 4.97866 0.170288 0.0150094 0.0509044 Si
55 2 9.68316 6.87902 1.34081 1.11193 3.29077 0.427351 0.422465 0.138707 -0.644392 Ge
3 1 2.73806 -0.0438069 2.7711 1.29661 1.08468 3.53949 0.301662 0.269863 -0.944266 Si
20 1 2.73313 8.30936 -0.0160273 -2.60328 1.50538 -1.57259 -0.00882133 -0.248903 -0.14183 Si
22 2 1.34372 9.7137 1.32031 1.22856 -2.72927 -0.846645 0.155857 -0.36453 0.814578 Ge
33 1 5.48968 -0.0205366 0.0638183 2.69148 -2.2351 -5.00951 0.565959 -0.87425 0.258892 Si
50 1 5.57545 8.25297 2.86375 -2.3985 -1.99399 -3.02293 -0.0412431 0.290966 -0.871048 Si
54 2 6.96292 9.64306 1.45323 -1.04917 0.63525 -1.52589 -0.657813 0.302134 -0.883075 Ge
35 1 8.35154 -0.0456589 2.79655 2.47493 -1.81726 -3.20596 -0.0409563 -0.441191 -0.609183 Si
18 1 -0.0818444 8.31454 2.73323 -4.50021 2.13535 2.91084 1.33756 0.399897 -0.372442 Si
52 1 8.35465 8.34061 -0.0510414 -4.11481 -2.83259 0.295313 -0.190304 0.31369 1.47934 Si
5 2 1.3145 1.37016 4.03661 0.0855068 0.455222 2.31617 1.15264 0.155783 1.27903 Ge
12 1 2.72911 2.72144 5.46891 4.36161 -0.623252 1.38402 0.414621 0.796937 0.234535 Si
15 2 4.23258 1.39452 6.84329 0.184914 0.53369 3.2132 -1.15124 -0.664749 -0.417995 Ge
37 2 7.02736 1.24946 4.20968 -2.15043 1.45462 0.873354 -0.61468 1.91271 0.131576 Ge
9 1 0.0173538 0.0491484 5.50449 6.7394 -0.0730383 -1.89286 -1.03322 -0.545003 1.29485 Si
44 1 8.30623 2.82063 5.54606 2.85373 8.71345 3.08094 -0.108426 -0.268141 0.0170115 Si
47 2 9.64326 1.42965 6.92943 -1.05767 -1.31305 -1.27868 1.08791 -0.329248 -0.394851 Ge
14 2 1.33156 4.1484 6.88062 -1.32009 -1.88676 -0.0337301 1.32765 -0.574095 0.321103 Ge
21 2 1.45742 7.01817 4.07356 0.921149 0.420237 0.821665 -1.45419 -1.06687 1.1637 Ge
25 1 0.0787328 5.54017 5.46396 -1.65846 3.9545 -3.89863 -0.915227 1.12453 0.0674534 Si
8 2 4.19889 4.17397 4.17616 -0.758191 1.76408 0.459648 -0.222083 -1.43522 0.647235 Ge
31 2 4.17975 6.97024 7.00724 0.01722 0.669798 -0.736077 -0.9211 -0.776403 -1.087 Ge
46 2 6.91053 4.15165 7.01128 -0.246951 -3.1613 0.662649 1.19879 1.00138 -0.777742 Ge
53 2 6.97328 6.84979 4.20629 0.476896 -1.06869 -2.41318 -0.602291 0.358665 -0.0978983 Ge
57 1 5.54935 5.52132 5.59732 -2.22997 -1.45642 -6.25226 -0.0753409 0.542753 0.582475 Si
40 2 9.70768 4.19225 4.12773 -1.3586 -2.14815 -0.590583 0.177415 -0.862712 0.0529715 Ge
63 2 9.7287 6.85636 6.94498 -0.398556 -1.08547 -0.858195 0.412269 0.882685 -0.634417 Ge
28 1 2.73002 8.3359 5.59176 -1.39684 1.37249 -1.8811 1.06516 -0.317114 -0.180054 Si
30 2 1.32011 9.67305 6.95757 -0.835284 -1.41508 0.615008 0.671032 1.77448 -0.59265 Ge
41 1 5.59816 -0.083026 5.51535 -2.59377 -3.28067 2.35854 -0.463012 -0.167637 0.533586 Si
24 2 4.12378 9.65806 4.14004 -1.45801 0.791826 -1.48518 0.453918 0.16441 1.07159 Ge
62 2 7.03163 9.69059 6.93761 0.565836 0.642014 -2.02543 -1.15268 -0.269746 0.418426 Ge
56 2 9.71557 9.71535 4.18556 0.284343 1.11903 1.66199 -0.037391 -1.01916 -0.0868323 Ge
60 1 8.35829 8.23195 5.54082 -1.3263 0.580675 -1.0598 0.439036 0.940959 0.56382 Si
1 1 0.101446 0.0789759 -0.0893601 -1.39259 1.22721 0.196319 -1.48037 -0.0543842 0.646872 Si
10 1 -0.0506992 2.78989 8.30328 -1.18162 -3.83887 3.23561 0.215261 0.480662 -0.642098 Si
11 1 2.77401 0.0870354 8.23974 -0.428727 1.07576 4.16187 0.026311 -1.25718 -0.28065 Si
13 2 1.45595 1.47832 9.6041 -1.96514 -3.57272 -0.158439 -0.520918 -0.0857386 0.914036 Ge
42 1 5.54674 2.73155 8.26567 -5.12714 7.10082 0.863069 -0.351393 0.335761 1.44296 Si
45 2 6.83022 1.3855 9.77632 -0.955215 2.50078 -1.47932 0.784878 0.103413 -1.03168 Ge
36 1 8.28498 2.78833 -0.0414019 3.21777 4.34131 -1.98685 -0.597037 -0.109904 1.42452 Si
43 1 8.29286 0.0912868 8.36705 4.42386 2.44074 1.82143 0.000635531 -0.994643 -0.247503 Si
17 1 0.0537054 5.5024 -0.0794938 -0.414284 0.671729 -3.97357 -1.02754 0.402585 1.24145 Si
27 1 2.72545 5.52673 8.32446 0.574977 5.67279 3.0643 0.856989 -0.0841737 -0.886802 Si
29 2 1.3446 6.94138 9.6245 3.08694 0.597696 2.01144 0.811519 -0.0819435 1.41676 Ge
16 2 4.19423 4.14572 9.67171 3.4738 -0.660145 -0.33307 -0.48891 0.0896991 -0.160216 Ge
61 2 6.87906 7.02241 9.75684 -0.397283 0.747645 -1.50425 0.0150256 -1.13817 -0.147128 Ge
48 2 9.65589 4.17809 9.66755 -0.13592 -2.53207 -0.725869 0.492498 -0.0311889 0.515814 Ge
59 1 8.29526 5.64904 8.39349 0.534406 0.438933 -0.232929 -0.876531 -1.51296 -0.880916 Si
32 2 4.06415 9.7478 9.69137 1.87524 -0.820198 1.34392 0.851322 0.20958 0.218145 Ge
58 1 5.52624 8.38401 8.35257 2.32811 -2.37919 -1.49769 0.416558 0.440718 -0.174493 Si
26 1 -0.0461067 8.32015 8.33228 -4.7389 4.09853 1.15806 -0.274702 -0.0492865 -0.74992 Si
64 2 9.73504 9.77281 9.69202 1.91395 -2.39033 1.43166 -0.359057 0.04876 -0.103384 Ge
ITEM: TIMESTEP
12300
ITEM: NUMBER OF ATOMS
64
ITEM: BOX BOUNDS pp pp pp
0.0000000000000000e+00 1.1085848640000000e+01
0.0000000000000000e+00 1.1085848640000000e+01
0.0000000000000000e+00 1.1085848640000000e+01
ITEM: ATOMS id type xu yu zu vx vy vz fx fy fz element
4 1 2.69746 2.77055 -0.0423609 1.56802 1.9276 -2.92675 -0.034628 0.18962 0.975315 Si
7 2 4.13435 1.42814 1.3234 2.4715 1.3845 -0.324531 0.274871 0.299346 -0.400757 Ge
34 1 5.48377 2.87917 2.64792 3.39727 -2.89492 4.20426 0.775509 -1.12962 0.465806 Si
2 1 0.0460806 2.73233 2.80865 0.850167 -1.43326 -1.40827 -0.441186 1.06613 1.27294 Si
39 2 9.70324 1.40901 1.49533 -1.63816 -0.781041 -1.66728 0.249031 -1.28993 -1.02499 Ge
6 2 1.32942 4.16676 1.41379 -1.50678 -0.884199 2.72801 0.999489 -0.819943 -0.523061 Ge
19 1 2.71918 5.52596 2.76188 0.356143 -0.729276 3.42749 0.417346 0.588112 -0.191962 Si
23 2 4.17224 6.91154 1.38679 1.11563 1.07315 0.486476 -0.0260392 0.551905 0.698432 Ge
38 2 6.97987 4.19522 1.33431 0.408116 1.19071 0.979413 -1.32956 -0.13271 -0.809181 Ge
49 1 5.4944 5.57317 -0.062264 -3.22508 -0.617397 0.283606 1.01513 -1.42206 0.135888 Si
51 1 8.31833 5.50783 2.7457 -0.0702578 -0.401408 -2.9515 -0.499619 1.22376 1.40573 Si
55 2 9.67187 6.90775 1.41999 -1.6121 -1.40869 0.0384021 1.0033 1.08739 0.050013 Ge
3 1 2.82829 0.0586511 2.74494 -2.90325 -2.41241 -0.876883 -0.161803 -0.302869 1.39341 Si
20 1 2.82703 8.28874 0.0307446 0.715625 1.64172 3.23582 -1.08023 0.756847 -0.545144 Si
22 2 1.44403 9.70797 1.47684 -0.885656 -0.478463 -0.627192 -0.113641 -0.840586 -1.23627 Ge
33 1 5.56807 0.0533651 -0.024643 -3.0494 3.88667 -0.469002 0.10887 -0.407791 -1.01492 Si
50 1 5.54785 8.45809 2.7033 0.368033 -0.189941 1.50852 -0.497123 -1.56406 0.216729 Si
54 2 6.96271 9.78337 1.36032 1.53642 -1.34019 -0.835707 -0.520648 -0.185511 -0.552252 Ge
35 1 8.24256 0.0592424 2.78259 -1.84531 3.34065 2.73803 0.598074 0.0881195 0.174872 Si
18 1 0.0575943 8.29247 2.81751 -3.34653 -1.0092 0.379168 -1.71633 0.270878 -0.0477878 Si
52 1 8.30925 8.31992 0.0251783 3.11998 -0.636538 -4.19337 -0.387374 -1.24608 -0.54918 Si
5 2 1.45849 1.38747 4.22231 -2.63294 0.340714 -1.74102 -1.05012 -0.607205 0.138347 Ge
12 1 2.78266 2.81427 5.61849 -3.70179 0.943998 0.203432 0.241907 -0.0435338 -0.149368 Si
15 2 4.14309 1.42253 7.05625 2.33003 1.99539 -0.801453 -0.388159 -0.332239 -1.32784 Ge
37 2 6.82349 1.45782 4.07654 1.50712 -1.92268 0.815838 -0.0989267 -0.259208 0.65028 Ge
9 1 -0.0289848 -0.043947 5.60423 -0.673924 2.44134 -0.842367 1.60167 0.21127 -1.24647 Si
44 1 8.29489 2.68052 5.50625 -1.59855 -2.92558 -0.831666 0.126287 1.62898 0.435344 Si
47 2 9.75717 1.37613 6.94783 -0.652593 0.48645 -1.53681 -1.59109 -0.464329 -0.0944916 Ge
14 2 1.39021 4.17591 7.04252 -2.96669 -1.28272 1.04491 -0.314384 -0.678968 -1.63412 Ge
21 2 1.35094 6.85348 4.20099 2.44126 2.44225 -1.46783 0.442547 0.476369 0.43529 Ge
25 1 -0.0493817 5.50069 5.63715 4.74518 -1.55503 3.39232 0.575204 0.766152 -0.341616 Si
8 2 4.11357 4.1503 4.07093 -0.17134 0.858783 -1.02794 0.334946 0.777609 1.95207 Ge
31 2 4.15718 6.8955 6.84623 2.31508 0.182903 0.750101 0.0798239 0.145094 1.24847 Ge
46 2 6.89938 4.17535 6.85581 -0.50166 -1.47747 0.71046 0.828008 -1.57514 0.00964639 Ge
53 2 6.88084 7.02906 4.07526 1.2844 -0.143049 0.951085 1.00228 -1.28143 0.415396 Ge
57 1 5.54342 5.57017 5.49624 -0.222421 -0.983209 1.87029 -0.407092 -0.384368 -1.73927 Si
40 2 9.69705 4.16201 4.19469 -0.391621 1.04818 1.18018 -0.0697079 -1.24314 -0.499121 Ge
63 2 9.67659 6.99073 6.94633 -1.17625 -0.832925 -0.793232 -0.114174 -1.23399 -0.62517 Ge
28 1 2.79507 8.28389 5.52356 -2.89898 -0.756728 1.17623 -0.485011 0.415118 -0.537694 Si
30 2 1.4249 9.64369 6.95948 -1.05427 -3.0206 0.164333 -0.392446 0.149009 -0.868803 Ge
41 1 5.47272 0.109438 5.57389 3.66236 3.87778 -2.68295 0.522137 -0.515715 -0.484538 Si
24 2 4.18873 9.74738 4.17329 -1.32031 -1.17476 -0.143229 -0.894227 0.278817 -0.28948 Ge
62 2 6.83841 9.71315 6.88351 1.42003 -0.166136 -2.26692 0.669844 0.00360751 -0.501391 Ge
56 2 9.64491 9.75032 4.121 -0.0701933 1.53937 1.97924 0.948815 -0.689054 0.620476 Ge
60 1 8.28441 8.36388 5.52561 0.407089 -1.71243 -1.5807 -0.352418 -0.180355 -0.395281 Si
1 1 -0.0574891 -0.0896274 0.105182 3.82948 -0.398062 1.42082 0.0661872 0.579989 -0.287006 Si
10 1 0.0426086 2.72648 8.34909 0.706014 -0.602888 -1.65811 -0.145647 0.0517271 0.643996 Si
11 1 2.7742 -0.0716302 8.34239 0.528332 2.13134 -0.602618 -0.094651 0.736712 1.08116 Si
13 2 1.32292 1.29952 9.78892 1.31302 -0.446235 -0.246691 0.572462 -0.477161 -1.06271 Ge
42 1 5.62351 2.74707 8.32043 5.69236 -0.439291 -3.60113 -1.01019 1.44974 0.276555 Si
45 2 7.03309 1.39401 9.65014 -1.94745 0.607859 2.03497 -0.232847 -0.873922 0.88328 Ge
36 1 8.38651 2.73524 0.058182 0.907987 -1.5818 -4.16988 0.0836733 1.19881 -1.58963 Si
43 1 8.30911 -0.0999506 8.23054 -1.44033 4.37576 0.0631263 0.788893 1.19952 1.23098 Si
17 1 0.0130244 5.57125 0.0650812 2.10513 1.51389 0.485281 -0.505911 0.184847 -1.14622 Si
27 1 2.79447 5.54581 8.29789 -4.13279 -3.43247 0.600686 -0.605549 1.14677 0.724315 Si
29 2 1.35406 6.95935 9.70552 -1.31694 2.67352 -0.907242 2.04054 -1.45522 0.94129 Ge
16 2 4.09184 4.12244 9.6588 2.3905 -3.06889 -0.744093 1.64622 0.085177 0.279876 Ge
61 2 6.99839 6.83039 9.64118 -0.657916 1.11544 1.10642 -0.658375 1.48621 0.0688424 Ge
48 2 9.7915 4.17066 9.70196 -0.754963 0.400813 -1.32246 -1.02022 -1.03745 0.674206 Ge
59 1 8.36198 5.43254 8.23304 1.04468 4.53495 0.263748 0.111022 1.4128 0.833341 Si
32 2 4.22823 9.62474 9.6665 -2.79151 -1.51342 0.813778 -0.387083 0.834961 0.889675 Ge
58 1 5.55832 8.25673 8.24225 -2.50887 0.500479 0.502122 0.348504 -0.69761 0.561707 Si
26 1 0.0575861 8.25688 8.30688 2.02498 -0.207954 1.10705 -1.54191 1.38954 0.275499 Si
64 2 9.68446 9.61732 9.69797 1.81043 0.20539 1.41755 0.695721 0.64025 -0.343443 Ge
ITEM: TIMESTEP
12400
ITEM: NUMBER OF ATOMS
64
ITEM: BOX BOUNDS pp pp pp
0.0000000000000000e+00 1.1085848640000000e+01
0.0000000000000000e+00 1.1085848640000000e+01
0.0000000000000000e+00 1.1085848640000000e+01
ITEM: ATOMS id type xu yu zu vx vy vz fx fy fz element
4 1 2.83393 2.73978 0.0597073 -0.676472 -0.954954 -1.92584 0.136798 0.553915 -0.849604 Si
7 2 4.13805 1.32238 1.50458 -0.796419 -0.321726 1.23014 0.84312 0.134482 -1.26988 Ge
34 1 5.54944 2.705 2.85347 -4.27104 4.34088 -3.59182 0.105952 0.297697 -0.0588328 Si
2 1 -0.00815764 2.79066 2.68074 1.09536 -3.04904 -3.65367 0.75542 0.0384845 -0.297015 Si
39 2 9.69697 1.40018 1.33306 -0.552953 1.09001 1.0512 -0.357186 -0.291147 -0.705052 Ge
6 2 1.4588 4.17578 1.33006 0.124109 1.56446 -0.860128 -1.13076 -0.448551 0.886971 Ge
19 1 2.80697 5.52955 2.77291 -0.361563 -2.79347 0.275318 -0.515247 -0.471051 0.83817 Si
23 2 4.10742 6.91424 1.41635 -2.21023 -0.406792 -1.23345 1.0783 0.36742 -1.43677 Ge
38 2 6.88675 4.11325 1.45207 0.577232 -0.77188 0.817317 0.627471 1.05682 0.104698 Ge
49 1 5.60524 5.55734 0.0269446 -2.58652 3.19639 -1.12343 -1.2542 0.325805 0.289157 Si
51 1 8.31012 5.60379 2.79522 1.49834 -4.63731 -1.35312 0.213926 -1.32167 -1.17604 Si
55 2 9.718 6.94444 1.33783 -1.40098 -0.996181 -0.850679 -0.22913 -0.665225 0.459052 Ge
3 1 2.75145 -0.0417899 2.82811 2.63278 1.2352 -2.37537 -0.392985 -0.349646 -0.849303 Si
20 1 2.73226 8.30924 -0.0668811 2.79061 -2.90692 -0.15705 0.418814 0.123635 0.98389 Si
22 2 1.36316 9.75342 1.31104 1.07786 1.16749 -3.13641 0.29281 -0.248064 0.0148466 Ge
33 1 5.53222 -0.0650224 0.0500038 -0.799687 -0.329007 4.93304 -0.296481 1.34048 0.562658 Si
50 1 5.53039 8.20138 2.83918 1.73638 4.84204 1.06583 0.0585454 1.07706 -0.702469 Si
54 2 6.90277 9.65231 1.47129 1.00535 0.698819 1.62829 0.321101 -0.373717 -0.69781 Ge
35 1 8.38207 -0.0523123 2.74358 0.876795 -1.53755 -1.7982 -0.640619 0.638933 -0.331371 Si
18 1 0.0269435 8.31789 2.70172 6.50993 -0.0911506 -0.898953 0.175786 -0.281877 0.646722 Si
52 1 8.31777 8.34121 0.0224653 0.161032 6.02158 3.33852 0.147047 0.623998 -0.326323 Si
5 2 1.32599 1.39115 4.07965 1.27711 -0.385568 -0.202002 0.424733 -0.174332 0.682293 Ge
12 1 2.7716 2.72515 5.46125 1.25335 -2.45328 -0.688879 -0.261999 0.215093 0.464007 Si
15 2 4.16662 1.32176 6.81553 1.71375 1.11356 1.78403 0.0142765 0.256439 0.615726 Ge
37 2 7.02941 1.3217 4.14498 0.668941 -0.26278 0.251389 -0.76879 0.109268 0.702884 Ge
9 1 -0.00867608 -0.0180631 5.49524 -3.41039 -1.44249 2.40851 -0.964653 0.922102 0.487486 Si
44 1 8.33028 2.80436 5.54556 1.77583 -0.968314 -1.01141 0.283565 -0.238341 0.136639 Si
47 2 9.71039 1.42455 6.98665 2.73663 3.15488 -0.53847 -0.152466 -0.84597 -1.22877 Ge
14 2 1.42484 4.16821 6.83985 1.80764 1.84804 -0.259081 -0.340833 0.0252652 0.681288 Ge
21 2 1.40996 6.91461 4.16475 0.0613435 -2.37515 -0.403811 0.160445 1.03594 -0.789973 Ge
25 1 -0.0064165 5.55175 5.48586 -4.27038 -2.73209 -1.99244 0.221077 -0.207703 0.717203 Si
8 2 4.19791 4.16237 4.21631 0.247817 -1.59821 -2.08352 -0.273083 -0.312183 -1.06429 Ge
31 2 4.10534 6.97736 6.99215 -1.96689 1.73776 -2.22456 1.73357 -0.289472 -0.764214 Ge
46 2 6.92505 4.15469 7.01662 -2.26969 0.355979 0.702245 -0.434876 -0.181798 -0.62621 Ge
53 2 6.93403 6.88663 4.21757 -0.93172 1.87477 1.6193 0.34596 0.523292 0.392851 Ge
57 1 5.55742 5.54706 5.59094 1.69583 1.60696 4.60974 -0.556978 0.161269 1.30773 Si
40 2 9.73357 4.1529 4.06313 0.682554 0.126615 0.0373406 -0.88606 0.484204 1.34767 Ge
63 2 9.77727 6.94313 6.99353 1.08682 2.10231 1.98603 -1.59464 -1.12587 -1.21156 Ge
28 1 2.79789 8.35867 5.55695 1.06905 0.260275 1.96974 -1.17189 -0.597528 0.175987 Si
30 2 1.37159 9.75915 6.92365 -0.267826 -0.0696252 -0.598519 0.245609 -0.914185 -0.178262 Ge
41 1 5.60322 -0.118156 5.49062 -4.35107 -1.37075 2.80444 0.319952 1.38996 0.736589 Si
24 2 4.18521 9.65323 4.15115 2.41901 -1.78033 2.8221 -0.348408 -0.190432 -0.0441384 Ge
62 2 6.92741 9.66196 7.00727 -1.84535 -1.43061 -0.575585 0.582217 0.171251 -0.879411 Ge
56 2 9.68571 9.64626 4.11169 -1.21386 -0.87718 -1.53071 0.865791 -0.222084 0.953417 Ge
60 1 8.33664 8.27829 5.59656 1.06776 -0.303508 2.26155 -0.0699997 0.261896 -0.0434091 Si
1 1 0.0119176 0.0767197 -0.137329 -0.374623 0.617702 -3.075 0.173666 0.0730138 0.943622 Si
10 1 -0.00975511 2.86945 8.29915 -0.920092 2.04297 0.126347 0.415441 -0.107822 -0.534574 Si
11 1 2.76926 0.0416066 8.28184 -0.595834 -0.157872 -3.88972 -0.152197 0.622748 -0.322952 Si
13 2 1.43287 1.52639 9.6214 -2.25099 3.40982 1.15982 -0.197278 -1.27067 0.69459 Ge
42 1 5.41642 2.74501 8.33461 -0.137677 -4.66447 -0.944372 1.34659 0.154713 -1.2383 Si
45 2 6.82091 1.37867 9.67737 -2.13051 1.20756 -0.0974454 0.727574 -0.406388 1.16395 Ge
36 1 8.21294 2.78122 -0.00628053 -1.17575 -1.3625 6.60649 0.667294 -0.686725 -0.0759641 Si
43 1 8.30417 -0.00159729 8.37254 -1.46173 -4.14586 -4.10809 -0.509413 0.847664 -1.22332 Si
17 1 -0.0333556 5.47386 -0.0318144 2.34512 -2.25663 0.847503 0.699625 1.02467 0.381652 Si
27 1 2.79841 5.53084 8.30955 4.51908 -0.0294497 -1.66831 -0.764298 -0.46793 -0.114866 Si
29 2 1.37685 6.85341 9.67686 -2.64039 2.88656 -1.14584 -0.652922 1.02857 -0.213073 Ge
16 2 4.17317 4.18909 9.73591 -1.79621 -0.531135 -0.702734 -0.273231 -0.365535 0.470222 Ge
61 2 6.92208 7.01886 9.71829 1.8878 -2.53886 2.46504 0.137554 -1.15826 0.73941 Ge
48 2 9.64315 4.15154 9.70841 1.31659 0.540081 0.110259 -0.270158 -0.084888 0.0870218 Ge
59 1 8.2951 5.58768 8.38111 0.379225 -5.31306 -1.53025 0.373746 0.208467 -0.746884 Si
32 2 4.11861 9.78913 9.70154 0.329011 -1.15373 0.517449 -0.10467 -1.49253 0.216266 Ge
58 1 5.5138 8.35891 8.39044 -0.994665 1.74413 -0.0901049 -0.669713 -0.0434132 -0.684745 Si
26 1 -0.00448196 8.33865 8.31052 3.64477 -1.537 -1.95772 1.52076 -0.0580479 0.430214 Si
64 2 9.70495 9.71353 9.65138 -0.0956824 -1.98221 0.808023 -0.199381 -0.201496 1.37051 Ge
ITEM: TIMESTEP
12500
ITEM: NUMBER OF ATOMS
64
ITEM: BOX BOUNDS pp pp pp
0.0000000000000000e+00 1.1085848640000000e+01
0.0000000000000000e+00 1.1085848640000000e+01
0.0000000000000000e+00 1.1085848640000000e+01
ITEM: ATOMS id type xu yu zu vx vy vz fx fy fz element
4 1 2.69933 2.77563 -0.0297177 -0.358355 -2.81128 1.39581 -0.0900615 -0.130249 -0.510407 Si
7 2 4.15575 1.4333 1.25704 -0.531904 -0.338247 -1.67799 0.359549 -1.09558 1.3035 Ge
34 1 5.54662 2.75836 2.72895 0.607196 -2.79041 1.68645 -1.26415 1.1645 -0.403936 Si
2 1 0.00542943 2.79278 2.88324 -1.42636 0.0679146 2.15339 -0.0475966 -1.05898 -0.912699 Si
39 2 9.72249 1.36268 1.49491 1.64299 0.421287 2.78278 -0.449977 0.929569 -0.455277 Ge
6 2 1.3199 4.12191 1.43074 1.25413 0.222477 -1.31401 0.347246 1.37188 -1.13915 Ge
19 1 2.73357 5.57149 2.74053 1.04724 3.54618 -1.50769 0.347812 -0.201359 0.168425 Si
23 2 4.22907 6.93996 1.42231 -1.70754 -0.722969 1.17137 -1.77754 -0.6523 -1.63324 Ge
38 2 6.97045 4.15451 1.36531 0.239121 -2.17689 -1.42787 0.42539 -1.07415 -0.0318924 Ge
49 1 5.56277 5.49462 0.0228902 6.49557 -1.07321 -1.84908 -0.262998 1.11181 -0.963694 Si
51 1 8.32938 5.50923 2.76685 -0.495367 7.89482 2.01537 0.26255 0.254138 -0.0927834 Si
55 2 9.69432 6.94016 1.40847 -0.785645 1.77556 -2.34031 -0.562073 -0.0886423 -0.127383 Ge
3 1 2.77307 0.0347822 2.72638 0.100742 2.10641 3.39524 0.513909 1.12904 0.072524 Si
20 1 2.77084 8.32846 0.0189681 -2.17795 0.222554 -4.02334 0.996502 -0.0606199 0.167058 Si
22 2 1.39719 9.67017 1.49645 -0.032041 0.787117 1.27526 -0.814065 -0.301823 -1.24228 Ge
33 1 5.62638 0.0250896 -0.0704369 3.66524 -2.72124 -5.50533 -0.801637 -0.0497807 0.0672795 Si
50 1 5.54931 8.34688 2.70845 -2.20259 -4.14797 -0.108105 0.0284629 0.723671 1.42777 Si
54 2 6.93707 9.70908 1.36376 -0.49897 0.777631 -0.677776 0.0484902 -0.113697 -0.631962 Ge
35 1 8.24118 0.0103989 2.79063 -1.10879 0.498238 3.64644 0.591649 0.163408 0.497518 Si
18 1 -0.0628521 8.31058 2.84366 -2.71684 0.0284612 -0.244595 0.765581 0.46438 -0.426932 Si
52 1 8.26877 8.24974 -0.0211693 -0.534524 -4.85071 -0.716758 0.525939 1.0145 0.249198 Si
5 2 1.45547 1.42317 4.18457 -1.40122 3.02269 1.51501 -0.181224 -0.124494 0.405488 Ge
12 1 2.7979 2.8202 5.62041 0.129522 2.06066 0.402262 -0.509556 -0.335782 -0.455709 Si
15 2 4.11915 1.41086 7.04241 0.656315 -0.483013 -1.32441 0.991146 0.227888 -0.516054 Ge
37 2 6.82238 1.4038 4.15057 -1.45578 0.0753084 -2.37707 1.5757 -0.189315 0.635619 Ge
9 1 0.0574647 0.026695 5.55426 4.50178 -3.63702 -2.20277 -0.030325 -0.689533 0.101132 Si
44 1 8.2795 2.74556 5.55868 -4.07622 -3.98313 -1.5835 0.17285 -0.315217 -0.601543 Si
47 2 9.67723 1.32506 6.90385 1.91064 0.424002 2.17977 0.704737 1.10766 -0.0280036 Ge
14 2 1.31666 4.12741 6.98612 -2.23713 -2.01633 0.226698 0.961918 0.781247 -0.631171 Ge
21 2 1.3922 6.9566 4.15308 1.29944 -1.19223 5.16956 -0.617853 -0.781438 -0.171613 Ge
25 1 0.0260311 5.58739 5.56357 2.16416 -0.0831237 0.308091 -0.705574 -1.33015 -0.506919 Si
8 2 4.10738 4.17933 4.12445 -1.01085 1.97128 1.50894 0.490304 -0.799754 -0.305234 Ge
31 2 4.23356 6.88897 6.90169 -2.43423 0.699782 -1.45203 -2.08579 -0.0240381 -0.531756 Ge
46 2 6.95064 4.16037 6.91447 0.00326461 -0.713502 0.510411 -0.608464 0.589854 -0.475246 Ge
53 2 6.92652 6.93127 4.06243 -0.127396 1.01971 -2.23418 -0.279141 0.154835 1.07565 Ge
57 1 5.52838 5.51189 5.46686 1.72826 -2.52705 -7.21656 1.19686 0.335378 0.332565 Si
40 2 9.6893 4.13253 4.19496 0.805715 -0.201378 -1.50876 0.0109431 1.07554 0.758493 Ge
63 2 9.64157 6.90883 6.86885 1.87569 4.0649 0.292949 0.573219 1.35197 0.621354 Ge
28 1 2.77737 8.27368 5.49525 5.07993 1.76553 -2.33739 0.989648 1.19922 1.10882 Si
30 2 1.38907 9.64608 6.96458 0.446945 -2.24507 0.812148 0.0896503 0.253838 -0.723711 Ge
41 1 5.52695 0.0567426 5.61606 2.24993 -0.79859 -5.83917 -1.22774 -0.611881 -0.804769 Si
24 2 4.12513 9.76948 4.10438 0.796796 1.85 0.172045 1.18549 -0.935193 1.1723 Ge
62 2 6.95455 9.73925 6.92347 -2.51679 -0.403533 -1.69017 -0.131384 -0.220762 -0.125291 Ge
56 2 9.69799 9.7709 4.18662 -4.36118 2.72459 1.02638 -0.351451 -0.275101 -0.254677 Ge
60 1 8.28293 8.3579 5.48768 -0.544249 0.820144 -1.31284 0.104892 -0.576371 0.211824 Si
1 1 -0.0533627 -0.0614098 0.131408 -0.149215 -3.286 0.600269 0.897356 -0.30217 -1.37298 Si
10 1 0.00676744 2.66312 8.30925 0.320846 -2.29256 1.70671 -0.704225 0.433992 0.376472 Si
11 1 2.7708 -0.057988 8.36795 1.53463 -3.67937 4.03226 0.196407 -0.293868 -0.842499 Si
13 2 1.36004 1.25261 9.70526 -0.349419 -1.22551 1.60731 -0.576534 1.08016 1.43283 Ge
42 1 5.59449 2.84672 8.34069 -4.91333 -0.0171169 5.14544 -0.3731 -1.43632 0.134519 Si
45 2 7.04773 1.4344 9.69247 0.139508 4.20806 -2.3695 -1.17226 0.198825 -0.228003 Ge
36 1 8.43829 2.77547 -0.020155 -0.357178 0.84995 -2.64909 -0.681237 0.100295 1.30506 Si
43 1 8.34333 0.0260799 8.3162 1.76142 -3.35629 6.43108 -0.235049 -1.07573 0.027012 Si
17 1 -0.0135193 5.62175 -0.00618429 -3.00728 -2.3591 -0.899191 0.406799 -1.66964 0.42214 Si
27 1 2.70181 5.58314 8.31973 -0.128612 0.387312 1.22139 1.5365 -0.742326 -0.297716 Si
29 2 1.37587 6.97223 9.70107 0.787953 -1.99765 2.23752 -0.267713 0.222695 0.364076 Ge
16 2 4.13984 4.15617 9.69278 0.61421 -0.425158 1.43167 -0.61679 0.756091 0.303062 Ge
61 2 6.90963 6.9158 9.63909 1.15249 3.6607 -3.79004 0.14326 -1.06864 1.03509 Ge
48 2 9.74995 4.16483 9.66273 0.803977 -0.946925 -0.0542923 0.225679 0.277601 -0.0889097 Ge
59 1 8.31545 5.55094 8.28511 -0.153575 0.747074 1.64084 0.166438 -0.626606 0.13819 Si
32 2 4.22476 9.66442 9.65001 1.47844 1.293 0.451254 -0.0197895 -0.302905 0.848096 Ge
58 1 5.60421 8.26131 8.22804 2.54888 -0.785717 0.219764 -0.534124 1.26983 0.716162 Si
26 1 -0.0616463 8.30382 8.33247 -4.00044 -3.11874 1.00434 0.176779 -0.361671 -0.863443 Si
64 2 9.66516 9.68006 9.70674 1.38304 -3.34413 0.250223 -0.0302249 0.17226 0.917622 Ge
ITEM: TIMESTEP
12600
ITEM: NUMBER OF ATOMS
64
ITEM: BOX BOUNDS pp pp pp
0.0000000000000000e+00 1.1085848640000000e+01
0.0000000000000000e+00 1.1085848640000000e+01
0.0000000000000000e+00 1.1085848640000000e+01
ITEM: ATOMS id type xu yu zu vx vy vz fx fy fz element
4 1 2.82939 2.82967 0.0525319 1.59961 1.2053 4.0157 0.138084 -1.06216 0.102187 Si
7 2 4.15064 1.40207 1.53273 -0.0714583 2.36504 -0.173087 -0.494539 0.320548 -1.56305 Ge
34 1 5.58143 2.83578 2.7798 4.60652 -3.50419 0.721428 0.740938 -1.04412 0.640554 Si
2 1 -0.021537 2.75189 2.72911 0.0836833 3.83051 -0.0304856 -0.618648 -0.0153908 0.716891 Si
39 2 9.66041 1.42066 1.29076 -1.15639 -0.688643 -2.0824 1.21484 -0.251415 0.326071 Ge
6 2 1.4007 4.1376 1.45544 -0.635913 -2.29417 2.09134 0.214444 0.146281 -1.07021 Ge
19 1 2.78801 5.51084 2.78415 -1.3585 -2.96656 -2.75991 0.226923 1.04754 -0.358741 Si
23 2 4.16992 6.95495 1.38601 2.57456 1.40044 2.76948 -0.278871 -0.553522 1.13214 Ge
38 2 6.87978 4.24274 1.36102 -0.78613 1.31633 1.09109 -0.159801 -0.757561 -0.493136 Ge
49 1 5.44274 5.57967 -0.0496654 -1.79386 -2.98163 5.76068 1.49215 -0.754131 0.534978 Si
51 1 8.28581 5.5332 2.7722 -0.931569 -6.15888 0.785366 -0.0205618 0.97963 0.671239 Si
55 2 9.71996 6.91098 1.43079 -0.743331 -0.720457 -3.12406 -0.595725 0.0242253 -1.28823 Ge
3 1 2.74403 -0.0454555 2.80523 -0.273103 -6.5759 -2.47363 -0.0564698 -0.216672 -0.118292 Si
20 1 2.80302 8.31706 0.0633112 -2.29242 -1.14051 0.680607 -1.42649 -0.477668 -1.66209 Si
22 2 1.377 9.67522 1.37785 0.280757 1.10298 -2.98819 0.058858 1.12195 -0.325656 Ge
33 1 5.40286 -0.00318549 0.0626971 1.09058 -2.05107 5.46846 1.40638 -0.903581 -0.30295 Si
50 1 5.55724 8.34104 2.79181 2.77026 -1.69649 -3.08953 0.166906 -0.913326 -0.83617 Si
54 2 6.94753 9.68679 1.37076 1.95553 -1.58584 1.95753 -0.322962 0.907424 0.00130459 Ge
35 1 8.39706 0.0136288 2.71257 0.743888 -4.09475 -6.57564 -0.708174 -0.766608 0.616754 Si
18 1 -0.00133334 8.31182 2.73048 -0.100875 -2.47268 0.490937 0.403372 -0.311253 0.0282917 Si
52 1 8.38052 8.34643 -0.0223771 -2.04336 -0.888059 0.73393 -0.582383 -0.992681 0.217578 Si
5 2 1.315 1.32251 4.12045 -0.57079 -0.0886564 -2.39564 0.141953 0.696844 0.525968 Ge
12 1 2.71272 2.73654 5.48736 2.2886 -2.42772 -0.192073 0.834522 0.195018 -0.0181457 Si
15 2 4.1524 1.40413 6.88932 0.657177 0.562669 -2.14584 0.0855413 -0.275158 -1.05255 Ge
37 2 7.05618 1.41681 4.1527 0.150342 -3.34798 1.36155 -1.44806 -0.0409938 -0.0789627 Ge
9 1 -0.0563134 0.0136389 5.57366 -2.35956 2.99941 1.15887 0.321316 -0.37642 -0.466607 Si
44 1 8.38736 2.85724 5.55778 2.99832 4.27228 2.48524 -1.044 -1.13395 -0.266972 Si
47 2 9.65767 1.41539 6.95227 -1.0256 1.47781 -1.86488 1.02749 0.531337 0.0914152 Ge
14 2 1.43157 4.15753 6.92387 -1.21475 -0.992006 -2.21804 -0.971579 -0.428197 -0.282187 Ge
21 2 1.34545 6.92063 4.07391 3.02871 0.584094 -0.627586 0.445175 -0.280199 2.43109 Ge
25 1 -0.0212379 5.50944 5.57276 -0.152929 5.52562 0.0563352 1.1085 0.916463 -0.688893 Si
8 2 4.17169 4.14469 4.14309 -1.42023 0.494989 1.32643 -0.204862 0.571805 1.4325 Ge
31 2 4.16226 6.94634 6.98912 3.61133 1.96733 1.11467 -0.972137 0.309645 -0.479517 Ge
46 2 6.9351 4.17583 6.89258 0.808669 -0.509045 2.73004 0.501542 0.320906 0.404418 Ge
53 2 6.88414 6.94977 4.19025 1.37283 -0.44937 1.89541 0.941446 -0.574286 -0.32102 Ge
57 1 5.52183 5.59431 5.5994 -4.66456 1.04919 4.5514 -0.243216 -0.918489 -1.11141 Si
40 2 9.70947 4.18365 4.15877 1.54172 -1.75479 -0.949109 0.311694 -0.357996 -0.893649 Ge
63 2 9.71494 6.86541 6.99799 -0.342106 -3.03775 -0.831921 0.460241 1.44287 -0.75543 Ge
28 1 2.69155 8.32647 5.60719 -3.62587 -4.21032 -1.35175 0.979287 -1.08732 -1.36159 Si
30 2 1.38808 9.77016 6.94695 -2.34491 0.445212 -0.595683 -0.473588 0.156588 -0.427337 Ge
41 1 5.53532 -0.00702785 5.50598 3.69645 -1.71598 6.893 0.807535 -0.106954 -0.124297 Si
24 2 4.13485 9.61896 4.14076 -2.14992 -0.405338 1.17652 -0.420394 1.37548 1.33857 Ge
62 2 6.93887 9.69145 6.95894 1.55051 -0.730923 -0.19761 -0.82421 -0.422735 -0.996783 Ge
56 2 9.76321 9.64774 4.11852 0.518348 -0.33973 0.768588 -1.59988 0.751801 1.13002 Ge
60 1 8.33517 8.253 5.57647 0.92905 -0.756878 0.745035 0.275574 0.886308 -0.197154 Si
1 1 0.0646871 0.0607589 -0.0634657 -4.92086 4.47033 2.05897 -0.403729 -0.31101 0.636578 Si
10 1 0.00138973 2.82738 8.33872 2.20529 0.526449 -2.49097 0.198183 -0.800787 -0.46153 Si
11 1 2.77298 0.0756654 8.27266 -1.46816 1.78007 -2.24642 0.297566 -0.682053 0.838753 Si
13 2 1.47298 1.4734 9.69241 1.19734 4.09211 -3.50536 -0.795715 -0.0139323 0.13833 Ge
42 1 5.61321 2.71293 8.2097 2.84838 3.38191 -2.96806 -0.731599 0.178456 1.30107 Si
45 2 6.83848 1.25895 9.69081 -2.75467 -0.799878 2.91753 0.605865 1.75305 0.293499 Ge
36 1 8.21106 2.76552 -0.0147198 1.7056 -1.32091 -1.98188 -0.165571 0.0880249 -0.812331 Si
43 1 8.2921 0.00404644 8.27977 -0.57306 4.29345 -2.88687 0.335831 -0.328366 0.986599 Si
17 1 0.0276549 5.49845 0.0565999 -1.24607 4.45557 -0.940378 -0.462475 0.60582 -0.851899 Si
27 1 2.82461 5.47372 8.30772 -4.06777 1.20178 -1.10682 -0.447008 1.0545 0.492771 Si
29 2 1.39605 6.91524 9.6842 -2.36944 2.44552 -0.90505 0.73944 -0.209356 0.880067 Ge
16 2 4.22519 4.08115 9.63877 2.39927 -3.30671 -1.22129 -0.356157 0.390683 0.32361 Ge
61 2 6.91345 6.8985 9.73264 -0.937416 2.99983 3.25107 0.284496 1.44887 -0.656873 Ge
48 2 9.6643 4.14991 9.71567 -0.361458 0.254661 0.780965 0.238722 0.106613 0.684205 Ge
59 1 8.31393 5.53057 8.32327 -1.1671 1.20563 -0.255945 -0.812221 -0.281278 0.560637 Si
32 2 4.08033 9.68842 9.68649 -1.81443 0.693577 -0.316789 -0.082222 1.29478 0.761566 Ge
58 1 5.48623 8.35332 8.37267 1.99911 -3.2058 -1.764 1.63794 -0.804798 -0.403275 Si
26 1 0.0547397 8.36745 8.29423 -0.0752964 3.04145 0.545953 -0.83612 -1.11044 0.541208 Si
64 2 9.74379 9.75102 9.66249 0.424398 0.754792 -0.650958 -0.0833767 -0.0586487 -0.0539183 Ge
ITEM: TIMESTEP
12700
ITEM: NUMBER OF ATOMS
64
ITEM: BOX BOUNDS pp pp pp
0.0000000000000000e+00 1.1085848640000000e+01
0.0000000000000000e+00 1.1085848640000000e+01
0.0000000000000000e+00 1.1085848640000000e+01
ITEM: ATOMS id type xu yu zu vx vy vz fx fy fz element
4 1 2.71552 2.71409 -0.129105 -3.28432 2.93044 -3.31719 0.116946 0.636325 1.76435 Si
7 2 4.13444 1.33294 1.28422 -0.849412 0.816676 -1.89839 0.129439 1.46347 0.106677 Ge
34 1 5.46136 2.72781 2.76383 -3.77585 4.84211 -2.84264 1.20163 -0.826412 -0.577048 Si
2 1 0.028263 2.75228 2.75803 2.4331 -2.43787 1.54384 0.728708 1.30773 0.0214128 Si
39 2 9.75042 1.35359 1.47108 0.0346053 0.818677 2.06451 -1.02893 -0.688646 -1.57005 Ge
6 2 1.4061 4.19558 1.29898 -0.905117 -0.415947 1.67465 0.129067 -0.801673 1.3708 Ge
19 1 2.78198 5.58798 2.84005 0.395249 -1.447 3.19334 -0.166387 -1.62491 -1.56369 Si
23 2 4.12951 6.90133 1.38285 -0.0897491 0.564963 -2.04087 0.467045 0.971421 -0.0507619 Ge
38 2 6.93917 4.06412 1.44667 0.417363 3.00811 -3.89033 -0.204997 2.05126 -0.244737 Ge
49 1 5.59799 5.55315 0.03761 -3.86024 1.78151 -6.15796 -0.651825 -0.823954 0.73149 Si
51 1 8.3581 5.55841 2.7716 0.5125 0.35615 -1.25151 -0.595503 -1.21426 0.0577006 Si
55 2 9.73811 6.9637 1.43328 -0.107636 0.510156 2.53767 -0.0552301 -0.0984332 -1.60846 Ge
3 1 2.78721 0.0530045 2.73319 0.866271 3.82355 2.42301 0.250326 -1.7315 0.227852 Si
20 1 2.76097 8.32521 -0.0540517 5.15756 2.61205 5.05396 0.640377 0.230218 1.23213 Si
22 2 1.38788 9.69256 1.40221 2.46817 -2.63546 1.04816 1.22304 0.446948 -0.969602 Ge
33 1 5.61678 0.0361771 -0.0526724 -6.03771 3.61053 -4.59757 -0.227983 -0.349364 0.203039 Si
50 1 5.52281 8.2683 2.80698 -2.24541 3.62993 2.91164 -0.00825349 -0.708423 -0.802488 Si
54 2 6.84405 9.68242 1.45533 0.659439 0.528777 -3.32765 1.4608 0.994536 -0.486328 Ge
35 1 8.26824 0.00827733 2.88005 0.575473 5.25947 2.68291 0.385323 -0.439494 -2.02425 Si
18 1 0.0549258 8.35573 2.76535 -4.29245 1.63833 0.46261 -1.17977 -0.517968 -0.104096 Si
52 1 8.26809 8.34408 0.0428621 2.44206 -0.0384308 -1.75583 0.163316 -0.93971 0.0581047 Si
5 2 1.45114 1.42075 4.13513 1.25011 -0.0305767 1.84077 -0.405362 -0.0364586 0.393435 Ge
12 1 2.81323 2.79332 5.56384 -4.1108 1.8629 1.87547 0.000714042 -0.448321 0.384569 Si
15 2 4.12655 1.37847 7.0529 -0.961758 3.65939 6.31502 0.159017 0.529274 -1.71931 Ge
37 2 6.89194 1.39877 4.19002 1.2536 2.0532 0.62972 -1.25883 -0.434224 -0.30335 Ge
9 1 0.0363331 0.00275623 5.47466 3.06409 -0.00568076 -1.08958 0.313592 -0.198223 0.709249 Si
44 1 8.25872 2.7111 5.53516 1.59722 1.1592 -0.309984 1.04169 1.27779 0.873502 Si
47 2 9.71692 1.35659 6.88377 -0.165062 -1.66806 -1.5082 -0.670303 -0.227819 -0.226958 Ge
14 2 1.40051 4.19022 6.91051 -0.310483 -0.221363 0.771609 -0.152537 -0.105556 0.412808 Ge
21 2 1.35437 6.96569 4.12342 -0.978708 -1.9097 -2.24332 1.18933 -0.0729605 0.998521 Ge
25 1 0.0189027 5.52184 5.46219 -1.61116 -5.62905 3.10184 -0.878474 0.81306 1.46639 Si
8 2 4.21771 4.12538 4.15617 -1.42493 0.0156828 -2.98494 -1.49882 0.801573 0.371812 Ge
31 2 4.15231 6.91692 6.91363 1.7451 0.666015 -2.63906 1.25368 0.244674 -0.0210351 Ge
46 2 6.90943 4.11648 6.98078 -2.33755 -1.38467 -3.05246 -0.0642095 -0.506622 0.0539291 Ge
53 2 6.93233 6.87264 4.1502 -3.28501 2.4763 -0.790075 0.487203 0.955107 0.795191 Ge
57 1 5.59202 5.46391 5.55081 1.31904 0.165874 -2.87499 -0.705779 1.10972 0.344632 Si
40 2 9.68618 4.10847 4.15237 0.736408 0.128137 3.48155 0.0535588 0.00705648 -0.163184 Ge
63 2 9.70942 6.97989 6.92089 -1.18305 -0.197341 0.258768 -0.404218 -1.64428 -0.893775 Ge
28 1 2.81844 8.31928 5.50684 -2.98893 3.01074 2.27805 -0.861106 -0.0376436 0.140294 Si
30 2 1.411 9.69142 6.92668 2.82668 -1.6534 -0.355077 -0.399579 -0.188011 -0.4493 Ge
41 1 5.49075 0.0237636 5.56194 -5.14383 1.99132 -2.23267 0.837946 -0.651157 1.09375 Si
24 2 4.20348 9.68618 4.11022 0.693975 -2.19546 -1.34127 -1.28481 1.14326 0.691611 Ge
62 2 6.9291 9.69274 7.00544 -1.55787 1.04306 -1.36533 -0.409282 1.07893 -1.70438 Ge
56 2 9.72778 9.6915 4.11506 1.05459 1.62558 0.0948678 -0.245775 0.449354 0.999159 Ge
60 1 8.31023 8.3739 5.53225 -2.59907 -2.65477 -0.297892 -0.178036 -1.13484 0.0274831 Si
1 1 0.0297672 -0.0619504 -0.0207328 4.33718 -3.88615 -0.992236 -1.77414 0.339362 0.796179 Si
10 1 -0.0576605 2.77102 8.2585 -1.86879 1.01639 3.30639 1.1311 0.069838 0.241967 Si
11 1 2.76471 -0.0254231 8.34561 0.250602 1.18142 2.39831 -0.312362 -0.433803 -0.391657 Si
13 2 1.31497 1.30171 9.64319 -0.825939 -3.48627 3.44222 0.0415813 1.35927 -0.35747 Ge
42 1 5.45348 2.7976 8.43211 2.6174 -1.42969 -1.66564 0.806838 1.02272 -0.7899 Si
45 2 7.01503 1.49539 9.66897 0.581118 -0.220842 -1.14538 -0.990959 -1.15715 1.2206 Ge
36 1 8.35852 2.80027 0.0588927 1.86032 1.66319 1.84361 0.908332 -0.709743 -0.417446 Si
43 1 8.31709 0.0231516 8.32704 -0.0851915 -1.2921 -1.35996 0.170834 0.331334 -0.676094 Si
17 1 0.0209435 5.57287 -0.0694332 2.18919 -2.37614 2.54902 -0.837696 0.356655 0.708571 Si
27 1 2.76399 5.62202 8.33918 2.58455 -2.76342 0.409586 -0.361355 -0.892162 -0.974962 Si
29 2 1.38638 6.97513 9.66451 -0.121947 3.5205 0.472515 -0.342501 -0.199909 0.403153 Ge
16 2 4.07981 4.27793 9.78349 1.18897 -2.40413 0.586412 1.00881 -1.31964 -0.95877 Ge
61 2 6.93162 6.88844 9.69275 0.89518 -4.33815 0.577907 -0.0111928 1.47782 0.881217 Ge
48 2 9.67967 4.18259 9.65114 1.39781 -0.786222 -0.873705 0.316308 -0.225154 0.976911 Ge
59 1 8.28502 5.55505 8.31665 4.08371 0.699121 -0.0628245 0.762678 0.0456753 -1.06549 Si
32 2 4.19328 9.72509 9.68744 1.45889 -3.99692 -0.5965 -0.23511 -0.175848 0.619674 Ge
58 1 5.5509 8.32821 8.34614 -4.38844 1.2983 2.29889 -0.354103 -1.23861 -0.493214 Si
26 1 -0.0190184 8.29488 8.32248 0.319424 2.84278 -1.82572 0.030009 1.53955 -0.396308 Si
64 2 9.62359 9.69408 9.68891 0.188119 -2.94495 2.05276 1.34618 -0.251058 0.625967 Ge
ITEM: TIMESTEP
12800
ITEM: NUMBER OF ATOMS
64
ITEM: BOX BOUNDS pp pp pp
0.0000000000000000e+00 1.1085848640000000e+01
0.0000000000000000e+00 1.1085848640000000e+01
0.0000000000000000e+00 1.1085848640000000e+01
ITEM: ATOMS id type xu yu zu vx vy vz fx fy fz element
4 1 2.84647 2.78071 0.126509 2.51087 -2.23191 -4.05207 -0.35706 -0.00328117 -2.05844 Si
7 2 4.2145 1.41099 1.46908 -0.573395 -4.1989 0.638133 -0.0873847 -1.19975 -0.588523 Ge
34 1 5.59941 2.82258 2.76115 -2.21301 0.0978275 4.04634 -1.62537 0.638474 0.504463 Si
2 1 -0.0427163 2.82159 2.79617 -2.70389 -1.20843 -2.70912 -0.0664806 -1.31548 0.180169 Si
39 2 9.67 1.40886 1.38749 1.5273 -0.384804 -0.474989 -0.0781567 0.592387 0.36952 Ge
6 2 1.36593 4.12646 1.42574 2.99653 0.417195 -2.08016 -0.14686 0.639507 -0.610641 Ge
19 1 2.74729 5.5765 2.67713 0.132727 7.45678 5.21277 0.0920006 0.213948 2.84138 Si
23 2 4.20118 6.94886 1.37961 -1.18306 -1.0405 -1.76932 -0.874828 -0.134547 -1.37026 Ge
38 2 6.92674 4.15453 1.36118 -1.27509 -3.32462 0.807639 0.7442 0.378005 -0.54795 Ge
49 1 5.57278 5.55197 -0.0217777 1.29095 5.51435 1.03386 -0.353836 0.153365 -1.31393 Si
51 1 8.27951 5.57909 2.75108 1.28329 2.9439 -1.25473 0.617206 -0.264041 -0.433983 Si
55 2 9.72567 6.95097 1.36781 0.57886 1.03465 -1.31197 -1.12225 -0.352187 0.847397 Ge
3 1 2.73319 0.00971582 2.79608 -4.78529 3.95458 -1.58807 -0.117398 0.91825 0.401677 Si
20 1 2.74435 8.31292 -0.00280022 -4.38763 -1.77759 -3.99243 -0.0433212 -0.0378961 0.439201 Si
22 2 1.3246 9.68437 1.48003 -2.33584 0.385568 -1.2693 0.793954 0.386451 -1.84449 Ge
33 1 5.5814 -0.0173607 0.0182411 3.04159 1.50646 2.64216 -1.04202 0.617388 -0.226181 Si
50 1 5.54648 8.35036 2.69386 0.0983579 -0.621181 -0.0560556 -0.277325 0.810725 1.36718 Si
54 2 6.96811 9.71871 1.38708 -2.27523 -3.9007 2.38921 -0.0939919 -0.971966 -1.39467 Ge
35 1 8.31308 -0.000794159 2.71024 -1.60344 -1.52012 3.22032 0.181292 0.613599 1.43897 Si
18 1 -0.00769242 8.28861 2.80394 7.53335 1.82335 0.808491 -0.458725 0.102592 0.489247 Si
52 1 8.33635 8.29353 -0.0337336 -1.57964 6.77557 0.127647 -0.0464742 0.869882 -0.569224 Si
5 2 1.30014 1.39156 4.21609 -4.11754 0.877095 -0.95539 0.452521 -0.272474 -0.29909 Ge
12 1 2.76484 2.77124 5.5376 0.434756 -0.609103 -3.08547 -0.580285 0.23093 -0.155144 Si
15 2 4.16093 1.33245 6.80893 1.57024 -2.80101 -3.04561 0.453739 0.718881 1.89237 Ge
37 2 6.92608 1.44752 4.06784 5.72301 -0.183502 1.65162 1.31105 -1.31509 1.28756 Ge
9 1 -0.0583225 -0.0350139 5.65339 -5.02806 2.22934 1.06614 -0.211012 0.499952 -1.10643 Si
44 1 8.31342 2.75111 5.54519 -2.38859 -3.08535 -1.59212 0.211419 0.0511199 -0.367504 Si
47 2 9.66322 1.40481 7.0308 0.967931 2.22989 -0.699754 0.74032 -0.348653 -0.874139 Ge
14 2 1.37006 4.11684 6.99161 -0.625545 -2.33725 -4.3912 -0.0891814 0.287511 -1.72177 Ge
21 2 1.36505 6.96574 4.23394 -1.26013 2.49241 0.648446 0.844612 -0.850967 -1.17612 Ge
25 1 -0.0395514 5.58458 5.61111 2.77047 -0.664591 -6.63355 0.628107 -1.7298 -0.867558 Si
8 2 4.14311 4.19388 4.1649 3.07471 0.578342 2.74092 0.159317 0.227517 -0.970471 Ge
31 2 4.1155 6.87495 6.93802 -1.31677 0.991 -0.801577 0.611002 1.20866 -0.668771 Ge
46 2 6.99504 4.19054 6.87854 -0.422946 -0.765484 2.16357 -1.97317 -0.423342 -0.526224 Ge
53 2 6.91322 6.99731 4.08031 0.253528 -2.26545 0.670218 0.00255258 -0.307504 0.996111 Ge
57 1 5.5467 5.62273 5.51649 2.36731 -1.79556 4.9327 0.37293 -1.09945 -0.140901 Si
40 2 9.64549 4.16555 4.15149 -0.978429 -0.218305 -0.563468 0.47638 1.13804 0.841311 Ge
63 2 9.70711 6.94243 6.95371 3.05863 1.76558 0.765714 -0.834209 0.139308 -0.183873 Ge
28 1 2.812 8.35158 5.56146 1.61703 0.173371 1.06079 -0.957456 0.028772 0.375032 Si
30 2 1.35209 9.68247 7.00679 -1.29741 0.793534 1.85646 0.764538 -0.636355 -1.50771 Ge
41 1 5.62669 0.0175342 5.49417 -0.0522621 1.75349 -2.95245 -0.846928 0.0558149 -0.798555 Si
24 2 4.1581 9.75833 4.1372 1.47749 -3.33323 -1.03692 0.75527 -0.981196 0.0439188 Ge
62 2 6.94019 9.72152 6.90932 2.30438 -3.23595 2.39227 0.401224 -0.482643 -0.256341 Ge
56 2 9.67149 9.68815 4.13499 0.178496 -1.73028 -0.602112 0.372118 0.595836 0.636357 Ge
60 1 8.31732 8.31375 5.53096 3.42145 4.28305 0.388734 -0.232806 0.0324077 0.0095326 Si
1 1 -0.0694645 0.0270379 0.0742064 4.29073 2.68929 -1.91861 2.32156 -0.648 -1.26555 Si
10 1 0.08141 2.72187 8.38156 -2.9368 0.247358 -2.46226 -1.43236 0.453325 0.549063 Si
11 1 2.78254 -0.0496812 8.27267 0.0693134 1.34681 -2.80596 0.254561 1.6153 0.589645 Si
13 2 1.49082 1.37561 9.75905 3.7306 0.559602 -0.875289 -0.771548 -0.72879 0.769759 Ge
42 1 5.57327 2.77826 8.24483 -3.42205 -2.76001 1.19884 -0.035617 -1.15076 -0.60659 Si
45 2 6.92983 1.33454 9.65944 -1.55474 3.91772 -2.46278 -0.473887 0.469795 0.133417 Ge
36 1 8.28043 2.71449 -0.03922 -5.86366 -1.12627 0.628416 0.060104 0.826478 0.476524 Si
43 1 8.33029 -0.0484779 8.34209 -1.36351 1.43228 2.12716 -0.166654 0.157987 -0.351028 Si
17 1 -0.0668121 5.50375 0.0655878 2.98825 -1.74333 -0.745647 1.33444 -0.55299 -0.826129 Si
27 1 2.7742 5.47026 8.28085 1.10763 1.8124 2.81695 -0.0927304 0.251588 1.1734 Si
29 2 1.39658 6.79252 9.7407 -0.240961 -0.984797 1.52356 -0.254284 1.32778 -0.294554 Ge
16 2 4.17962 4.10957 9.63179 2.47652 0.600913 3.71996 0.147077 0.466477 1.7844 Ge
61 2 6.92424 6.9752 9.57586 -0.0974453 0.876402 -0.0360485 0.410698 -1.29381 1.59278 Ge
48 2 9.68404 4.13302 9.72737 -4.55602 0.121928 -0.834911 0.161754 -0.388002 -0.748207 Ge
59 1 8.31742 5.5038 8.25747 -5.7524 -0.248473 0.870234 0.80193 0.991594 1.31674 Si
32 2 4.13828 9.72408 9.6839 -2.88207 2.15456 1.04492 0.917032 -1.17321 0.210248 Ge
58 1 5.53258 8.31533 8.22795 0.428397 5.5889 1.31923 -0.909779 0.698291 0.771062 Si
26 1 0.0336697 8.25292 8.32843 2.61617 -5.68693 3.34702 0.32963 -0.463926 0.923801 Si
64 2 9.77864 9.68746 9.65902 -0.575488 0.641786 -0.18823 -1.07115 -0.281841 1.41873 Ge
ITEM: TIMESTEP
12900
ITEM: NUMBER OF ATOMS
64
ITEM: BOX BOUNDS pp pp pp
0.0000000000000000e+00 1.1085848640000000e+01
0.0000000000000000e+00 1.1085848640000000e+01
0.0000000000000000e+00 1.1085848640000000e+01
ITEM: ATOMS id type xu yu zu vx vy vz fx fy fz element
4 1 2.72256 2.77808 -0.0274008 -1.95963 0.312269 6.01396 -0.154557 0.220335 -0.0454857 Si
7 2 4.15171 1.4513 1.39389 -0.139205 4.02386 -3.63987 -0.341475 -1.93764 -0.789215 Ge
34 1 5.56626 2.69661 2.78515 2.84144 -0.0811485 -4.66184 -0.143816 0.818775 0.212358 Si
2 1 0.0337287 2.72947 2.75444 1.34352 3.27289 1.41813 -0.00122007 -0.0131937 -0.781229 Si
39 2 9.66605 1.42584 1.35375 -1.02742 -0.517456 2.26488 1.11029 -0.962911 -0.0013838 Ge
6 2 1.3325 4.14818 1.34441 -2.36498 -1.01864 -1.82092 0.845127 0.53285 -0.0314688 Ge
19 1 2.81351 5.42618 2.78505 0.557935 -4.01202 -11.8207 -0.910916 1.22479 -0.980126 Si
23 2 4.18589 6.94392 1.49245 2.54147 0.243616 1.85372 -0.331698 -1.35069 -1.62542 Ge
38 2 6.91918 4.1363 1.44541 0.854177 -1.62285 -1.28873 0.472689 -0.539718 -0.458136 Ge
49 1 5.51157 5.44039 0.0427752 1.80896 -2.69991 4.53854 -0.42238 1.83574 0.414544 Si
51 1 8.32063 5.4904 2.82224 -1.90284 0.263889 3.17122 0.111258 0.92912 -0.119985 Si
55 2 9.70997 6.90235 1.41272 1.5806 1.62613 -0.94673 -0.866795 -0.669447 -1.02267 Ge
3 1 2.86815 -0.103543 2.73421 4.01174 -2.99806 -2.00745 -0.981961 1.41024 -0.432221 Si
20 1 2.79168 8.29749 -0.00700594 2.56732 3.55791 0.178632 0.153824 -0.0242695 -0.471397 Si
22 2 1.39013 9.7037 1.31125 -0.913531 -2.44476 0.827133 -0.5027 -0.201647 0.517661 Ge
33 1 5.47997 -0.058769 0.041681 2.12507 -2.14182 -1.13885 0.595837 0.990679 0.296242 Si
50 1 5.57689 8.29324 2.86077 0.417834 -0.73409 -1.33792 -0.125782 0.513793 -0.246853 Si
54 2 6.90741 9.7128 1.44535 1.51454 1.57419 2.73342 0.291286 -1.01652 -0.42729 Ge
35 1 8.34976 -0.0175675 2.76718 0.640388 0.398446 -3.48756 -0.664362 0.501759 0.234239 Si
18 1 -0.0513171 8.29843 2.71847 -0.296666 0.232294 -2.56019 2.1659 0.35967 -0.0425811 Si
52 1 8.3028 8.28835 0.0438918 0.131464 -5.02627 2.98715 0.283804 1.2549 0.155182 Si
5 2 1.50434 1.36828 4.05909 2.82226 0.171407 1.60555 -0.504835 -0.260067 0.624474 Ge
12 1 2.80307 2.7508 5.55131 2.43113 0.196902 2.40618 -0.586906 0.210961 -0.0235971 Si
15 2 4.12461 1.4108 6.99377 -0.74686 1.46522 2.50458 1.24437 -0.631652 -0.938559 Ge
37 2 6.87692 1.30522 4.17634 -4.06311 1.59973 -0.998276 1.60953 0.474346 0.693876 Ge
9 1 0.0600157 0.014604 5.40698 2.81389 -2.4297 1.07444 -0.625929 0.368624 1.49912 Si
44 1 8.32913 2.82024 5.52332 -1.57824 0.93385 1.98555 -0.980013 -1.04666 -0.389861 Si
47 2 9.67435 1.40029 6.87824 -1.89119 0.402691 -1.4939 1.45662 0.18476 -0.563406 Ge
14 2 1.46531 4.25124 6.91285 -0.0696878 2.11417 0.844867 -1.07694 -1.19225 -0.493696 Ge
21 2 1.41024 6.90605 4.06057 -0.373709 -1.16358 2.50595 -0.687 -0.311427 0.634525 Ge
25 1 0.0352152 5.55673 5.51565 -4.62594 5.9069 4.71211 -0.257811 0.261487 0.0634025 Si
8 2 4.16418 4.06608 4.14426 -1.26118 -0.871312 1.25572 0.565188 0.123814 0.419898 Ge
31 2 4.1813 6.95976 7.01178 0.0345751 -3.33838 -2.11539 -0.700019 -0.909068 -1.93276 Ge
46 2 6.93672 4.17944 6.96329 3.66924 -1.58457 -0.813195 0.347711 0.383371 0.0919533 Ge
53 2 6.91882 6.91217 4.23136 -1.48562 1.62755 -0.492044 0.364824 -1.05806 -0.55596 Ge
57 1 5.47774 5.4971 5.53277 0.415118 2.77777 -2.53049 0.727174 0.599868 1.25683 Si
40 2 9.78581 4.11695 4.12334 0.520523 -5.46088 2.23463 -0.740007 0.491209 0.844345 Ge
63 2 9.67071 6.88514 6.97874 -0.454046 1.19948 -0.820957 1.05967 0.982359 -1.09004 Ge
28 1 2.72451 8.24812 5.52445 4.31186 2.18935 -1.87102 1.07123 0.567232 0.699415 Si
30 2 1.40263 9.7336 6.87102 -0.72128 -0.483365 -0.973355 -0.427333 0.211697 0.443289 Ge
41 1 5.52118 -0.074562 5.61924 0.691078 -0.516941 5.44998 -0.887122 1.37615 -0.365713 Si
24 2 4.15037 9.64933 4.20823 0.303075 1.36484 1.34172 0.421919 -0.436981 0.120452 Ge
62 2 6.92101 9.69898 6.95946 -1.67252 1.64307 -0.74858 0.507885 -1.19433 0.314231 Ge
56 2 9.73457 9.66481 4.12024 -0.39784 -0.595435 -2.10779 -0.95122 -0.00821641 0.714611 Ge
60 1 8.30944 8.27942 5.57582 -1.38367 0.417978 -0.832064 0.44784 0.823526 0.0262184 Si
1 1 -0.0115319 0.0227864 -0.0948162 -9.40021 0.465808 4.10105 -0.255029 0.725895 0.81887 Si
10 1 -0.0239391 2.86967 8.24596 5.14936 -1.33772 -0.304935 0.229842 -0.343377 -0.866759 Si
11 1 2.75001 0.0663882 8.34694 -1.62509 -5.61434 -0.187691 -0.396549 -1.06657 -0.796581 Si
13 2 1.3138 1.49187 9.60579 -1.48326 -1.3947 0.213134 0.569659 -1.1042 1.16955 Ge
42 1 5.5444 2.78152 8.3384 -0.709867 6.50435 3.23234 -0.0321058 -0.264833 0.968854 Si
45 2 6.91882 1.31362 9.79688 2.46487 0.549675 0.817758 0.054402 1.74211 -1.35093 Ge
36 1 8.34581 2.84591 -0.0126016 3.49086 0.438093 0.374597 -0.984623 -0.919183 0.352723 Si
43 1 8.29985 0.0426719 8.27019 1.41026 -0.218115 -0.515338 -0.429354 -0.244976 0.791145 Si
17 1 0.0291935 5.61321 -0.0904639 -7.76609 4.2962 0.808852 0.044164 -0.154082 1.66118 Si
27 1 2.73918 5.62869 8.335 0.274818 0.268529 -4.49753 0.727591 -0.380939 -0.634021 Si
29 2 1.354 7.01218 9.59406 -0.902152 2.58662 1.00195 0.0969126 0.532371 1.65258 Ge
16 2 4.05903 4.18745 9.6716 -1.3437 -1.00831 -1.8643 1.29795 -0.61936 0.553549 Ge
61 2 6.91777 6.90411 9.81155 -0.647715 -1.89303 0.260481 -0.00716652 -0.733409 -0.399579 Ge
48 2 9.77115 4.19216 9.71318 1.98653 1.04897 1.93713 -0.94282 0.0383172 -0.365715 Ge
59 1 8.36241 5.57973 8.42294 0.992622 -2.19063 -3.69526 -1.56806 -0.957131 -0.813851 Si
32 2 4.17322 9.70493 9.65691 -0.271205 0.419965 0.484492 -0.735989 -0.509646 0.818728 Ge
58 1 5.58866 8.254 8.37348 2.34693 -3.51558 -1.50132 0.0953779 1.42662 -0.102635 Si
26 1 -0.0641299 8.40352 8.273 -3.16967 5.08837 -5.85479 0.657756 -0.574802 -0.781193 Si
64 2 9.65158 9.73949 9.65156 1.48069 -1.81275 -2.10677 -0.403137 -0.480107 0.876271 Ge
ITEM: TIMESTEP
13000
ITEM: NUMBER OF ATOMS
64
ITEM: BOX BOUNDS pp pp pp
0.0000000000000000e+00 1.1085848640000000e+01
0.0000000000000000e+00 1.1085848640000000e+01
0.0000000000000000e+00 1.1085848640000000e+01
ITEM: ATOMS id type xu yu zu vx vy vz fx fy fz element
4 1 2.77294 2.77021 -0.0370674 3.16116 1.21933 0.0637767 0.278404 -0.259792 1.66644 Si
7 2 4.1782 1.35213 1.38668 0.865533 3.18012 3.80984 -0.80076 1.47409 -0.35213 Ge
34 1 5.52032 2.78502 2.77539 2.86781 -2.95742 3.93513 0.525627 0.121862 -0.791185 Si
2 1 -0.00841835 2.77813 2.76578 -2.13141 -0.175021 1.54501 -0.619883 0.990633 1.06159 Si
39 2 9.74788 1.37196 1.4237 -1.70744 3.0187 -2.65772 -0.674915 -0.853777 -0.512109 Ge
6 2 1.40743 4.14655 1.45033 -0.452879 -2.69626 0.453656 0.869462 -0.609637 -0.347672 Ge
19 1 2.72832 5.61621 2.81987 1.31306 0.914152 6.92102 1.0441 -0.585567 -1.32556 Si
23 2 4.14944 6.94107 1.33462 1.77106 2.52086 1.23264 -0.0508741 -0.316443 1.14365 Ge
38 2 6.92901 4.16453 1.37162 -2.83254 1.34875 -2.83845 -0.494074 0.0232626 -0.975463 Ge
49 1 5.54683 5.62487 -0.0756913 -1.24653 -4.60193 -4.90603 0.908817 -0.971404 0.674341 Si
51 1 8.32295 5.55959 2.70115 -0.849254 -0.221682 -0.797971 -0.728457 0.161143 0.983756 Si
55 2 9.70916 6.92944 1.39339 2.49186 -0.237981 -1.4521 0.583908 0.291291 -0.933253 Ge
3 1 2.71813 0.104255 2.82138 0.985277 -3.49689 2.8963 0.8972 -1.00434 -0.107334 Si
20 1 2.76897 8.28808 0.00654944 -3.00389 -2.93378 -0.841539 -0.433882 1.02997 -0.347079 Si
22 2 1.40755 9.69546 1.52092 -0.00807563 0.0940336 -0.690112 0.17131 -0.735567 -1.36298 Ge
33 1 5.56216 0.0694612 -0.0622857 -2.3144 -1.78287 0.385095 -0.0294037 -1.19265 0.103439 Si
50 1 5.53257 8.33405 2.71155 -6.83579e-05 0.594434 -1.89575 0.0137686 -0.183065 -0.527612 Si
54 2 6.8912 9.69543 1.29622 -0.619728 0.524318 -0.548215 0.735239 0.879993 0.912435 Ge
35 1 8.25706 0.0204145 2.7907 1.02605 -0.943324 -0.14666 0.709661 -0.56451 -0.940233 Si
18 1 -0.0327665 8.31454 2.84345 -7.22757 -1.43246 1.74568 -0.726525 0.874464 -0.731326 Si
52 1 8.31819 8.32536 -0.0475226 -0.126963 -1.51393 -2.8978 -0.428243 -1.19516 0.84829 Si
5 2 1.32638 1.46631 4.2049 -1.69993 1.26136 0.281498 0.0203279 -1.07591 0.211922 Ge
12 1 2.71127 2.81074 5.55313 0.491725 0.575121 -1.06628 1.25107 -0.0680606 -0.092092 Si
15 2 4.12174 1.38594 6.8951 -1.96784 -0.745557 -3.25614 0.365599 0.134944 0.0672531 Ge
37 2 6.9319 1.43887 4.14818 0.973071 -1.19912 -1.22996 -0.466855 -0.291996 -0.305523 Ge
9 1 0.0195586 -0.00763224 5.62042 0.438671 -0.801504 -3.48098 0.465232 -0.578273 -0.507004 Si
44 1 8.33127 2.72482 5.54439 1.90234 3.56827 0.108602 0.242739 1.19087 0.875514 Si
47 2 9.72964 1.30387 6.99836 -3.05603 0.374181 1.67705 -1.32245 0.783547 -0.571091 Ge
14 2 1.34893 4.0678 7.01609 2.04846 -0.0406149 -0.105987 0.0951899 0.889113 -0.818389 Ge
21 2 1.34903 6.98697 4.15583 0.404163 1.53239 0.210828 0.365426 -1.19125 1.89208 Ge
25 1 0.0276166 5.47498 5.56481 4.80912 -1.40473 -1.68687 -0.421312 1.55123 0.0959262 Si
8 2 4.15051 4.17692 4.11536 -0.833229 -0.455117 0.859621 -0.617081 0.476876 1.50324 Ge
31 2 4.14825 6.94368 6.92111 -0.419543 2.78304 2.03666 -0.203412 -0.826775 -0.0709593 Ge
46 2 6.88299 4.17877 6.90616 -1.51556 1.10411 -2.80662 1.35957 -1.21304 -0.0411945 Ge
53 2 6.92455 6.95762 4.08134 -3.24029 3.9489 0.456128 0.0227645 -0.493365 0.681349 Ge
57 1 5.55599 5.56275 5.54382 -4.32249 -1.38853 -3.87687 -0.691798 0.414135 -1.2935 Si
40 2 9.65782 4.22302 4.14658 1.86652 1.29213 -0.685253 0.634373 -1.76398 -0.0218617 Ge
63 2 9.70148 6.95275 6.9097 0.143193 -2.73112 3.0048 0.645727 -0.965015 -0.16402 Ge
28 1 2.78347 8.33002 5.55153 -5.32767 -3.39919 -2.39737 0.317941 0.276698 -1.02985 Si
30 2 1.43976 9.64706 6.99861 1.18654 -1.26899 2.68662 -1.00876 0.379789 -0.750459 Ge
41 1 5.517 0.0576642 5.45023 5.45618 -2.13315 -5.03738 0.522617 -0.865605 1.4075 Si
24 2 4.17843 9.72692 4.0707 -0.532463 -1.76712 0.685505 -1.21041 0.125852 1.24404 Ge
62 2 6.9128 9.71972 6.91936 -0.0354151 0.812142 -3.48354 -0.441914 0.372145 -1.17441 Ge
56 2 9.6661 9.74477 4.20937 -0.274943 0.356673 0.876342 0.269968 -0.212462 -0.332953 Ge
60 1 8.29677 8.30891 5.52712 0.28818 -2.41021 0.137594 -0.256112 0.424396 0.154921 Si
1 1 0.0706357 -0.0688301 0.0685416 4.46124 -1.75771 -2.63845 -1.28686 0.277193 -0.0160455 Si
10 1 -0.029367 2.69414 8.36899 -2.10946 0.906899 3.20148 0.541294 -0.204292 0.488844 Si
11 1 2.80117 -0.035745 8.31312 2.49716 6.0857 3.13922 0.207798 0.312125 0.420255 Si
13 2 1.41124 1.30133 9.74452 3.8345 2.99845 1.66682 -0.193686 0.654327 -0.61201 Ge
42 1 5.58167 2.72166 8.30133 1.82512 -1.49495 -5.18464 -1.39492 1.46079 -0.0414603 Si
45 2 6.99014 1.41455 9.66647 -2.30958 -3.55236 2.50577 -0.499666 -0.828595 0.446351 Ge
36 1 8.33909 2.71487 0.016826 -0.559348 0.846209 -4.21292 0.202385 1.38975 -0.089964 Si
43 1 8.30077 -0.0593433 8.35635 0.713974 0.22841 0.674092 0.562955 0.347219 -0.458841 Si
17 1 0.0625426 5.4549 0.0736943 4.20673 -1.75711 -4.1735 -1.86516 1.18805 -1.52846 Si
27 1 2.78518 5.47083 8.30602 -1.95488 1.62521 3.98538 -0.108787 0.948499 -0.148183 Si
29 2 1.40036 6.83714 9.70151 -0.837169 -3.70483 -1.55459 0.462939 0.084716 0.910868 Ge
16 2 4.16218 4.18134 9.72288 -0.379934 -1.9117 0.320211 0.920257 -1.22717 -1.09357 Ge
61 2 6.95662 6.97585 9.57515 0.974824 2.27762 -0.0687548 -0.555863 -0.0100178 1.06368 Ge
48 2 9.67098 4.15012 9.65744 0.542323 -0.860146 3.16005 0.600461 -0.212426 1.56998 Ge
59 1 8.31204 5.54735 8.25363 3.85608 3.35671 4.78785 0.0663616 -0.0609863 -0.0247059 Si
32 2 4.20681 9.6796 9.67674 -1.27275 0.801607 -2.02721 -1.1012 0.60669 0.906116 Ge
58 1 5.50692 8.35697 8.25676 -0.464576 -3.17998 -1.21852 0.95566 -0.751294 -0.00747276 Si
26 1 0.0459778 8.23592 8.35803 0.531286 -2.41362 6.47302 -1.10252 1.05479 -0.0476894 Si
64 2 9.68636 9.67218 9.75008 3.3386 -0.443279 -0.0212875 1.89964 0.121966 -0.838164 Ge
ITEM: TIMESTEP
13100
ITEM: NUMBER OF ATOMS
64
ITEM: BOX BOUNDS pp pp pp
0.0000000000000000e+00 1.1085848640000000e+01
0.0000000000000000e+00 1.1085848640000000e+01
0.0000000000000000e+00 1.1085848640000000e+01
ITEM: ATOMS id type xu yu zu vx vy vz fx fy fz element
4 1 2.78185 2.7328 0.0210939 -4.28822 -0.258931 -6.15576 0.0715164 0.981834 -0.815613 Si
7 2 4.14908 1.33084 1.41484 0.0228512 -1.59226 -5.09786 0.0465803 0.923133 -0.506685 Ge
34 1 5.49099 2.81828 2.73449 -2.85485 -1.4668 -0.648396 1.09096 -1.61202 1.1431 Si
2 1 0.00604811 2.75377 2.76562 4.149 -2.67094 -5.92504 0.290535 0.274128 -0.235664 Si
39 2 9.70799 1.39661 1.38371 1.2734 -0.600139 1.53512 -0.479286 0.16242 -0.349592 Ge
6 2 1.39432 4.18069 1.39475 -1.53521 1.04464 -2.06646 -0.735178 -0.748497 -0.81891 Ge
19 1 2.79146 5.51254 2.75344 -3.69395 -2.65896 0.852187 -0.341014 0.500937 1.11419 Si
23 2 4.13159 6.91754 1.40478 1.31153 0.929254 0.234965 0.670623 0.828185 0.0293002 Ge
38 2 6.94066 4.14672 1.43753 1.10204 -3.87077 2.23128 -0.535748 0.741496 -0.705775 Ge
49 1 5.57026 5.56042 0.0615583 -1.48443 3.70291 2.55097 -0.744428 -0.84748 -0.655612 Si
51 1 8.31666 5.52402 2.78872 2.46021 -3.28702 -3.74479 0.189073 0.147396 -0.203871 Si
55 2 9.66552 6.95932 1.42706 0.592125 0.748527 -0.916921 0.696461 -0.211477 -0.463311 Ge
3 1 2.74511 -0.0161858 2.74461 -0.82686 3.34111 -1.27077 0.12097 -0.896269 0.574368 Si
20 1 2.77481 8.35137 0.0114416 3.00983 -2.61597 1.41734 0.0243356 -0.676629 0.0141006 Si
22 2 1.35115 9.72214 1.32884 -1.23225 0.787547 1.25824 0.775868 0.947733 -0.464337 Ge
33 1 5.54531 -0.0348694 0.0537289 1.49216 3.67996 0.117104 0.414023 0.409715 -0.747465 Si
50 1 5.54571 8.29591 2.82581 1.69354 -1.87671 4.74087 0.019391 -0.607588 -0.320867 Si
54 2 6.93496 9.67092 1.43222 -2.63602 -2.18494 0.736515 -0.271341 0.363553 0.0410977 Ge
35 1 8.36411 -0.031518 2.75919 -2.58188 -0.196871 0.0387848 -0.499667 0.399712 0.576587 Si
18 1 0.110619 8.31726 2.70827 4.04084 -2.25269 -0.0270474 -1.79344 -0.825609 0.697208 Si
52 1 8.30501 8.34472 0.0344662 0.0918033 3.04502 -0.229894 0.0551603 -0.322442 -1.0413 Si
5 2 1.35934 1.32635 4.12646 1.99093 5.03855 -1.85418 0.194198 0.803499 0.462735 Ge
12 1 2.79907 2.71255 5.50165 -2.71445 -1.5612 0.631566 -0.378009 0.413186 0.14035 Si
15 2 4.19244 1.3628 6.927 -1.37897 0.188295 0.943764 -1.22188 0.136677 -0.0249002 Ge
37 2 6.94702 1.41355 4.15427 -1.11697 -0.940487 3.46265 -0.882584 -1.01971 0.0335107 Ge
9 1 -0.0793569 0.0242927 5.53068 1.14191 2.0234 1.91574 0.531107 -0.0117539 -0.717191 Si
44 1 8.32783 2.78951 5.54541 0.622222 -4.18002 -2.26171 -0.239673 0.0769894 -0.26659 Si
47 2 9.71875 1.47034 6.92442 1.40486 -2.25631 -3.38698 -0.408227 -1.02973 -0.256621 Ge
14 2 1.40862 4.16923 6.86885 0.119117 -0.146143 -0.795713 -0.144811 -0.097305 -0.0883817 Ge
21 2 1.38136 6.90972 4.14653 -0.495102 2.36032 -1.86851 0.975871 0.241635 0.483909 Ge
25 1 -0.0723239 5.54993 5.52024 -1.91636 -3.77174 0.892942 1.0577 -0.260304 -0.113532 Si
8 2 4.18699 4.16234 4.16822 1.67674 -2.67132 -0.683727 -0.405468 0.257382 0.306746 Ge
31 2 4.16524 6.92469 6.95936 1.0897 0.889726 -0.728865 0.683805 0.930691 -0.0211289 Ge
46 2 6.9752 4.14141 6.96961 -0.807407 0.3368 2.18992 -1.48081 -0.395241 -0.717723 Ge
53 2 6.97648 6.88305 4.17972 0.129946 -0.182807 1.79799 -0.633602 1.01358 0.480324 Ge
57 1 5.58373 5.54768 5.59639 3.57618 -0.636562 6.32834 -0.191564 -0.466814 -0.38258 Si
40 2 9.68248 4.12311 4.11427 0.439518 -0.945586 1.42493 0.37016 0.384637 0.720954 Ge
63 2 9.69162 6.94595 6.94403 0.443696 2.64354 -1.89563 -0.509808 -0.715336 0.0217033 Ge
28 1 2.78095 8.34812 5.59134 1.78991 0.261738 4.09294 -1.10914 -0.791199 -0.6155 Si
30 2 1.30202 9.77282 6.89075 1.87807 -1.47898 -0.345151 1.19173 -1.018 0.42964 Ge
41 1 5.54308 -0.0510348 5.62178 -6.06872 0.661145 1.41816 1.33665 0.258251 -1.44754 Si
24 2 4.14762 9.68569 4.17718 4.17811 -1.47279 -1.20826 0.0429002 0.539282 0.0306868 Ge
62 2 6.97368 9.64588 7.01361 0.3454 0.284717 2.72046 -0.533623 0.90406 -1.64335 Ge
56 2 9.76496 9.62439 4.10239 -1.11712 0.331039 -0.0704589 -0.636527 1.0718 0.579561 Ge
60 1 8.34153 8.33257 5.55519 -0.368735 -1.68727 0.141303 -0.0524551 -0.760017 -0.394952 Si
1 1 -0.0288794 0.072829 -0.0609525 0.498059 1.01991 0.455945 0.244706 -0.731757 0.0241041 Si
10 1 0.0278459 2.81466 8.28514 -1.31285 2.11711 -3.51591 -0.358518 0.585313 -0.141419 Si
11 1 2.75349 0.00220176 8.27741 -1.90773 -4.34857 -4.09329 0.181181 0.131541 0.631514 Si
13 2 1.37194 1.4379 9.63453 -1.69301 -1.6801 -1.44024 0.694687 -0.636558 0.803455 Ge
42 1 5.49021 2.77309 8.30586 2.5999 -3.03782 2.74147 1.62628 -0.191027 -0.217719 Si
45 2 6.89675 1.36006 9.65184 4.14679 4.04556 1.57273 0.0544321 0.423657 1.28491 Ge
36 1 8.26607 2.78767 0.0325328 4.13743 -3.06762 4.03245 0.523901 -0.94118 -1.14278 Si
43 1 8.32472 0.031871 8.25058 -2.38621 -1.7247 -2.30851 -0.0877088 0.611313 0.760556 Si
17 1 -0.081858 5.55842 0.000205405 3.39387 -1.72 5.31191 1.26512 0.0345347 0.0116998 Si
27 1 2.8003 5.52969 8.28581 0.162491 -3.22911 -1.99783 -0.872061 0.350656 0.66032 Si
29 2 1.40891 6.94962 9.71864 -3.55251 2.57569 -2.52596 -0.762471 -0.405549 -0.707988 Ge
16 2 4.18786 4.1697 9.66784 -3.31756 3.84245 4.54272 -0.648729 -0.0702775 1.83212 Ge
61 2 6.90646 6.90998 9.73521 0.320187 -0.48281 1.45558 0.887096 0.540903 0.132539 Ge
48 2 9.66494 4.14348 9.67105 -1.32803 3.32712 -1.79293 0.195461 -0.0680582 0.804055 Ge
59 1 8.28146 5.50929 8.32305 -0.602855 0.0369391 -3.04504 0.740859 1.4749 0.324251 Si
32 2 4.16094 9.71221 9.73281 2.78032 -0.00356153 -0.429553 -0.382755 0.366614 -0.570956 Ge
58 1 5.56418 8.34116 8.37371 -1.40764 2.54776 0.271898 -0.748467 -1.18194 -0.0713359 Si
26 1 -0.0125462 8.33762 8.28293 2.12151 0.185748 -4.01812 0.177516 0.19085 0.999211 Si
64 2 9.65483 9.76184 9.65145 -6.02704 0.271345 1.49942 0.648145 -0.882429 0.722379 Ge
ITEM: TIMESTEP
13200
ITEM: NUMBER OF ATOMS
64
ITEM: BOX BOUNDS pp pp pp
0.0000000000000000e+00 1.1085848640000000e+01
0.0000000000000000e+00 1.1085848640000000e+01
0.0000000000000000e+00 1.1085848640000000e+01
ITEM: ATOMS id type xu yu zu vx vy vz fx fy fz element
4 1 2.75124 2.80535 0.00826707 2.4385 -2.79839 5.37607 -0.238972 -1.00636 -0.797675 Si
7 2 4.166 1.42515 1.38052 0.248142 0.224688 2.96456 0.382615 -0.926832 -0.431109 Ge
34 1 5.58417 2.75238 2.79229 -3.68917 7.24418 -2.11514 -1.49758 1.63884 -1.24266 Si
2 1 0.00753422 2.79253 2.82952 -2.87145 -0.966605 4.11722 0.720934 -1.09302 -0.938512 Si
39 2 9.72523 1.40136 1.39651 1.14217 3.45602 0.132014 -0.924352 0.114073 0.0660911 Ge
6 2 1.36536 4.15505 1.3767 0.0858805 -1.17856 1.76889 -0.383873 1.1449 -0.0426764 Ge
19 1 2.78735 5.56416 2.7216 3.0159 0.773701 -2.07817 -0.634211 -1.18145 0.486005 Si
23 2 4.15638 6.90021 1.37782 0.845981 -0.265831 -1.61159 0.235118 0.524673 -1.21043 Ge
38 2 6.94144 4.20322 1.40504 0.0857011 2.10717 -3.56398 0.525557 -1.01843 -0.0729738 Ge
49 1 5.5205 5.48363 -0.01689 2.79272 1.357 -2.34455 0.224028 1.16195 0.0189199 Si
51 1 8.31962 5.58093 2.85809 -0.393925 2.02864 2.24383 0.282855 -1.52517 -1.54015 Si
55 2 9.6849 6.91782 1.46062 -0.910944 1.78499 0.847453 -0.0313327 0.134497 -1.3213 Ge
3 1 2.80984 -0.0356244 2.74742 -1.49321 2.70006 0.541969 -0.592561 1.16039 -0.615962 Si
20 1 2.79843 8.34959 0.00490755 -1.57017 2.99867 -0.176298 0.25679 -0.891407 0.558707 Si
22 2 1.4201 9.65617 1.40456 -1.97066 -1.36044 0.187208 -1.0135 0.375506 0.210648 Ge
33 1 5.55036 -0.00671608 -0.060977 -2.25883 -2.73175 1.20235 -0.733186 0.185268 1.30078 Si
50 1 5.51025 8.30772 2.71861 -2.37731 3.46997 -2.40169 0.509086 0.512472 0.969949 Si
54 2 6.93365 9.71954 1.36618 1.09078 -0.893223 -2.02377 0.199102 -0.230202 0.102597 Ge
35 1 8.30589 0.0394777 2.82007 2.85288 -0.533108 1.55814 0.392211 -0.628306 -1.02961 Si
18 1 -0.0539188 8.32579 2.79378 3.85238 1.78799 -0.647023 1.77089 -0.529948 -0.319763 Si
52 1 8.31497 8.25805 0.00186675 1.5995 -0.628829 1.23557 0.259469 0.967074 0.000583027 Si
5 2 1.45844 1.33381 4.1541 -3.62955 -1.58169 3.33095 -0.264973 1.71593 -0.0130243 Ge
12 1 2.77602 2.83075 5.58799 0.453718 -0.20972 -1.30486 -0.348791 -1.03541 -0.0894303 Si
15 2 4.14888 1.45295 7.03041 0.508051 -0.577406 -2.03975 0.505591 -0.548269 -1.10814 Ge
37 2 6.88135 1.41773 4.12822 2.94516 5.35564 -1.25697 1.6136 -0.51448 1.40871 Ge
9 1 0.0615607 -0.00861109 5.4932 -4.54047 -2.25884 0.888532 -0.975002 0.321783 1.16847 Si
44 1 8.26849 2.75891 5.57001 -0.711054 -0.938421 0.955418 1.16475 -0.503302 -0.62312 Si
47 2 9.70214 1.35623 6.94413 -0.902157 3.37859 3.48177 -0.0406307 -0.155658 -1.04547 Ge
14 2 1.35815 4.18319 6.98699 0.171038 -0.924027 -1.90439 0.438063 0.392228 -0.717558 Ge
21 2 1.40173 6.90304 4.10768 -2.43083 -1.43096 1.89097 -0.530301 0.762024 -0.282971 Ge
25 1 0.043922 5.59279 5.5349 -1.46878 -1.28596 -0.0838871 -1.32884 -1.17972 0.447207 Si
8 2 4.13099 4.15443 4.1365 -1.05619 1.85891 1.07336 0.23177 -0.329405 -0.571156 Ge
31 2 4.17246 6.87731 6.92462 -1.54092 -0.291609 -1.87996 -0.542482 0.64004 -1.10585 Ge
46 2 6.93963 4.13299 6.92984 3.46935 1.31847 -3.06321 -0.625163 1.42265 0.147581 Ge
53 2 6.9218 6.91145 4.12668 -2.05352 2.93821 -2.50198 -1.03468 1.33268 0.819915 Ge
57 1 5.52187 5.49785 5.47279 -0.64267 0.0292063 -3.02851 0.825565 0.329312 1.40062 Si
40 2 9.70292 4.13557 4.17261 -0.156301 -1.44567 -0.145257 -0.163913 0.868878 1.34228 Ge
63 2 9.64738 6.92747 6.92804 -0.569664 1.09355 1.38182 0.966459 0.771619 -0.373486 Ge
28 1 2.77357 8.27397 5.45554 2.34381 2.20517 0.352439 0.375163 0.25467 1.69441 Si
30 2 1.42389 9.71489 6.87193 -2.36007 2.92427 -0.262222 0.145414 -0.533779 0.901991 Ge
41 1 5.56207 0.0628864 5.53576 -0.78276 0.00882441 0.171635 -1.89368 -0.577322 0.739983 Si
24 2 4.10591 9.73035 4.13772 0.530649 -1.00309 0.623284 2.29096 -0.747772 0.331797 Ge
62 2 6.88883 9.70857 6.93847 0.226092 -2.08592 0.881904 0.729148 0.373527 0.649784 Ge
56 2 9.73382 9.70243 4.17252 2.60466 -3.31229 -0.784206 -1.26135 0.595557 0.0532436 Ge
60 1 8.27866 8.34437 5.52439 0.854846 3.12619 0.5697 0.136527 -0.447593 0.28045 Si
1 1 -0.0325626 -0.0786855 0.0484652 1.0416 -0.331662 -1.30117 0.988369 0.874523 -0.240705 Si
10 1 0.000369351 2.71965 8.28979 2.38413 -3.27036 3.07784 0.0811808 0.439023 0.281644 Si
11 1 2.77016 0.00578766 8.38893 1.16926 1.20566 0.248573 -0.472152 -0.0369716 -1.58994 Si
13 2 1.31978 1.3503 9.71389 3.07377 0.763635 3.39359 0.804118 0.21748 1.11079 Ge
42 1 5.5604 2.84574 8.37561 -5.03686 -0.846204 -1.44247 0.0667117 -1.39483 -1.11238 Si
45 2 6.90665 1.37928 9.6926 -1.96071 -3.96794 -2.82496 0.234938 0.814297 0.169221 Ge
36 1 8.30243 2.77851 -0.0673224 -4.68993 2.21979 0.193911 0.534838 0.0840581 1.76467 Si
43 1 8.33152 0.0314949 8.39495 2.01188 -2.29301 0.189397 -0.234577 -1.5504 -1.65778 Si
17 1 -0.010078 5.61873 -0.0496741 -4.20979 -3.0413 -1.36811 0.580477 -1.02533 1.05165 Si
27 1 2.74529 5.61497 8.34675 3.40996 -2.38656 -1.56688 0.629567 -1.47028 -0.712265 Si
29 2 1.45492 7.00535 9.70504 2.29046 -2.59634 3.69947 -1.98284 0.181724 -0.0971569 Ge
16 2 4.13359 4.15485 9.65844 2.93101 -2.46824 -2.65407 -0.722997 0.82379 1.24523 Ge
61 2 6.9134 6.91241 9.68484 -0.570776 -0.616191 -2.37037 -0.0944672 -0.578376 1.01776 Ge
48 2 9.75952 4.11944 9.66758 -1.8655 -1.85457 2.09425 -1.05508 1.13972 0.0282783 Ge
59 1 8.30946 5.56121 8.3352 -1.00785 -5.66001 0.698688 0.277602 -1.28728 -0.507541 Si
32 2 4.1337 9.68069 9.69276 0.216699 0.657618 0.632779 1.08823 0.00181395 0.00089519 Ge
58 1 5.52542 8.24781 8.32633 0.877383 2.64195 0.579196 -0.133184 1.32847 -0.595588 Si
26 1 -0.013389 8.3519 8.2968 -0.430227 -3.80746 0.913549 1.38961 -1.08564 -1.07941 Si
64 2 9.75949 9.65863 9.68116 2.24838 0.0661739 -1.52971 -2.10264 0.42751 1.31492 Ge
ITEM: TIMESTEP
13300
ITEM: NUMBER OF ATOMS
64
ITEM: BOX BOUNDS pp pp pp
0.0000000000000000e+00 1.1085848640000000e+01
0.0000000000000000e+00 1.1085848640000000e+01
0.0000000000000000e+00 1.1085848640000000e+01
ITEM: ATOMS id type xu yu zu vx vy vz fx fy fz element
4 1 2.83608 2.76825 0.00536824 -1.09184 3.43447 -0.465732 -0.0109969 -0.0216823 0.740911 Si
7 2 4.19396 1.35846 1.46564 -0.111188 1.15738 -3.9378 -1.12821 0.719766 -0.947703 Ge
34 1 5.57238 2.77077 2.77385 4.50919 -6.93534 2.89393 -0.254513 -0.621703 1.03922 Si
2 1 -0.0529551 2.80744 2.7491 -0.130529 3.88515 1.3475 -0.553016 -0.552644 0.449812 Si
39 2 9.67578 1.32552 1.34646 2.61888 0.0873831 -1.96884 0.893166 1.53997 0.675012 Ge
6 2 1.44668 4.14118 1.47138 0.463044 -1.31045 -1.91385 -0.286791 -0.0220136 -1.25891 Ge
19 1 2.7526 5.59455 2.83028 -0.31427 2.55483 -1.75748 0.758742 0.132524 -0.648441 Si
23 2 4.10876 6.98185 1.37113 0.718959 -0.953504 1.73308 0.950831 -1.08861 0.86426 Ge
38 2 6.87747 4.13296 1.41115 -1.52421 -0.179192 1.24723 0.263355 0.321645 -2.12382 Ge
49 1 5.5359 5.59329 -0.00503147 -2.20765 -4.15285 3.93727 0.128254 -0.309535 -0.414904 Si
51 1 8.26546 5.52211 2.63958 -1.10651 2.57807 5.23656 0.796739 1.41708 1.70327 Si
55 2 9.73967 6.91343 1.33778 1.55874 1.16014 1.4328 -1.14518 0.548244 0.130761 Ge
3 1 2.716 0.0192917 2.79251 1.81406 -5.69455 0.136781 0.408821 0.19474 0.254505 Si
20 1 2.71991 8.26793 -0.00608631 1.04042 1.37599 -1.87529 -0.0571335 0.723244 -0.677764 Si
22 2 1.40255 9.69701 1.42804 0.409494 -2.10411 -1.36817 -0.801719 -0.136723 -0.804606 Ge
33 1 5.51538 0.0261455 0.0344073 3.41887 0.00710131 -2.91079 0.326243 -0.659974 -1.18561 Si
50 1 5.57624 8.31827 2.76751 -0.681831 -3.6715 -1.67768 -0.867568 0.223484 -0.1187 Si
54 2 6.92103 9.71727 1.35829 -3.77024 -1.63801 0.922478 -0.38575 -0.759347 -0.197793 Ge
35 1 8.31253 -0.0483371 2.686 -1.65137 0.622605 0.030275 -0.00531212 0.782269 1.8133 Si
18 1 -0.0578475 8.3423 2.78397 -4.20233 0.888037 0.952128 0.42828 0.346509 0.00679114 Si
52 1 8.30489 8.34792 -0.024578 -3.13759 -2.08803 0.822376 0.565423 -0.441362 0.460591 Si
5 2 1.29489 1.40438 4.15566 2.86039 -0.729397 -1.35799 0.466703 -0.233094 0.438931 Ge
12 1 2.76779 2.7414 5.50765 1.82925 0.390371 0.534524 -0.0480281 0.687947 -0.0039224 Si
15 2 4.19176 1.34233 6.81953 -1.05611 2.00443 3.6195 -0.456007 0.000108491 0.812955 Ge
37 2 6.97012 1.35402 4.14305 -2.83509 -0.134861 1.13749 0.404649 0.774019 0.0162844 Ge
9 1 -0.0172567 0.0140581 5.64565 6.73193 1.34884 -3.4065 0.516033 -0.990654 -0.962376 Si
44 1 8.36685 2.85521 5.54893 -3.25124 2.71413 2.39129 -1.53211 -1.23689 -0.156813 Si
47 2 9.69456 1.37949 6.95454 -0.926915 0.108085 -4.2936 -0.190827 1.32742 0.303813 Ge
14 2 1.39129 4.07958 7.01578 0.372438 0.355995 -0.759789 -0.1543 0.893056 -2.23153 Ge
21 2 1.38397 7.03133 4.16106 0.794631 1.96036 -1.90061 -0.804716 -1.40954 0.948146 Ge
25 1 0.00885103 5.54189 5.55729 4.42366 5.79849 -3.52343 1.23485 -0.431284 -0.521956 Si
8 2 4.19127 4.17437 4.12488 0.344939 -1.49513 2.39042 -0.466901 0.430946 1.35609 Ge
31 2 4.12757 6.96848 6.99858 2.70227 -1.90341 1.63302 -0.190871 -0.282069 -1.24321 Ge
46 2 6.84058 4.16525 6.93058 0.893765 -2.89964 1.13352 2.40605 1.12776 -1.04446 Ge
53 2 6.97799 6.91473 4.13466 0.685832 -2.97937 0.565127 -0.76465 -0.0237072 -0.345145 Ge
57 1 5.52561 5.64097 5.57709 -1.1605 -1.35739 -1.59687 -0.290038 -1.22792 -0.866283 Si
40 2 9.63951 4.26639 4.11228 0.940639 -3.06151 -0.0352758 1.17808 -1.08749 0.0139083 Ge
63 2 9.75118 6.86969 6.93075 -1.74689 -1.98319 -0.704635 -0.548677 1.31324 0.493033 Ge
28 1 2.73166 8.35117 5.6115 -2.00386 -2.22341 -4.99943 0.72907 -0.100875 -0.607552 Si
30 2 1.3602 9.62922 7.05285 0.196151 0.963253 -1.8834 0.0396348 1.83957 -1.45014 Ge
41 1 5.56727 -0.0565678 5.49868 3.97861 0.80018 1.07661 -0.0342197 0.563971 -0.872286 Si
24 2 4.10606 9.70643 4.1224 -3.92683 -1.05355 -0.383848 0.608235 -0.610778 0.877045 Ge
62 2 6.98937 9.72309 6.85749 0.476452 -0.282133 0.2185 -0.698066 -1.2047 0.321157 Ge
56 2 9.6619 9.74803 4.20224 3.59784 -0.889512 1.11293 0.505385 -0.75014 -0.371464 Ge
60 1 8.34543 8.24652 5.54179 -1.28194 -0.155924 -0.952537 0.447658 0.821684 0.0324691 Si
1 1 0.0723728 0.0511362 0.0232278 -4.91511 -0.112917 2.37163 -0.290497 -1.0262 -0.583534 Si
10 1 -0.0238472 2.77414 8.37489 -0.491202 -1.95827 -4.52956 0.237247 -1.12119 -0.805487 Si
11 1 2.79176 0.0154786 8.2768 -0.853433 -0.891295 4.1565 0.316616 -0.482559 0.712775 Si
13 2 1.43474 1.42165 9.68018 -2.58994 -0.923476 -2.71836 0.00621439 -0.326963 0.594658 Ge
42 1 5.57756 2.7199 8.20136 0.938587 5.67536 4.32056 -1.49244 0.0359317 1.80383 Si
45 2 6.91578 1.40797 9.68721 -0.14035 1.31901 1.21234 0.36464 -0.658809 0.0820025 Ge
36 1 8.32227 2.77053 0.036029 -0.596616 -1.60541 -4.8933 -0.841228 -0.0542393 -0.961841 Si
43 1 8.30076 -0.015934 8.27563 -0.33444 7.05438 4.72831 0.474043 0.486188 1.42404 Si
17 1 0.0414215 5.4829 0.0502691 -0.0223058 5.49196 -2.71375 -0.338522 -0.51966 -0.903912 Si
27 1 2.77771 5.49076 8.3163 -3.05363 6.58172 3.5566 0.433145 0.0379011 0.23543 Si
29 2 1.37399 6.81201 9.68075 2.58449 4.20267 0.29914 0.424598 0.89895 1.17392 Ge
16 2 4.20734 4.13275 9.66309 -0.876216 0.747558 1.24388 0.306109 -0.0992592 0.0927356 Ge
61 2 6.93845 7.00744 9.64634 -0.514125 0.586447 2.03776 -0.338259 -0.926906 0.328227 Ge
48 2 9.68953 4.13155 9.68234 2.04664 -0.358357 -1.54233 -0.308912 1.12188 1.38574 Ge
59 1 8.31215 5.56359 8.28775 -3.06642 5.29999 1.46112 -0.500981 -0.884818 0.445046 Si
32 2 4.15447 9.65877 9.69684 -1.99431 0.201585 0.722838 -0.1964 1.08235 0.108837 Ge
58 1 5.56038 8.37037 8.23827 1.48208 -5.35309 2.29602 0.255548 0.0839361 1.01936 Si
26 1 0.0189203 8.25852 8.38512 -3.01229 5.14662 0.840821 -1.31598 -0.192883 0.127237 Si
64 2 9.71574 9.73218 9.74964 0.995073 0.184017 -0.905231 0.424452 0.0198747 -0.975932 Ge
ITEM: TIMESTEP
13400
ITEM: NUMBER OF ATOMS
64
ITEM: BOX BOUNDS pp pp pp
0.0000000000000000e+00 1.1085848640000000e+01
0.0000000000000000e+00 1.1085848640000000e+01
0.0000000000000000e+00 1.1085848640000000e+01
ITEM: ATOMS id type xu yu zu vx vy vz fx fy fz element
4 1 2.67165 2.77683 -0.0728809 1.26568 -0.616412 -0.831865 0.35856 -0.0151167 0.673426 Si
7 2 4.12579 1.39312 1.3565 2.53484 -0.0368368 1.51912 0.172797 0.475199 -1.37241 Ge
34 1 5.49519 2.7399 2.75208 0.55934 2.73099 -1.92012 1.4883 -0.594171 -0.574908 Si
2 1 0.0573283 2.70321 2.70806 -0.271171 2.04652 -0.505918 -0.286419 1.4582 0.836211 Si
39 2 9.67262 1.37924 1.44723 -1.13815 -2.77791 -1.75231 0.861595 -0.985538 -1.56603 Ge
6 2 1.30261 4.21209 1.29708 0.589432 -1.23104 2.2401 1.35897 -1.38302 0.870952 Ge
19 1 2.77284 5.43448 2.76829 -0.00248823 -0.594556 1.60053 -0.124744 0.837241 -0.779366 Si
23 2 4.14555 6.9137 1.44876 -0.827575 4.17598 -2.28793 0.524054 0.0254157 -0.102089 Ge
38 2 7.01296 4.09997 1.46088 -0.872991 -1.37209 0.780547 -1.54942 1.18209 -0.855512 Ge
49 1 5.53548 5.51793 0.0234823 0.311265 3.09415 -0.00641783 0.099295 -0.771339 1.24076 Si
51 1 8.38653 5.5196 2.82703 -2.16958 -3.83179 -7.80615 -1.63892 -0.271744 0.428724 Si
55 2 9.63874 6.9059 1.44289 2.82388 -0.190741 -1.01161 2.19822 0.650815 -1.23439 Ge
3 1 2.84805 0.00734372 2.7392 -2.09835 1.46727 -1.69061 -0.0895006 -1.21303 0.444627 Si
20 1 2.78508 8.31619 0.0251218 -0.792577 -0.332269 4.81437 -0.0650281 0.172166 -0.661545 Si
22 2 1.39645 9.753 1.35322 0.546639 -1.49826 1.82884 0.223156 -0.796519 0.154439 Ge
33 1 5.56671 0.00513847 -0.00712346 -3.62695 1.91832 2.97513 0.427904 0.120237 0.687086 Si
50 1 5.57464 8.31347 2.86816 2.93559 -0.519186 0.917266 0.601646 -0.637729 -1.31513 Si
54 2 6.96992 9.72104 1.43423 0.430441 0.733895 -2.77262 -0.737143 -0.00749763 0.190421 Ge
35 1 8.28939 0.0578048 2.87202 0.590739 -2.15994 -3.15871 -0.106383 -1.13485 -2.00616 Si
18 1 0.0678239 8.26993 2.73365 -3.37962 1.43757 -1.26838 -0.907071 0.329528 0.369835 Si
52 1 8.33817 8.3208 0.0402815 0.466406 0.458417 -1.72338 -1.40922 -0.68872 -0.0633184 Si
5 2 1.49366 1.36978 4.09078 -4.19634 1.471 1.05009 -1.2288 0.410083 0.995088 Ge
12 1 2.76322 2.82271 5.5724 -0.729499 0.95751 -0.0647216 0.681993 -0.97336 -0.227222 Si
15 2 4.15542 1.42893 7.03488 0.202543 0.473269 -2.96869 -0.717056 0.0117715 -1.31012 Ge
37 2 6.83803 1.34842 4.15751 1.7907 0.563218 2.0427 -0.101809 0.617978 0.519563 Ge
9 1 -0.0107866 -0.0210073 5.41436 -4.34678 1.30383 4.51237 0.862167 0.56378 0.484017 Si
44 1 8.28935 2.65568 5.49711 5.00465 4.01272 1.84613 0.563572 1.76534 1.2831 Si
47 2 9.78412 1.3708 6.93009 -0.271409 -2.97947 0.031256 -1.4468 -0.377811 -1.32081 Ge
14 2 1.38377 4.2381 6.92818 -0.187952 -3.16525 4.00911 0.269453 -0.909263 -0.338075 Ge
21 2 1.41436 6.8229 4.13918 0.230339 3.48495 -1.20484 -0.0568041 1.00466 0.651079 Ge
25 1 -0.0329603 5.49808 5.56267 -4.47889 0.142817 5.13168 -0.261411 1.84265 -0.462292 Si
8 2 4.19645 4.08521 4.0983 1.69055 -0.0949225 -2.12812 -0.78491 0.983298 2.01899 Ge
31 2 4.15524 6.93741 6.9319 -1.4538 0.795574 0.532394 0.952608 -0.811165 0.199786 Ge
46 2 6.95749 4.13598 6.98537 -3.00683 -1.68215 -0.731966 0.261657 -1.38491 -0.38868 Ge
53 2 6.96719 6.89329 4.2354 0.939496 -0.00879757 0.997224 -0.131121 -0.170347 -0.343763 Ge
57 1 5.56734 5.45282 5.58357 0.705369 5.17038 2.61803 -0.572685 1.06052 -0.441713 Si
40 2 9.73138 4.10143 4.14142 -3.34258 1.00228 1.38023 0.212222 -1.19217 0.390665 Ge
63 2 9.68352 7.05496 6.91844 1.4542 -0.72701 -1.77166 0.250198 -2.52383 -0.477841 Ge
28 1 2.82449 8.28498 5.52656 -0.777019 1.77746 3.3293 -0.535023 -0.107215 -1.10576 Si
30 2 1.41079 9.71278 6.79058 0.548974 -3.62551 1.45896 -0.344534 0.118058 1.20164 Ge
41 1 5.47433 0.0382414 5.58347 -0.509316 -1.34732 0.357553 1.19632 -0.346501 1.44928 Si
24 2 4.248 9.71484 4.20532 0.945831 -0.307892 -1.89568 -2.17763 -0.175585 -0.788309 Ge
62 2 6.84546 9.66582 7.00107 1.09814 2.39042 -2.30676 0.750909 1.28574 -1.32146 Ge
56 2 9.66198 9.66725 4.07973 -0.972662 0.412626 1.52732 1.12465 -0.019159 0.681076 Ge
60 1 8.30282 8.38225 5.55199 -0.360549 -1.62374 -0.244866 -0.820826 -0.382531 0.118877 Si
1 1 -0.0379334 -0.0364573 -0.0753437 4.11355 0.370381 1.55696 -1.09651 0.913947 1.19746 Si
10 1 -0.0215478 2.87978 8.24179 -2.2615 5.06194 4.69569 0.232127 -0.923055 0.693128 Si
11 1 2.7478 -0.0191163 8.30186 0.574239 2.28673 -2.6359 -0.200289 0.0930439 0.518073 Si
13 2 1.25333 1.41819 9.62904 1.24509 0.155916 0.647439 1.51601 -0.563702 -0.24538 Ge
42 1 5.53757 2.76761 8.42389 4.35268 -1.13193 -6.93384 0.291977 1.00703 -0.717513 Si
45 2 6.98681 1.4057 9.72936 -0.136605 0.808372 1.28239 -0.058831 -0.215106 0.294405 Ge
36 1 8.38973 2.80282 0.032384 2.72474 2.95861 5.34944 -0.28248 -0.414354 -0.500789 Si
43 1 8.31061 0.000308429 8.28234 -0.997403 -3.04486 -4.94062 -0.534938 0.505824 0.121464 Si
17 1 -0.00976747 5.61568 -0.037636 -0.988287 0.0970782 3.75723 -0.757052 0.851118 -0.133927 Si
27 1 2.76301 5.57175 8.29222 -0.607742 -3.70682 -2.97411 -0.705898 1.22275 0.251137 Si
29 2 1.33946 7.03218 9.62047 -1.58132 -2.82671 -1.89486 0.952719 -0.849936 0.907184 Ge
16 2 4.07244 4.20622 9.69159 1.77582 -1.08251 -1.02814 1.12949 -0.76332 0.709544 Ge
61 2 6.93672 6.85813 9.75769 0.000258889 0.749209 -1.3643 0.471336 1.22917 -0.545008 Ge
48 2 9.74146 4.20739 9.68749 -1.19186 -1.17044 -0.738597 -0.3428 -0.3669 0.377842 Ge
59 1 8.37355 5.54142 8.31345 2.4724 1.84294 -2.4026 -0.791533 1.0993 -0.111878 Si
32 2 4.22091 9.67978 9.71059 0.461378 -1.84723 1.35449 -2.03514 0.833306 0.511438 Ge
58 1 5.519 8.291 8.39015 -2.10228 2.5996 -3.17118 0.816007 -1.41581 -0.607434 Si
26 1 -0.0201529 8.39692 8.23193 2.44052 1.28282 -0.75175 0.17671 0.713539 0.460687 Si
64 2 9.59673 9.68723 9.66303 0.638259 0.0853529 3.0094 1.8721 0.00152795 -0.0131624 Ge
ITEM: TIMESTEP
13500
ITEM: NUMBER OF ATOMS
64
ITEM: BOX BOUNDS pp pp pp
0.0000000000000000e+00 1.1085848640000000e+01
0.0000000000000000e+00 1.1085848640000000e+01
0.0000000000000000e+00 1.1085848640000000e+01
ITEM: ATOMS id type xu yu zu vx vy vz fx fy fz element
4 1 2.87508 2.75553 0.118213 -1.47202 2.39916 -2.80568 -0.355261 0.673986 -0.72641 Si
7 2 4.19656 1.36969 1.52732 0.0676245 -0.511121 1.40259 0.000801532 -0.263406 -1.2822 Ge
34 1 5.5505 2.85747 2.77573 -4.43754 2.17865 1.50997 -0.606171 0.403933 0.355246 Si
2 1 -0.0144539 2.79137 2.83266 -0.209441 -5.81149 -1.88021 0.401433 0.0201923 -0.797447 Si
39 2 9.70105 1.45607 1.38414 -0.803361 2.94907 1.75817 -0.483283 -0.615004 -0.281718 Ge
6 2 1.44079 4.1496 1.4643 -3.03351 1.29915 -2.79549 -0.719296 -0.622811 -0.466135 Ge
19 1 2.7505 5.62245 2.76071 -1.57361 0.507903 4.92457 0.0659157 -0.674258 0.887473 Si
23 2 4.13711 6.87968 1.31589 -0.945388 -0.361549 0.34142 0.319084 1.5243 -0.589254 Ge
38 2 6.90195 4.22913 1.35508 2.17514 -1.73605 -0.00666862 0.720361 -0.872694 -0.0646172 Ge
49 1 5.57928 5.55415 -0.085571 -2.23704 0.555331 -5.11228 -0.487719 0.74572 -0.590979 Si
51 1 8.27545 5.60865 2.79092 4.97724 2.36746 2.40216 0.357851 -0.472708 -1.78974 Si
55 2 9.67888 6.90964 1.34656 -3.12636 -0.291417 1.48897 1.00752 0.0262771 0.522464 Ge
3 1 2.71469 0.0247187 2.84434 1.21826 3.40078 1.80109 -0.013684 0.00842979 -0.826139 Si
20 1 2.75891 8.31234 -0.0878385 -1.47419 -3.04094 -1.82738 0.393254 0.190029 2.03471 Si
22 2 1.38907 9.7038 1.4219 -0.758019 1.51919 -2.40377 0.0936169 -0.170804 -0.708895 Ge
33 1 5.53559 -0.0214788 0.0299486 1.81846 0.111775 -1.72294 -0.754211 0.193971 -0.314729 Si
50 1 5.47144 8.38264 2.65175 -2.00421 5.01691 2.77956 -0.157987 -0.330276 1.10815 Si
54 2 6.96368 9.70437 1.35907 1.08709 0.752468 -0.4857 -0.271851 -0.121283 -0.669587 Ge
35 1 8.3619 -0.0279465 2.70393 -0.285285 5.06324 6.2267 -0.0471133 0.7902 0.992926 Si
18 1 0.0251465 8.29602 2.81322 4.72997 -3.08996 1.60251 -1.16363 0.153747 -0.791321 Si
52 1 8.32227 8.32087 -0.0391669 2.33973 4.77087 0.632545 0.528381 0.347532 -0.120811 Si
5 2 1.32348 1.35592 4.21191 2.62407 -1.79626 0.323105 -0.0686202 0.400065 -0.105088 Ge
12 1 2.75719 2.71212 5.51062 -1.15845 2.90979 0.315223 -0.20456 1.22108 0.606547 Si
15 2 4.20214 1.34228 6.80702 1.60402 -0.454015 1.18322 -1.05642 -0.0689219 1.26133 Ge
37 2 6.95423 1.42925 4.03503 -2.49482 0.965767 -1.68867 0.603012 -0.687465 1.67294 Ge
9 1 -0.00734362 0.000513493 5.64597 -2.39312 -0.780547 -3.33443 -1.43321 0.347421 0.118495 Si
44 1 8.31797 2.7973 5.53975 -2.29865 -4.48035 -5.7592 0.255089 0.451184 -0.286359 Si
47 2 9.68287 1.45761 7.07443 3.18441 3.28233 1.28009 -0.188361 -1.91412 -1.98912 Ge
14 2 1.36769 4.10897 6.9544 1.34464 1.48996 0.045323 0.856996 -0.118751 -0.305119 Ge
21 2 1.37737 6.94919 4.20912 -0.118142 -2.47407 1.08021 0.624934 0.170205 -0.869743 Ge
25 1 0.0424062 5.53608 5.51399 1.94088 -4.77156 -2.56193 -1.14499 -0.24494 1.52433 Si
8 2 4.08444 4.22136 4.18317 1.73112 -2.49497 -1.46564 0.619717 -0.729275 -1.01944 Ge
31 2 4.13029 6.94764 6.91843 -1.79924 1.50548 -1.22702 0.253952 -0.0124342 -0.524807 Ge
46 2 6.90148 4.21466 6.90361 -0.1118 1.40575 -1.6404 -0.723557 -1.03861 -0.416558 Ge
53 2 6.89553 7.02358 4.03827 -0.339893 2.11117 0.861934 -0.647285 -0.0766619 1.69387 Ge
57 1 5.5089 5.61076 5.47083 0.975254 -4.56666 0.031103 0.599934 0.272391 0.628503 Si
40 2 9.70283 4.24118 4.10309 0.152593 0.375454 -1.38066 -0.550407 -0.934765 1.59932 Ge
63 2 9.7028 6.87072 6.9885 -1.18329 4.30768 2.26205 0.156154 -0.435214 -0.922993 Ge
28 1 2.74499 8.34763 5.55054 -1.05701 -0.819775 1.83998 -0.421941 0.339393 0.977853 Si
30 2 1.33455 9.69785 7.03173 -1.04951 -0.0611015 -2.5583 0.916621 -0.969605 -0.659487 Ge
41 1 5.61087 -0.0139354 5.48008 -3.18083 2.76602 -5.67607 -0.0691444 -0.0657559 -0.755327 Si
24 2 4.07895 9.74615 4.15213 2.86459 -0.563566 4.12462 1.63527 -0.880434 -0.00714883 Ge
62 2 6.94952 9.65712 6.90298 -1.33341 -3.73659 -0.583078 0.464062 1.20711 -0.304175 Ge
56 2 9.70468 9.70083 4.19741 -0.810547 -1.80507 -1.25419 0.340407 0.0355869 -0.143136 Ge
60 1 8.32301 8.27809 5.54932 2.60086 1.97122 -0.584114 0.172789 -0.149587 -0.244125 Si
1 1 0.00910486 0.0523124 0.0398534 1.69664 -0.98766 -4.79719 0.536005 -0.756699 -0.281801 Si
10 1 0.0967232 2.66006 8.40421 -0.752431 1.2906 -2.3599 -1.01674 2.5544 -0.111548 Si
11 1 2.77923 0.0262608 8.30356 0.636763 -0.20786 0.422912 0.279506 0.344815 -0.152379 Si
13 2 1.48719 1.41471 9.79569 -3.13888 2.21262 1.33509 0.118575 -1.34063 0.202668 Ge
42 1 5.47641 2.73432 8.24605 -0.614869 -2.54187 3.52897 1.3811 0.317862 -0.659712 Si
45 2 6.83327 1.32041 9.62799 -0.506406 -0.790753 -0.022959 0.331323 0.309321 0.77527 Ge
36 1 8.19793 2.70523 -0.0595957 -0.286869 -0.699216 -1.22242 0.784827 0.865572 1.06469 Si
43 1 8.31181 -0.0526575 8.36882 1.68449 0.760427 0.484891 0.23817 -0.0858889 -0.972645 Si
17 1 0.0123975 5.41772 0.0124494 5.31546 -1.99062 -1.89167 -0.191596 0.808141 0.95881 Si
27 1 2.80136 5.52403 8.31288 2.42888 0.922596 3.14243 -0.0887558 -0.972002 -0.494475 Si
29 2 1.47005 6.77869 9.7854 0.160217 -0.0517595 -0.00111511 -1.33487 0.654768 -1.03823 Ge
16 2 4.18113 4.1108 9.65007 -2.81581 -0.107296 -1.17096 -0.221315 0.316036 1.17622 Ge
61 2 6.93674 7.05037 9.58917 1.43931 -2.51761 1.39342 0.00150271 -2.35358 1.56626 Ge
48 2 9.70011 4.05581 9.73063 2.0282 -0.757392 1.71167 -0.218801 -0.0297489 -0.649351 Ge
59 1 8.2801 5.48379 8.35522 1.80989 -3.75291 1.10966 0.904211 0.653622 -0.253253 Si
32 2 4.14069 9.71483 9.64361 3.44956 -1.58995 0.305188 0.889041 -0.277183 0.347419 Ge
58 1 5.5528 8.33564 8.22902 -1.0767 2.40793 1.97376 -1.29317 0.509955 0.47549 Si
26 1 0.0680344 8.15011 8.39946 -0.108047 -3.91715 1.50615 -0.202464 1.06736 -0.371459 Si
64 2 9.79924 9.65758 9.6842 -2.46463 -1.27979 -0.162526 -0.714997 0.360912 1.00647 Ge
ITEM: TIMESTEP
13600
ITEM: NUMBER OF ATOMS
64
ITEM: BOX BOUNDS pp pp pp
0.0000000000000000e+00 1.1085848640000000e+01
0.0000000000000000e+00 1.1085848640000000e+01
0.0000000000000000e+00 1.1085848640000000e+01
ITEM: ATOMS id type xu yu zu vx vy vz fx fy fz element
4 1 2.67898 2.75021 -0.0777585 0.0226256 -4.86263 3.78527 0.027661 0.19783 -0.745057 Si
7 2 4.11098 1.39275 1.24583 2.04347 0.533353 -0.527067 0.735265 -0.772097 1.07234 Ge
34 1 5.54807 2.63872 2.75498 1.88309 -1.95429 -1.46754 -0.894448 1.22549 0.204956 Si
2 1 0.0356129 2.81207 2.74862 2.54679 2.05756 -0.460682 -0.586504 -1.26289 -0.0163302 Si
39 2 9.71904 1.32981 1.40323 0.588287 1.07666 -1.0455 0.0110138 1.08817 0.348371 Ge
6 2 1.38352 4.15774 1.36025 0.868681 1.85183 -1.42224 -0.899749 0.886223 -1.37768 Ge
19 1 2.80282 5.46421 2.72495 0.174115 -2.24991 -6.90448 -0.797932 1.2026 1.18507 Si
23 2 4.16194 6.9313 1.47235 -0.802579 -3.17491 -0.537165 0.200536 -0.604842 -0.936384 Ge
38 2 6.94925 4.0989 1.46602 -0.150139 -1.55571 3.08536 -0.124972 -0.674245 -1.07994 Ge
49 1 5.5511 5.50374 0.137734 4.89652 -1.73082 5.82306 -0.253614 0.563286 -1.18448 Si
51 1 8.32478 5.47322 2.74313 -2.24053 0.212419 3.09992 1.03391 0.618746 1.23132 Si
55 2 9.69146 6.95233 1.42109 -1.58073 -0.710767 -3.07236 -1.23976 -0.393594 -0.207051 Ge
3 1 2.81883 -0.0460315 2.67531 0.270811 -1.42185 -0.408056 -0.443663 1.80788 0.731332 Si
20 1 2.82546 8.36612 0.0769733 1.83756 2.80098 -4.0995 -0.748492 -1.25826 -1.12774 Si
22 2 1.40899 9.68923 1.41099 -0.518129 -0.392946 0.817759 -1.14782 0.165857 -0.970752 Ge
33 1 5.5621 -0.00106273 -0.0548329 0.078005 0.476915 2.0739 0.57077 0.479232 0.181076 Si
50 1 5.57922 8.20467 2.85541 -0.0119224 -2.44611 -1.37099 -0.0655276 1.3206 0.202755 Si
54 2 6.87051 9.67013 1.42076 -0.541516 -1.19811 0.727506 0.151608 -0.496462 -0.402461 Ge
35 1 8.26859 -0.0334865 2.75858 0.968061 -3.61698 -4.52352 0.173311 0.567714 0.76433 Si
18 1 -0.0616402 8.36515 2.73221 2.39016 1.1782 -0.653213 1.54169 -0.599371 1.34558 Si
52 1 8.26845 8.26093 0.0439201 -0.106897 -3.55648 0.712433 0.216412 1.59871 -0.324209 Si
5 2 1.46283 1.42532 4.06699 0.578537 1.25147 -1.34161 0.183089 -0.700555 0.677866 Ge
12 1 2.8059 2.77808 5.57231 -0.525006 -4.264 -0.619548 -0.588955 0.0285513 -0.393221 Si
15 2 4.1242 1.43528 7.06226 2.71312 1.46279 -3.35627 0.977594 -0.839373 -1.05879 Ge
37 2 6.87246 1.31103 4.22021 -1.82222 -1.28428 -1.69839 0.948543 0.249271 -0.0488124 Ge
9 1 0.0918169 0.00017313 5.46556 6.21379 -0.409858 0.363886 -0.179876 0.307489 -0.3817 Si
44 1 8.29241 2.76052 5.58498 -0.801214 -3.58158 1.30005 0.0374516 -0.567483 -1.26706 Si
47 2 9.72023 1.31666 6.81485 0.507274 1.58372 1.81192 0.235372 1.17548 0.993077 Ge
14 2 1.36248 4.16954 6.9183 -1.82524 0.584234 0.449901 0.363373 0.287944 -0.84894 Ge
21 2 1.4078 6.94713 4.10521 1.52147 1.87152 1.21861 -0.396812 -0.508541 -0.0262508 Ge
25 1 -0.0115266 5.59647 5.55965 2.13658 2.34878 -0.528395 0.78465 -1.12912 -1.79934 Si
8 2 4.17295 4.1247 4.13414 -1.3967 -0.35098 2.65094 0.741553 -0.610655 0.337085 Ge
31 2 4.24159 6.90402 7.00071 -0.129673 -1.17957 0.381727 -1.46436 -0.0897071 -1.48588 Ge
46 2 6.94592 4.10827 7.02119 0.621272 -0.146019 3.08596 0.0579553 1.57987 -1.33632 Ge
53 2 7.01511 6.80064 4.21185 1.6058 -0.34243 -0.383965 -1.11407 1.13448 -0.368374 Ge
57 1 5.56332 5.4942 5.57629 -1.20295 1.80712 -0.380822 0.277517 -0.726306 0.335084 Si
40 2 9.7119 4.12416 4.15807 1.95991 -0.435641 -1.83798 -0.0459967 0.575822 0.579242 Ge
63 2 9.68798 6.94865 6.84219 0.0973383 1.33945 -1.42821 -0.381294 1.35167 1.72837 Ge
28 1 2.83534 8.27938 5.52223 5.12358 0.783751 -1.96916 -0.272079 -0.161794 0.446415 Si
30 2 1.43047 9.69836 6.86963 -0.268369 -0.873009 -1.99516 0.0773334 0.110435 -0.107564 Ge
41 1 5.51579 -0.0381228 5.66101 0.413145 -0.982019 5.93748 -1.39729 0.877395 -0.942773 Si
24 2 4.12807 9.71094 4.11854 -2.18749 1.25707 0.761585 1.8783 -0.801227 1.17166 Ge
62 2 6.92262 9.73818 7.00702 -1.65109 -1.6018 1.45892 0.0707512 -1.66958 -0.399265 Ge
56 2 9.6997 9.73994 4.15523 -0.791528 -0.285223 2.26208 -0.485742 -0.615981 -0.0655063 Ge
60 1 8.28176 8.33306 5.54259 -2.34866 -0.150267 1.455 0.309774 0.535202 -0.138873 Si
1 1 -0.0496329 -0.0636734 0.0145215 -2.90871 3.80279 2.67398 1.04515 0.776154 -0.802624 Si
10 1 -0.0455945 2.79805 8.20787 6.05601 -5.23416 -0.412633 -0.182746 -0.898625 0.046561 Si
11 1 2.77088 -0.0671326 8.34081 -2.5306 -1.46754 -2.13417 -0.284544 0.662231 -0.469269 Si
13 2 1.27172 1.33869 9.56309 -1.90152 2.18683 -0.706078 0.569439 0.0882103 2.06998 Ge
42 1 5.56201 2.84026 8.39217 -5.9449 0.540319 2.5691 -0.50306 -1.01669 0.569918 Si
45 2 7.02978 1.47801 9.72009 -1.40565 0.973771 1.55488 -1.01164 -0.794797 0.165238 Ge
36 1 8.42842 2.82908 0.0384962 -0.793999 -0.909061 -1.99844 -0.532293 -0.111248 -0.542703 Si
43 1 8.32198 0.0588641 8.27765 -2.43922 -1.32796 2.07532 -0.0447171 0.183251 0.624531 Si
17 1 -0.0721203 5.65982 -0.00757482 -3.71099 -1.80449 -1.04326 2.18939 -1.21233 -0.748405 Si
27 1 2.71338 5.56155 8.29125 -1.30273 0.762081 -3.45813 0.630916 0.758701 1.35351 Si
29 2 1.33536 7.09076 9.65659 1.62901 0.131398 1.60631 0.233405 -0.792759 0.484501 Ge
16 2 4.14674 4.20788 9.74289 -2.32816 1.70891 -0.580241 -0.73251 -0.0522631 0.0244468 Ge
61 2 6.88533 6.92196 9.76508 -0.927172 7.18245 -0.572102 0.582737 -1.15849 0.241668 Ge
48 2 9.73584 4.2251 9.60272 1.39409 -0.0975205 -0.452757 -0.6534 0.166564 1.32646 Ge
59 1 8.30333 5.63039 8.28809 -1.99062 0.0555778 1.22627 -0.0887492 -0.76046 0.406282 Si
32 2 4.18003 9.66892 9.71027 -1.07056 1.18079 0.876878 0.0225767 0.252512 0.158019 Ge
58 1 5.56753 8.27125 8.37733 2.40496 -1.96709 -1.6 0.0762904 1.16786 -0.214455 Si
26 1 -0.0933842 8.47162 8.22531 2.04437 -1.18241 -3.08793 0.589036 -1.75334 0.447505 Si
64 2 9.60461 9.74735 9.69835 1.07085 -1.60682 -0.236925 0.0182518 -0.958366 0.363679 Ge
ITEM: TIMESTEP
13700
ITEM: NUMBER OF ATOMS
64
ITEM: BOX BOUNDS pp pp pp
0.0000000000000000e+00 1.1085848640000000e+01
0.0000000000000000e+00 1.1085848640000000e+01
0.0000000000000000e+00 1.1085848640000000e+01
ITEM: ATOMS id type xu yu zu vx vy vz fx fy fz element
4 1 2.86076 2.83294 0.0254396 2.67327 0.867341 1.99514 -0.0973494 -1.24437 1.28925 Si
7 2 4.13886 1.39103 1.56485 -0.586246 1.32064 0.498992 0.64014 0.548418 -2.40528 Ge
34 1 5.58036 2.85586 2.80629 1.35931 -3.58561 0.869899 0.762334 -0.742715 -0.623268 Si
2 1 -0.0871563 2.72765 2.81467 -2.20351 2.82144 3.10655 0.8429 0.723186 -0.161542 Si
39 2 9.68972 1.37688 1.35164 1.0076 -0.252026 -0.54597 0.116031 -0.306151 -0.250482 Ge
6 2 1.40719 4.11207 1.47002 0.942866 -3.22287 4.20189 0.302252 0.657415 -0.000587701 Ge
19 1 2.77334 5.62986 2.83271 2.30123 0.109922 0.715954 0.862466 -1.4973 -2.44451 Si
23 2 4.14947 7.00182 1.33273 -0.780316 3.6005 0.214651 0.103789 -1.37044 0.818773 Ge
38 2 6.8957 4.25684 1.33236 -0.506645 2.21632 -0.85863 -0.373779 -0.619908 0.178899 Ge
49 1 5.47545 5.59132 -0.124997 -1.5292 -2.24283 -2.53241 1.02197 -0.394853 1.87201 Si
51 1 8.3038 5.57325 2.77855 -1.12982 -2.11992 -4.48083 -0.664453 0.151863 -0.25223 Si
55 2 9.72263 6.92081 1.44287 0.497994 1.0223 -0.254132 -0.00303257 0.0345097 -2.20271 Ge
3 1 2.71361 0.0110957 2.85162 1.58178 -3.52055 -0.577594 0.283384 -0.934877 -0.52789 Si
20 1 2.70842 8.24442 -0.0163405 0.0616789 0.868073 2.60312 0.696785 1.80844 -0.496426 Si
22 2 1.40908 9.7041 1.37966 2.21574 0.103579 0.545156 -0.490368 -0.561813 0.534453 Ge
33 1 5.50003 -0.012367 0.0496468 0.209755 -3.61499 -1.49194 -0.586877 0.119444 -0.135631 Si
50 1 5.57691 8.3627 2.7122 0.706221 -0.279877 -2.68252 -0.0809662 -0.367769 -0.142866 Si
54 2 6.9986 9.72694 1.33875 0.227619 1.07465 -3.85135 -0.593764 0.270945 0.772377 Ge
35 1 8.3607 0.0132302 2.80044 -1.29173 -2.13812 -1.73233 -0.10037 -0.296073 -1.0271 Si
18 1 0.00986507 8.27761 2.79649 -5.24194 1.53397 -1.27932 0.407903 0.939497 -1.2886 Si
52 1 8.33714 8.34574 -0.0546822 -1.53693 -2.44051 0.640965 0.374799 -1.61782 0.625675 Si
5 2 1.29248 1.32059 4.20865 -2.76075 0.33218 2.20512 0.0404439 1.32611 0.101228 Ge
12 1 2.74999 2.78574 5.49108 3.23467 0.30932 -0.0366338 0.0876693 -0.532583 0.154219 Si
15 2 4.1357 1.37805 6.87864 -1.59694 0.438491 -0.259955 0.977408 0.100777 -1.06148 Ge
37 2 7.05248 1.47683 4.16269 -1.05336 1.48837 0.10043 -1.30169 -0.450301 -0.184866 Ge
9 1 -0.129855 -0.00364713 5.58266 -2.82715 -2.02843 1.85441 1.45478 -0.481217 0.433678 Si
44 1 8.39244 2.85343 5.56792 0.751531 4.11307 4.0222 -0.952682 -1.19766 0.748182 Si
47 2 9.68614 1.39764 7.02749 1.05678 -0.399759 0.230772 -0.63775 0.462869 -0.948421 Ge
14 2 1.38007 4.10351 6.94634 -0.464263 -3.58493 1.82075 -0.0496798 1.05762 0.326029 Ge
21 2 1.3387 6.88265 4.11553 -0.366558 0.743785 2.19609 -0.204496 0.851141 2.06811 Ge
25 1 -0.0141181 5.49208 5.51751 -0.675713 1.29909 2.43564 0.368727 0.732893 1.27596 Si
8 2 4.18299 4.19421 4.11068 -0.904944 2.08443 -1.58487 -0.915398 0.412814 1.55043 Ge
31 2 4.12305 7.00414 6.9269 1.2417 2.96413 1.818 -0.126849 -1.22105 -0.18986 Ge
46 2 6.8976 4.17526 6.85429 -1.8002 -0.430182 -1.42999 1.18771 -0.0510838 1.04802 Ge
53 2 6.90261 6.9601 4.14199 3.39551 -0.616064 -0.46736 0.360596 -0.0797653 0.0606247 Ge
57 1 5.52652 5.5718 5.53696 -1.74129 0.752743 -3.14694 -0.614857 0.770078 -0.320649 Si
40 2 9.64685 4.21011 4.17022 -2.0677 1.91239 -1.10927 1.01169 -0.722685 -0.911507 Ge
63 2 9.7169 6.88496 6.9933 -0.791112 -1.68263 -2.50218 0.277762 0.341981 -1.11052 Ge
28 1 2.64995 8.31351 5.53772 -1.45905 -0.780128 -2.5064 1.39659 0.68258 -0.325739 Si
30 2 1.35477 9.76248 6.97626 -1.30399 -0.406919 0.884485 -0.374147 -0.508526 -0.157559 Ge
41 1 5.57365 0.0162197 5.42875 5.41697 -3.16196 -1.02032 0.272619 0.122426 1.54763 Si
24 2 4.16829 9.67651 4.11542 -3.682 1.86931 -0.352333 -1.0397 -0.0335098 0.767458 Ge
62 2 6.95197 9.69552 6.90729 0.757231 1.31433 -2.88728 -0.469917 0.399618 -0.487382 Ge
56 2 9.72231 9.65064 4.12133 0.412275 0.582042 2.3574 -0.748631 0.47106 1.0781 Ge
60 1 8.34399 8.28766 5.53791 1.18041 -0.873713 -0.157982 -0.044286 -0.201501 0.370033 Si
1 1 0.0973487 0.0189703 -0.0447412 -1.7352 -5.31473 1.51604 -1.0949 0.283322 0.917023 Si
10 1 -0.0664712 2.79917 8.39963 -2.80354 0.641184 1.88503 1.9669 -1.01345 -0.589453 Si
11 1 2.79833 0.0797346 8.32758 3.95964 -0.994895 2.95835 -0.418201 -1.15018 -0.18727 Si
13 2 1.48013 1.45948 9.73861 -0.745482 0.964203 -0.74007 -1.02514 0.222904 -0.429851 Ge
42 1 5.62408 2.68869 8.20954 3.32327 0.824819 -4.50732 -1.42153 0.765522 0.180104 Si
45 2 6.8527 1.30417 9.65058 0.936938 0.111514 -0.461273 0.897017 0.407423 1.22975 Ge
36 1 8.19996 2.7277 -0.000515142 0.769073 -1.0561 1.43241 0.422466 -0.0811964 -0.0642914 Si
43 1 8.31037 -0.0258214 8.34113 2.52185 -0.41027 -1.75408 -0.00275126 -0.213989 -0.330493 Si
17 1 0.0792105 5.48362 0.0207858 -3.27535 2.03117 0.467016 -2.0352 -0.0533564 0.387171 Si
27 1 2.8351 5.5156 8.35789 0.00178277 -2.82843 -0.492251 -0.262271 -0.702144 -1.73337 Si
29 2 1.40958 6.85011 9.67791 -1.20595 -1.40106 0.939985 -0.135191 0.0375618 0.855288 Ge
16 2 4.26535 4.06963 9.64459 3.91602 -2.31863 -0.889153 -0.789065 0.63437 -0.391541 Ge
61 2 6.93378 6.87536 9.64195 -0.278627 2.02034 -1.59776 -0.109844 2.14229 0.101432 Ge
48 2 9.62778 4.09337 9.74624 1.53654 -2.25984 0.21027 0.485298 1.39917 0.769312 Ge
59 1 8.31194 5.49694 8.31841 0.790034 0.122653 -1.5334 -0.325154 -0.478842 -0.450037 Si
32 2 4.12031 9.67965 9.68499 2.61229 -2.50891 0.108837 -0.225289 0.514005 1.02943 Ge
58 1 5.51766 8.35558 8.30478 0.582782 -2.88286 -0.710703 0.914282 -0.645405 -0.228828 Si
26 1 0.038166 8.27406 8.38013 -3.21751 2.49584 3.48788 -0.334116 0.521082 -1.12491 Si
64 2 9.75021 9.7185 9.69681 -0.154868 1.22759 1.711 0.112983 -0.140786 0.0964975 Ge
ITEM: TIMESTEP
13800
ITEM: NUMBER OF ATOMS
64
ITEM: BOX BOUNDS pp pp pp
0.0000000000000000e+00 1.1085848640000000e+01
0.0000000000000000e+00 1.1085848640000000e+01
0.0000000000000000e+00 1.1085848640000000e+01
ITEM: ATOMS id type xu yu zu vx vy vz fx fy fz element
4 1 2.67414 2.72908 -0.0449983 -3.66495 2.79893 -5.85359 0.875478 0.595683 0.0597753 Si
7 2 4.15586 1.36608 1.27223 -1.64562 -0.788458 0.805894 -0.785393 1.11627 0.95834 Ge
34 1 5.47691 2.80356 2.69609 -0.0881275 1.37296 -0.182385 0.338727 -1.5378 0.620833 Si
2 1 0.0835899 2.76755 2.74699 0.134699 -3.85557 -1.17651 -0.805431 0.501808 0.485501 Si
39 2 9.68411 1.38728 1.44205 0.877636 -0.367675 -1.71843 0.579435 0.547933 -0.714961 Ge
6 2 1.38628 4.21924 1.32868 -1.41336 1.24051 -2.15243 -0.46152 -1.64138 0.501802 Ge
19 1 2.73941 5.50665 2.75726 -2.66666 0.846806 3.89346 0.534015 0.508487 1.01354 Si
23 2 4.15476 6.84518 1.39372 -1.5542 0.744824 -1.22436 -0.29811 1.97704 0.460129 Ge
38 2 6.96618 4.09619 1.411 0.806542 0.824207 1.4667 0.0904008 1.61813 -0.475188 Ge
49 1 5.58229 5.54307 0.0664685 -2.61455 1.73175 -1.09767 -0.528643 -1.18385 -1.09505 Si
51 1 8.31557 5.56179 2.78207 0.322776 0.452644 2.71931 -0.0134202 -0.917252 0.240635 Si
55 2 9.69261 6.93751 1.41881 -0.943575 0.0536784 4.43378 0.346247 0.255996 -0.182512 Ge
3 1 2.77851 0.0250391 2.70668 -0.925878 1.0727 1.36071 0.985193 -0.954684 0.509893 Si
20 1 2.81986 8.3712 0.0304695 0.719451 -4.13335 1.98197 -0.302899 -1.26202 0.359272 Si
22 2 1.36737 9.67363 1.43072 1.30162 0.49959 -2.24199 0.678528 1.14218 -1.25671 Ge
33 1 5.56371 0.0535305 -0.0552995 -0.0199848 1.50016 -0.560289 0.96377 -1.32099 -0.123483 Si
50 1 5.4735 8.30776 2.8078 2.34707 -3.52577 4.16912 0.379065 -0.395326 -1.06688 Si
54 2 6.89134 9.69744 1.4576 0.694698 -0.284304 -1.58255 0.172655 0.396676 -1.50853 Ge
35 1 8.2785 0.0421572 2.80281 0.726739 1.92467 4.03812 0.0125688 -0.872657 -0.358244 Si
18 1 0.0315725 8.33067 2.77287 -0.6577 -3.96976 1.96368 -1.39217 -0.332508 0.498213 Si
52 1 8.32351 8.31031 0.0238761 -0.954926 1.44697 -2.52155 -0.913969 0.219963 0.0145448 Si
5 2 1.50626 1.40162 4.12664 2.91203 -2.09594 -1.36791 -1.48832 0.152003 0.664005 Ge
12 1 2.75723 2.78547 5.61466 -2.07969 0.533638 0.201971 1.20432 -0.193175 -0.335721 Si
15 2 4.18537 1.39755 7.02507 -0.339552 3.40608 3.72506 -1.91784 0.454712 -0.296623 Ge
37 2 6.83558 1.37265 4.10668 0.400704 1.62574 2.93965 -0.589247 0.398197 0.48983 Ge
9 1 0.0834693 0.0295555 5.54066 -0.357806 2.12499 -3.98463 -0.58606 -0.578752 -0.593138 Si
44 1 8.24925 2.69322 5.479 3.00322 0.683271 -3.59224 0.688168 1.47725 0.619216 Si
47 2 9.69591 1.39763 6.87019 2.84095 -0.964495 -1.84281 0.557113 -0.448977 0.174504 Ge
14 2 1.37729 4.20893 6.94358 -1.07581 -0.126645 -0.826404 0.243636 -0.753562 -0.328678 Ge
21 2 1.38175 6.96575 4.15104 0.563634 -2.4065 -4.15261 0.804731 -0.698653 0.909643 Ge
25 1 -0.00270284 5.55345 5.57219 -1.90128 -2.90735 -2.65876 -0.113107 0.382581 -0.910768 Si
8 2 4.15515 4.11948 4.17269 2.36832 -2.84293 -1.93552 -0.430697 0.887456 0.0908751 Ge
31 2 4.19577 6.85018 6.91132 1.47241 1.59377 -0.16962 0.101627 1.5977 0.582897 Ge
46 2 6.94922 4.12774 6.96184 -1.17584 -2.28171 -0.343994 -0.529973 -0.183859 -0.732661 Ge
53 2 6.88047 6.93988 4.11362 0.1132 -2.18609 3.32638 0.906745 -0.119799 1.16116 Ge
57 1 5.58823 5.52114 5.54996 2.83359 -2.3827 2.23416 -0.260193 -0.718854 -0.624719 Si
40 2 9.72129 4.1348 4.17017 -0.486169 0.0119158 1.61894 -0.243028 -0.0914741 -0.363625 Ge
63 2 9.70385 6.95515 6.92503 -0.339146 1.87166 -0.387592 -0.766189 -0.62924 -0.465421 Ge
28 1 2.8281 8.32474 5.6005 -3.48385 -3.326 1.61815 -0.613138 -0.88667 -1.2525 Si
30 2 1.39625 9.6459 6.95421 1.08126 2.08244 -4.54498 -0.229216 0.724322 -1.0654 Ge
41 1 5.46109 0.0456923 5.59279 -3.31578 0.0260897 -2.0212 1.7724 -1.27151 -0.502604 Si
24 2 4.15248 9.7073 4.15434 1.15679 -0.805562 0.10687 -0.875176 0.8523 0.513656 Ge
62 2 6.92457 9.68564 6.97311 -0.788393 -1.16078 2.50892 -0.44768 0.894868 -1.59094 Ge
56 2 9.71067 9.74414 4.13049 1.15678 -1.18671 -0.893623 0.284877 -0.142092 0.86044 Ge
60 1 8.29789 8.33142 5.5192 -1.82564 -1.08885 -1.41457 0.0848485 0.0404662 -0.0963411 Si
1 1 -0.0313846 -0.00343523 0.0540451 4.11649 1.02937 -3.01917 -0.549778 -1.19314 -0.464375 Si
10 1 0.0731011 2.73186 8.25853 -4.36894 4.2388 -1.22811 -1.52755 0.325813 0.701476 Si
11 1 2.72703 -0.0619415 8.30191 -0.812347 1.00706 1.49257 1.15211 0.579426 0.749013 Si
13 2 1.33829 1.28261 9.69708 -2.90384 2.08741 -1.18877 0.201234 0.916955 -0.377799 Ge
42 1 5.4788 2.85163 8.39683 5.38843 -2.69384 2.65706 1.1169 -0.355437 -0.433095 Si
45 2 6.99852 1.46376 9.66045 -1.83012 0.775797 -0.572108 -0.86018 -0.384942 0.670155 Ge
36 1 8.39026 2.81419 -0.00521492 -1.18327 0.457056 -0.817669 -0.223631 -0.677873 -0.106068 Si
43 1 8.31872 0.0177419 8.27312 -1.83721 0.57098 1.17743 0.350118 0.047234 0.402696 Si
17 1 -0.0254817 5.57184 0.0165189 5.61864 1.35162 1.08022 0.4648 0.642797 -1.19194 Si
27 1 2.75541 5.56756 8.28371 1.13286 2.82987 3.30557 -0.134553 0.51826 1.04457 Si
29 2 1.43302 6.99433 9.72827 1.4829 5.1307 -1.22743 -0.823522 -0.845329 -0.251529 Ge
16 2 4.0529 4.2247 9.74174 0.157408 -0.570835 1.02712 1.15431 -0.494537 0.44891 Ge
61 2 6.9148 6.90722 9.71506 -0.386454 -3.37984 3.35019 0.614794 0.440767 0.102525 Ge
48 2 9.74773 4.1679 9.63691 0.738068 -1.08167 -2.092 0.339565 -0.171512 0.480528 Ge
59 1 8.31334 5.53836 8.30037 0.678612 3.34692 2.03711 0.356273 0.413847 0.170107 Si
32 2 4.16625 9.68576 9.6802 -0.302055 -2.11001 1.6754 0.273417 0.857996 0.168381 Ge
58 1 5.55123 8.31413 8.31588 -1.9103 0.274482 3.55666 -0.344982 -1.20576 0.121418 Si
26 1 0.010993 8.2848 8.27734 0.994972 2.24997 -2.11102 -0.216745 0.549007 1.40578 Si
64 2 9.67661 9.68006 9.66716 -2.36884 0.376167 0.677565 0.644292 0.429495 0.511246 Ge
ITEM: TIMESTEP
13900
ITEM: NUMBER OF ATOMS
64
ITEM: BOX BOUNDS pp pp pp
0.0000000000000000e+00 1.1085848640000000e+01
0.0000000000000000e+00 1.1085848640000000e+01
0.0000000000000000e+00 1.1085848640000000e+01
ITEM: ATOMS id type xu yu zu vx vy vz fx fy fz element
4 1 2.86946 2.78105 0.0662885 2.3317 -3.56742 3.17265 -0.883174 -0.105969 -1.36805 Si
7 2 4.18449 1.41009 1.486 2.26012 -1.57163 0.633856 0.364918 -1.29718 -0.835219 Ge
34 1 5.57598 2.71007 2.87631 -2.97115 7.01816 -1.09653 -0.0306482 1.21649 -0.504195 Si
2 1 -0.0592323 2.823 2.7293 1.11917 0.516879 -0.143875 0.857855 -1.3919 -0.39935 Si
39 2 9.64963 1.38802 1.36488 -1.3324 -0.180442 0.22173 0.675312 0.0864232 -0.161956 Ge
6 2 1.40766 4.13581 1.35378 3.46353 1.74455 0.416794 -0.506941 1.24863 0.0370495 Ge
19 1 2.81522 5.54855 2.74769 -0.0315606 0.57659 -1.08266 -1.03039 -0.0402395 0.713457 Si
23 2 4.19436 6.94613 1.41252 -0.604616 -2.27337 -4.7293 -0.947953 0.097738 -1.78287 Ge
38 2 6.90477 4.11467 1.42104 -0.279291 -1.42498 0.793856 0.236727 0.179831 0.25291 Ge
49 1 5.55925 5.52172 0.00730089 2.65636 4.21186 1.84143 0.19432 0.966129 -0.286665 Si
51 1 8.34178 5.51254 2.77909 0.357828 1.25076 -2.81353 -0.337614 0.495497 -0.834521 Si
55 2 9.71533 6.9231 1.33351 -0.948644 -0.811093 -1.88437 -0.109641 -0.00300833 0.838686 Ge
3 1 2.78134 -0.0221787 2.78323 -4.24737 2.84801 -3.17539 -0.88444 0.541133 -0.0416859 Si
20 1 2.71069 8.32174 -0.0505904 -1.7348 3.6448 -0.708116 0.625129 -0.6581 0.613806 Si
22 2 1.34954 9.71569 1.37632 -0.181968 -1.95455 1.42851 0.497397 0.432153 -0.621146 Ge
33 1 5.55131 -0.0476983 0.0741064 -3.14242 2.14484 2.43502 -0.596991 0.616449 -0.130217 Si
50 1 5.55134 8.32138 2.76009 -4.1604 3.8756 -1.34338 0.43004 -0.899194 1.5477 Si
54 2 6.94227 9.65823 1.4611 0.43899 -1.46807 0.227457 -0.0960447 0.48461 -1.73218 Ge
35 1 8.34295 -0.057754 2.72247 0.716399 -0.709204 -0.802677 0.138549 0.508313 0.958949 Si
18 1 0.0094792 8.33681 2.75336 5.33851 2.50686 -1.906 -0.183208 -1.25169 -0.134855 Si
52 1 8.32847 8.36773 0.0198228 3.73798 1.16284 1.26226 0.134571 -0.464151 -0.987818 Si
5 2 1.30013 1.38374 4.11131 -1.1643 -1.40477 1.13924 0.677181 -0.16722 0.237286 Ge
12 1 2.77419 2.74799 5.47255 -2.19452 0.151411 0.71062 -0.942503 0.0308952 0.402697 Si
15 2 4.15866 1.34096 6.8111 4.68839 -1.27854 -3.66248 0.632449 0.938704 0.86467 Ge
37 2 7.00762 1.30418 4.14084 1.49841 0.991766 -2.13319 0.118587 0.85238 1.13386 Ge
9 1 -0.0598684 -0.0292948 5.54269 -2.51536 1.84972 6.28929 -0.093294 0.814823 0.314482 Si
44 1 8.30353 2.77904 5.60977 -2.01292 -3.37231 0.701831 0.494784 -0.316841 -1.29595 Si
47 2 9.65821 1.41005 7.02415 -0.993006 2.76465 2.45222 0.918533 -0.551295 -1.56544 Ge
14 2 1.40107 4.15889 6.88787 -1.97274 -1.83712 1.21495 -0.263743 -0.272335 0.0411807 Ge
21 2 1.39139 6.95275 4.17042 -0.90294 4.56454 0.73097 0.723228 0.00457051 -1.60221 Ge
25 1 0.0280963 5.57936 5.49742 0.186484 -0.180625 1.95142 -0.693574 -0.973416 0.786795 Si
8 2 4.16142 4.17353 4.19225 0.172106 1.14775 1.36711 0.286046 -0.473226 -0.857262 Ge
31 2 4.1248 6.93256 6.98429 -0.127156 -1.35262 -2.00977 -0.0122096 0.203143 -1.36948 Ge
46 2 6.95355 4.1806 6.97545 -1.13909 0.337185 0.223999 -1.5016 -0.363613 -0.534678 Ge
53 2 6.97049 6.90755 4.1711 -0.393302 1.09002 -3.43988 -0.692971 0.586186 0.326895 Ge
57 1 5.51166 5.54674 5.5734 0.341524 2.20913 2.54318 1.02159 0.381268 0.437517 Si
40 2 9.70888 4.14154 4.13351 -1.32254 1.9967 0.413864 -0.408806 0.530018 1.52122 Ge
63 2 9.72902 6.92431 6.94562 1.30235 -0.646057 -1.01304 -0.085957 0.239586 -0.209158 Ge
28 1 2.80292 8.33376 5.49418 1.53452 4.06199 4.11493 -0.475654 -0.162121 1.58929 Si
30 2 1.38348 9.70938 6.92819 -2.24094 -2.45825 2.66957 0.365698 -0.0165522 -0.518444 Ge
41 1 5.6339 -0.0389438 5.53759 -3.03748 2.70729 1.46294 -1.2146 0.0697331 -0.729285 Si
24 2 4.18639 9.7037 4.14538 -1.77851 0.047652 -0.877664 0.459919 0.0769683 0.113407 Ge
62 2 6.91903 9.6992 6.95951 2.2308 -2.5813 0.177075 0.899236 -0.00704898 0.447411 Ge
56 2 9.68304 9.64829 4.12 1.37413 0.0223877 1.90183 0.324688 0.826312 0.647468 Ge
60 1 8.34348 8.3443 5.58962 1.62609 0.543435 0.647546 -0.555559 -1.08879 -0.47838 Si
1 1 -0.0343254 0.0350905 -0.0410326 2.00654 2.44083 2.69607 1.39021 0.483116 0.180207 Si
10 1 0.000261023 2.78943 8.32898 5.53745 -3.88632 0.208459 -0.0356939 0.908626 0.0612476 Si
11 1 2.79032 0.0645596 8.25764 -2.68491 0.344303 -4.86007 -0.594667 -0.655746 0.0748946 Si
13 2 1.44764 1.45072 9.67048 1.95795 -1.22505 2.69462 -0.411514 -0.49506 1.16942 Ge
42 1 5.48552 2.75668 8.28669 -6.50388 2.87186 -2.0131 1.33865 -0.752399 0.0762768 Si
45 2 6.91512 1.34538 9.75199 -1.28763 1.04431 -1.59016 -1.07493 0.666826 -0.703636 Ge
36 1 8.26967 2.75615 0.00421459 0.0517271 2.57854 2.10096 0.0209118 0.297709 0.247762 Si
43 1 8.31339 0.0206094 8.36452 0.961118 -0.850862 -3.01392 -0.553558 -0.802838 -0.336977 Si
17 1 -0.0341515 5.53011 -0.0841204 -3.73989 -3.33441 1.67127 0.564025 -0.586407 2.00943 Si
27 1 2.74524 5.5356 8.32054 0.546751 -3.64905 -3.20768 0.175787 -0.498381 -0.301861 Si
29 2 1.31955 6.86057 9.65634 3.01916 -2.12892 3.76825 1.14162 1.55715 0.36541 Ge
16 2 4.17738 4.16684 9.67408 -0.0705135 -0.22181 -0.864212 -0.459006 -0.0326354 0.739713 Ge
61 2 6.90837 7.01542 9.673 -2.2874 4.01135 -1.71113 0.389129 -1.30261 1.09903 Ge
48 2 9.64211 4.17021 9.72934 -0.547233 -3.14886 -0.0884452 0.22681 -0.855195 -1.07071 Ge
59 1 8.30553 5.56189 8.3229 -2.56925 -4.57986 -2.17617 0.107089 0.714095 0.452706 Si
32 2 4.11121 9.75832 9.67221 -0.894508 -1.05841 -0.0632125 0.465932 -0.589649 0.642416 Ge
58 1 5.49728 8.3363 8.31024 -0.111251 5.87055 -2.82829 -0.05897 0.602863 0.227799 Si
26 1 0.0113593 8.32822 8.33118 2.13353 -6.80136 0.460938 0.225628 -0.55647 -1.04885 Si
64 2 9.7531 9.71823 9.65252 2.11272 -0.193361 0.392453 -1.3867 -0.0270972 1.27001 Ge
ITEM: TIMESTEP
14000
ITEM: NUMBER OF ATOMS
64
ITEM: BOX BOUNDS pp pp pp
0.0000000000000000e+00 1.1085848640000000e+01
0.0000000000000000e+00 1.1085848640000000e+01
0.0000000000000000e+00 1.1085848640000000e+01
ITEM: ATOMS id type xu yu zu vx vy vz fx fy fz element
4 1 2.69331 2.79773 -0.02977 -1.15149 3.00443 1.53726 0.543391 -0.3741 0.996325 Si
7 2 4.11807 1.42498 1.35731 -1.25012 2.74643 -1.21648 0.497773 -0.838564 -0.734742 Ge
34 1 5.5698 2.78389 2.67799 0.956236 -7.90135 2.17742 -1.10931 0.941901 0.187733 Si
2 1 0.0186477 2.72437 2.86418 -2.3515 3.55397 1.05747 -0.483151 0.512142 -0.148742 Si
39 2 9.73152 1.39611 1.44099 -1.64394 -0.394914 0.499651 -0.310138 -0.12882 -0.407198 Ge
6 2 1.32135 4.0937 1.46253 -1.66401 -1.48316 -4.30166 1.29089 0.84871 -0.616418 Ge
19 1 2.72598 5.54875 2.77091 2.0034 0.0456952 -2.59269 0.339687 -0.342624 -0.362397 Si
23 2 4.17497 6.98022 1.43394 1.20537 0.462059 3.67522 0.0829681 -1.55357 -1.04722 Ge
38 2 6.92687 4.1999 1.29294 0.715444 -2.24001 -0.177293 0.274775 -0.739142 0.53406 Ge
49 1 5.50841 5.52502 -0.0673174 -2.16991 -5.18405 1.11292 -0.0563773 0.826953 0.834708 Si
51 1 8.2558 5.59028 2.73788 1.22581 0.400959 5.69912 1.10784 -0.441715 0.43883 Si
55 2 9.75458 6.95572 1.43189 -0.557141 1.12294 0.0452409 -2.24228 -0.857315 -1.27781 Ge
3 1 2.81509 0.0133536 2.83112 4.93096 -1.07545 2.60555 -0.650366 0.581427 -0.924472 Si
20 1 2.82374 8.28824 -0.0148735 -0.227015 2.84411 -2.39017 -0.983724 0.608925 -0.0863101 Si
22 2 1.41109 9.69044 1.45165 0.0347418 -0.781206 0.151928 -0.0992074 -0.578222 -0.434495 Ge
33 1 5.55321 0.0299551 -0.0905613 4.39772 0.137332 -4.79269 -0.218037 0.329497 0.886828 Si
50 1 5.58874 8.36159 2.75837 -0.452041 1.6866 -0.843635 -0.99057 1.47499 -0.688826 Si
54 2 6.94342 9.80186 1.34534 0.37285 0.127034 2.11528 -0.11685 -1.54626 -0.167211 Ge
35 1 8.27874 0.0828702 2.78338 -1.04068 2.53545 -0.00970319 -0.000772644 -0.278333 -0.26807 Si
18 1 -0.0709232 8.28877 2.81409 -1.38683 3.68709 2.25454 2.0423 1.02656 0.31567 Si
52 1 8.26065 8.22587 -0.0283684 -1.65967 0.883069 2.38145 0.915473 1.22861 1.15335 Si
5 2 1.46136 1.42919 4.23211 2.337 -1.38604 -0.15192 -0.311649 -0.999566 -0.416539 Ge
12 1 2.80662 2.80166 5.59987 1.69257 1.42628 -0.218906 -0.174218 0.339194 -0.0393941 Si
15 2 4.07195 1.37623 7.01863 -0.873195 0.54079 1.70344 2.14454 -0.550001 -0.774995 Ge
37 2 6.85848 1.46056 4.1315 -3.32642 -1.41663 -1.8522 1.1452 -0.4736 0.232743 Ge
9 1 0.0787568 -0.0272835 5.52082 4.00981 -3.62863 -5.22366 -0.985453 -0.0809675 0.645785 Si
44 1 8.33288 2.80057 5.49045 -3.76561 0.132972 1.59713 -0.558183 -0.795857 0.662435 Si
47 2 9.70279 1.33789 6.89703 0.874832 0.603949 0.0513151 0.369288 0.816173 0.231063 Ge
14 2 1.42853 4.17068 6.99678 0.496192 1.60608 -0.312922 -0.69779 -0.423799 -0.375355 Ge
21 2 1.32712 6.84667 4.18122 -1.09288 -1.84958 3.79156 -0.113696 1.2435 0.290993 Ge
25 1 -0.0147151 5.50156 5.63266 2.61563 2.01333 -1.76659 0.110698 0.0718921 -0.668 Si
8 2 4.12984 4.13988 4.08589 1.44607 -1.29616 0.647709 0.601807 0.243004 0.439399 Ge
31 2 4.14937 6.96468 6.93208 1.02437 -1.14327 2.09823 0.165653 -0.869668 -1.18263 Ge
46 2 6.91804 4.18855 6.83954 2.361 -1.37534 -0.798625 0.5783 0.390836 0.724804 Ge
53 2 6.87721 7.00344 4.10589 3.03606 -2.39892 1.69357 0.993919 -1.24675 0.118663 Ge
57 1 5.5021 5.60612 5.42589 -2.68661 -1.33425 -3.51587 -0.264757 -0.758834 1.33957 Si
40 2 9.70403 4.1773 4.16113 -0.171744 -1.90988 -0.576889 -0.28723 0.484845 -0.449387 Ge
63 2 9.6885 6.90296 6.97491 -0.41006 2.96505 -1.10958 -0.00979452 1.13041 -1.18449 Ge
28 1 2.72573 8.29253 5.52326 2.57761 0.368628 -5.83723 0.455091 0.371607 0.391806 Si
30 2 1.41138 9.67799 7.00794 0.56451 -0.801516 -3.53132 -0.0599085 0.338312 -1.05937 Ge
41 1 5.51701 0.0327773 5.50407 3.83246 0.963923 0.254105 -1.03857 0.930933 1.03475 Si
24 2 4.16499 9.71127 4.161 0.0171774 1.35067 1.64816 0.0273814 -0.855874 0.168114 Ge
62 2 6.89477 9.75974 6.86214 -3.65489 0.108482 -0.600912 0.629947 -1.71649 0.345226 Ge
56 2 9.64876 9.73997 4.10953 -1.60542 -1.37396 -2.13181 0.379037 -0.368276 1.41237 Ge
60 1 8.27258 8.28816 5.50742 -0.251243 4.79895 -0.087403 0.800536 1.02206 0.679248 Si
1 1 -0.0167346 -0.0350439 0.0505368 -7.13897 -2.07862 -1.29751 -0.112945 -0.172705 -0.203358 Si
10 1 -0.0176002 2.7886 8.35163 -0.504053 -0.911365 -1.95103 0.508583 -1.14312 -0.874151 Si
11 1 2.788 -0.0585875 8.45063 0.706175 -0.246001 3.67554 -0.58359 0.485044 -1.58634 Si
13 2 1.35078 1.36715 9.73318 -4.27798 0.850909 -2.54825 -0.302725 -0.302138 0.105554 Ge
42 1 5.64594 2.72393 8.29193 -2.11974 1.2303 4.72674 -1.836 1.08127 -0.130948 Si
45 2 7.02095 1.37073 9.65708 5.07976 0.43602 1.36745 -0.547527 -0.159373 0.386931 Ge
36 1 8.35171 2.74234 -0.00379732 0.568066 -2.22896 -3.32945 0.227466 0.576429 0.278944 Si
43 1 8.3131 -0.0616908 8.29204 0.745294 5.58967 4.26121 0.444363 0.642244 -0.460809 Si
17 1 0.0412648 5.54517 0.0956708 -0.506393 3.84721 -5.77433 -0.451584 -0.121576 -1.15116 Si
27 1 2.7986 5.56973 8.31824 -1.53493 4.30897 3.04356 0.0818216 -0.366628 0.143136 Si
29 2 1.36026 6.90226 9.66039 -2.99664 1.15043 -0.40902 0.510167 0.664597 1.4363 Ge
16 2 4.1393 4.11915 9.6835 -0.459676 -0.106249 -0.42457 0.602621 -0.138924 -0.743858 Ge
61 2 6.98641 6.81886 9.64063 0.15729 0.200842 0.273411 -1.27751 0.911003 0.684417 Ge
48 2 9.75609 4.15249 9.75441 2.91037 1.00658 1.48793 -0.474699 0.43924 0.242584 Ge
59 1 8.38429 5.51947 8.33175 1.79216 1.06028 -0.616493 -0.70737 -1.66851 -0.857528 Si
32 2 4.25829 9.62599 9.63968 1.69161 -2.2697 1.12484 -0.333268 -0.203857 1.30462 Ge
58 1 5.63544 8.23141 8.26218 -0.685086 -4.83007 1.20613 -0.210692 1.14755 -0.156344 Si
26 1 -0.0334411 8.33657 8.31778 -2.66451 6.72542 0.949189 0.0794266 -0.88636 0.401612 Si
64 2 9.64289 9.65334 9.71404 -0.246805 -1.49151 -1.57099 0.649006 0.27168 0.429991 Ge
ITEM: TIMESTEP
14100
ITEM: NUMBER OF ATOMS
64
ITEM: BOX BOUNDS pp pp pp
0.0000000000000000e+00 1.1085848640000000e+01
0.0000000000000000e+00 1.1085848640000000e+01
0.0000000000000000e+00 1.1085848640000000e+01
ITEM: ATOMS id type xu yu zu vx vy vz fx fy fz element
4 1 2.80194 2.74943 -0.0154538 1.55191 -1.67041 -1.57125 -0.318241 0.569062 0.457671 Si
7 2 4.15816 1.35683 1.39784 -0.0619608 1.0947 5.19089 -0.131309 0.801218 0.301469 Ge
34 1 5.52176 2.76282 2.82226 4.89197 -0.0589232 -1.04352 0.874172 -1.56865 0.288638 Si
2 1 0.0133793 2.78409 2.64569 1.24093 -1.95346 -0.566945 -0.423157 0.565066 0.932463 Si
39 2 9.70086 1.39188 1.33388 -0.79138 0.278366 -3.46612 -0.032045 -0.916463 -0.0997589 Ge
6 2 1.40835 4.19622 1.35925 -1.11797 -2.07805 0.973992 0.0580737 -0.781043 -0.907517 Ge
19 1 2.78634 5.48371 2.8024 -1.00205 0.540783 1.2855 0.41519 0.859883 -0.675703 Si
23 2 4.17075 6.87945 1.39872 -0.914143 3.07844 -0.851668 -0.735307 0.276166 0.853397 Ge
38 2 6.92914 4.12454 1.47045 -1.26247 0.479821 -0.257173 -0.291591 0.542835 -1.20576 Ge
49 1 5.57289 5.57805 0.0581302 2.07721 -0.526284 -1.92971 -0.172524 -1.35918 -0.045985 Si
51 1 8.35438 5.48454 2.7612 -6.08013 0.525804 -5.94119 -0.731269 1.09153 1.42698 Si
55 2 9.69449 6.90341 1.38208 4.70285 -0.940776 -1.19243 0.219292 0.264199 -0.50812 Ge
3 1 2.74122 -0.0280582 2.69191 0.428731 -2.46101 0.549243 0.721088 0.0164208 1.69409 Si
20 1 2.7434 8.27894 0.0650048 -0.11074 -2.89623 -1.54463 0.501676 1.2839 -1.19032 Si
22 2 1.33476 9.71546 1.38148 0.605645 0.544147 -0.0802857 0.646758 -0.775841 -0.788993 Ge
33 1 5.5099 -0.053161 0.101024 -4.34314 -0.770488 6.22631 0.299964 0.310387 -1.60295 Si
50 1 5.53951 8.22373 2.80758 6.13453 -2.59553 0.964487 -0.100537 -0.127892 -0.137868 Si
54 2 6.88798 9.59709 1.44042 1.85189 2.04673 -0.400239 0.687703 0.951586 -0.270735 Ge
35 1 8.33081 -0.0882658 2.75484 0.45109 -1.61022 -2.51065 0.0631663 1.07617 0.0841437 Si
18 1 0.0184951 8.28549 2.72528 -4.5906 -2.79818 -2.9165 -1.0864 1.07067 0.173436 Si
52 1 8.34625 8.36466 0.0163967 -2.78898 -3.5187 -3.08037 -0.454732 -0.796285 -0.258851 Si
5 2 1.37075 1.44688 4.0201 -0.419819 1.91112 0.606902 -0.0294378 -1.56098 1.57533 Ge
12 1 2.74081 2.74514 5.51195 1.79525 -2.54094 -0.783237 -0.0448239 0.0203121 -0.302524 Si
15 2 4.1578 1.39889 6.88951 -2.35462 0.0246449 -4.67612 0.324973 0.447377 -0.379227 Ge
37 2 6.98482 1.31177 4.2137 1.59406 0.112251 0.95024 -1.11008 0.382674 -0.777288 Ge
9 1 -0.0329606 0.0582495 5.53188 -0.581091 3.31838 0.994425 1.7268 -0.575001 -0.94528 Si
44 1 8.3663 2.76545 5.53974 5.30352 4.42671 0.0626776 -0.869235 0.532906 0.521574 Si
47 2 9.67683 1.36383 6.91523 -0.679149 -1.44774 0.854429 0.239019 0.767701 0.472009 Ge
14 2 1.36023 4.15525 6.85935 1.29275 -0.286647 0.633809 0.269137 0.336596 0.234806 Ge
21 2 1.42551 6.99311 4.04569 -0.29335 -1.3657 -0.504861 0.0463487 -1.68015 2.46558 Ge
25 1 -0.00152429 5.56496 5.4738 -1.33156 1.02538 2.756 1.08849 0.706164 0.0077029 Si
8 2 4.1542 4.11171 4.19712 -0.0547349 -1.80687 -0.125265 0.448754 0.778699 0.824112 Ge
31 2 4.18988 6.93183 6.98142 -1.76808 4.26948 1.55981 -0.193823 -0.445962 0.220978 Ge
46 2 6.95664 4.14592 7.04206 -3.14329 -0.19762 -1.50958 0.576418 -1.15531 -1.60384 Ge
53 2 6.89161 6.87623 4.21634 -2.12737 1.38989 1.82649 1.45511 -0.86765 0.172545 Ge
57 1 5.57671 5.45475 5.69386 -2.41693 4.37163 -0.757446 -0.979382 1.002 -2.05483 Si
40 2 9.77076 4.13906 4.13862 1.11473 1.73674 -0.0606291 -0.752167 -0.503973 -0.643265 Ge
63 2 9.73224 6.92137 6.9235 3.2649 -3.18581 0.950916 -0.325988 -0.162705 -0.0696996 Ge
28 1 2.79429 8.27574 5.59487 -2.17604 -1.23753 -0.403526 0.00375273 0.778568 -1.58279 Si
30 2 1.41923 9.73854 6.91755 -0.355052 -1.00159 1.99666 -1.31334 -0.676771 -1.14068 Ge
41 1 5.51442 -0.0689852 5.58981 3.32873 -3.89383 -1.06401 1.37138 0.0862374 -0.343471 Si
24 2 4.18636 9.64218 4.11619 -0.568017 -0.805118 0.427223 -1.41316 0.600135 0.872857 Ge
62 2 6.95246 9.66746 7.05397 -0.147175 1.20967 -0.34614 -0.749739 0.04151 -2.42716 Ge
56 2 9.74333 9.68513 4.16605 -1.2416 -0.790314 -0.847257 -0.448826 -0.703993 -0.0922471 Ge
60 1 8.33243 8.29306 5.58192 -2.00801 -3.96993 0.650152 -0.452518 0.405964 -0.30381 Si
1 1 0.0775097 0.0288741 -0.0568804 4.22427 4.7494 0.716149 -1.25854 0.422025 -0.10311 Si
10 1 -0.0248409 2.8108 8.25822 -2.14333 5.58042 4.33696 0.0347549 -0.603738 0.554116 Si
11 1 2.78033 0.0431425 8.18023 0.471982 2.92803 2.08784 0.0160548 0.0754646 2.08838 Si
13 2 1.45904 1.40277 9.62244 2.58623 7.1904 0.687748 -1.11546 0.6069 -0.207607 Ge
42 1 5.50859 2.79123 8.31947 4.58873 -3.53197 -4.86216 -0.56098 -0.0731317 1.11689 Si
45 2 6.84684 1.39594 9.74174 -2.37195 -1.25365 1.5903 1.15296 -0.416102 0.177296 Ge
36 1 8.31275 2.82522 0.0176444 -2.51289 0.868986 1.6908 -0.70409 -0.710978 -0.938709 Si
43 1 8.29561 0.00557424 8.30331 -3.29651 -6.01825 -1.97005 -0.287152 1.28359 1.34961 Si
17 1 0.00338756 5.56111 -0.0391863 1.03385 0.444321 3.69227 -0.15152 0.168791 -0.611532 Si
27 1 2.76284 5.50951 8.28977 0.195245 0.286276 -2.3848 -0.27085 0.892822 0.224024 Si
29 2 1.41014 6.98144 9.65784 -0.559078 -3.83326 -3.29918 -0.0688312 -1.56812 0.733077 Ge
16 2 4.13048 4.2215 9.7586 -0.393454 -1.2076 0.375873 1.03857 -0.871867 -0.796952 Ge
61 2 6.86825 6.98638 9.76463 0.200067 1.86765 -0.425039 1.08509 0.391389 -0.689929 Ge
48 2 9.62637 4.22134 9.61562 0.1677 -2.44025 3.28448 1.21272 -0.560458 1.34773 Ge
59 1 8.25369 5.61326 8.30581 1.46722 3.89571 4.14511 0.368147 0.773765 0.723893 Si
32 2 4.06464 9.78937 9.68917 0.299319 -0.881413 -2.39226 0.296675 -1.09836 1.21128 Ge
58 1 5.48521 8.39335 8.38086 3.01337 -0.252231 -1.68894 0.125694 -1.09207 0.429177 Si
26 1 0.0367307 8.30162 8.29027 2.18368 1.0196 -0.886662 -0.776641 1.70199 0.0621429 Si
64 2 9.69815 9.77059 9.67329 -0.535742 -0.493384 0.747021 0.985767 -1.22999 0.109104 Ge
ITEM: TIMESTEP
14200
ITEM: NUMBER OF ATOMS
64
ITEM: BOX BOUNDS pp pp pp
0.0000000000000000e+00 1.1085848640000000e+01
0.0000000000000000e+00 1.1085848640000000e+01
0.0000000000000000e+00 1.1085848640000000e+01
ITEM: ATOMS id type xu yu zu vx vy vz fx fy fz element
4 1 2.76765 2.77725 0.0270954 -1.58045 1.79284 -0.810669 0.314604 -0.473546 -0.721681 Si
7 2 4.18021 1.38813 1.36833 -1.05808 0.443379 -5.0588 -0.165615 -0.195288 -0.0627466 Ge
34 1 5.4937 2.84401 2.74981 -5.26111 3.61364 -1.29235 0.593285 0.0933153 -0.432707 Si
2 1 -0.00997055 2.76472 2.88413 1.52725 -0.571646 -2.72225 0.712233 0.241854 -0.709833 Si
39 2 9.73416 1.40045 1.50083 0.173902 1.85465 2.71087 -0.615104 -0.24297 -1.91323 Ge
6 2 1.41427 4.14489 1.4644 -0.705069 0.545053 -0.645838 -0.857209 -0.223552 -0.329273 Ge
19 1 2.7709 5.61734 2.76196 -1.37775 -2.02772 1.50111 -0.244561 -0.0852268 0.364116 Si
23 2 4.1928 6.93623 1.35611 2.37628 -0.7954 -1.25294 -1.0807 0.53828 -0.663385 Ge
38 2 6.91107 4.20687 1.32905 2.54951 -2.12787 -0.0447006 0.849197 -0.467989 0.947505 Ge
49 1 5.5355 5.55516 -0.0644932 -1.31898 4.21518 -1.83607 0.445664 0.139514 0.0726274 Si
51 1 8.35015 5.57098 2.82616 5.64733 -2.56758 -1.74145 -0.964099 -0.597284 -2.14855 Si
55 2 9.67354 6.98387 1.42535 -1.90315 0.33177 0.685507 1.60666 -1.30023 -0.468866 Ge
3 1 2.73513 0.0598608 2.82383 -0.163665 2.57294 -4.29905 0.395408 -0.829096 -1.39574 Si
20 1 2.80353 8.36751 -0.0341098 1.17564 -3.15674 6.1298 -0.246348 -1.00812 1.18244 Si
22 2 1.38563 9.68893 1.39799 -0.899647 0.0158022 3.91033 0.751142 0.806672 0.0205379 Ge
33 1 5.59158 0.0170783 -0.121001 3.72297 -0.967099 -4.2193 -0.38796 -0.20806 2.07942 Si
50 1 5.47015 8.37939 2.72 -4.35513 1.19993 -0.893659 1.28285 -0.462815 -0.169701 Si
54 2 6.92359 9.70494 1.37923 -1.44306 -2.07435 -2.21168 0.580146 1.03353 -0.642009 Ge
35 1 8.33983 0.0317536 2.82824 -2.26038 -0.376627 2.68093 -0.654549 -0.892988 -0.74385 Si
18 1 0.0571002 8.33357 2.79556 0.825901 -3.00678 1.8166 -1.08259 -0.584754 -0.818053 Si
52 1 8.33901 8.31209 -0.021179 2.79301 3.42821 0.8149 -0.963323 0.0782392 -0.276064 Si
5 2 1.33071 1.33449 4.24204 3.72004 3.20157 -0.792923 0.43219 0.89547 -0.201128 Ge
12 1 2.74291 2.77444 5.53193 -1.54945 3.75508 3.24464 1.20085 -0.355216 0.544476 Si
15 2 4.16843 1.36111 6.9836 -1.21686 0.936636 2.17878 -1.078 0.424925 -1.05414 Ge
37 2 6.91964 1.47207 4.1056 -3.67537 0.229959 0.245365 -0.782695 -1.0976 0.42709 Ge
9 1 -0.0292448 -0.0499902 5.5953 -1.7473 -1.04984 1.81883 -0.912629 1.23404 0.646029 Si
44 1 8.24691 2.74366 5.55382 -1.12996 -4.08268 -4.73786 1.17003 0.961726 -0.0034496 Si
47 2 9.65945 1.45864 6.99026 0.262606 -0.95865 -1.14156 0.923556 -1.88375 -1.5141 Ge
14 2 1.38441 4.12722 6.92323 -1.99434 -1.95149 0.12697 0.0502693 -0.154107 0.999604 Ge
21 2 1.33443 6.94446 4.18664 -1.13646 4.31169 -0.977661 1.34107 -0.224467 0.0826047 Ge
25 1 -0.00167055 5.49233 5.54548 -2.16978 -3.0198 0.193553 -1.20932 0.939284 0.730059 Si
8 2 4.13379 4.24306 4.14757 -1.32683 -2.2828 0.252168 -0.316905 -1.09578 -0.0900388 Ge
31 2 4.16568 6.8927 6.87747 3.3268 -0.0916115 -0.675452 -0.186713 0.770656 0.266398 Ge
46 2 6.94481 4.17605 6.88557 -0.0748922 1.32926 -0.103489 -1.76272 -0.599396 0.185225 Ge
53 2 6.94073 7.00984 4.02338 -2.11214 1.83733 -2.05259 -0.55722 -0.0851655 1.77147 Ge
57 1 5.58998 5.58844 5.44041 4.72151 -4.64366 3.58327 0.126433 0.165304 0.822874 Si
40 2 9.65007 4.12703 4.18695 1.0722 0.763172 2.36233 0.388912 0.247021 0.734626 Ge
63 2 9.62339 6.91967 6.9596 -0.555841 1.70356 -2.60135 1.30842 -0.979994 -1.28332 Ge
28 1 2.74864 8.3648 5.54629 1.8973 -2.06104 5.65722 0.0166878 -0.462205 0.266415 Si
30 2 1.33082 9.71212 6.99672 1.90968 -2.10753 1.47367 0.539813 -1.40941 -0.273456 Ge
41 1 5.54856 0.0520209 5.5058 -4.66805 0.136258 -1.72954 0.40762 -0.509229 0.342619 Si
24 2 4.1555 9.73801 4.12476 0.967785 1.58343 -1.03409 -0.711344 0.347968 0.961539 Ge
62 2 6.9653 9.70126 6.89479 -0.059913 -0.930116 2.22285 -0.328674 0.689433 0.0915024 Ge
56 2 9.76037 9.67639 4.13391 1.24774 2.5653 1.76074 -0.887852 0.701868 0.774587 Ge
60 1 8.33492 8.32032 5.48786 1.99022 -0.31673 -1.55579 -0.322231 -0.0911617 0.156287 Si
1 1 -0.0500301 -0.0461638 0.0352251 -0.80719 -7.21895 1.00512 0.54355 0.26868 0.781142 Si
10 1 0.063315 2.66681 8.35527 -0.606819 -0.0770266 -3.79187 -0.537313 1.77292 0.379521 Si
11 1 2.7588 -0.0505606 8.36039 2.10988 -5.22808 -5.86537 0.498609 0.354973 -0.79955 Si
13 2 1.40379 1.24946 9.76552 0.301676 -5.87925 1.9833 -0.100787 1.87096 0.334417 Ge
42 1 5.52898 2.76575 8.3318 2.44352 1.99035 2.52827 1.61488 -0.0151995 -1.57156 Si
45 2 6.98127 1.36074 9.61187 2.9839 2.56548 -0.273057 -0.839505 1.05778 1.28482 Ge
36 1 8.30649 2.71119 -0.00919521 5.5567 0.136195 1.41 0.206314 0.63249 0.777211 Si
43 1 8.35769 0.0309488 8.32949 2.35796 -1.14818 -0.812651 -0.201537 -1.58655 -1.26862 Si
17 1 -0.0233754 5.45682 0.0271289 1.9672 -1.01492 1.98151 -0.117084 1.44685 0.853047 Si
27 1 2.79484 5.51114 8.32954 1.18354 -3.50306 -0.410762 -0.517112 0.470275 -0.518062 Si
29 2 1.39468 6.90448 9.77817 0.174242 2.5421 2.04855 -0.16195 -0.509101 -1.10403 Ge
16 2 4.20423 4.132 9.6563 -4.03715 1.49438 3.18074 -1.49573 0.164163 1.50355 Ge
61 2 6.95374 6.89063 9.62581 -2.845 1.00922 0.484497 0.0113504 0.568292 0.927963 Ge
48 2 9.66572 4.12133 9.69032 1.59085 0.666792 -2.17391 1.32917 -1.27121 0.161399 Ge
59 1 8.3134 5.45937 8.29327 -0.416257 -2.26432 -4.33488 -0.138981 1.03766 0.0399663 Si
32 2 4.17896 9.70291 9.6766 2.22385 -0.682612 -2.55437 0.426371 -0.45034 -0.423454 Ge
58 1 5.55008 8.29817 8.2842 -2.48297 2.93056 -1.16257 0.135378 0.0390494 -0.591912 Si
26 1 -0.0449066 8.23686 8.34566 -0.88271 -5.60865 1.28351 1.01336 0.519202 -0.0173016 Si
64 2 9.72759 9.69187 9.67192 -2.59897 0.83246 0.507066 -0.787663 -0.160592 0.696731 Ge
ITEM: TIMESTEP
14300
ITEM: NUMBER OF ATOMS
64
ITEM: BOX BOUNDS pp pp pp
0.0000000000000000e+00 1.1085848640000000e+01
0.0000000000000000e+00 1.1085848640000000e+01
0.0000000000000000e+00 1.1085848640000000e+01
ITEM: ATOMS id type xu yu zu vx vy vz fx fy fz element
4 1 2.74313 2.73772 -0.0302256 1.08853 -3.26859 0.803778 0.351235 1.01279 -0.0456363 Si
7 2 4.13752 1.38657 1.39025 0.0606065 0.0693804 3.69597 -0.47987 -0.067388 0.331014 Ge
34 1 5.58607 2.70831 2.75343 0.268505 0.675841 0.660888 -0.848292 1.04842 0.385772 Si
2 1 0.00587841 2.78485 2.76231 -2.3284 -1.93586 2.16262 -0.266351 -0.839826 -0.797417 Si
39 2 9.728 1.36966 1.32173 -0.0959912 1.40389 -1.32637 -1.03786 1.29603 1.05455 Ge
6 2 1.36316 4.14444 1.36815 1.64529 0.502186 -2.36581 0.0380095 0.658724 -0.949585 Ge
19 1 2.77995 5.49587 2.73661 1.33478 -0.0681986 0.595865 -0.346332 -0.240484 0.695268 Si
23 2 4.1427 6.9221 1.45537 1.32035 0.0161311 -0.346765 0.357673 0.241383 -1.48661 Ge
38 2 6.89792 4.16348 1.40573 -3.3011 1.13208 -0.768753 0.807821 -1.00018 0.0308217 Ge
49 1 5.5344 5.49966 0.0776469 3.29196 -2.52847 1.91181 -0.410813 1.09493 -1.13213 Si
51 1 8.25688 5.5393 2.78213 0.752325 1.3648 7.47243 1.51394 -0.0166986 0.220911 Si
55 2 9.73167 6.9557 1.43565 -1.29174 2.99667 1.13855 -1.59345 -0.327712 -0.488603 Ge
3 1 2.79309 -0.0674451 2.75593 -3.05033 0.410477 4.92914 -0.240026 0.805481 0.238721 Si
20 1 2.74986 8.32526 0.011986 -0.937504 3.36295 -6.74647 0.466253 -0.885037 0.258022 Si
22 2 1.37819 9.67557 1.37708 -2.17091 -0.296556 -2.80272 -0.168828 0.961395 -0.104146 Ge
33 1 5.50278 0.0319005 0.0671803 -2.11383 -0.222692 0.256562 0.783391 -0.737281 -1.44666 Si
50 1 5.60446 8.26262 2.79506 0.266272 -1.66561 2.54366 -1.03441 0.185739 0.601595 Si
54 2 6.89203 9.71481 1.44743 -0.686649 -3.08484 2.87373 0.280621 -0.620509 -1.60461 Ge
35 1 8.30049 0.0104179 2.71241 5.18183 -0.660718 0.0836062 0.571605 0.383223 1.03252 Si
18 1 -0.00732792 8.35586 2.7717 5.34938 1.2878 0.964609 0.6254 -1.22775 0.666887 Si
52 1 8.26975 8.27577 0.0265245 1.96628 -1.83977 -0.714352 0.978713 0.969741 0.0709179 Si
5 2 1.40148 1.4026 4.11043 -3.26273 -3.11355 -0.12277 0.810753 -0.351999 0.246211 Ge
12 1 2.82022 2.74561 5.55381 -3.64778 -3.51247 -5.61672 -0.977419 0.965632 -0.312574 Si
15 2 4.13634 1.39719 6.99764 1.81398 -0.16934 -2.14053 0.250411 -0.191643 -0.613789 Ge
37 2 6.9626 1.40056 4.16631 5.20244 2.5958 0.991458 0.126488 -0.471315 0.615242 Ge
9 1 0.0391565 0.0158883 5.47707 0.819698 -0.682212 -2.91562 -0.571909 -0.856388 -0.235591 Si
44 1 8.35617 2.78739 5.59078 0.577185 -1.0887 2.77362 -0.239398 -0.77416 -1.38745 Si
47 2 9.72437 1.33303 6.86682 -2.6816 5.15243 2.94723 0.0704506 0.82937 1.04328 Ge
14 2 1.42019 4.21454 6.94485 1.26743 0.844196 -6.18276 -0.458665 -0.965818 -0.787864 Ge
21 2 1.3937 6.85428 4.13015 -3.13654 -0.511524 -0.690179 -0.373742 1.51277 -0.382795 Ge
25 1 -0.00542023 5.58181 5.56098 3.71248 -2.66164 -5.31537 -0.190569 -1.26813 -0.561842 Si
8 2 4.18782 4.13789 4.12028 1.49648 1.01011 2.92431 -0.188782 -0.738435 0.276717 Ge
31 2 4.12945 6.89865 6.95462 0.53935 0.190486 0.503842 0.279328 0.917615 -0.482861 Ge
46 2 6.97597 4.12189 6.96336 3.17468 -0.604502 -0.895394 -1.03122 1.30747 -0.704226 Ge
53 2 6.92245 6.88657 4.22408 1.40211 -0.38999 0.743401 -0.0310365 0.408591 0.0576443 Ge
57 1 5.49059 5.51436 5.56913 -0.830073 0.139404 -2.38088 1.25776 -0.543149 0.389458 Si
40 2 9.7038 4.12113 4.12667 -0.735931 -2.20736 0.25231 -0.205782 1.46353 1.0156 Ge
63 2 9.71652 6.95558 6.95508 -0.602157 1.57815 1.8674 -0.131611 1.04932 -0.272036 Ge
28 1 2.77935 8.28246 5.47582 -1.35904 0.131677 -2.25166 -0.0591852 -0.350079 1.2892 Si
30 2 1.44739 9.74737 6.88031 -2.07481 5.55374 -2.36804 0.0749864 0.262042 -0.44693 Ge
41 1 5.53878 0.0434967 5.60695 0.877662 -0.675151 2.7714 -0.568652 -0.596869 -1.41982 Si
24 2 4.18328 9.63776 4.14976 1.3652 -1.85112 -0.600874 0.78854 1.1893 0.337458 Ge
62 2 6.88677 9.7373 6.95966 0.42904 -2.14633 3.80133 0.115663 -1.0016 0.394163 Ge
56 2 9.64747 9.68808 4.11692 3.30181 -6.00346 -3.21571 0.494372 0.806105 0.85447 Ge
60 1 8.26915 8.35048 5.59177 -0.606296 -0.137476 1.37984 0.567181 -0.597895 -0.478793 Si
1 1 0.0096422 0.03055 -0.00189159 1.81199 5.0937 -5.18377 0.340188 -1.02568 -1.11725 Si
10 1 -0.0258136 2.80346 8.26818 2.78918 -5.94755 0.452909 -0.17517 0.16529 -0.502247 Si
11 1 2.7426 0.0429139 8.37463 -3.53759 3.60958 2.87615 0.394708 -0.738906 -0.888603 Si
13 2 1.32402 1.44412 9.63469 1.22208 3.23929 -1.2679 0.297429 -0.681443 1.31144 Ge
42 1 5.53358 2.79487 8.29029 -6.34621 -3.49941 0.956524 0.432839 -0.344766 0.920151 Si
45 2 6.91313 1.39942 9.68154 -0.98045 -3.8664 -0.75393 -0.244696 -0.311984 0.37672 Ge
36 1 8.2878 2.80432 -0.0227305 -4.26708 0.134139 -2.41309 0.519118 -0.259662 0.144267 Si
43 1 8.31172 -0.00446825 8.288 -0.295856 3.30877 0.607831 0.275243 0.249582 0.65167 Si
17 1 -0.0206391 5.63264 -0.024741 -1.46006 -5.23188 -4.50546 0.71215 -1.16706 -0.0129047 Si
27 1 2.74128 5.59422 8.34187 0.996702 0.0516439 2.09327 0.987669 -0.993897 0.10616 Si
29 2 1.38709 6.99916 9.63884 0.017879 1.57366 1.66396 -0.681126 0.346993 1.05313 Ge
16 2 4.18654 4.16932 9.69456 3.62339 -0.64207 -0.829694 -1.21988 -0.0237639 0.445195 Ge
61 2 6.964 6.83975 9.72365 -0.778648 1.28137 0.894421 -1.16514 0.721357 0.748069 Ge
48 2 9.69233 4.1888 9.67626 -4.46874 0.0662922 1.42222 0.159155 0.0428102 0.41954 Ge
59 1 8.32638 5.56205 8.31094 -0.959985 -0.671593 3.60238 0.372741 -0.592514 -0.215534 Si
32 2 4.12232 9.70061 9.74432 -2.53131 1.38136 2.00794 1.01247 0.0687454 -0.331891 Ge
58 1 5.57043 8.24623 8.36042 1.6685 -1.20076 3.67054 -0.868282 1.04629 -0.0319783 Si
26 1 0.0490302 8.44331 8.25641 -0.574926 -0.978559 -1.56036 -0.579257 -1.80266 0.264236 Si
64 2 9.71076 9.68769 9.68809 0.747711 1.61072 -2.58335 -0.726537 0.602023 0.695363 Ge
ITEM: TIMESTEP
14400
ITEM: NUMBER OF ATOMS
64
ITEM: BOX BOUNDS pp pp pp
0.0000000000000000e+00 1.1085848640000000e+01
0.0000000000000000e+00 1.1085848640000000e+01
0.0000000000000000e+00 1.1085848640000000e+01
ITEM: ATOMS id type xu yu zu vx vy vz fx fy fz element
4 1 2.82754 2.84017 0.0272664 -1.52228 -1.07383 1.11958 -0.585612 -1.69023 0.157502 Si
7 2 4.1947 1.39006 1.4306 -0.845383 1.39601 -3.9313 -0.0649019 0.0721994 -0.952141 Ge
34 1 5.55622 2.74392 2.85056 1.711 -4.29026 -0.731771 0.235394 -0.139784 -0.87145 Si
2 1 -0.0292511 2.78841 2.72365 3.15644 3.61267 3.39498 0.0110599 -0.374439 1.02187 Si
39 2 9.69094 1.35627 1.4054 2.88727 -0.975454 -0.864698 0.135829 -0.0184601 -0.316106 Ge
6 2 1.40294 4.14077 1.44545 0.0387841 -2.82913 1.99349 0.433331 0.992078 -1.05954 Ge
19 1 2.78461 5.59056 2.78092 1.00868 0.536561 -5.65141 0.185977 -0.583453 -0.328348 Si
23 2 4.15146 6.96608 1.38447 0.731305 1.34581 -0.238308 0.0932326 -0.824763 -0.100252 Ge
38 2 6.9239 4.11852 1.4204 -0.798558 1.6343 -2.22341 -1.02906 0.706645 -1.04411 Ge
49 1 5.49491 5.5784 -0.0372623 -3.12517 -1.98411 2.12774 1.15637 -0.739881 1.04666 Si
51 1 8.31523 5.54021 2.6953 -3.0751 0.023096 -3.67226 0.0463304 0.215233 1.20027 Si
55 2 9.73307 6.87701 1.31511 4.3222 2.05763 1.60289 -0.867479 1.28765 0.317695 Ge
3 1 2.7804 0.00898828 2.75106 0.812983 -3.16367 -3.05472 -0.579245 0.0560825 0.551541 Si
20 1 2.76073 8.27305 0.00841284 1.60361 1.78436 2.97217 -0.401061 0.928621 -1.63212 Si
22 2 1.38421 9.70825 1.37335 0.981342 -3.42132 2.9239 -0.152729 -0.645943 0.32839 Ge
33 1 5.55022 -0.0395288 0.00544171 -0.270246 3.56573 -0.378347 -0.648227 0.744746 0.255147 Si
50 1 5.52076 8.32048 2.75988 -0.266141 -0.120115 -5.1308 0.464595 0.110525 0.0304477 Si
54 2 6.94542 9.6879 1.38889 -1.89348 1.31046 -0.191305 -0.455256 0.245972 0.437713 Ge
35 1 8.30592 -0.0173662 2.795 -4.43996 1.37661 -2.22449 0.360426 -0.241108 -0.412121 Si
18 1 -0.0622779 8.30953 2.75014 -2.63678 3.89069 -2.66153 1.0802 0.645442 0.167826 Si
52 1 8.3175 8.37419 -0.00434533 -1.68056 -3.11564 1.27512 0.492664 -1.58175 -0.181106 Si
5 2 1.3533 1.42666 4.11888 2.45618 2.67789 3.33733 0.275072 -0.709738 1.07465 Ge
12 1 2.76643 2.81489 5.54704 4.21405 -0.111787 4.84982 -0.304769 -1.07176 -0.445795 Si
15 2 4.17315 1.36116 6.86639 -3.76306 0.591075 3.32021 0.997447 0.386955 -0.105492 Ge
37 2 6.92536 1.29436 4.17001 -2.09779 4.54671 -0.0303124 0.568168 1.97248 0.0498542 Ge
9 1 -0.0265589 0.00495408 5.60496 1.99309 0.825123 3.38859 1.3732 -0.113621 -0.400648 Si
44 1 8.29618 2.81962 5.52066 -2.01568 1.23714 4.63635 -0.213337 -0.879119 0.70409 Si
47 2 9.6808 1.37868 6.95494 -0.26744 -2.8138 -3.68521 -0.576551 1.2324 0.125018 Ge
14 2 1.37182 4.12302 6.97858 0.238063 -0.292575 3.38135 -0.0885444 1.16835 -1.48087 Ge
21 2 1.44969 7.01046 4.12262 -1.94813 0.130603 1.1151 -1.70568 -0.764475 0.899736 Ge
25 1 0.0254481 5.57222 5.53434 -0.773934 3.08662 6.23216 1.05943 -0.66383 -0.394459 Si
8 2 4.14818 4.15568 4.13227 0.216908 0.49024 -1.06055 0.342189 0.961246 1.24745 Ge
31 2 4.11505 6.97262 6.95558 0.637517 -0.782961 -1.36111 0.695215 -0.536584 -0.582179 Ge
46 2 6.86889 4.18533 6.98186 0.649548 -1.22681 -1.899 1.50884 -0.112099 -1.11455 Ge
53 2 6.90981 6.92826 4.12551 -1.75635 0.84835 -1.89471 0.582486 -0.319581 0.088799 Ge
57 1 5.5351 5.57066 5.5775 -3.22626 0.259977 -0.724282 -0.825557 0.0103193 -0.711746 Si
40 2 9.71878 4.19172 4.12628 -1.87473 -0.732554 1.02172 -0.448138 0.0492017 0.0519178 Ge
63 2 9.72524 6.85158 6.94792 -0.234193 -1.77183 -1.76187 -0.476473 1.55318 -0.229302 Ge
28 1 2.75298 8.35218 5.59319 0.215022 1.98928 -3.1135 0.26607 -0.251997 -0.801949 Si
30 2 1.36101 9.62159 7.01784 1.0235 -2.0675 2.89239 -0.438853 1.66874 -1.11218 Ge
41 1 5.56871 -0.0868711 5.46351 0.754131 5.23605 1.38475 -0.641251 0.925142 1.49032 Si
24 2 4.13607 9.68382 4.1419 -1.87099 -1.35788 -2.39656 -0.314557 -0.11432 -0.0850045 Ge
62 2 6.99956 9.70455 6.85811 0.160835 2.32481 -2.00566 -0.603848 -0.416404 1.09401 Ge
56 2 9.69568 9.73797 4.20402 -0.290532 0.19432 0.476885 0.196936 -1.00328 -0.826389 Ge
60 1 8.3688 8.25813 5.51731 0.295906 1.31334 -0.19469 -0.390421 0.0660413 0.39727 Si
1 1 0.021837 0.0024463 0.00302899 -2.9824 -3.30962 6.79565 0.469121 0.786841 -0.114978 Si
10 1 -0.0503732 2.83258 8.3367 0.159331 -0.504714 -0.69565 1.15188 -2.376 -0.0277749 Si
11 1 2.8147 -0.00646291 8.24362 0.0890427 -2.28168 2.58971 -1.12945 0.333697 0.746603 Si
13 2 1.45893 1.39001 9.68412 -1.70956 -1.59742 0.638843 -0.896266 0.787472 0.164221 Ge
42 1 5.57296 2.7648 8.32734 1.12348 4.7398 -2.11962 -1.86784 -0.225842 -0.287815 Si
45 2 6.87404 1.4169 9.75078 3.50499 2.97312 -1.51907 1.32411 -0.855802 -0.117962 Ge
36 1 8.31666 2.74894 0.0482278 0.31056 -2.98665 0.346449 -0.0526935 0.416865 -0.79375 Si
43 1 8.29684 0.0130442 8.37057 0.885992 -1.23973 -0.37933 0.0156487 0.0449954 -0.50848 Si
17 1 0.0658881 5.51874 0.00184481 -1.50507 4.30501 3.70884 -0.650753 -0.906625 -0.570797 Si
27 1 2.78381 5.50699 8.28333 -2.04047 -0.410953 -2.4848 -0.236062 0.282152 0.0918156 Si
29 2 1.38273 6.84785 9.63299 1.34964 0.319677 -0.0163336 0.690615 1.05032 1.61295 Ge
16 2 4.14284 4.16835 9.67882 0.598758 0.725409 2.02761 0.8592 -0.0283324 -0.129719 Ge
61 2 6.9088 6.96991 9.68827 0.379372 -2.83631 -2.18328 -0.335177 0.853477 -0.19893 Ge
48 2 9.69057 4.16233 9.68768 1.53627 -1.22222 0.354517 -0.689644 0.621269 1.50957 Ge
59 1 8.2893 5.57355 8.32155 -0.785 -3.01832 -4.31196 -0.0709539 -0.786237 0.379123 Si
32 2 4.135 9.73716 9.64781 1.16674 -2.25108 -0.823187 -0.0481092 -0.724821 1.52552 Ge
58 1 5.50051 8.40425 8.26971 1.05944 -4.60122 -1.91341 1.45746 -1.08325 0.113703 Si
26 1 -0.0375206 8.26716 8.37547 0.949428 5.28614 -0.111534 0.13434 -0.238147 -0.614412 Si
64 2 9.7394 9.72652 9.73064 0.338945 -1.58541 0.962652 -0.874335 -0.154679 -0.329204 Ge
ITEM: TIMESTEP
14500
ITEM: NUMBER OF ATOMS
64
ITEM: BOX BOUNDS pp pp pp
0.0000000000000000e+00 1.1085848640000000e+01
0.0000000000000000e+00 1.1085848640000000e+01
0.0000000000000000e+00 1.1085848640000000e+01
ITEM: ATOMS id type xu yu zu vx vy vz fx fy fz element
4 1 2.68683 2.74616 -0.0429225 2.33548 3.56124 -2.18636 0.63692 0.468693 0.833009 Si
7 2 4.17865 1.40028 1.3299 1.2682 1.28961 2.82772 -0.835688 0.532321 -0.02899 Ge
34 1 5.51148 2.86898 2.66471 -0.456354 0.92953 2.49233 0.204134 -1.72913 0.998909 Si
2 1 0.00833424 2.72502 2.80392 -4.55257 -1.50801 -4.7155 0.368431 1.05933 -0.219575 Si
39 2 9.67985 1.41652 1.47828 -2.17056 0.0900906 -2.11306 0.378889 -0.59206 -2.19256 Ge
6 2 1.31502 4.18801 1.4016 -0.593941 -0.691955 -1.80734 0.875918 -1.19169 -0.12088 Ge
19 1 2.72618 5.52465 2.81823 -0.296925 2.45335 5.73955 0.514048 -0.0246745 -1.22024 Si
23 2 4.17887 6.88557 1.43182 0.981353 2.22617 0.938888 -0.0188567 0.930089 -0.379115 Ge
38 2 6.98804 4.15279 1.35697 0.20811 -3.48136 1.06769 -0.0427588 1.36055 -0.0877161 Ge
49 1 5.59813 5.5464 -0.036532 -0.828292 1.08431 -3.46081 -1.20578 -0.920379 0.245671 Si
51 1 8.32262 5.55126 2.83339 -1.05875 -1.91009 -0.95853 -0.398809 -0.669715 -0.696055 Si
55 2 9.62234 6.92048 1.42088 2.01607 -0.947909 -1.05541 1.76272 0.178641 -0.256006 Ge
3 1 2.80898 0.0624012 2.80213 1.68933 1.4987 0.0676288 0.340399 -1.14785 -0.668488 Si
20 1 2.77611 8.30815 0.00992893 -1.80735 -3.70421 3.56969 0.377657 0.271078 0.871237 Si
22 2 1.38427 9.72715 1.42681 -2.54139 -0.420384 -1.15697 0.301098 -0.674216 0.149778 Ge
33 1 5.57058 0.0218903 -0.0371834 0.302042 -5.11219 1.11713 0.159739 -0.289049 0.0830795 Si
50 1 5.56242 8.39836 2.79388 0.467145 -0.991719 3.28113 -0.316623 -0.557282 -1.22412 Si
54 2 6.96324 9.75076 1.36238 0.0176757 -2.55284 0.024234 -0.324916 -0.56537 -0.060845 Ge
35 1 8.29479 0.032779 2.7972 1.80015 -1.48069 1.21406 -0.446022 -0.150597 -0.824378 Si
18 1 0.0090315 8.26912 2.83522 -4.15495 -2.14444 1.41217 -0.532809 0.67226 -1.02675 Si
52 1 8.31255 8.29109 -0.0269858 -2.95902 5.98963 -1.02884 -0.334732 0.439497 0.602438 Si
5 2 1.4001 1.37276 4.15654 -1.47447 1.25079 -3.68906 0.0535662 0.469267 0.5476 Ge
12 1 2.73415 2.78603 5.56289 0.151956 2.20631 -1.92233 0.961203 -0.341098 0.493949 Si
15 2 4.19548 1.41332 7.00354 -0.781197 0.346219 -3.5451 -2.04336 0.103545 -0.89636 Ge
37 2 6.84207 1.38322 4.08194 1.05415 -3.95796 1.63468 0.00568355 0.922455 0.569738 Ge
9 1 0.0250642 -0.0160293 5.50406 -3.97677 1.24268 -1.38131 -0.629802 0.0631588 0.794646 Si
44 1 8.30946 2.70473 5.46425 3.57491 4.26726 -2.91598 -0.117177 0.63961 1.34256 Si
47 2 9.72823 1.39191 6.95563 -1.17046 0.150109 -0.146748 -0.194279 -0.753173 -1.33342 Ge
14 2 1.3744 4.18786 6.96676 0.43061 -1.82376 -0.305788 0.0196233 -0.458224 0.124949 Ge
21 2 1.39891 6.87188 4.20146 2.80834 4.01458 -2.40753 -0.473627 0.803161 0.367977 Ge
25 1 -0.035965 5.51286 5.55392 -1.59528 2.76263 -4.48509 -0.0884935 1.0265 1.00154 Si
8 2 4.11904 4.14224 4.12662 0.879465 -3.47937 0.566665 0.62232 0.437933 0.767563 Ge
31 2 4.15278 6.88478 6.90774 -1.27133 0.724172 3.12988 1.16656 0.380422 0.311929 Ge
46 2 6.95675 4.14768 6.92302 0.182788 -0.292401 0.681272 0.34942 -0.0155609 -0.508418 Ge
53 2 6.9356 7.01605 4.11704 -1.07025 -0.420944 2.49952 -0.130604 -1.19978 0.645325 Ge
57 1 5.58875 5.55404 5.48101 1.96483 0.122216 1.99562 -0.749317 -0.416376 0.426429 Si
40 2 9.73707 4.11255 4.15969 1.25526 -1.14352 1.36794 -0.874561 0.285621 0.0350102 Ge
63 2 9.65751 7.02115 6.95442 1.82403 -1.12655 0.340837 0.214812 -2.04116 -1.53738 Ge
28 1 2.81143 8.27903 5.55341 -0.216722 -0.968977 2.7582 -0.126635 0.485791 -0.66176 Si
30 2 1.41309 9.66934 6.89307 0.34517 -2.3993 0.0923639 -0.393279 0.0726784 0.529179 Ge
41 1 5.4882 0.0680531 5.5753 1.86985 -8.03934 -3.79817 1.22058 -0.39491 -0.123654 Si
24 2 4.21105 9.74831 4.2089 1.3236 -1.58893 0.41154 -1.64098 -0.371469 -0.52494 Ge
62 2 6.85261 9.70113 6.91726 2.05369 -0.164586 -0.728597 0.749754 0.542496 -0.431069 Ge
56 2 9.65504 9.73466 4.12061 0.585295 -0.248932 0.483481 0.868136 -0.756546 1.0474 Ge
60 1 8.25781 8.36436 5.5245 -0.520489 0.256259 -1.27146 0.634602 0.379638 0.296316 Si
1 1 -0.0290566 -0.0170474 0.0155703 2.73818 1.92203 -4.37958 -1.35416 -0.702317 1.04573 Si
10 1 0.0420979 2.72197 8.35926 -6.19316 5.39171 2.54793 -0.362101 0.751626 -0.424125 Si
11 1 2.75722 -0.0183523 8.33008 3.58974 2.95453 -2.04434 0.675804 -0.475901 -0.0607074 Si
13 2 1.33376 1.27739 9.74152 3.54153 0.0981392 -1.13213 0.876379 1.23103 -0.808762 Ge
42 1 5.57588 2.75497 8.3349 3.8912 -2.10374 1.28391 0.342736 0.711703 -0.152983 Si
45 2 6.98779 1.36303 9.66535 -2.18508 0.00661634 3.00335 0.208181 0.690122 0.652259 Ge
36 1 8.39078 2.82342 -0.0270575 -1.06967 2.72167 2.34054 -0.732367 -1.56359 0.322449 Si
43 1 8.31358 -0.0438909 8.26079 -1.43661 1.38892 1.60951 0.10871 0.162183 0.365945 Si
17 1 -0.0381169 5.54315 0.00764604 2.80544 1.58033 -3.12931 0.0539743 1.11221 0.257476 Si
27 1 2.76924 5.59526 8.3424 0.967689 1.50251 2.64966 -0.537383 -0.686437 -0.497289 Si
29 2 1.36916 6.96642 9.72224 -0.893646 -1.20303 -2.49987 -0.0350773 -0.898466 0.196278 Ge
16 2 4.11279 4.1278 9.64177 -1.0356 0.291535 0.648382 0.881363 0.526084 1.5065 Ge
61 2 6.98253 6.89346 9.67311 -1.46027 0.390792 2.38555 -0.63086 0.659336 0.2081 Ge
48 2 9.74556 4.17298 9.68016 -0.301188 0.498996 -2.30812 0.257811 -0.348136 -0.0328664 Ge
59 1 8.36537 5.55146 8.335 -0.00506785 6.14817 3.82063 -0.375739 -0.424394 -1.19293 Si
32 2 4.19913 9.67235 9.70032 -2.82609 1.45835 -0.473714 -0.495783 0.0636941 -0.206482 Ge
58 1 5.57836 8.27324 8.29951 -4.60457 6.04334 0.848809 -0.886821 -0.285383 0.148388 Si
26 1 0.00416485 8.27532 8.29293 -0.672783 -0.304354 2.50596 0.426154 1.57792 0.289059 Si
64 2 9.67722 9.64868 9.66356 2.19316 2.37331 -0.117662 0.712081 0.634309 0.320444 Ge
ITEM: TIMESTEP
14600
ITEM: NUMBER OF ATOMS
64
ITEM: BOX BOUNDS pp pp pp
0.0000000000000000e+00 1.1085848640000000e+01
0.0000000000000000e+00 1.1085848640000000e+01
0.0000000000000000e+00 1.1085848640000000e+01
ITEM: ATOMS id type xu yu zu vx vy vz fx fy fz element
4 1 2.85511 2.76912 0.0784781 -2.8178 -0.0361712 -0.850829 -0.415702 0.292506 -1.47819 Si
7 2 4.1441 1.32514 1.49127 2.20008 0.433403 -1.71776 0.189277 0.384386 0.00353859 Ge
34 1 5.56905 2.69132 2.8803 0.820951 5.3093 -2.98087 -0.395461 1.22409 -0.741367 Si
2 1 0.0371717 2.8209 2.70112 2.38094 -2.16027 0.850163 -0.680578 -1.11383 0.231727 Si
39 2 9.73567 1.40845 1.33481 -0.148684 2.30131 3.87583 -0.967295 0.0770654 0.402434 Ge
6 2 1.4441 4.15039 1.40115 -2.73507 0.272375 0.190049 -0.711047 0.128077 -1.60082 Ge
19 1 2.79907 5.48844 2.71193 -2.59081 -1.19888 -0.477385 -0.538924 1.04124 1.91753 Si
23 2 4.09754 6.89733 1.38561 1.61883 -1.56495 -0.81093 0.457628 1.14531 -0.896608 Ge
38 2 6.87813 4.17595 1.46555 -0.0221591 -2.52693 -1.49031 0.753725 -1.48956 -0.510557 Ge
49 1 5.53621 5.55306 0.0766234 2.52637 4.03662 0.375988 0.544836 0.453544 -1.5602 Si
51 1 8.34211 5.55951 2.75642 1.76786 5.31282 0.561345 -0.821291 0.080242 -0.165299 Si
55 2 9.68482 6.92357 1.351 -1.66891 -0.133246 0.00499018 1.70973 -0.0261575 0.817662 Ge
3 1 2.71326 -0.0939307 2.78615 -0.939521 1.50331 1.23094 0.567704 1.21555 0.305424 Si
20 1 2.76738 8.33775 -0.0787767 0.622831 0.788565 -3.35231 -0.115081 -0.684131 0.883961 Si
22 2 1.39619 9.74639 1.28468 -0.204119 0.963763 -0.769938 -0.424925 -0.446513 -0.125455 Ge
33 1 5.52248 0.0048979 0.0857722 -0.251605 4.28738 0.604849 -0.0290648 -0.868131 -0.300858 Si
50 1 5.51709 8.23541 2.76736 0.680955 4.06551 2.94831 0.220624 -0.104128 1.38965 Si
54 2 6.90947 9.65102 1.47595 0.836436 2.34265 0.834024 0.24912 0.374455 -1.7643 Ge
35 1 8.36591 -0.03247 2.70607 -0.844051 2.82909 3.54365 0.252645 0.21414 1.44195 Si
18 1 0.0927035 8.32838 2.69038 2.84483 -1.97962 -0.179019 -1.54014 -0.85342 0.630706 Si
52 1 8.36567 8.33259 0.0552771 4.00418 -2.97543 -1.1017 -1.38955 0.501991 -0.965113 Si
5 2 1.31779 1.38503 4.10463 0.843985 -0.317466 1.99285 0.720587 -0.603762 0.306059 Ge
12 1 2.78193 2.70167 5.48285 -3.91865 1.96192 0.750947 0.00727879 0.847242 -0.0729061 Si
15 2 4.19065 1.32691 6.86612 2.20918 -1.18042 1.06787 -1.04074 0.813619 0.311902 Ge
37 2 7.0372 1.35245 4.17597 -1.82097 1.31046 -1.41951 -0.407198 -0.34861 0.528332 Ge
9 1 -0.0401233 0.0100964 5.54095 1.54743 -0.115879 0.217795 -0.456833 0.360535 -0.649611 Si
44 1 8.31161 2.79656 5.61841 -4.3441 -5.38803 -4.5646 0.727719 0.661459 -1.54224 Si
47 2 9.72343 1.43136 6.96214 -0.182429 2.4018 1.7159 -0.480272 -0.706568 -0.593792 Ge
14 2 1.43569 4.17727 6.84227 1.476 1.76382 -0.116121 0.169345 -0.783403 -0.143608 Ge
21 2 1.39579 6.87945 4.13503 -1.23674 -1.42024 1.1866 0.534766 0.694332 -0.71063 Ge
25 1 0.0245265 5.5328 5.53166 -0.767565 -3.64944 3.03017 -0.970569 0.0239399 -0.83437 Si
8 2 4.16235 4.19537 4.16409 -1.00033 -1.93769 -0.822907 0.196559 -1.61284 0.283924 Ge
31 2 4.1308 6.99409 6.943 -2.00431 0.246569 -3.24206 -0.271585 -0.792123 0.134276 Ge
46 2 6.89567 4.15203 7.03303 0.180596 0.20119 -0.905367 -0.683065 -0.580799 -2.05828 Ge
53 2 6.97131 6.87838 4.20797 -0.531964 5.78467 -1.89352 -0.736412 0.478767 0.388016 Ge
57 1 5.49689 5.52853 5.63187 2.54082 2.82483 -1.07136 1.05694 0.615506 -0.73022 Si
40 2 9.71859 4.17205 4.03413 1.7757 -3.2101 0.157597 -0.115807 -0.479634 3.02317 Ge
63 2 9.73402 6.89771 6.97882 -1.8803 2.71697 2.31412 0.472525 -0.327711 -0.303197 Ge
28 1 2.72935 8.33899 5.52192 -0.3579 0.546556 2.63713 -0.236704 -0.27065 0.783451 Si
30 2 1.36152 9.79532 6.92379 0.850145 -0.705931 -0.698464 0.267452 -1.53704 -0.661192 Ge
41 1 5.61356 -0.0227662 5.56109 -4.083 6.93194 0.204404 -0.120968 -1.16691 -0.849933 Si
24 2 4.15116 9.64636 4.17115 3.13036 -0.382724 3.29714 0.690174 0.663724 -0.198165 Ge
62 2 6.93392 9.64502 6.99846 -2.011 -1.78445 -0.602829 0.612217 0.737869 -0.540963 Ge
56 2 9.70015 9.62579 4.1452 -0.663043 -1.6378 -2.39494 0.82428 0.74208 -0.225796 Ge
60 1 8.38134 8.27509 5.63354 -0.658297 -1.67603 -0.162427 -1.21813 0.00527744 -1.09077 Si
1 1 -0.0267854 0.0749202 -0.0626008 -0.295945 1.87729 0.633609 1.51436 0.0727103 -0.865774 Si
10 1 0.0411009 2.85586 8.20774 4.87362 0.361809 -0.466837 -1.39686 0.85943 1.66927 Si
11 1 2.73916 0.0468764 8.27254 -4.20909 -1.14589 -0.708199 0.600828 0.711366 0.812067 Si
13 2 1.39221 1.56075 9.61991 -2.31356 -1.32553 2.92725 0.526771 -2.125 1.41185 Ge
42 1 5.43708 2.77668 8.28518 0.809647 -0.478326 0.705771 1.58557 -1.0427 0.356561 Si
45 2 6.80268 1.36677 9.68747 2.42643 -2.10453 0.234431 0.810431 0.0510997 -0.0501554 Ge
36 1 8.21629 2.69908 -0.00839276 2.94289 2.76416 -1.05815 0.177927 1.58845 0.556058 Si
43 1 8.31012 0.032437 8.33325 -0.277089 -1.83383 -1.76343 -0.364962 -0.36082 0.195846 Si
17 1 -0.0119096 5.50743 -0.0055116 -2.25552 -2.0415 3.87041 0.310624 0.286919 -0.121219 Si
27 1 2.7743 5.49946 8.27027 0.243007 1.57743 -1.77943 0.496431 1.07639 0.743887 Si
29 2 1.37692 6.9115 9.65823 -0.138932 0.642374 -0.396559 0.167409 -0.257721 0.115123 Ge
16 2 4.22097 4.16779 9.69295 -3.58185 -0.871407 -2.02066 -1.73087 0.330346 1.11646 Ge
61 2 6.94906 6.98802 9.72473 2.40186 -1.74919 -1.0483 0.00893035 -1.67036 0.697302 Ge
48 2 9.61503 4.15319 9.72383 0.216761 -1.35874 2.90081 1.12404 -0.939255 -0.857771 Ge
59 1 8.28018 5.50378 8.28919 0.882442 -1.44159 0.61645 0.419406 1.79521 1.95643 Si
32 2 4.13013 9.77489 9.71078 2.74955 -0.637835 -1.08267 0.45206 -0.44917 -0.45749 Ge
58 1 5.52875 8.30655 8.37096 4.4746 -1.56044 -0.654356 -0.530249 0.956731 -0.0344954 Si
26 1 0.03846 8.35261 8.29532 -1.77424 -3.73136 -2.17498 -0.605249 -0.306388 0.33134 Si
64 2 9.70602 9.70234 9.69641 -2.15517 -2.55124 -1.04854 -0.0243781 0.44172 -0.0445755 Ge
ITEM: TIMESTEP
14700
ITEM: NUMBER OF ATOMS
64
ITEM: BOX BOUNDS pp pp pp
0.0000000000000000e+00 1.1085848640000000e+01
0.0000000000000000e+00 1.1085848640000000e+01
0.0000000000000000e+00 1.1085848640000000e+01
ITEM: ATOMS id type xu yu zu vx vy vz fx fy fz element
4 1 2.67998 2.74733 -0.064753 2.37982 -0.59202 5.69887 0.480842 0.510844 0.625112 Si
7 2 4.13904 1.41689 1.25585 -0.401074 -0.4624 -0.330021 0.561927 -0.778043 -0.111248 Ge
34 1 5.4872 2.77126 2.68118 -2.29337 -2.21633 1.2043 0.330676 1.37937 0.0991154 Si
2 1 -0.00939813 2.76465 2.90429 -0.267564 5.64858 -0.435662 0.0511349 0.522658 -0.862857 Si
39 2 9.75969 1.33109 1.49754 2.69024 1.234 -1.46541 -0.342818 0.555616 -1.23597 Ge
6 2 1.38813 4.14538 1.48734 1.46792 -1.79928 1.07366 -0.428308 0.052628 -1.38197 Ge
19 1 2.77395 5.61334 2.78213 1.31665 -2.23439 -2.85555 -0.512311 -0.454867 -0.647179 Si
23 2 4.14719 6.96749 1.40895 -1.09486 -1.37648 1.09359 1.1655 -1.55951 -1.22643 Ge
38 2 6.97491 4.20035 1.34563 -1.3827 0.147958 0.599288 -0.928314 -1.85957 -0.177632 Ge
49 1 5.54702 5.49733 -0.0557211 0.176739 -2.73389 3.32478 -0.202775 1.8137 1.23235 Si
51 1 8.29667 5.49846 2.75696 2.81402 -3.3812 1.15929 1.02063 1.20379 -0.134109 Si
55 2 9.69059 6.96474 1.42431 -0.961299 1.80435 -2.32328 -0.604488 -0.959131 -0.932971 Ge
3 1 2.80255 0.109869 2.74109 -0.640165 -0.830713 0.922049 -1.04505 -0.45236 -0.340355 Si
20 1 2.81064 8.33229 0.0640809 -0.941495 1.46439 -2.61868 -0.519805 -0.143501 -0.741676 Si
22 2 1.42939 9.63396 1.50392 -0.788895 -1.09098 0.992692 -0.399771 0.87561 -0.215734 Ge
33 1 5.57533 -0.0039546 -0.156267 1.93153 1.30076 -0.404876 0.04806 1.39227 1.16219 Si
50 1 5.54388 8.33715 2.71431 -1.9903 0.189453 -6.11095 0.0324711 0.92134 0.0252539 Si
54 2 6.9213 9.72225 1.27026 -2.24388 -2.56295 0.565271 -0.211223 -0.0239074 1.28752 Ge
35 1 8.25767 0.0159748 2.78787 0.97189 -0.613007 -8.14571 -0.410809 0.200525 -0.212271 Si
18 1 -0.0924936 8.34797 2.86553 5.11775 2.96473 2.51555 1.39346 -0.0880437 -0.091171 Si
52 1 8.22848 8.25498 -0.0509106 1.16577 2.00766 4.64949 1.64068 0.32915 0.637825 Si
5 2 1.44013 1.43765 4.21076 -1.52533 4.65471 -0.332786 0.349658 -0.51515 0.396298 Ge
12 1 2.80806 2.82124 5.62139 2.21018 -2.58532 -0.347856 -0.916367 0.563095 -0.174994 Si
15 2 4.11608 1.45986 7.08529 -0.476483 -1.52769 -2.31866 0.946978 -2.02823 -2.03359 Ge
37 2 6.81491 1.42395 4.1421 0.466955 1.19837 -0.820189 1.36798 -0.0435491 0.437358 Ge
9 1 0.108301 -0.0341123 5.55832 1.08124 -2.49629 0.0578361 -0.36498 0.387428 0.477225 Si
44 1 8.33977 2.78193 5.55889 1.31214 0.663142 5.75432 -1.24804 -1.25037 -0.187777 Si
47 2 9.72543 1.29208 6.88944 0.972355 -0.35537 0.522531 -0.235894 0.704879 0.584875 Ge
14 2 1.28722 4.10436 7.04452 0.855995 -0.653521 -0.155069 0.945201 0.263782 -0.805179 Ge
21 2 1.41823 6.94722 4.16217 -0.062537 0.152534 2.71563 -1.34 0.235908 0.318813 Ge
25 1 0.0086381 5.55239 5.54215 2.57273 0.632223 -0.922959 0.0404527 -0.27216 0.561645 Si
8 2 4.11055 4.22 4.08938 -0.49849 1.09145 0.326367 0.650602 -1.69022 0.67555 Ge
31 2 4.19702 6.88048 6.91524 -0.887294 1.08465 0.230083 -0.840272 0.0881901 -1.04627 Ge
46 2 6.91514 4.15098 6.9056 1.53896 -0.170713 2.79277 0.453844 0.828543 -0.137909 Ge
53 2 6.92238 6.90246 4.0494 0.735756 -0.54017 0.751002 -0.231003 1.03169 0.719203 Ge
57 1 5.54478 5.53411 5.42286 -5.42188 -2.50663 2.17066 0.302723 -0.0120197 1.51989 Si
40 2 9.65254 4.18948 4.20694 0.574452 0.461349 -4.974 0.922525 -0.297982 -0.414849 Ge
63 2 9.66178 6.93878 6.86546 0.19283 1.70261 -0.148687 0.226498 0.817219 0.439353 Ge
28 1 2.81777 8.3105 5.50123 1.7973 -0.136668 -3.87839 -0.125303 0.106882 0.851085 Si
30 2 1.39514 9.60222 6.98711 1.95455 0.423926 0.396543 1.2505 1.26255 -0.644965 Ge
41 1 5.47979 -0.00706352 5.54801 1.63464 0.702613 4.09944 -1.0357 1.97954 0.161173 Si
24 2 4.10301 9.77337 4.06027 0.166699 -1.51693 -0.240997 1.45488 -1.18635 1.2403 Ge
62 2 6.93604 9.77874 6.85559 -2.30024 -0.949146 -0.091947 -0.341351 -1.64687 1.18027 Ge
56 2 9.675 9.82597 4.21979 -2.50206 -1.43794 1.33766 -0.109382 -1.45114 -0.816062 Ge
60 1 8.2584 8.35625 5.45402 2.37652 3.59018 4.89471 0.468829 -0.510768 0.737299 Si
1 1 0.0271323 -0.136289 0.0951712 -4.99249 -1.1142 1.38312 -0.409223 0.64596 0.408881 Si
10 1 -0.0579272 2.60117 8.40902 1.79707 -4.16469 -3.09648 1.16549 0.384181 -1.69406 Si
11 1 2.82123 -0.0771809 8.40663 0.628434 0.278299 -1.57601 -1.01982 -0.230417 -1.51988 Si
13 2 1.35842 1.19551 9.7338 -0.0348801 2.23643 -1.76633 -0.0912789 1.3592 0.705068 Ge
42 1 5.58391 2.79299 8.33829 -9.37117 3.0685 -1.50814 -0.47421 1.04896 -0.450482 Si
45 2 7.00039 1.50297 9.6372 -1.47508 1.25055 -0.230006 0.419034 -2.20204 1.23311 Ge
36 1 8.41323 2.7757 0.0293726 -0.621244 -3.40334 -1.25047 0.248567 0.425986 -0.337013 Si
43 1 8.34255 -0.0233494 8.33411 0.992583 1.52848 -1.06448 -0.0535953 0.281669 -0.464026 Si
17 1 0.0361308 5.55342 0.00422076 0.787836 -1.33396 -4.31353 -0.346223 -0.0598238 0.865684 Si
27 1 2.76288 5.53852 8.34724 -1.14272 -2.12021 0.186006 -0.0564421 -0.0060637 -0.167325 Si
29 2 1.40379 6.97682 9.74245 -0.73529 -1.81435 0.914107 0.142798 -0.409367 -0.219931 Ge
16 2 4.18011 4.14118 9.70111 2.51777 0.751111 0.913501 -1.2684 -0.41629 -0.236696 Ge
61 2 6.90873 6.89435 9.6233 0.698782 3.09152 -1.72665 -0.348884 -0.0582163 0.269082 Ge
48 2 9.78007 4.16801 9.6141 -2.06363 2.15065 0.757128 -0.968838 -0.188907 2.50125 Ge
59 1 8.34869 5.55244 8.30631 1.31845 -5.10044 -5.60473 -0.604899 -0.606893 -1.32784 Si
32 2 4.20418 9.62379 9.68742 -0.229204 1.06838 1.53967 -0.111505 0.0102775 0.167398 Ge
58 1 5.54582 8.29898 8.23833 -1.2876 -1.48994 -1.53527 0.96597 0.33912 -0.0348736 Si
26 1 -0.0367872 8.31089 8.33989 4.4837 -0.130771 1.02459 -0.0163568 -1.15832 -0.242984 Si
64 2 9.70791 9.65436 9.75321 1.00295 -2.39028 1.96422 -0.88426 0.0375201 -0.251886 Ge
ITEM: TIMESTEP
14800
ITEM: NUMBER OF ATOMS
64
ITEM: BOX BOUNDS pp pp pp
0.0000000000000000e+00 1.1085848640000000e+01
0.0000000000000000e+00 1.1085848640000000e+01
0.0000000000000000e+00 1.1085848640000000e+01
ITEM: ATOMS id type xu yu zu vx vy vz fx fy fz element
4 1 2.85443 2.79715 0.00205818 -2.12501 -2.19436 -4.18089 -0.464664 -0.367573 1.04677 Si
7 2 4.16168 1.37685 1.54311 0.57209 1.6857 -0.663219 -0.1233 0.483576 -1.15691 Ge
34 1 5.649 2.77168 2.85075 2.10696 -7.48113 2.15184 -0.781697 -0.652832 -0.0479791 Si
2 1 -0.0387922 2.70747 2.66685 1.2467 -4.53026 2.16534 -0.00795898 1.05586 0.801851 Si
39 2 9.6206 1.3916 1.28187 1.08964 -0.597975 1.2768 0.589151 -0.544606 0.49641 Ge
6 2 1.39219 4.18083 1.39009 -0.654443 -0.491133 2.84301 0.255735 -0.729542 -0.60846 Ge
19 1 2.7901 5.52069 2.78852 2.19146 1.1591 0.732098 0.637748 -0.304604 -0.527658 Si
23 2 4.15416 6.93589 1.4191 -1.37906 3.87409 2.18467 -0.00504636 -0.0113782 0.505555 Ge
38 2 6.91195 4.19718 1.43381 0.0447525 1.66398 0.435008 -0.457892 -0.123948 -1.07004 Ge
49 1 5.48634 5.5761 0.013586 1.00212 -4.79642 -3.68493 0.584024 -1.44622 0.0686558 Si
51 1 8.28205 5.57052 2.78664 -3.42896 -0.318521 -0.420596 0.40901 -0.829456 1.05187 Si
55 2 9.65843 6.87521 1.4103 0.607937 1.89551 0.330376 0.228358 1.3453 -1.20726 Ge
3 1 2.73955 -0.117372 2.75751 2.69299 0.387577 0.72707 0.431569 0.813058 0.81208 Si
20 1 2.7331 8.26004 0.0341116 2.98629 1.2398 2.11432 0.317638 1.42077 -0.792094 Si
22 2 1.36469 9.75752 1.28162 -0.729778 -1.1748 -3.00714 -0.44774 -1.54116 0.661642 Ge
33 1 5.46676 -0.0660486 0.1684 -2.52163 -4.18668 -2.89486 0.104049 0.263528 -1.62836 Si
50 1 5.58895 8.27485 2.84968 2.10154 -5.33492 4.99323 -0.562577 0.259517 -0.78603 Si
54 2 6.98551 9.68152 1.45678 0.248907 -1.33707 -2.21661 -0.826318 -0.652459 -0.244559 Ge
35 1 8.369 -0.0467333 2.79082 1.12936 -0.161447 5.48976 0.557553 0.505268 -0.954991 Si
18 1 0.00460645 8.26709 2.67188 -6.73023 -0.775721 -4.48346 0.548536 1.02897 0.566062 Si
52 1 8.36849 8.36677 -0.0126059 -4.03909 -4.32428 -5.11362 0.0530783 -0.297467 0.501764 Si
5 2 1.2857 1.26538 4.0588 -1.825 1.24151 -1.38154 1.05459 1.53789 0.751352 Ge
12 1 2.73928 2.71352 5.46092 1.25363 -2.2391 -0.510515 0.00173258 -0.197468 0.0407759 Si
15 2 4.23052 1.39576 6.867 -0.757166 3.37957 2.44408 -0.598328 -0.363188 -0.607217 Ge
37 2 7.07052 1.33307 4.17433 -1.3836 -1.57496 2.56235 -1.80181 0.263997 -0.135522 Ge
9 1 -0.120488 0.0667114 5.54231 3.30742 1.28544 -1.96121 0.989833 -1.13216 -0.510845 Si
44 1 8.32412 2.79548 5.51253 1.21821 3.15039 -1.27877 0.394864 0.532139 0.97517 Si
47 2 9.68715 1.47695 6.94232 -0.319162 0.807886 -2.19161 -0.770907 -0.416125 0.242884 Ge
14 2 1.40007 4.16746 6.87001 -1.55252 -0.791217 -1.45195 0.423744 0.693045 -0.218262 Ge
21 2 1.41487 6.90719 4.07067 3.41739 1.04469 -2.09548 -1.04127 0.628031 1.8124 Ge
25 1 -0.0212806 5.56575 5.5261 1.86972 0.343609 -0.75031 1.04609 -0.129988 -0.301935 Si
8 2 4.18974 4.13885 4.16754 -1.3342 1.40021 -0.932222 0.232359 0.314892 0.735832 Ge
31 2 4.17039 6.96868 6.99332 0.924335 1.71658 1.98374 0.191708 -0.305701 -0.00150316 Ge
46 2 6.93015 4.15055 6.95478 -0.582774 -1.05353 1.19029 1.55233 0.142357 -0.39344 Ge
53 2 6.93404 6.91745 4.23621 1.60711 -1.55408 0.349496 0.210738 -0.707139 -0.254647 Ge
57 1 5.5844 5.53078 5.63685 0.580241 0.868666 -5.37325 -1.62645 0.382039 -1.01035 Si
40 2 9.72722 4.1549 4.14584 -0.314386 -1.39413 1.21288 -0.472138 -0.0994334 -1.00906 Ge
63 2 9.72738 6.89697 6.99913 -1.48166 -1.9836 -0.997775 -0.632149 0.165313 -0.812325 Ge
28 1 2.69701 8.29711 5.617 -0.250857 1.18306 -1.51126 0.60919 0.208861 -1.1079 Si
30 2 1.31167 9.80069 6.89882 -2.75977 -1.43105 0.299316 0.214763 -0.751467 0.0330403 Ge
41 1 5.59683 -0.0440348 5.49677 2.53612 -6.5945 -2.95487 0.416762 -0.242999 1.06499 Si
24 2 4.15165 9.62904 4.20114 -2.55158 -0.619657 -0.0925581 -0.398329 0.118777 -0.119521 Ge
62 2 6.98104 9.64715 6.98601 3.67548 1.08857 -1.81047 -0.727371 0.393902 -1.21909 Ge
56 2 9.74446 9.64974 4.12043 1.6695 0.134535 2.01659 -0.516578 -0.528673 0.837964 Ge
60 1 8.35787 8.23814 5.56877 -1.25964 -2.90574 -4.84613 0.391381 1.24899 0.290908 Si
1 1 0.0622517 0.118341 -0.0966937 5.00586 0.321639 -2.89255 -1.03081 -0.303395 -0.137103 Si
10 1 -0.00794807 2.89836 8.26589 -2.87352 0.367238 4.4166 0.333692 -1.45456 0.323136 Si
11 1 2.76256 0.0701743 8.23103 2.06547 -0.174465 4.9363 0.0490917 0.177445 0.824634 Si
13 2 1.44363 1.53174 9.63728 0.861637 -0.543829 -1.65665 -0.326548 -0.609994 -0.327044 Ge
42 1 5.65642 2.70802 8.25531 5.48858 -5.07836 1.73224 -2.42832 0.220815 0.633277 Si
45 2 6.79659 1.28287 9.72001 -2.51118 2.66866 0.539758 1.60994 0.182116 0.877458 Ge
36 1 8.19033 2.77234 -0.0331194 -1.47856 -0.971392 0.597627 0.234018 -0.186847 -0.235002 Si
43 1 8.29281 0.0149717 8.31365 -0.069395 -0.111646 4.02778 0.217294 0.789353 -0.104931 Si
17 1 -0.0146034 5.57058 0.0255486 0.745617 -0.30015 0.257545 0.00841992 -0.681075 -1.64949 Si
27 1 2.79167 5.53624 8.3244 0.104065 -1.94271 -1.98075 -0.177257 -0.252692 -0.455346 Si
29 2 1.39174 6.99165 9.64896 0.0453095 3.13746 -0.407124 -0.631751 -1.64491 0.979693 Ge
16 2 4.21171 4.07446 9.62709 2.40273 -0.824808 -0.24866 0.456014 1.47615 0.628104 Ge
61 2 6.92706 6.94092 9.79837 -0.474434 0.523981 2.32059 -0.413255 0.922775 -0.690401 Ge
48 2 9.64349 4.12806 9.67029 0.523366 0.190744 -3.53129 -0.0218726 1.69582 1.21949 Ge
59 1 8.24552 5.59101 8.35776 -0.605926 5.55305 7.62925 0.858035 -0.975655 -0.0930904 Si
32 2 4.0393 9.73731 9.72198 -0.612507 0.183554 0.181584 1.03245 -0.171908 0.67649 Ge
58 1 5.5435 8.3692 8.42161 -0.590837 -0.274341 3.03767 -0.276128 -0.583621 -0.37198 Si
26 1 -0.00690796 8.35106 8.2851 -3.85257 5.63711 -1.8257 0.359167 0.55647 0.0709606 Si
64 2 9.73875 9.78404 9.62735 -0.25885 1.57237 1.15374 -0.0361909 -0.586778 1.25914 Ge
ITEM: TIMESTEP
14900
ITEM: NUMBER OF ATOMS
64
ITEM: BOX BOUNDS pp pp pp
0.0000000000000000e+00 1.1085848640000000e+01
0.0000000000000000e+00 1.1085848640000000e+01
0.0000000000000000e+00 1.1085848640000000e+01
ITEM: ATOMS id type xu yu zu vx vy vz fx fy fz element
4 1 2.70349 2.76515 0.00363364 1.88336 1.03686 -0.599709 0.0477679 -0.551329 -1.33907 Si
7 2 4.13258 1.36809 1.27674 0.254477 1.1332 -0.445622 0.551442 0.73479 0.662612 Ge
34 1 5.44495 2.8339 2.68379 1.34943 7.24582 -3.55333 0.922695 -1.7955 0.521594 Si
2 1 0.0399986 2.83933 2.81418 -0.779307 -2.58463 -0.237469 0.692068 -1.40535 0.165142 Si
39 2 9.73275 1.36661 1.51696 0.931397 1.65576 -0.685662 0.0914813 0.794413 -1.45939 Ge
6 2 1.41835 4.1728 1.36375 -0.969947 -0.153931 3.50967 -1.37175 0.104104 0.52356 Ge
19 1 2.74474 5.54084 2.76014 -1.97295 0.680119 0.954465 0.186591 0.388781 0.264143 Si
23 2 4.13492 6.88158 1.35156 1.04814 -0.659408 -2.17229 -0.0667095 1.25407 0.0568771 Ge
38 2 6.95457 4.10186 1.39161 0.925736 3.06063 -0.700149 0.25375 1.69601 -0.330239 Ge
49 1 5.58788 5.56263 0.0146912 -4.34936 4.52237 0.405395 -0.218562 -0.952282 -0.823563 Si
51 1 8.35085 5.53411 2.77856 -0.367497 -1.13256 -2.19069 -1.14816 0.0817727 -0.621607 Si
55 2 9.70019 6.93229 1.39139 -2.72946 -1.32346 2.77991 1.23256 0.244443 0.882193 Ge
3 1 2.79596 0.0604354 2.76349 -0.962556 -2.97576 -4.82796 0.556264 -0.497554 0.0205301 Si
20 1 2.79955 8.34805 -0.0352277 -1.22978 -6.16191 4.21696 0.00366545 -0.781868 0.519901 Si
22 2 1.45576 9.69163 1.44655 1.60053 0.889595 0.383343 -0.959622 0.146953 -0.686199 Ge
33 1 5.63762 0.0828494 -0.103392 1.70622 -1.34161 5.70156 -0.44212 -0.969972 0.748862 Si
50 1 5.47043 8.35074 2.69993 2.25486 3.0693 -4.40315 0.851057 -0.732414 0.532834 Si
54 2 6.90123 9.747 1.42608 1.73977 1.84175 -2.55689 0.221334 0.179997 -1.59632 Ge
35 1 8.27108 0.0477381 2.78394 -2.19917 -3.58887 -1.53806 -0.261375 -0.325409 0.672007 Si
18 1 0.0497003 8.34898 2.84992 0.863313 -3.07365 1.78435 -1.3508 -0.602186 -1.26566 Si
52 1 8.30454 8.31393 0.0716875 0.0964846 2.95131 0.213896 -1.04809 -0.616921 -1.26921 Si
5 2 1.48389 1.41348 4.2168 -1.50159 -1.52833 1.62184 -1.66579 0.328709 -0.201773 Ge
12 1 2.78175 2.8577 5.61794 2.1398 -0.112811 1.54558 0.886351 -1.21444 -0.0584666 Si
15 2 4.15141 1.38776 7.04437 0.97797 2.83182 3.46888 -1.50515 1.01404 -0.770214 Ge
37 2 6.85029 1.42636 4.1114 1.12532 3.95061 -0.341458 -0.451448 0.203744 0.490579 Ge
9 1 0.0471771 -0.0657811 5.54517 -5.58086 2.00061 3.18789 0.233713 1.14065 0.171508 Si
44 1 8.27805 2.71411 5.54717 1.05006 -1.77086 -0.960653 0.437236 0.526348 -0.123954 Si
47 2 9.74176 1.34528 6.93366 1.87881 0.603373 -1.18025 -0.310344 -0.0481567 -1.04152 Ge
14 2 1.37093 4.17373 7.0001 -2.13366 -2.35206 3.27866 -0.0538248 0.313643 -0.885243 Ge
21 2 1.3546 6.90053 4.19145 0.0582263 -1.07438 -1.79494 0.754789 0.0504907 0.0130372 Ge
25 1 -0.0360393 5.51048 5.56236 -5.71957 0.800543 0.963753 0.129997 0.487856 0.307565 Si
8 2 4.15 4.17665 4.12021 -1.15509 -0.667169 -2.15456 -0.511528 0.383947 0.802459 Ge
31 2 4.14918 6.88573 6.82853 0.463674 0.169837 -3.26097 0.195165 0.622873 1.17726 Ge
46 2 6.89039 4.11974 6.94187 -0.843257 -0.480085 -0.977073 -0.233853 0.0640743 -0.599436 Ge
53 2 6.90711 6.96061 4.07506 -1.51357 4.46782 -0.829784 0.260339 0.202665 0.993983 Ge
57 1 5.55683 5.54255 5.50827 4.67251 -3.31804 3.95535 0.439624 -0.402421 -0.730384 Si
40 2 9.67584 4.1479 4.14847 0.300803 -0.347747 2.60924 0.00518501 -0.257142 1.23747 Ge
63 2 9.70416 6.97814 6.93131 -1.69741 0.931004 0.617755 -0.476918 -1.1824 -0.885635 Ge
28 1 2.7995 8.30914 5.51459 -2.47106 -3.80632 2.95913 -0.0878589 0.158211 -0.668105 Si
30 2 1.433 9.63373 6.95372 0.918677 1.14139 -0.513651 -0.898645 -0.110214 -0.320704 Ge
41 1 5.47719 0.0793351 5.59265 -3.26185 4.05163 0.133391 0.931199 -0.781176 -1.01218 Si
24 2 4.19443 9.74768 4.11638 0.619411 -0.397362 0.986881 -1.16871 0.0368867 0.949793 Ge
62 2 6.85223 9.70513 6.91945 -0.812302 -0.895912 -1.33733 0.934528 0.777619 -0.22026 Ge
56 2 9.66329 9.76052 4.14222 -0.152693 1.56583 0.962328 0.470494 -0.733518 0.522443 Ge
60 1 8.28877 8.37271 5.54602 -1.242 -0.717573 0.338809 -0.294197 -0.669656 -0.740764 Si
1 1 -0.092673 -0.0957385 0.0896593 0.171726 -2.68729 4.47533 1.23517 0.29808 -0.239806 Si
10 1 0.0278733 2.721 8.29981 -1.21497 0.773956 -1.35771 -0.765587 0.388663 1.05307 Si
11 1 2.73905 -0.0576699 8.3435 0.981804 -1.36814 -4.43367 0.59513 0.408022 0.636386 Si
13 2 1.28054 1.29159 9.73351 -1.46013 -1.6767 2.94022 1.06531 0.306362 0.44617 Ge
42 1 5.41997 2.86704 8.40289 7.6419 1.05824 -3.16177 2.32403 -1.10834 -0.709765 Si
45 2 7.04443 1.49524 9.63858 -2.00632 0.182853 -2.30572 -1.00101 -0.079647 0.582712 Ge
36 1 8.43032 2.79053 0.053514 0.364797 -1.47071 0.946596 -0.694187 -0.801603 -0.198739 Si
43 1 8.32777 -0.00707561 8.27806 0.00597931 -4.7746 -3.39156 0.0343389 -0.857699 0.646249 Si
17 1 -0.0023226 5.53794 -0.0172526 1.40341 3.68136 4.70026 0.479863 0.525324 0.595148 Si
27 1 2.76842 5.5983 8.29491 0.79209 2.53559 3.43644 -0.352495 -0.277598 0.116074 Si
29 2 1.3861 6.92875 9.70113 1.7723 4.9292 0.465326 0.347617 0.074728 0.356366 Ge
16 2 4.06303 4.22951 9.73255 0.385453 -4.32275 -2.07651 0.55404 0.107339 0.940999 Ge
61 2 6.96907 6.88447 9.617 2.89329 -3.0102 0.171788 0.29786 0.420893 1.0049 Ge
48 2 9.74507 4.15123 9.71058 0.707555 -2.7713 -2.23011 0.166383 -0.501323 -0.926332 Ge
59 1 8.36937 5.45941 8.23138 -2.39546 -2.83949 -5.11674 -0.382734 1.06032 1.14448 Si
32 2 4.24088 9.67608 9.67045 -2.13156 -1.19308 0.484801 -0.490745 0.488973 -0.103121 Ge
58 1 5.53648 8.2549 8.23846 1.61867 0.727026 -2.01212 -0.0320561 -0.165935 0.503485 Si
26 1 0.00747622 8.25174 8.33668 1.98206 -4.48416 1.51937 0.228759 1.04767 -0.265485 Si
64 2 9.68198 9.59941 9.7143 1.57574 -1.44518 -0.13059 -0.373522 1.35859 -0.169231 Ge
ITEM: TIMESTEP
15000
ITEM: NUMBER OF ATOMS
64
ITEM: BOX BOUNDS pp pp pp
0.0000000000000000e+00 1.1085848640000000e+01
0.0000000000000000e+00 1.1085848640000000e+01
0.0000000000000000e+00 1.1085848640000000e+01
ITEM: ATOMS id type xu yu zu vx vy vz fx fy fz element
4 1 2.82806 2.76624 0.0323342 -0.155586 0.123013 3.08207 0.633902 0.360231 0.256927 Si
7 2 4.17037 1.37169 1.49062 -0.309354 -2.29787 0.45288 -0.491224 0.00801803 -0.930819 Ge
34 1 5.57339 2.71251 2.8523 -2.74809 0.414583 1.71212 -0.169804 1.48254 -0.845217 Si
2 1 -0.0379647 2.78984 2.74003 -1.58509 4.15593 -3.21041 -0.0723815 -0.250973 -0.764385 Si
39 2 9.6567 1.38316 1.34585 0.33033 -1.31928 1.09355 0.78922 0.987403 -0.677711 Ge
6 2 1.40461 4.14649 1.37586 4.97091 0.79431 -2.23286 -0.0721277 0.239917 0.316145 Ge
19 1 2.7786 5.56554 2.78955 1.11427 -1.39557 0.534867 -0.417561 -0.480312 0.0678103 Si
23 2 4.14248 6.95381 1.44733 -3.72541 -1.1006 -0.311141 0.438436 -0.150061 -1.98777 Ge
38 2 6.9201 4.12967 1.38672 -2.24436 -4.914 2.66388 0.0114047 0.213641 0.668117 Ge
49 1 5.58067 5.52666 -0.0160166 3.92076 2.56597 2.70518 -0.822108 1.30899 0.506256 Si
51 1 8.30354 5.58652 2.75988 2.27656 2.49767 2.1737 0.44397 -0.796983 -1.01213 Si
55 2 9.72891 6.94271 1.33311 -1.11433 1.53861 -3.49084 -0.602813 -0.373081 0.403041 Ge
3 1 2.73915 0.0266389 2.85326 -2.49251 0.949911 3.69705 -0.199016 -0.891413 -1.64102 Si
20 1 2.70426 8.32285 -0.0353814 1.2124 4.85424 -3.06293 0.463402 -0.962131 0.911868 Si
22 2 1.33725 9.71107 1.40153 0.914486 0.281314 -4.15899 0.729596 0.939787 -0.425108 Ge
33 1 5.49038 -0.00946609 0.0303099 -0.465372 1.84276 -5.2693 0.692129 -0.548798 0.532996 Si
50 1 5.56088 8.30669 2.81883 -5.20284 -4.32238 4.71208 -0.0313784 -0.157873 -0.487045 Si
54 2 6.94284 9.663 1.41149 -1.98268 -2.60942 4.31746 -0.333774 0.553842 -0.942297 Ge
35 1 8.33722 0.0101747 2.7249 2.9476 2.53515 1.30984 -0.0963083 -1.21021 -0.0838711 Si
18 1 -0.0158192 8.31758 2.77379 3.10989 2.03679 1.34854 0.366703 -0.631619 0.332041 Si
52 1 8.31909 8.31568 -0.0528247 3.71513 -0.356673 3.50406 0.295722 0.670461 0.692356 Si
5 2 1.30249 1.40184 4.11376 -0.950757 0.613325 -1.65329 0.476872 0.0430034 0.811365 Ge
12 1 2.73859 2.73864 5.47036 -4.92357 3.45023 -3.04637 0.385203 0.487468 0.461632 Si
15 2 4.17485 1.31382 6.78519 4.28002 -1.82514 -1.46888 -0.527607 0.685316 1.07997 Ge
37 2 6.98868 1.3105 4.11043 2.82917 -2.04045 0.376556 0.194338 1.52532 1.55544 Ge
9 1 0.00661673 -0.0010256 5.54164 0.634405 -4.6566 -2.21867 -1.46678 -0.0991473 0.422094 Si
44 1 8.31469 2.81188 5.55385 -2.19095 -1.20216 -1.06004 0.358669 -0.850055 -0.621303 Si
47 2 9.68088 1.40409 7.00248 1.43591 3.11244 0.771471 0.603009 -0.0614193 -1.34028 Ge
14 2 1.40777 4.14892 6.9033 1.18578 -0.174384 -2.18094 -0.322611 -1.09586 0.553604 Ge
21 2 1.43209 6.94584 4.21468 1.43815 0.905949 0.702823 -0.493199 0.578094 -1.34665 Ge
25 1 0.0711629 5.54964 5.54394 1.67198 -3.07395 -1.63255 -1.46673 -0.208077 -0.0925639 Si
8 2 4.1609 4.19314 4.17699 1.645 0.976101 0.444304 -0.229947 -1.09737 -0.50912 Ge
31 2 4.11695 6.95124 7.03288 -2.14602 0.474091 -0.795959 -0.146619 0.0194796 -1.74289 Ge
46 2 6.94344 4.19046 6.94442 -1.28901 -2.78814 4.07766 -0.859199 0.493405 -0.159105 Ge
53 2 6.94025 6.89317 4.16898 1.36131 -2.33809 1.24772 -0.356163 1.06936 0.55211 Ge
57 1 5.47722 5.59589 5.54442 -0.0361916 2.97966 1.04147 1.1248 -0.447235 1.40889 Si
40 2 9.7036 4.18723 4.09951 -0.127277 -0.450884 -3.6269 0.0785791 0.355223 1.42726 Ge
63 2 9.75957 6.93854 6.95576 2.61796 2.2186 1.78757 -0.437935 -0.0833207 -0.465806 Ge
28 1 2.79869 8.37524 5.53838 0.779423 2.5253 1.80772 -0.299413 -0.997604 1.47135 Si
30 2 1.35766 9.68132 6.9636 -0.583283 -0.279864 -0.337759 1.1769 1.25739 -0.657514 Ge
41 1 5.61739 -0.0500775 5.47409 0.934442 -2.74694 -0.778503 -0.625205 -0.16886 0.224519 Si
24 2 4.15794 9.69867 4.13704 1.38377 -2.13673 -0.563733 0.47255 0.295789 0.440191 Ge
62 2 6.93365 9.70133 6.9412 0.220326 -2.37412 -0.198603 0.482361 -0.0177648 0.0566899 Ge
56 2 9.657 9.68605 4.12471 -0.303593 -0.168505 -0.255281 0.925511 0.544936 0.727638 Ge
60 1 8.32897 8.3032 5.55637 1.39082 -0.99058 1.6278 -0.137366 -0.273993 0.165764 Si
1 1 0.042028 0.0867209 -0.0644027 -1.02973 1.06431 -4.85349 -0.22682 -0.984033 0.666798 Si
10 1 0.0139465 2.76519 8.36969 2.87645 0.398558 -2.69995 -0.0566098 1.13995 -1.00137 Si
11 1 2.7777 0.0486888 8.31435 -3.07816 -0.232412 1.03759 0.536894 -1.17394 -1.25683 Si
13 2 1.49629 1.45919 9.6729 -1.07234 2.71128 -3.16059 -1.2812 -0.513305 0.836502 Ge
42 1 5.5008 2.71831 8.2331 -10.7525 2.55719 4.12317 1.00063 0.112437 0.352491 Si
45 2 6.87899 1.35373 9.71169 -2.48264 3.11548 -0.71223 -0.505466 0.514536 -0.474789 Ge
36 1 8.25283 2.77788 -0.050965 0.27584 4.09547 0.517609 0.403691 -0.464985 0.900707 Si
43 1 8.31063 0.0223895 8.36339 -0.241134 5.74591 0.431189 -0.260472 -0.826401 -0.620656 Si
17 1 -0.0116067 5.48668 -0.0216896 -3.7674 -5.60049 -3.67773 -0.177899 0.0522439 1.04033 Si
27 1 2.75142 5.47767 8.34243 1.85662 -2.14997 -1.84281 0.750218 0.15576 -0.145413 Si
29 2 1.34538 6.80269 9.69853 -0.0965095 -0.371594 -0.257242 0.613302 2.12921 -0.0852831 Ge
16 2 4.21853 4.12747 9.68746 1.17308 1.33153 0.202745 -0.832206 -0.171099 0.119002 Ge
61 2 6.88573 7.02891 9.65817 -0.262254 1.73511 0.798199 0.565299 -1.77728 1.10308 Ge
48 2 9.65874 4.16604 9.71921 -2.42729 0.907483 -0.079598 0.33768 -0.38565 -0.53216 Ge
59 1 8.32477 5.61501 8.36698 1.44604 0.232214 0.461215 -0.351173 -0.507435 -1.02201 Si
32 2 4.13005 9.70276 9.69424 -1.43879 1.18775 3.00869 -0.416996 0.533298 0.342421 Ge
58 1 5.51381 8.35674 8.32617 -2.24086 0.440917 3.19716 -0.101854 0.403146 -0.471245 Si
26 1 0.0314832 8.32063 8.33649 -1.86086 -1.43842 -0.0206404 -0.140198 -1.12213 0.204935 Si
64 2 9.74181 9.70517 9.67193 1.64512 -1.40381 1.35416 -0.322842 0.620239 0.730022 Ge
ITEM: TIMESTEP
15100
ITEM: NUMBER OF ATOMS
64
ITEM: BOX BOUNDS pp pp pp
0.0000000000000000e+00 1.1085848640000000e+01
0.0000000000000000e+00 1.1085848640000000e+01
0.0000000000000000e+00 1.1085848640000000e+01
ITEM: ATOMS id type xu yu zu vx vy vz fx fy fz element
4 1 2.70386 2.79962 -0.0346716 -3.10057 -0.736192 -2.01882 -0.465479 -0.315295 0.371918 Si
7 2 4.13047 1.44246 1.34284 1.14517 1.69827 -2.3873 0.720637 -0.670966 -0.293209 Ge
34 1 5.5736 2.7432 2.74813 0.37437 -3.2613 1.1098 -0.424847 0.551463 -0.053512 Si
2 1 0.0499064 2.7107 2.78503 0.981532 0.206847 4.89825 -0.971051 0.424717 0.519735 Si
39 2 9.67452 1.3987 1.41568 -0.274381 -1.04249 3.37069 0.494691 -0.829134 0.705668 Ge
6 2 1.28241 4.14401 1.39199 -2.9251 -0.939387 0.774445 1.82097 0.374006 -0.915282 Ge
19 1 2.75872 5.48597 2.71114 -0.231738 2.71813 -1.87396 0.303298 0.137379 0.735456 Si
23 2 4.22695 6.93483 1.44782 0.35405 1.28733 2.5385 -1.258 -0.383817 -0.762386 Ge
38 2 6.9779 4.1869 1.39177 2.23103 0.0751029 -2.67939 -1.41456 -1.62341 -0.783807 Ge
49 1 5.45338 5.48625 0.0154026 0.0393548 -4.5894 -1.05847 1.55484 0.406473 -0.0454964 Si
51 1 8.31081 5.48741 2.7798 -1.03561 0.168632 2.12278 0.598564 0.980002 1.38386 Si
55 2 9.68608 6.88235 1.43103 -0.905579 0.450927 -1.21387 -0.836115 1.32909 -1.06518 Ge
3 1 2.85003 -0.0523408 2.67178 1.32443 3.27287 2.03262 -0.606665 0.867809 1.80735 Si
20 1 2.82643 8.294 0.028791 -3.73919 -0.630564 -2.84435 -0.23605 0.93614 -1.05725 Si
22 2 1.38898 9.69979 1.39418 0.15545 -1.19714 1.49815 -0.071245 -0.518105 -1.15701 Ge
33 1 5.55366 -0.0143633 0.0455105 1.08632 3.32734 1.98109 -0.311584 0.370226 -1.2283 Si
50 1 5.59764 8.36253 2.77288 3.03105 6.40135 -3.00995 -0.596985 -0.115826 0.864314 Si
54 2 6.97323 9.73745 1.40772 2.73786 0.853118 -0.503934 -0.743248 -0.559223 -0.192949 Ge
35 1 8.29702 -0.0059318 2.80081 -4.04821 1.78044 -1.35395 0.352781 0.711142 0.289812 Si
18 1 -0.0267677 8.3075 2.71698 0.0493537 1.3125 1.25263 0.465675 0.078393 1.01017 Si
52 1 8.27991 8.32362 0.0148408 -2.99956 -0.379638 -2.38354 0.864916 -0.834191 0.324897 Si
5 2 1.50913 1.36378 4.1209 0.601386 0.672443 1.07981 -0.413585 -0.166386 0.487802 Ge
12 1 2.82535 2.75925 5.61568 2.42587 -2.70117 1.8182 -1.47088 0.66203 -1.04126 Si
15 2 4.11165 1.44577 7.05208 0.433357 0.353951 1.38431 2.31189 -0.779288 -0.756179 Ge
37 2 6.86107 1.35077 4.18843 -3.84908 -1.61597 -2.89836 1.041 0.276064 0.0528144 Ge
9 1 0.0199126 0.0601764 5.51702 3.67074 1.8479 0.515694 0.779044 -1.38452 -0.789711 Si
44 1 8.31818 2.76155 5.52781 -2.30829 1.45599 3.92683 -0.748937 -0.159613 -0.0724192 Si
47 2 9.68294 1.35467 6.86137 1.48025 -1.06556 0.891209 -0.0403503 1.04362 1.4266 Ge
14 2 1.38055 4.21535 6.92515 -1.70617 1.09589 1.9424 0.154786 -0.141537 -0.807137 Ge
21 2 1.36308 6.88196 4.0639 2.87821 -2.20502 3.90703 0.141313 0.626017 1.13859 Ge
25 1 -0.0349067 5.58921 5.55032 2.54366 2.64772 1.46469 0.786534 -0.952646 -0.710248 Si
8 2 4.13829 4.08526 4.12836 -1.23295 1.57507 -1.66244 0.566646 0.844341 0.323114 Ge
31 2 4.24232 6.94645 6.93122 -0.0515642 -0.0109334 -0.588625 -1.37399 -0.582304 -0.662503 Ge
46 2 6.95143 4.17861 6.9242 1.41841 -0.66354 -0.08239 0.425668 -0.781309 -0.00716251 Ge
53 2 6.9126 6.94342 4.16126 0.460867 1.30292 -2.135 0.596733 -0.768041 0.0689991 Ge
57 1 5.53457 5.49536 5.54244 -4.64233 -0.0576132 -3.89984 0.0064449 0.522689 -0.736889 Si
40 2 9.74139 4.1167 4.18669 -0.240484 -2.17618 -0.35686 -0.279961 0.178588 -0.715787 Ge
63 2 9.65146 6.88414 6.93655 -1.16083 2.46023 -0.800508 0.241865 1.73812 0.0249294 Ge
28 1 2.75204 8.25094 5.53966 1.46381 1.34486 -5.63449 0.11331 0.42879 -0.368006 Si
30 2 1.38742 9.71174 6.91017 -0.44665 -4.23811 -0.0333454 0.022313 0.297558 -0.791677 Ge
41 1 5.49739 0.0154301 5.63341 -1.20778 5.92046 2.31204 -0.481063 0.0309176 -0.0592852 Si
24 2 4.14493 9.69634 4.20068 0.386579 0.974065 0.75079 0.544002 -0.220788 -0.523709 Ge
62 2 6.9247 9.70442 6.96876 -2.35892 0.485846 -3.08758 0.010398 -0.221829 -1.16684 Ge
56 2 9.71863 9.70409 4.1375 -4.2782 0.885266 -0.00136211 0.0355219 0.112724 0.486173 Ge
60 1 8.31295 8.33695 5.54589 -0.192813 3.34411 -0.720539 -0.130728 -0.352017 0.0461503 Si
1 1 -0.0581811 -0.00190182 0.0423004 -1.96915 1.53943 3.42476 0.369316 -0.110251 -1.13002 Si
10 1 -0.0403642 2.84618 8.24751 -1.24592 -4.73893 3.86432 0.635349 -1.83265 0.272554 Si
11 1 2.78332 -0.0196585 8.30571 -1.23776 2.22137 1.65746 -1.08326 0.300716 0.905511 Si
13 2 1.32507 1.39561 9.67977 -0.333021 -1.71575 1.96365 -0.0346293 -0.323869 -0.3019 Ge
42 1 5.67982 2.76598 8.36049 -0.105053 1.53265 -3.51999 -2.43841 0.469001 0.179659 Si
45 2 6.98318 1.35342 9.75455 2.2017 2.17653 1.24998 -0.302528 -0.285384 -0.235004 Ge
36 1 8.3463 2.73223 0.0254415 1.3687 -0.859474 -2.41423 0.282534 1.6948 -0.480013 Si
43 1 8.29107 -0.0189018 8.29038 1.30266 -0.858488 1.37974 0.395982 1.01264 0.224104 Si
17 1 0.0363841 5.65489 0.0263851 3.20433 4.03508 -2.05312 -0.571842 -1.23294 -1.29588 Si
27 1 2.75131 5.62269 8.26564 -4.75536 2.4211 2.76641 0.291791 -0.238707 0.791912 Si
29 2 1.34923 7.06108 9.62163 -1.40446 -0.168856 0.495881 0.839777 -1.01507 1.1942 Ge
16 2 4.07946 4.1381 9.66363 0.639395 -2.52656 -1.43017 1.05264 0.417731 -0.428202 Ge
61 2 6.93302 6.86926 9.7577 0.718785 1.05417 -2.73575 -0.826551 0.414952 -0.437774 Ge
48 2 9.77125 4.16966 9.70896 2.06862 -0.84182 1.08366 -1.2884 0.562321 0.873972 Ge
59 1 8.30884 5.52143 8.34118 1.13773 -0.886919 0.325351 0.347621 -0.125983 0.372062 Si
32 2 4.22027 9.67928 9.61463 2.35969 -3.36822 -0.600106 -0.604581 0.100226 2.24103 Ge
58 1 5.60226 8.28921 8.30246 2.47829 -2.53264 -3.71122 0.368611 -0.412479 0.764011 Si
26 1 -0.0541874 8.40241 8.25039 2.21608 2.23853 0.132606 -0.518808 -0.927363 0.239063 Si
64 2 9.62286 9.71215 9.66935 0.49013 -4.26136 0.0775006 1.00687 -0.0357563 0.945558 Ge
ITEM: TIMESTEP
15200
ITEM: NUMBER OF ATOMS
64
ITEM: BOX BOUNDS pp pp pp
0.0000000000000000e+00 1.1085848640000000e+01
0.0000000000000000e+00 1.1085848640000000e+01
0.0000000000000000e+00 1.1085848640000000e+01
ITEM: ATOMS id type xu yu zu vx vy vz fx fy fz element
4 1 2.83697 2.74956 0.0436202 2.83299 2.53145 2.23133 -0.354547 0.362013 -0.0372214 Si
7 2 4.1458 1.36515 1.43825 -0.801152 1.78979 4.76343 0.967256 -0.0649518 -0.779637 Ge
34 1 5.51171 2.87003 2.73409 2.92728 -0.347683 1.39177 0.330523 -1.48229 1.14573 Si
2 1 -0.050534 2.79639 2.77837 1.38868 -1.96535 -4.94134 0.78805 0.658387 0.250702 Si
39 2 9.72084 1.40825 1.37301 -2.76785 2.56105 -4.32235 0.0897846 -0.935565 -0.881266 Ge
6 2 1.48579 4.14828 1.4521 -1.75489 -1.73032 2.55844 -1.61102 -0.446109 -0.244469 Ge
19 1 2.77524 5.59086 2.85467 -0.95362 -2.37443 -1.57455 -0.0323973 0.41907 -1.45139 Si
23 2 4.13987 6.90967 1.31564 0.496258 0.590043 1.62129 0.255559 -0.190407 0.968766 Ge
38 2 6.892 4.19097 1.36827 1.49571 1.78814 0.676327 0.825042 1.0432 -0.560016 Ge
49 1 5.62434 5.63421 -0.082313 -5.11065 -0.539481 -1.90355 -1.3862 -1.40971 0.853448 Si
51 1 8.30689 5.58393 2.73834 -2.64295 -1.1441 -4.91067 -0.507991 -0.209685 0.364796 Si
55 2 9.73691 6.93597 1.41355 0.0685116 -3.14674 -1.59614 -0.504293 -0.642042 -1.06812 Ge
3 1 2.71663 0.0627166 2.83793 2.55437 -3.53559 -4.3237 0.0267129 -0.299766 -0.568596 Si
20 1 2.76919 8.32129 0.0163115 3.79465 -0.372706 4.67879 -0.699176 -0.0543843 -0.16239 Si
22 2 1.39851 9.67762 1.49566 -0.371376 0.220825 -1.59878 -0.0504194 -0.0632818 -1.10001 Ge
33 1 5.51983 -0.0290522 -0.0750985 -3.47614 -3.85177 2.29072 0.00910398 1.30999 1.01626 Si
50 1 5.48707 8.27596 2.71919 0.225351 -0.615187 0.522564 0.404936 0.854782 -0.936564 Si
54 2 6.88352 9.68525 1.3214 3.0377 -0.391089 0.296453 0.976987 -0.206391 0.717236 Ge
35 1 8.34325 -0.013109 2.75032 3.14381 -0.198408 -1.08735 -0.590384 0.436012 -0.507301 Si
18 1 -0.0412607 8.30204 2.82372 -4.48805 -0.0749063 -5.1106 0.398461 0.882676 -0.735707 Si
52 1 8.35035 8.29189 -0.0203403 -0.26415 2.81793 -0.387353 -0.36585 0.434409 -0.202394 Si
5 2 1.2976 1.42948 4.20227 -1.24261 0.00382492 -2.70629 0.145757 -0.581119 -0.167387 Ge
12 1 2.72637 2.80897 5.4953 1.62447 0.241175 1.91733 0.629477 -1.05 0.934592 Si
15 2 4.13705 1.38327 6.8698 0.0958296 1.57332 -2.48788 0.244093 -0.374995 -0.855824 Ge
37 2 7.02385 1.48668 4.1231 2.65927 -3.22325 0.139913 -1.95005 -1.45305 -0.749476 Ge
9 1 -0.0151523 -0.0436517 5.59522 -4.0502 4.23284 1.75079 0.212132 1.12243 0.692156 Si
44 1 8.37137 2.79365 5.52477 3.77479 2.03376 -2.29037 -0.495077 0.563349 1.33277 Si
47 2 9.6687 1.37199 7.00016 -0.880249 0.76057 -2.81537 0.928908 -0.144384 -1.10973 Ge
14 2 1.37848 4.05967 6.96504 0.871878 -0.974271 -0.175768 -0.0638749 1.44502 0.188852 Ge
21 2 1.32019 6.98031 4.15882 1.12575 -1.23255 -2.15005 1.26359 -1.00208 1.43046 Ge
25 1 0.007178 5.49188 5.52758 -1.83709 2.19944 3.17858 0.677865 0.956144 1.29305 Si
8 2 4.13213 4.19685 4.1794 -1.62371 -2.72247 0.679893 0.813908 0.289464 0.0256767 Ge
31 2 4.14287 6.92207 6.93277 1.56089 3.27644 2.00405 0.618081 -0.0309068 -0.405533 Ge
46 2 6.87669 4.15406 6.89263 -1.79067 0.779216 0.664336 1.30208 -0.314303 0.353115 Ge
53 2 6.87686 6.95325 4.09348 -1.50507 2.3577 2.06183 1.11499 -0.153412 0.322439 Ge
57 1 5.594 5.57874 5.51639 -1.35028 1.12569 2.77509 -1.81025 -0.155483 0.222416 Si
40 2 9.68066 4.23871 4.16523 3.15032 0.845236 -0.235982 -0.110932 -1.19172 -0.965164 Ge
63 2 9.75245 6.90567 6.94702 1.31527 -4.30696 2.12811 -1.09843 -0.303255 -0.975305 Ge
28 1 2.76815 8.3378 5.56582 -1.00778 0.287825 4.54679 -0.088401 0.197205 -0.790012 Si
30 2 1.41365 9.70305 7.01513 -1.29171 -1.05617 1.35873 -0.776907 -0.891681 -0.540924 Ge
41 1 5.56763 -0.0438214 5.43412 4.25724 -4.60292 -2.56901 0.351965 1.63467 0.906716 Si
24 2 4.14724 9.70794 4.04808 -1.20921 -2.14229 3.59219 -0.519896 -0.558923 1.89447 Ge
62 2 6.91618 9.70175 6.95365 0.356634 -1.66312 -0.917862 -0.10397 -0.450199 -1.43048 Ge
56 2 9.72509 9.72781 4.16674 -1.09856 0.544241 0.575308 -1.35406 -1.02478 0.472883 Ge
60 1 8.28418 8.27688 5.52625 1.25189 0.545657 1.31202 0.817096 0.784371 0.419534 Si
1 1 0.0987443 -0.0602405 -0.0103437 -0.157974 3.53581 0.00653102 -1.12938 0.894631 1.41349 Si
10 1 0.0190377 2.68924 8.40786 -1.07068 10.3081 -1.43185 -0.324956 0.444401 -0.484477 Si
11 1 2.81182 0.0153215 8.31705 3.98242 -0.0766292 -2.62815 -0.330185 0.189641 -0.403807 Si
13 2 1.48067 1.33278 9.75266 1.61512 5.61768 -0.0126734 -0.493417 0.735325 -0.127713 Ge
42 1 5.48479 2.75016 8.28316 7.7295 -3.75703 0.200909 0.604139 0.502901 -0.332099 Si
45 2 6.91265 1.37456 9.60378 -4.81763 -1.31323 1.09439 0.238545 0.25388 1.78704 Ge
36 1 8.28528 2.80871 0.0124179 -3.90471 -4.60994 2.13489 -0.49671 -1.34747 -0.810231 Si
43 1 8.32328 -0.0489369 8.31827 -3.22049 -2.18354 -0.995016 -0.0370434 0.287003 0.211944 Si
17 1 -0.0312378 5.41836 0.0363033 0.061228 0.836483 5.12509 0.997746 1.36459 0.294881 Si
27 1 2.84701 5.47213 8.33032 1.65412 -1.42482 -5.63766 -1.62569 0.256346 -0.381945 Si
29 2 1.41924 6.81596 9.75374 -2.33345 1.20498 -2.16655 -0.121602 0.166888 0.0751066 Ge
16 2 4.19341 4.15791 9.73632 0.891227 -3.92145 -1.2751 0.68883 -0.414238 -0.0706939 Ge
61 2 6.92967 6.97624 9.5972 2.23026 1.3237 3.31384 0.860342 0.44774 0.825031 Ge
48 2 9.64121 4.14466 9.67763 1.17809 -0.813287 0.117185 0.727437 -0.42546 0.330334 Ge
59 1 8.29873 5.55072 8.28436 -0.824778 2.18167 1.94942 -0.110059 -0.447797 -0.588398 Si
32 2 4.11322 9.72351 9.68244 -0.870233 0.198768 -3.01944 0.336548 -0.940215 0.292644 Ge
58 1 5.49044 8.35222 8.30626 -3.52288 4.76511 -0.0408013 0.108843 -0.211593 -0.372014 Si
26 1 0.0251921 8.202 8.3826 0.0798621 4.03391 -1.78524 0.777015 1.43711 -0.366642 Si
64 2 9.76108 9.69833 9.70089 0.894833 -0.666102 0.00172086 -0.388636 -0.901998 0.126375 Ge
ITEM: TIMESTEP
15300
ITEM: NUMBER OF ATOMS
64
ITEM: BOX BOUNDS pp pp pp
0.0000000000000000e+00 1.1085848640000000e+01
0.0000000000000000e+00 1.1085848640000000e+01
0.0000000000000000e+00 1.1085848640000000e+01
ITEM: ATOMS id type xu yu zu vx vy vz fx fy fz element
4 1 2.73888 2.74714 -0.0645617 -1.16445 -1.67249 -3.64666 0.317656 0.0843014 -0.232066 Si
7 2 4.1173 1.33604 1.32499 -2.95631 -0.0195848 -5.81001 -0.0477101 0.60612 1.14154 Ge
34 1 5.51677 2.67463 2.80865 -4.06376 2.68935 -5.1509 -0.369399 0.776563 -0.790562 Si
2 1 0.0348375 2.788 2.74295 -1.83028 -1.18117 1.73113 0.270868 -0.459832 -0.343238 Si
39 2 9.72158 1.34503 1.42732 1.87776 0.0126153 5.5064 -0.772393 0.697205 -0.907679 Ge
6 2 1.40433 4.1899 1.28595 3.05895 0.949654 -1.01353 -0.467779 -0.306857 1.04907 Ge
19 1 2.79043 5.52918 2.74663 -0.114385 0.547376 6.0083 -0.300385 -0.0745057 0.790905 Si
23 2 4.15501 6.94657 1.44089 -1.11307 -0.590307 -1.32333 -0.632042 0.137387 -0.739464 Ge
38 2 6.89546 4.09593 1.45665 -0.40929 -3.57784 0.331173 1.35344 0.141525 -0.132791 Ge
49 1 5.52124 5.52315 0.143901 6.08479 5.34799 -1.28158 0.0812049 0.0975712 -1.51388 Si
51 1 8.36663 5.53097 2.81163 3.17868 0.221444 1.29982 -0.835203 -0.593255 -1.36957 Si
55 2 9.70266 7.00075 1.4325 -0.371661 1.80416 0.602804 0.849831 -1.40647 -0.727392 Ge
3 1 2.73423 -0.0648375 2.7451 -0.0807124 3.624 2.63417 1.20503 0.569627 -0.517168 Si
20 1 2.75682 8.31757 -0.0329764 -0.384602 -1.56226 -2.17316 0.759153 0.436325 1.18884 Si
22 2 1.36339 9.73531 1.31597 1.68978 0.372216 1.46854 0.544322 -0.506091 -0.482515 Ge
33 1 5.61029 0.0478872 0.0190974 4.33619 -2.23681 -2.85932 -0.671508 -1.59202 0.00754567 Si
50 1 5.55614 8.22828 2.84263 -0.282316 -2.60673 2.2144 -0.118907 0.0798491 0.462867 Si
54 2 6.86255 9.65201 1.51741 -2.64249 -0.67354 -0.983931 1.2251 0.600921 -2.28655 Ge
35 1 8.29476 -0.0380127 2.80512 -1.98451 -2.70431 2.40979 0.50483 0.147947 0.371504 Si
18 1 0.128467 8.32191 2.72115 0.130013 -2.34023 4.25591 -1.6337 -0.189255 -0.186125 Si
52 1 8.30854 8.31943 0.0348726 -1.5789 -1.28785 0.55727 -1.12316 0.751253 -0.317313 Si
5 2 1.42321 1.35194 4.11132 1.37621 3.8039 0.845747 -0.723899 0.526774 0.0037303 Ge
12 1 2.78492 2.73366 5.5045 -0.220982 2.38782 -3.19988 0.739619 0.460887 0.408973 Si
15 2 4.13651 1.35076 6.99716 -0.662348 2.40299 5.07206 -0.508757 1.13366 -0.429225 Ge
37 2 6.91109 1.38471 4.19691 0.0338821 1.22285 2.67879 -0.127807 -1.43186 0.232442 Ge
9 1 -0.00326194 -0.0104395 5.46762 4.59325 -3.53849 -4.07811 -0.585727 0.86401 0.228219 Si
44 1 8.24611 2.73909 5.57431 -0.244085 -1.59201 -3.68348 1.5432 0.622598 -0.655266 Si
47 2 9.71394 1.43414 6.90666 1.5484 -0.660341 -0.449569 -0.0774325 -1.25318 -1.42174 Ge
14 2 1.41216 4.21676 6.81866 -1.69581 -2.62583 -2.34571 0.144579 -0.988786 1.26779 Ge
21 2 1.37862 6.94168 4.1394 -0.843697 0.585641 -0.59984 1.09175 -1.00236 -0.0762078 Ge
25 1 -0.0114435 5.53944 5.49657 -2.06348 -1.83667 -7.4789 -1.13517 0.635562 -0.207961 Si
8 2 4.22957 4.16553 4.16962 -2.13434 0.433374 -0.0985358 -1.38423 -0.846407 -0.258499 Ge
31 2 4.18432 6.91792 6.96014 0.50451 0.233343 -1.80904 -0.410537 0.0928637 0.101186 Ge
46 2 6.98292 4.12953 6.98612 -3.24932 -2.52054 1.68458 -1.76133 -0.02183 -0.431369 Ge
53 2 6.98417 6.83082 4.19211 -0.229872 -1.09574 -0.737549 -0.632873 1.04665 0.84466 Ge
57 1 5.5744 5.48762 5.61003 7.64226 -2.34231 -1.40329 0.441496 0.508689 -0.148588 Si
40 2 9.66267 4.08103 4.12326 0.520741 -0.664546 1.14652 0.862802 0.517448 1.34229 Ge
63 2 9.69523 6.99254 6.93123 2.08928 3.11072 -1.01179 0.630825 -1.93025 -0.203113 Ge
28 1 2.76651 8.29753 5.53725 0.507304 -0.946769 -1.25176 0.153833 0.631147 0.542494 Si
30 2 1.3541 9.78506 6.89226 2.66306 -1.17406 -0.35395 0.177846 -2.41637 -0.304815 Ge
41 1 5.52849 0.0222112 5.63383 -5.45973 -2.01287 -0.223331 0.611388 -1.70018 -0.77945 Si
24 2 4.172 9.67138 4.13184 1.82166 0.701789 -3.22375 -0.0702895 0.405448 1.36922 Ge
62 2 6.97448 9.68421 7.05428 -2.57406 -0.419005 2.52616 -0.247688 0.379504 -2.04606 Ge
56 2 9.77826 9.61385 4.06831 1.04834 2.27536 0.0749298 -1.06474 1.07457 1.25593 Ge
60 1 8.35608 8.29889 5.54102 -4.57603 -2.16607 -2.89886 -0.842498 0.835892 -0.259487 Si
1 1 -0.0493696 0.0104761 -0.0543007 3.99184 -5.91743 -3.4715 0.518577 0.428859 -0.441049 Si
10 1 0.0204515 2.78547 8.19052 -0.274053 -5.09219 2.27154 -0.35342 1.85327 1.23315 Si
11 1 2.71583 -0.0468736 8.30984 0.110703 0.0500678 1.26402 1.28881 0.709815 0.247657 Si
13 2 1.35554 1.39651 9.57322 -1.41707 -4.65879 0.0351446 -0.401344 -0.178495 1.64073 Ge
42 1 5.49712 2.82017 8.35079 -4.23039 0.0251859 2.41904 0.932686 -0.806618 0.173995 Si
45 2 6.97307 1.41332 9.69603 2.13116 5.52464 -2.01024 -1.18557 0.678483 -0.0714578 Ge
36 1 8.33386 2.76268 -0.0218305 6.38188 6.90831 2.43245 -0.0104947 0.281575 1.53621 Si
43 1 8.33983 0.107264 8.30614 1.45051 0.285623 0.51356 -0.422691 -0.817836 -0.309159 Si
17 1 -0.0093702 5.60236 -0.0465808 -0.817779 -1.70673 -3.66128 -0.623713 0.114744 0.446099 Si
27 1 2.72875 5.56817 8.35019 3.23823 3.75648 5.09542 0.677677 0.0532853 -0.964935 Si
29 2 1.3756 7.00399 9.67844 -0.630258 2.76678 0.443041 -0.625224 -0.604204 -0.237006 Ge
16 2 4.14913 4.21325 9.74052 -2.13786 1.30019 2.9382 -0.401532 -0.3577 0.218916 Ge
61 2 6.86649 6.8963 9.75424 -1.1644 -0.25119 -1.32712 1.70353 -0.717061 0.927341 Ge
48 2 9.65727 4.18778 9.67343 -0.676797 1.16346 -1.06609 1.56208 -0.530881 -0.583085 Ge
59 1 8.29328 5.55389 8.28932 -0.525151 2.85364 0.66145 0.24818 1.10723 1.01169 Si
32 2 4.16098 9.72538 9.7345 1.11757 0.122273 0.0123803 0.560961 -0.255638 -0.408185 Ge
58 1 5.58385 8.2691 8.39263 3.03634 -2.15323 1.87087 -1.4715 1.14513 -0.502704 Si
26 1 -0.0244734 8.36531 8.29525 -2.79032 -4.81461 2.70559 0.154038 0.804102 -0.136896 Si
64 2 9.62025 9.76054 9.63408 -1.21135 -1.72883 1.16297 0.885338 -1.05086 1.37759 Ge
ITEM: TIMESTEP
15400
ITEM: NUMBER OF ATOMS
64
ITEM: BOX BOUNDS pp pp pp
0.0000000000000000e+00 1.1085848640000000e+01
0.0000000000000000e+00 1.1085848640000000e+01
0.0000000000000000e+00 1.1085848640000000e+01
ITEM: ATOMS id type xu yu zu vx vy vz fx fy fz element
4 1 2.76475 2.77467 0.0609186 3.11613 0.742088 4.62477 0.481038 0.492551 -0.310629 Si
7 2 4.21394 1.45711 1.45429 -0.659857 -1.13617 1.3202 -0.932847 -0.806281 -1.42946 Ge
34 1 5.57712 2.86173 2.74183 3.73762 0.839776 2.98881 0.314217 0.0663284 0.033519 Si
2 1 -0.01693 2.75803 2.86005 -0.47868 2.75849 -0.902775 -0.573224 -0.370163 -0.425099 Si
39 2 9.67151 1.41346 1.3742 0.556458 -0.0752287 -0.938199 0.896228 0.366949 0.975003 Ge
6 2 1.30986 4.11864 1.43911 1.54082 -1.2255 0.641323 1.08886 0.56076 -0.615562 Ge
19 1 2.76696 5.54437 2.7084 0.951204 0.685069 -5.19812 -0.0544085 0.18067 0.79116 Si
23 2 4.22233 6.9507 1.36529 0.762056 1.43188 -0.229804 -0.660802 -0.783525 -0.838498 Ge
38 2 6.95354 4.23381 1.33304 -1.9922 3.12463 -2.2125 -0.614126 -1.6182 -0.00737033 Ge
49 1 5.53095 5.47082 -0.0914501 -1.32369 -0.136873 4.77219 0.325765 2.15308 0.359847 Si
51 1 8.25538 5.52938 2.78969 1.82979 2.4873 1.10537 1.06864 1.22099 0.257617 Si
55 2 9.72397 6.90725 1.43213 -1.34571 3.56169 0.52823 -1.40524 -0.0702913 -0.724986 Ge
3 1 2.8083 0.0269434 2.75429 -6.36935 -3.8218 1.0366 -0.752389 -0.332249 0.702831 Si
20 1 2.79362 8.34258 0.0356511 -0.439666 0.336691 -1.75404 -0.390372 -0.954249 -0.727843 Si
22 2 1.36973 9.62114 1.48884 -1.26536 0.743139 -0.959178 0.356492 1.92184 -1.27345 Ge
33 1 5.47217 -0.00346154 0.00216866 0.100545 4.99162 0.304815 1.37104 0.17142 -0.150731 Si
50 1 5.54477 8.42125 2.68665 0.0741559 -0.0292524 -3.97851 0.123863 -0.463287 0.499278 Si
54 2 6.99249 9.7522 1.3409 0.432237 -1.52525 2.42439 -0.686689 -0.0928082 -0.406165 Ge
35 1 8.3381 0.0582072 2.74427 1.45453 -0.106844 -3.04781 -0.622464 -0.545133 0.450289 Si
18 1 -0.0711949 8.31838 2.81172 6.20639 0.612898 -0.580787 0.60646 -0.434143 0.606596 Si
52 1 8.33572 8.28505 -0.0313089 6.18364 -2.64595 0.282569 0.409681 -0.0287796 0.0682514 Si
5 2 1.41022 1.34608 4.20035 -3.14711 -2.03938 2.74024 -0.37992 0.590028 0.492231 Ge
12 1 2.76841 2.776 5.61958 -3.39251 -1.93614 -1.45566 -0.637022 0.798963 -1.13589 Si
15 2 4.13536 1.41458 6.94801 1.04667 -2.53405 -2.5551 1.01601 -0.853188 0.102145 Ge
37 2 6.92394 1.45442 4.08404 3.78202 4.29138 -1.00533 0.81878 -0.198369 1.60769 Ge
9 1 -0.0344944 0.0119087 5.623 -5.11698 -2.40612 2.66156 0.646295 -0.895292 -1.01796 Si
44 1 8.3684 2.77788 5.58495 -2.23635 -2.69804 4.29267 -1.42409 -0.926194 -1.19737 Si
47 2 9.63993 1.33555 6.97773 -0.700102 4.01771 2.06788 1.20723 0.920163 0.495256 Ge
14 2 1.36044 4.16943 7.05199 -0.154142 -0.798368 -2.86807 -0.509684 -1.3437 -2.05601 Ge
21 2 1.36092 6.92562 4.13198 -1.76303 0.231919 2.20719 0.173125 -0.262276 0.57727 Ge
25 1 0.00204879 5.55391 5.61824 2.46361 -3.05782 4.3933 0.0317449 -0.477748 -1.00545 Si
8 2 4.14844 4.14893 4.12012 1.11023 3.13712 1.41487 -1.11977 0.121426 0.359822 Ge
31 2 4.15024 6.88977 6.89466 0.613043 1.45786 -1.43804 -0.816601 0.666744 -0.514208 Ge
46 2 6.97808 4.19639 6.83627 2.69405 -0.0908237 -1.23844 -1.3928 -0.13097 0.870572 Ge
53 2 6.8486 7.01782 4.08301 -0.485588 1.0788 -1.87059 0.903405 -0.532715 0.973088 Ge
57 1 5.46841 5.57341 5.45601 -3.40357 1.36982 1.65792 1.82168 -0.194715 0.394752 Si
40 2 9.66636 4.16684 4.21746 -2.34274 -0.700336 -0.168407 0.928632 0.491875 -0.331153 Ge
63 2 9.65883 6.88714 6.94836 0.121226 2.40596 1.88136 0.630884 1.45075 -0.0516121 Ge
28 1 2.77558 8.31189 5.51053 -1.36343 -1.64615 1.01511 -0.234591 -0.0739487 0.233851 Si
30 2 1.39393 9.67281 6.96226 -3.32291 4.51431 2.35128 0.717263 1.14302 -0.955547 Ge
41 1 5.56676 0.0438616 5.53496 2.8697 5.55226 0.645471 -0.878434 0.508127 -0.835733 Si
24 2 4.15273 9.72284 4.13229 0.0717586 -1.14583 -1.65167 0.577496 0.38489 0.418019 Ge
62 2 6.93261 9.749 6.88479 1.02959 -1.30007 1.69502 -0.784029 -1.11798 0.485904 Ge
56 2 9.65984 9.72821 4.17324 1.25545 -3.09074 -2.43629 0.407052 0.540976 0.317123 Ge
60 1 8.29023 8.357 5.5558 4.75518 -1.79527 1.97617 -0.221774 -1.27907 -0.703291 Si
1 1 -0.0119747 -0.00154578 0.0900248 -3.34363 0.727531 3.65423 0.701625 -0.908986 -0.722507 Si
10 1 -0.00717152 2.71397 8.39093 3.93195 -3.48464 -4.9282 0.219479 -0.351439 -0.605408 Si
11 1 2.77203 0.019981 8.35739 -2.50094 -4.51692 -1.38722 -0.276954 -0.324914 -0.461425 Si
13 2 1.40628 1.37667 9.7934 4.81417 2.3348 0.317361 -0.427351 -0.490026 -0.183217 Ge
42 1 5.59656 2.77406 8.26515 -0.506953 1.36923 -3.32318 0.170334 -0.172336 0.0987799 Si
45 2 6.94049 1.30125 9.68094 -2.65263 -1.97312 -1.63069 -0.631489 0.86197 0.0219697 Ge
36 1 8.27709 2.73965 0.00133745 -4.61499 -5.52609 -5.11703 0.520215 0.616518 -0.732706 Si
43 1 8.31925 -0.0942059 8.30643 0.894535 0.266705 -0.934002 0.0506286 0.762519 0.746408 Si
17 1 0.000953412 5.53912 0.0193229 -0.301244 -2.45573 3.73197 0.156643 -0.2198 -0.0299521 Si
27 1 2.76358 5.52266 8.26785 -1.23698 -5.43975 -0.841718 0.679524 0.819519 1.698 Si
29 2 1.40451 6.9146 9.70124 -0.140449 0.333994 2.90575 0.365204 0.288827 0.246203 Ge
16 2 4.14984 4.11895 9.63012 5.7686 -4.73432 -0.465928 -0.46132 -0.430068 0.564276 Ge
61 2 6.95153 6.89994 9.62002 -1.95143 1.87733 -1.87764 -0.665781 0.0630531 0.347807 Ge
48 2 9.74735 4.11411 9.71702 -4.83456 -1.40212 2.42911 -1.06056 -0.0586233 0.872976 Ge
59 1 8.36311 5.45633 8.32132 -0.324713 -4.89904 -6.00053 -0.596446 0.789715 -0.286652 Si
32 2 4.15984 9.67415 9.65348 -2.64888 0.162947 1.25539 -0.33299 0.297846 0.792842 Ge
58 1 5.50616 8.31132 8.22358 2.32842 -1.14597 0.134125 1.32059 -0.13737 0.617535 Si
26 1 0.0511817 8.31014 8.27641 1.7426 -2.46164 -1.27457 -1.04933 -1.37411 0.889276 Si
64 2 9.77238 9.67287 9.67767 1.6095 -0.311701 -2.07435 -0.512625 0.00143753 0.767706 Ge
ITEM: TIMESTEP
15500
ITEM: NUMBER OF ATOMS
64
ITEM: BOX BOUNDS pp pp pp
0.0000000000000000e+00 1.1085848640000000e+01
0.0000000000000000e+00 1.1085848640000000e+01
0.0000000000000000e+00 1.1085848640000000e+01
ITEM: ATOMS id type xu yu zu vx vy vz fx fy fz element
4 1 2.78403 2.78881 -0.034263 -5.02215 -2.974 -3.24981 -0.285481 -0.755268 0.910442 Si
7 2 4.16453 1.38106 1.41638 -0.0800225 3.25579 -2.03343 -0.259382 -0.349616 -1.17464 Ge
34 1 5.53645 2.67528 2.83683 -3.183 -3.05036 -0.906785 0.221091 0.657469 -0.536187 Si
2 1 -0.00560436 2.75918 2.6923 1.88777 -1.27687 3.43081 -0.0605426 0.905142 0.0546361 Si
39 2 9.68006 1.39528 1.34995 -2.20474 0.199038 -0.794744 0.322306 -1.02333 -0.183898 Ge
6 2 1.42 4.15824 1.37093 -1.79997 -0.508512 -1.83396 0.00571771 0.122624 0.301389 Ge
19 1 2.76719 5.54122 2.85613 0.759944 -2.38633 -0.620294 0.287072 -0.286582 -1.35661 Si
23 2 4.13809 6.92993 1.4408 1.41479 0.886747 2.48648 -0.142871 -0.326964 -0.190844 Ge
38 2 6.90178 4.06878 1.45334 1.67843 -0.361998 -0.171727 -0.467827 1.77312 -1.14395 Ge
49 1 5.51245 5.58077 0.00328772 -0.0896618 -8.56139 -2.7175 0.612445 -1.09905 1.29886 Si
51 1 8.3049 5.5562 2.72952 -2.50113 -5.85207 3.1797 0.371256 -0.572356 0.357136 Si
55 2 9.75303 6.88696 1.33805 2.21878 0.413406 1.33604 -1.67578 1.16453 -0.313329 Ge
3 1 2.78815 0.00376733 2.78579 5.79046 1.14443 -3.10329 -0.499453 -0.445762 -0.532562 Si
20 1 2.74219 8.26574 -0.00391616 1.81418 2.34102 2.59958 0.264553 0.680784 -0.469553 Si
22 2 1.37651 9.71286 1.38112 -0.75983 -4.63536 -0.121292 0.171344 -0.0390468 -0.459496 Ge
33 1 5.53767 -0.0417848 0.00853419 -3.05496 -3.42327 0.00749696 -0.286698 1.06101 -0.00158788 Si
50 1 5.52187 8.26238 2.86038 -0.222918 -0.620748 2.3598 0.296977 0.191586 -0.977828 Si
54 2 6.86002 9.67551 1.42053 -0.404573 -0.56339 2.32236 0.661358 -0.0360183 0.717034 Ge
35 1 8.29193 -0.0146584 2.79873 1.67117 1.46094 0.792055 0.747494 -0.392459 -1.49619 Si
18 1 -0.0572153 8.33015 2.73141 -3.41184 0.472035 -1.70945 1.26589 0.0308451 0.217873 Si
52 1 8.2724 8.3754 0.00522553 -3.94266 0.119498 0.7255 1.20621 -0.909366 0.705237 Si
5 2 1.37589 1.44097 4.0604 4.622 0.44343 -2.51666 0.685204 -0.615691 1.40632 Ge
12 1 2.77714 2.78775 5.50394 4.10411 -3.41339 3.65518 -0.324222 -0.756539 0.251548 Si
15 2 4.15287 1.36449 6.86342 -1.56425 4.18769 4.82865 0.991929 0.134843 -0.126072 Ge
37 2 6.9347 1.29821 4.1552 -1.02716 -1.51805 0.522679 -0.227788 1.07415 0.500449 Ge
9 1 0.0713171 0.0416371 5.52199 2.57742 2.11856 -0.672868 -0.701951 -0.801237 0.359931 Si
44 1 8.28446 2.81188 5.46593 4.15278 4.55501 1.54741 0.435217 -0.187157 1.20443 Si
47 2 9.68934 1.39687 6.90693 -2.65532 -1.38557 -5.5432 -0.00248558 0.863316 -0.213425 Ge
14 2 1.44101 4.1509 6.93983 -0.253969 3.40157 -0.0204196 -0.823406 0.928405 -0.690559 Ge
21 2 1.40399 7.01151 4.13543 0.115668 0.425542 -3.44554 -0.612434 -0.455904 0.581073 Ge
25 1 0.0432398 5.57184 5.50267 -0.840534 1.83872 -1.62042 0.553135 -0.663375 0.50912 Si
8 2 4.18481 4.11165 4.16904 1.05976 -1.75652 0.391536 0.287389 1.12428 0.500796 Ge
31 2 4.138 6.94823 7.02984 3.46844 -1.23686 0.166132 0.783781 -0.0343662 -1.77408 Ge
46 2 6.8793 4.17978 6.97318 2.28467 -1.68429 -0.514723 1.47673 -0.682749 0.230645 Ge
53 2 6.94724 6.88319 4.20003 -2.68388 0.0298574 0.70852 -0.12567 0.170723 -0.549894 Ge
57 1 5.56276 5.53998 5.5931 -2.067 -3.15796 -2.67834 -1.55305 0.23973 -0.0458157 Si
40 2 9.75434 4.19445 4.08939 -0.095042 -2.26356 2.49068 -0.820298 -0.371444 0.276952 Ge
63 2 9.74309 6.86904 6.94874 -0.499835 -1.72113 -0.547809 -0.937913 1.39525 -0.252159 Ge
28 1 2.76817 8.33843 5.59475 0.617744 0.000495448 -2.28604 0.329835 -1.16184 -0.219237 Si
30 2 1.40193 9.64259 6.96748 -0.544233 -2.47711 -0.259671 -0.833384 1.88707 0.107427 Ge
41 1 5.53514 -0.0910765 5.46359 -0.99866 -4.10533 4.47869 0.222305 0.802145 1.88188 Si
24 2 4.12282 9.64958 4.16499 -0.388249 -2.0535 0.198703 -0.10631 0.341146 -0.104802 Ge
62 2 6.96227 9.68785 6.92545 0.902202 1.44618 0.0241081 -0.390686 0.163562 0.000663061 Ge
56 2 9.71992 9.71313 4.15579 -0.100318 1.36646 0.391617 -0.253428 0.0217169 0.373912 Ge
60 1 8.3352 8.27277 5.52209 -0.210605 3.02734 0.313405 0.783884 0.349244 1.02666 Si
1 1 0.0596048 0.0277886 -0.085225 -0.345676 1.55591 -2.23481 -1.17446 0.124798 1.23078 Si
10 1 -0.0383874 2.85143 8.30555 -3.61297 -0.0744113 2.68777 0.762777 -1.40377 -1.03069 Si
11 1 2.80327 0.045448 8.27678 -0.694298 4.03176 2.7093 -0.79414 -0.999413 -0.0390142 Si
13 2 1.39354 1.42891 9.62033 -1.97335 0.393639 -0.853148 0.203073 0.434247 0.370461 Ge
42 1 5.53413 2.71854 8.3526 -2.17061 1.56789 1.25642 -1.04324 1.31416 -0.406396 Si
45 2 6.94326 1.4028 9.73717 1.76782 1.7536 1.72789 -0.597347 -0.244137 0.559179 Ge
36 1 8.32063 2.81423 0.00709521 0.660154 2.13231 3.33574 0.0801586 -0.278782 -0.329486 Si
43 1 8.29182 0.0598851 8.35352 1.25932 0.0283412 -1.39577 0.27965 -0.623127 -1.44157 Si
17 1 0.0536805 5.52491 -0.0286465 0.818151 2.64698 -5.05165 -0.390845 -0.420983 0.136362 Si
27 1 2.77959 5.55845 8.34816 -1.81038 1.41523 -2.33928 -0.287737 -0.819217 -1.12262 Si
29 2 1.37606 6.85086 9.64155 -1.41166 6.27417 -1.56912 -0.14457 2.01947 1.56448 Ge
16 2 4.09363 4.21248 9.7269 -1.65808 1.53842 1.59119 2.06846 -1.12132 -0.577015 Ge
61 2 6.92508 6.97196 9.74269 -0.329824 -1.72216 3.39459 -0.95565 0.551663 0.00609834 Ge
48 2 9.72062 4.19664 9.6754 3.2859 0.844934 -1.97642 -1.1961 0.42998 1.02207 Ge
59 1 8.27441 5.62738 8.38031 1.53577 -1.80843 4.7138 0.600902 -1.75632 -1.19514 Si
32 2 4.15093 9.71722 9.66107 0.655374 -0.203851 -1.07764 -0.759826 -0.139523 1.31569 Ge
58 1 5.534 8.3578 8.34497 -2.98056 -2.14502 0.990385 0.845703 -0.565827 -0.352811 Si
26 1 -0.0444586 8.30857 8.37728 1.23426 5.3237 -3.66619 0.476619 -0.209899 -1.06729 Si
64 2 9.65898 9.75661 9.69664 0.160835 -0.0349729 -1.05357 0.434529 -0.408584 0.395226 Ge
ITEM: TIMESTEP
15600
ITEM: NUMBER OF ATOMS
64
ITEM: BOX BOUNDS pp pp pp
0.0000000000000000e+00 1.1085848640000000e+01
0.0000000000000000e+00 1.1085848640000000e+01
0.0000000000000000e+00 1.1085848640000000e+01
ITEM: ATOMS id type xu yu zu vx vy vz fx fy fz element
4 1 2.75732 2.76902 0.00530422 4.22675 3.41472 -1.01786 -0.622827 -0.0448568 -0.880272 Si
7 2 4.14898 1.3685 1.35604 0.486934 1.51248 2.24188 0.0702361 0.820169 0.553987 Ge
34 1 5.53794 2.83017 2.69044 1.85978 -1.96444 3.11926 -0.726864 -1.77181 1.27645 Si
2 1 0.00678948 2.78767 2.76127 -1.33168 -2.12421 -2.22177 0.78516 -0.665138 0.809539 Si
39 2 9.73665 1.36793 1.47792 -0.482174 1.54958 -0.302783 -1.08496 0.170846 -1.14083 Ge
6 2 1.33135 4.17274 1.35929 1.55281 -1.28531 0.27424 0.684225 -0.0211123 0.0564349 Ge
19 1 2.74386 5.53432 2.7464 -1.65217 3.34053 3.54165 0.395543 -0.088258 0.112472 Si
23 2 4.16734 6.93575 1.37925 1.64937 2.12394 -1.0816 -0.450953 0.775767 0.394923 Ge
38 2 6.94845 4.12661 1.3988 -0.953154 -2.02296 -1.45645 0.762676 1.45525 -1.11858 Ge
49 1 5.58188 5.59767 0.0453126 -4.78762 6.04135 -3.78616 -0.424384 -1.68934 -1.73047 Si
51 1 8.33913 5.5405 2.75712 -1.69346 3.31226 -4.90361 -0.488515 -0.597222 0.795422 Si
55 2 9.67055 6.95508 1.41648 3.6381 -1.91712 -2.20098 1.24696 0.113009 0.137454 Ge
3 1 2.76909 0.00657276 2.78353 -1.17212 1.38516 2.01395 0.891608 0.603452 0.447884 Si
20 1 2.76147 8.32351 -0.0280093 -3.08069 -4.85898 0.0774352 0.0824111 0.0975204 0.754056 Si
22 2 1.40049 9.75041 1.43533 0.20969 0.514411 3.05129 -0.20905 -1.50144 -1.04479 Ge
33 1 5.59969 0.0553575 0.0168107 0.268672 -0.911168 -0.0457871 -0.514249 -1.07757 -0.78967 Si
50 1 5.59302 8.35642 2.73315 -0.760769 0.400706 -0.807594 -0.557307 -0.691621 0.548044 Si
54 2 6.95236 9.72782 1.3737 -1.1618 -0.284078 -1.71245 -0.107444 -0.359316 -0.592147 Ge
35 1 8.28316 -0.0227795 2.76272 -3.43656 0.186576 3.48954 0.161881 0.92775 1.20632 Si
18 1 0.0733329 8.29318 2.81123 -3.76553 0.755694 0.408957 -1.14939 -0.00704525 -1.0145 Si
52 1 8.3164 8.29509 0.0193864 -1.65707 2.82471 -3.64558 -0.764408 0.0338878 -0.807027 Si
5 2 1.39641 1.39295 4.18427 -4.81365 2.58572 0.896334 -0.684407 0.0473996 -0.534471 Ge
12 1 2.75541 2.80841 5.54254 -1.39491 4.26784 -1.3138 0.645693 -0.865136 0.362683 Si
15 2 4.12626 1.37688 6.97075 -1.86921 -1.25546 -4.79536 -0.542282 1.41094 0.439356 Ge
37 2 6.8527 1.42994 4.15854 2.72489 -0.0830272 -0.313598 0.653641 -1.04619 -0.34956 Ge
9 1 -0.0459059 -0.0342725 5.50783 1.17736 2.5614 3.05613 0.852019 0.403305 0.173158 Si
44 1 8.30712 2.68187 5.57025 -3.80752 -1.45381 -3.09295 0.503634 1.16868 0.203176 Si
47 2 9.75883 1.34633 7.00852 -0.617606 -0.41076 2.66356 -1.02678 -0.0470554 -1.85797 Ge
14 2 1.38799 4.16232 6.94298 0.659754 -4.45369 1.77563 -0.113662 0.764352 -0.606161 Ge
21 2 1.37689 6.88177 4.18085 0.0313562 2.992 1.54417 0.470215 -0.0324792 0.073949 Ge
25 1 -0.0530796 5.52465 5.55475 1.54748 1.59388 1.91221 0.189802 0.202391 0.118186 Si
8 2 4.15917 4.13426 4.11725 -0.881609 0.0145895 0.223061 -0.0615548 1.24926 0.552821 Ge
31 2 4.11749 6.9272 6.89672 -2.29812 1.77792 1.0938 1.38647 0.347502 0.689858 Ge
46 2 6.94488 4.1552 6.95017 -3.27679 2.0738 -2.71765 -0.254684 -0.344955 -1.06344 Ge
53 2 6.95359 6.939 4.14453 -1.62117 1.92948 -0.976363 -0.518531 0.00526821 0.192849 Ge
57 1 5.54215 5.56532 5.5627 2.43441 0.587723 1.46975 0.0909165 -0.870776 -0.992685 Si
40 2 9.69619 4.08918 4.13806 0.624241 1.28906 0.863059 -0.65723 0.803557 0.865439 Ge
63 2 9.67917 7.02954 6.91941 3.10321 -1.4833 0.866606 0.255733 -1.42357 -0.71404 Ge
28 1 2.80997 8.28203 5.50611 -0.752346 2.59444 1.11125 -0.254918 1.07504 -0.676859 Si
30 2 1.44605 9.72858 6.85504 1.60945 -3.92805 3.40149 -1.34362 -1.44134 0.469796 Ge
41 1 5.50282 0.0696008 5.63439 1.14661 0.388895 -8.74684 0.746327 -1.10684 -1.43397 Si
24 2 4.23046 9.74237 4.14564 0.920741 -1.11673 -1.93327 -0.919118 -0.463679 0.449269 Ge
62 2 6.85841 9.70248 6.99554 -0.471105 -0.321717 -2.19939 0.687319 0.702022 -1.88893 Ge
56 2 9.68514 9.63957 4.09957 -0.685919 0.149082 -0.416013 -0.354654 0.868591 1.05723 Ge
60 1 8.25088 8.37363 5.56446 -1.63448 -2.88515 -2.81994 0.396719 -0.319231 -0.525731 Si
1 1 -0.0674019 -0.0246664 0.0639206 5.01551 -0.922541 0.734767 0.694734 -0.118358 -1.13402 Si
10 1 0.0408443 2.78467 8.29868 -1.15844 3.61949 3.07928 -0.785851 0.00617925 1.40856 Si
11 1 2.7632 -0.0674497 8.31786 3.35415 0.0182831 -1.53956 0.411815 1.09624 0.601794 Si
13 2 1.33762 1.34144 9.69593 4.36832 -0.651122 2.65029 0.700441 0.0372453 0.655399 Ge
42 1 5.55296 2.79433 8.34094 6.22032 -5.78048 -0.29307 -0.106983 -0.649939 -0.0108099 Si
45 2 7.00027 1.37301 9.69274 1.10918 1.01676 0.24941 -0.399217 0.934024 0.191171 Ge
36 1 8.38999 2.7662 0.0344506 -1.41032 -2.56439 -0.105585 -0.791797 -0.620357 -0.00243492 Si
43 1 8.29802 -0.0415165 8.27252 -2.25134 0.254097 6.09984 0.481649 0.326592 1.41653 Si
17 1 -0.0568681 5.582 0.0210252 2.88735 -0.984087 3.90817 0.570692 -0.0936706 -0.602727 Si
27 1 2.76491 5.58811 8.28711 0.509085 -0.256695 3.34945 -0.414293 -0.846633 0.0104778 Si
29 2 1.37558 6.91206 9.672 -1.13078 -6.22655 -1.097 -0.412625 0.632404 0.644699 Ge
16 2 4.11206 4.18692 9.66102 -1.04996 -0.754073 1.60336 1.19795 0.360873 1.58685 Ge
61 2 6.96423 6.89797 9.63381 1.33196 1.53322 -3.10735 0.0803788 0.385985 1.21896 Ge
48 2 9.68972 4.17307 9.71893 -0.450819 -0.636275 1.06037 0.667631 0.0238732 -1.06736 Ge
59 1 8.34814 5.55107 8.23417 -2.3169 4.46231 -0.440376 0.17141 -0.069069 1.33266 Si
32 2 4.21393 9.68671 9.71577 -0.899396 -0.557713 -2.25871 -0.0907836 0.186039 -0.122116 Ge
58 1 5.57554 8.28635 8.29507 -2.3293 4.34336 -2.57537 -1.61506 -0.494658 0.659418 Si
26 1 0.0121062 8.32536 8.29444 -0.180763 -2.77774 5.65816 0.492747 0.865422 -0.133041 Si
64 2 9.6452 9.66115 9.68735 2.48168 -0.970776 -0.0836191 1.01976 0.467815 0.367335 Ge
ITEM: TIMESTEP
15700
ITEM: NUMBER OF ATOMS
64
ITEM: BOX BOUNDS pp pp pp
0.0000000000000000e+00 1.1085848640000000e+01
0.0000000000000000e+00 1.1085848640000000e+01
0.0000000000000000e+00 1.1085848640000000e+01
ITEM: ATOMS id type xu yu zu vx vy vz fx fy fz element
4 1 2.80943 2.76462 0.0909447 -1.03445 -1.52598 2.5857 0.650428 0.214385 -0.805674 Si
7 2 4.20225 1.35494 1.4963 -1.42179 -1.33533 -2.79643 -0.690858 0.152381 -1.31106 Ge
34 1 5.53666 2.82318 2.80771 -0.788371 6.01165 -6.90879 0.363397 0.283496 -0.789264 Si
2 1 -0.0073592 2.78542 2.8291 -1.29338 2.98711 -2.86887 -0.176388 -0.60857 -0.753989 Si
39 2 9.71426 1.44506 1.34425 0.329422 0.198768 1.93177 -0.051919 -0.0410495 -0.219668 Ge
6 2 1.3887 4.12524 1.47285 -2.77848 -0.25487 -3.26076 0.0109573 0.479571 -1.12697 Ge
19 1 2.79138 5.55188 2.76111 -1.40066 -3.17023 -0.305207 -0.838812 0.0993856 0.857194 Si
23 2 4.13157 6.90637 1.35888 1.21659 -0.355944 1.85706 1.13136 0.371073 -0.62717 Ge
38 2 6.92044 4.22375 1.39073 -0.0289195 -4.12219 0.331287 0.462378 -0.989832 0.202714 Ge
49 1 5.60044 5.52975 -0.0610002 4.4123 3.45179 7.34723 -1.45148 0.90685 0.504771 Si
51 1 8.31937 5.60002 2.81286 1.6121 0.29137 -0.448287 -0.504489 -0.253433 -1.60813 Si
55 2 9.68427 6.95373 1.40614 -0.497503 2.12974 -0.69108 0.748812 -1.38127 -0.619232 Ge
3 1 2.72846 -0.00569602 2.81748 0.00912387 -2.99295 -1.28252 -0.109328 -0.537031 -0.996175 Si
20 1 2.80527 8.38016 0.000110871 1.22869 2.9402 -1.87785 -0.468873 -1.41738 -0.0748846 Si
22 2 1.34957 9.66566 1.37181 -0.943288 2.19389 -1.43268 0.389707 1.42307 0.136568 Ge
33 1 5.51772 -0.0194395 -0.0206862 1.96793 2.28699 3.29404 0.126148 -0.170256 1.2812 Si
50 1 5.48207 8.3324 2.75557 1.85536 2.6644 1.6771 0.38898 0.103065 -0.192467 Si
54 2 6.95006 9.68752 1.36626 0.45299 0.51033 3.60178 -0.00782135 0.434549 0.197543 Ge
35 1 8.39178 0.045315 2.73287 0.413107 -2.11206 -4.78567 -0.872431 -0.959579 0.207398 Si
18 1 -0.0126309 8.29766 2.7541 5.03858 -0.432904 2.05882 0.141599 0.325317 0.615131 Si
52 1 8.36655 8.29655 -0.00485997 1.04046 -0.0801309 5.18047 -1.01921 0.868333 -0.427869 Si
5 2 1.35811 1.34717 4.17412 3.6332 0.529372 -0.171714 -0.548643 0.365149 0.454195 Ge
12 1 2.75383 2.71899 5.52963 -0.173298 1.19173 -0.512018 0.426986 0.838476 0.243609 Si
15 2 4.19505 1.34852 6.87784 0.0740188 -1.89379 0.797126 -0.776485 -0.168653 -0.273702 Ge
37 2 6.96789 1.44745 4.07597 -2.23033 0.885703 0.951659 0.438189 -0.611849 1.49262 Ge
9 1 -0.0409325 -0.0155309 5.57662 -4.22055 -3.01457 -3.91124 -0.220757 1.17454 0.211286 Si
44 1 8.33617 2.84957 5.53031 0.673015 -3.19996 -1.03426 -0.304176 -1.11742 -0.409575 Si
47 2 9.66045 1.43919 6.97076 0.917251 1.13926 -0.721643 0.856994 -0.622593 -1.11189 Ge
14 2 1.40578 4.15354 6.94622 2.37465 1.65913 -2.70465 -0.317447 -1.218 -0.471532 Ge
21 2 1.36277 6.94142 4.15946 -1.33292 -1.66793 1.04531 0.450726 -0.395707 0.203174 Ge
25 1 0.00537635 5.51045 5.56641 -4.80748 -0.930993 -1.42696 -0.356661 0.669845 -0.291289 Si
8 2 4.14439 4.17986 4.17355 1.53155 -3.68684 0.818661 -0.363755 -0.377158 0.00694264 Ge
31 2 4.15658 6.92455 6.9415 -0.737266 -0.061474 -1.38366 -0.288291 0.311151 -0.597469 Ge
46 2 6.95346 4.16566 6.9195 2.24446 -1.21102 1.37535 -1.2116 0.673475 -0.545403 Ge
53 2 6.92135 6.97368 4.10919 -0.524881 1.28541 2.11879 -0.115811 0.325979 0.935764 Ge
57 1 5.53781 5.58941 5.48291 -0.235687 4.14138 3.35993 0.590472 -0.406179 1.3153 Si
40 2 9.68486 4.20557 4.11148 2.41984 -4.7581 -0.87674 0.656326 -0.213246 1.48877 Ge
63 2 9.65715 6.86506 6.97365 0.0716451 3.80032 2.09833 1.34298 -0.00410121 -0.275367 Ge
28 1 2.72025 8.35676 5.57628 1.30579 -2.39123 3.34298 -0.194582 -0.660292 0.583278 Si
30 2 1.30834 9.74672 6.98357 1.13708 1.87231 -2.74023 1.17659 -0.756526 -0.268082 Ge
41 1 5.61773 -0.0296132 5.47695 -3.07463 1.16901 7.84258 -0.370042 0.341953 0.240962 Si
24 2 4.08167 9.70106 4.17932 3.61243 -1.11729 2.07933 1.28081 0.0144084 -0.163146 Ge
62 2 6.99409 9.67153 6.91579 -1.79786 -1.27647 3.65982 -0.489492 -0.00923079 0.0932032 Ge
56 2 9.73225 9.68791 4.18015 0.922333 -2.62054 -4.22496 -0.477925 0.136635 -0.82558 Ge
60 1 8.37648 8.26994 5.54622 -2.08728 3.56002 3.38896 -1.02338 0.27678 -0.240304 Si
1 1 -0.00644718 0.0181564 -0.0439001 -5.61085 2.07021 0.232783 0.726077 0.356701 0.808898 Si
10 1 0.0349849 2.73172 8.33608 2.70255 2.60126 -4.49505 -0.540073 1.31215 -0.295977 Si
11 1 2.74809 0.0497879 8.32466 -2.87218 -2.97715 -0.673704 0.688786 -0.485351 -0.471592 Si
13 2 1.42749 1.43985 9.71575 -2.7321 1.66692 -2.41523 -0.114228 -0.809953 0.855725 Ge
42 1 5.48768 2.78789 8.23137 -3.67348 4.25547 1.66523 1.82575 -1.31282 0.152082 Si
45 2 6.82796 1.2879 9.62798 2.53557 -1.64003 0.403711 0.917114 2.11639 0.0622736 Ge
36 1 8.2132 2.75461 -0.0590202 4.71502 4.42405 2.25657 0.245081 -0.397796 0.67365 Si
43 1 8.35146 -0.00203856 8.32019 -0.761019 -0.800306 -8.30188 -1.02917 -0.288464 -0.382703 Si
17 1 -0.0184185 5.47001 0.0119053 -6.03176 0.67821 0.219305 0.268963 0.705212 0.762996 Si
27 1 2.8085 5.47494 8.29843 2.58005 4.41186 -1.44133 0.0594096 1.11507 0.600868 Si
29 2 1.46007 6.86546 9.75634 -1.5433 1.29306 -1.47197 -0.884566 0.47019 -0.81673 Ge
16 2 4.2197 4.12252 9.64327 -3.06406 -0.392238 -1.00693 -1.28831 0.075781 1.81762 Ge
61 2 6.92308 6.9745 9.67487 0.221685 -2.4958 0.686313 1.22777 -1.21049 0.503815 Ge
48 2 9.67363 4.09393 9.69932 -0.66687 1.25055 3.34146 0.669757 -0.14962 0.284362 Ge
59 1 8.31911 5.47324 8.36244 1.68568 0.270242 -1.59369 -0.805617 1.19731 -0.394673 Si
32 2 4.15961 9.73176 9.67877 2.53107 -0.30425 0.388717 -0.38021 -0.221955 -0.258781 Ge
58 1 5.54218 8.30596 8.3279 5.5783 -0.921654 0.519415 -0.010067 0.930052 -0.993876 Si
26 1 0.00999952 8.26337 8.32319 -2.65234 1.13711 -2.3985 -0.127509 -0.17119 0.960735 Si
64 2 9.71961 9.72383 9.69203 -4.41842 -1.27217 -1.86053 0.167853 -1.10174 -0.114423 Ge
ITEM: TIMESTEP
15800
ITEM: NUMBER OF ATOMS
64
ITEM: BOX BOUNDS pp pp pp
0.0000000000000000e+00 1.1085848640000000e+01
0.0000000000000000e+00 1.1085848640000000e+01
0.0000000000000000e+00 1.1085848640000000e+01
ITEM: ATOMS id type xu yu zu vx vy vz fx fy fz element
4 1 2.69632 2.76096 -0.141885 -0.917218 2.15745 2.55142 0.0678657 0.174671 1.64781 Si
7 2 4.15716 1.41991 1.28185 2.2134 1.32269 1.91893 -0.490708 -0.387995 -0.190144 Ge
34 1 5.51998 2.64047 2.80057 -0.127367 -1.79341 6.99254 0.222495 1.77111 -0.578098 Si
2 1 0.0395233 2.75226 2.75684 1.07554 0.782857 3.17744 -0.945355 1.06128 -0.42076 Si
39 2 9.73249 1.34509 1.39709 1.08407 2.60238 0.21727 -0.504424 -0.00644656 0.351885 Ge
6 2 1.3926 4.19283 1.36336 -1.07822 -2.63175 0.778254 0.112495 -0.65593 -0.7309 Ge
19 1 2.77909 5.53381 2.77893 2.29958 2.36148 -2.04468 0.300354 -0.274701 -0.665369 Si
23 2 4.14938 6.92653 1.43572 0.777954 -1.18378 -1.28939 0.254971 -0.927195 -0.44271 Ge
38 2 6.92378 4.12862 1.48286 -0.765673 1.06387 -1.29847 -0.67061 -1.55148 -1.64711 Ge
49 1 5.47297 5.46653 0.0597249 3.60123 -2.88489 -5.58283 1.52464 1.67152 0.799308 Si
51 1 8.32258 5.44446 2.77969 2.27392 2.91511 6.44286 0.52569 1.40077 0.392168 Si
55 2 9.68177 6.90587 1.43849 -0.0193782 1.39419 -0.0458907 -0.0745299 0.421148 -1.65526 Ge
3 1 2.81613 0.0223219 2.65678 -1.39085 3.97546 4.92516 -0.38162 -0.206954 0.95083 Si
20 1 2.76302 8.26253 0.0403417 0.1624 3.13477 -0.234153 0.645302 1.5247 -0.13388 Si
22 2 1.40679 9.66229 1.41119 -2.12224 -3.73889 1.75946 -0.0691084 0.375963 -0.802979 Ge
33 1 5.54356 -0.0060343 -0.0236899 1.17996 0.714648 -5.09255 0.146344 0.512334 -0.372753 Si
50 1 5.58515 8.23225 2.80803 -2.83784 0.128733 -1.45605 -0.490129 0.396101 0.499018 Si
54 2 6.8508 9.65409 1.37276 -0.4895 -2.9883 -1.46066 1.20208 0.669425 0.834986 Ge
35 1 8.27323 -0.0380022 2.82188 2.00713 4.91248 1.05966 0.111224 0.0967983 -0.861354 Si
18 1 -0.0230849 8.34438 2.7624 -2.62287 -1.55081 -0.823916 -0.029757 -0.199993 0.370085 Si
52 1 8.25609 8.32225 -0.0127542 3.71093 -1.41931 -1.17651 1.30263 -0.27473 1.19935 Si
5 2 1.44688 1.41441 4.05999 -0.292707 1.38935 0.138235 1.06852 -0.0674417 1.11891 Ge
12 1 2.8067 2.77906 5.5719 -2.63705 -2.14053 -0.916898 -1.06839 0.616775 -0.532833 Si
15 2 4.12378 1.48462 7.06357 -0.078859 0.433812 -1.15698 1.25149 -1.59793 -1.48099 Ge
37 2 6.85949 1.32275 4.22942 0.434309 1.34858 -2.41736 1.15241 0.205677 0.152243 Ge
9 1 0.120714 0.0741343 5.49611 2.32767 -1.57708 0.00574307 -0.737823 -1.84117 -0.274313 Si
44 1 8.31216 2.76257 5.57405 -1.38828 4.88849 1.33299 -0.560149 -0.222736 -0.478243 Si
47 2 9.7291 1.32776 6.84346 -2.35324 0.0694441 2.67699 -0.793453 0.790726 1.04503 Ge
14 2 1.34962 4.1792 6.95083 -0.426181 0.0787993 -0.447133 0.416611 -0.218613 -1.10715 Ge
21 2 1.43471 6.97866 4.05215 -0.398654 2.16119 -0.142414 -0.856877 -0.782987 1.0147 Ge
25 1 0.0694834 5.60137 5.47066 3.38653 -0.739811 0.611763 -1.10838 -0.67901 0.243763 Si
8 2 4.17366 4.12515 4.11548 -1.19313 0.203517 1.76791 -0.272094 -0.599611 0.863021 Ge
31 2 4.20297 6.88386 6.99505 0.992597 -0.598125 -0.682346 -1.00839 -0.328294 -1.61998 Ge
46 2 6.92293 4.13938 7.00516 1.84179 -0.225703 -0.338655 0.74583 -0.457191 -0.478141 Ge
53 2 6.99887 6.79985 4.20105 -2.21755 0.793759 -2.22531 -1.39321 0.895093 -0.0281126 Ge
57 1 5.54457 5.41104 5.58188 -1.10601 -0.731797 -5.26978 0.130225 1.70402 -0.122199 Si
40 2 9.69367 4.1455 4.15935 0.0659213 -0.237812 -0.587115 1.33057 -0.688047 0.339108 Ge
63 2 9.66717 6.934 6.84315 -1.96084 -1.66269 -0.479857 1.09921 0.60387 1.24614 Ge
28 1 2.81384 8.23431 5.48036 -0.219389 2.72807 -4.97567 0.436661 0.929138 1.06469 Si
30 2 1.45256 9.67924 6.86865 -0.232071 0.152685 0.594419 0.0656368 0.563571 -0.0882795 Ge
41 1 5.47842 -0.0157322 5.63295 2.65012 1.39075 -3.9688 -0.672543 0.311723 -0.0732344 Si
24 2 4.12114 9.70076 4.10427 -1.55188 -0.426973 -0.56549 1.36859 -0.235968 0.665721 Ge
62 2 6.93765 9.72551 6.98267 0.64491 -0.989678 0.502234 -0.37446 -0.467653 -0.11179 Ge
56 2 9.72148 9.71579 4.20426 1.02333 -0.489496 2.67183 0.301021 0.440684 -0.53183 Ge
60 1 8.29636 8.33674 5.52262 3.34304 -1.41692 -0.4581 -0.182554 -0.124667 0.481948 Si
1 1 0.0506732 -0.0361028 0.0242004 -1.24249 -2.53278 -1.09635 -1.15349 -0.194722 -0.316283 Si
10 1 -0.0736241 2.74488 8.24014 0.0240903 -5.35031 2.21232 1.23399 -0.213019 -0.308525 Si
11 1 2.79731 -0.0109182 8.31703 -0.65263 3.55876 1.1106 -0.94321 -0.445729 -0.0960877 Si
13 2 1.29603 1.31227 9.60761 3.0501 0.0533316 1.73367 0.749344 0.98035 0.430897 Ge
42 1 5.58707 2.78666 8.40583 -4.22965 3.11955 -0.923814 -1.51505 1.53447 0.066633 Si
45 2 6.97209 1.48959 9.74864 -2.20714 -2.53389 0.519668 -0.216454 -2.19316 0.284648 Ge
36 1 8.37416 2.79564 0.0214252 -3.69365 -0.574606 -5.70822 0.632367 1.37019 0.0201317 Si
43 1 8.31664 0.0618161 8.35478 3.02517 1.25482 6.96395 0.0485792 -0.0666515 -0.712393 Si
17 1 0.0876582 5.64573 -0.054828 2.00079 -1.10846 -3.76211 -1.85586 -0.906439 0.329995 Si
27 1 2.68705 5.58557 8.34593 -2.71079 -2.93662 -0.0680829 1.12601 0.121231 -0.292801 Si
29 2 1.38901 7.07277 9.65986 1.72044 -2.30526 2.0677 -0.298811 -1.28694 0.111481 Ge
16 2 4.10629 4.23413 9.73073 1.26357 0.382502 -0.290797 -0.0585228 -1.61185 -1.39087 Ge
61 2 6.89436 6.92295 9.77766 -1.42755 3.90589 -1.93158 -0.882062 -0.642086 -0.882262 Ge
48 2 9.76657 4.21797 9.56435 -1.26829 -0.921109 -0.0995001 -1.0354 0.0538749 2.96104 Ge
59 1 8.28209 5.6005 8.3152 1.59403 -2.99029 1.11511 0.314462 -0.0374797 -0.372322 Si
32 2 4.12484 9.68189 9.7207 0.00764798 1.81758 -1.42573 0.271806 -0.0278035 0.260909 Ge
58 1 5.51699 8.31446 8.34361 -2.35029 -1.92952 2.72851 0.934417 0.0195213 0.537519 Si
26 1 -0.0032527 8.38918 8.27 1.33539 -1.93496 -0.575002 -1.11925 -0.270138 -0.565637 Si
64 2 9.66325 9.73971 9.71361 1.9194 0.0540796 0.66081 0.668829 -0.523971 0.0816359 Ge
ITEM: TIMESTEP
15900
ITEM: NUMBER OF ATOMS
64
ITEM: BOX BOUNDS pp pp pp
0.0000000000000000e+00 1.1085848640000000e+01
0.0000000000000000e+00 1.1085848640000000e+01
0.0000000000000000e+00 1.1085848640000000e+01
ITEM: ATOMS id type xu yu zu vx vy vz fx fy fz element
4 1 2.88418 2.76295 0.0838925 -0.559352 -2.48994 -5.93771 -0.876975 0.532786 -0.344666 Si
7 2 4.17255 1.36906 1.54673 0.992391 0.87001 -1.84668 0.0841789 -0.0408671 -1.68627 Ge
34 1 5.59439 2.87816 2.712 0.0702631 -2.91672 -1.65582 -0.378767 -1.06412 1.64953 Si
2 1 -0.0582087 2.76128 2.79144 2.18687 -1.45852 0.836143 0.204512 0.108451 0.651296 Si
39 2 9.69262 1.36085 1.36888 1.80271 -0.510132 -1.15766 0.388186 0.0517419 0.482825 Ge
6 2 1.42369 4.15107 1.49211 0.348369 -0.016981 2.44266 -0.456215 -1.22116 -1.33343 Ge
19 1 2.7698 5.57254 2.76086 -1.3581 0.887352 1.24269 0.149958 1.14118 0.398526 Si
23 2 4.11515 7.00075 1.33119 0.416714 3.19624 1.04698 0.746908 -0.913031 0.989671 Ge
38 2 6.89664 4.23233 1.34463 -1.80783 1.42206 1.77814 0.185391 0.137901 -1.30726 Ge
49 1 5.50767 5.63615 -0.0678859 -5.91133 -4.07258 1.01298 0.505384 -1.36319 -0.432682 Si
51 1 8.268 5.60088 2.68916 -2.63245 -6.06384 -5.91266 0.286474 -0.182451 1.60359 Si
55 2 9.71459 6.92936 1.40628 1.78934 1.00011 1.27244 -0.206129 0.534179 -0.645318 Ge
3 1 2.72924 -0.0347864 2.83955 0.433592 0.00710828 -6.94106 -0.199584 1.24325 0.57939 Si
20 1 2.76136 8.31738 -0.0198339 -0.261453 -3.47704 1.6874 -1.09673 -0.231386 -0.441962 Si
22 2 1.42885 9.73852 1.38616 -0.0264135 -1.63855 0.968709 -0.771942 -1.08799 -0.0785942 Ge
33 1 5.47239 -0.0219924 0.041586 -3.81617 -0.542614 2.26616 0.759868 0.889804 -0.587716 Si
50 1 5.54697 8.35911 2.72009 3.42355 -1.71557 -0.904393 0.242476 0.591262 -0.485086 Si
54 2 6.996 9.77967 1.32656 -3.28626 -1.3753 -2.51589 -1.11447 -1.88147 0.51532 Ge
35 1 8.33942 -0.0155714 2.76692 -0.107886 -3.16835 0.491689 0.0524942 1.00713 0.194735 Si
18 1 0.0171981 8.31982 2.764 1.31392 2.45579 -1.57791 0.271222 -0.0374547 -0.0424712 Si
52 1 8.35007 8.30202 -0.0303233 -4.61116 -0.0100112 -3.73198 -0.170113 0.0248254 -0.162843 Si
5 2 1.24143 1.31863 4.24929 -2.3694 1.11373 -0.566002 1.39167 0.746698 -0.695599 Ge
12 1 2.75626 2.78153 5.51886 3.42484 -1.45275 2.4768 0.0335765 -0.611553 -0.284232 Si
15 2 4.18499 1.33271 6.83866 -2.5554 2.53885 1.9696 -0.594487 0.0230429 0.319733 Ge
37 2 7.00403 1.49602 4.11973 -1.85729 1.03131 1.65151 -1.01415 -1.68378 -0.667996 Ge
9 1 -0.120337 -0.0567974 5.64944 1.80615 6.82131 3.4173 0.49719 0.522146 -0.486373 Si
44 1 8.35418 2.75549 5.55016 3.91741 0.81373 1.95661 -0.153802 1.38993 0.639982 Si
47 2 9.70724 1.41845 7.05432 -0.23427 -0.417032 -4.13937 -0.26545 -0.233498 -0.962932 Ge
14 2 1.39748 4.07861 7.02581 0.669298 -1.02433 1.09761 0.25067 1.47171 -1.79732 Ge
21 2 1.33997 6.90391 4.18971 -0.758833 3.43832 -1.45111 0.392261 0.340807 0.843144 Ge
25 1 -0.0647935 5.48006 5.62546 3.35116 1.85254 0.0656881 1.50277 0.54684 -0.410151 Si
8 2 4.17442 4.21178 4.08344 1.49992 -0.0415323 -0.996904 -0.0112833 0.0235308 1.62737 Ge
31 2 4.07375 6.99757 6.92512 1.197 0.271785 2.98948 1.78748 -0.501914 -0.123675 Ge
46 2 6.87457 4.18482 6.84663 -1.54474 0.754064 -0.687473 1.25381 -0.532618 0.238567 Ge
53 2 6.94412 7.00978 4.10578 2.04256 -1.32795 0.0748712 -0.678047 -0.961658 -0.0739824 Ge
57 1 5.53563 5.66068 5.52482 -2.08059 -2.9198 1.87295 -0.808001 -0.543141 -0.888274 Si
40 2 9.632 4.22281 4.14531 -1.32356 0.263517 0.758459 0.284914 -0.908572 -0.244683 Ge
63 2 9.71671 6.93068 6.9876 -1.83779 -1.92204 -2.21578 -0.650138 -0.288889 -0.7739 Ge
28 1 2.70885 8.39137 5.62185 -0.133462 -3.91386 1.26354 -0.213085 -0.675227 -2.02538 Si
30 2 1.32953 9.72594 7.00221 0.137419 -0.935601 1.59316 0.0707669 -0.355148 0.0240048 Ge
41 1 5.58561 0.00238524 5.43163 0.1234 -1.3142 2.95015 0.481286 0.635841 0.375854 Si
24 2 4.16055 9.70546 4.14518 -3.28984 -1.7477 -1.29689 -0.472452 -0.741971 0.430722 Ge
62 2 6.95535 9.70283 6.84238 2.44476 1.49578 -0.487495 -0.652337 -0.182374 0.0337643 Ge
56 2 9.68766 9.65863 4.13372 2.03157 -1.46602 0.527148 -0.100182 0.12741 0.845096 Ge
60 1 8.31789 8.27099 5.5365 1.1531 0.679852 -1.07681 0.870884 0.533767 -0.0385378 Si
1 1 0.05835 0.0278499 0.00205454 5.17509 3.22293 2.81255 -0.574731 -0.10674 -0.0361447 Si
10 1 0.0435633 2.80498 8.42415 -2.46697 1.66546 -0.381701 -0.856967 -1.20624 -0.0669771 Si
11 1 2.79219 -0.0278104 8.31926 2.40364 -1.16502 -0.13061 -0.0848899 1.18955 0.354245 Si
13 2 1.44036 1.44326 9.75472 -0.0387171 -2.49868 -0.985094 0.899573 -0.986598 -0.042424 Ge
42 1 5.60883 2.67347 8.20279 6.21943 -5.05707 -1.26635 -0.877975 0.856629 0.111466 Si
45 2 6.88954 1.29939 9.62827 0.987301 2.63685 -0.472548 0.533723 0.072721 1.62273 Ge
36 1 8.25376 2.70837 0.0483656 -0.0938678 -3.12889 2.22057 -0.520638 0.166351 -1.41639 Si
43 1 8.30711 -0.0785462 8.27466 -1.2235 -0.93076 -2.35442 0.465059 0.736362 0.981073 Si
17 1 -0.0626695 5.43507 0.118568 4.25758 1.52527 3.69691 1.50504 0.917397 -1.72064 Si
27 1 2.88392 5.46821 8.28043 -1.62076 -1.37757 -1.96554 -1.8099 0.356419 0.600431 Si
29 2 1.41293 6.8015 9.6977 -0.396934 2.29527 0.893494 -0.489302 0.273536 0.902404 Ge
16 2 4.24879 4.06969 9.607 1.0881 0.308213 1.92044 0.175113 0.384018 1.58903 Ge
61 2 6.97527 6.90875 9.59532 0.470124 0.0155949 2.4119 -0.874402 1.26864 0.904494 Ge
48 2 9.65148 4.08881 9.75328 1.88275 0.945575 -3.72688 -0.271555 0.790223 0.0895344 Ge
59 1 8.31059 5.49864 8.26627 -2.15856 1.37493 1.10828 0.321961 -0.624349 0.490609 Si
32 2 4.15218 9.66089 9.7219 -0.758742 -1.64799 0.505222 0.237728 0.465746 -0.777083 Ge
58 1 5.54919 8.35665 8.24723 -0.453019 1.60492 -3.69495 0.0825472 -0.55085 0.562786 Si
26 1 0.011746 8.28241 8.36157 2.43356 2.49983 0.581862 0.544811 -0.370916 0.372927 Si
64 2 9.74602 9.70185 9.70818 -2.43378 1.38842 0.798432 -0.215182 -0.0126658 0.0561464 Ge
ITEM: TIMESTEP
16000
ITEM: NUMBER OF ATOMS
64
ITEM: BOX BOUNDS pp pp pp
0.0000000000000000e+00 1.1085848640000000e+01
0.0000000000000000e+00 1.1085848640000000e+01
0.0000000000000000e+00 1.1085848640000000e+01
ITEM: ATOMS id type xu yu zu vx vy vz fx fy fz element
4 1 2.67994 2.76073 -0.0351864 2.1201 -0.427106 0.652682 0.000480664 -0.309647 -0.861192 Si
7 2 4.13984 1.35867 1.2925 -0.200452 1.04207 2.28039 0.395786 0.0410844 0.330877 Ge
34 1 5.48477 2.71181 2.76266 0.329563 2.05359 -4.02133 0.216872 -0.172557 -0.699537 Si
2 1 0.0332826 2.7647 2.72242 -0.930262 -1.79512 -1.73479 1.10084 -0.0219373 -0.0537802 Si
39 2 9.69047 1.40341 1.42172 0.384347 -0.0596883 -0.993942 -0.317685 -0.337472 -1.57887 Ge
6 2 1.3487 4.20145 1.28096 -1.15878 0.700117 -0.572973 -0.168866 0.193504 1.23993 Ge
19 1 2.7721 5.47831 2.81288 1.49573 -5.32706 -0.980342 -0.262077 -0.722159 -0.974272 Si
23 2 4.13476 6.82928 1.4429 -0.348957 1.94902 -1.48545 0.561916 1.79352 -0.595005 Ge
38 2 7.00391 4.05239 1.47997 -0.46728 -0.725876 1.97377 -0.402871 1.81953 -0.351751 Ge
49 1 5.62284 5.50305 0.0871479 -1.3292 4.2463 -0.60211 -1.469 -0.741943 -0.220934 Si
51 1 8.35205 5.54677 2.88483 0.460905 1.39194 -0.409322 -0.73705 -0.878849 -2.02031 Si
55 2 9.64429 6.91358 1.4144 0.052109 0.695963 2.74972 1.58355 0.206933 -0.099937 Ge
3 1 2.83333 -0.0297963 2.7599 2.01472 -4.57311 1.87947 0.351134 -0.315327 -1.36118 Si
20 1 2.7737 8.32249 0.000188284 2.23196 0.532564 1.00205 1.01769 0.0971306 0.743122 Si
22 2 1.36832 9.72265 1.35711 0.0741672 0.631359 -1.50191 -0.188257 -0.661593 0.618996 Ge
33 1 5.67639 0.0194271 -0.0356873 -0.193096 -4.16763 0.556456 -1.81883 -0.562169 0.796245 Si
50 1 5.50854 8.28856 2.83597 -0.762081 -2.68306 2.36071 0.368006 -0.532743 -0.165801 Si
54 2 6.91666 9.69488 1.49052 1.56618 1.85951 -1.38115 -0.200197 0.0393663 -1.20433 Ge
35 1 8.27471 0.0352304 2.78131 0.126431 -1.01378 1.52057 0.437748 -0.310406 0.175914 Si
18 1 0.010335 8.28883 2.81088 -0.377414 -1.08287 -0.390714 -0.236865 0.484466 -1.03185 Si
52 1 8.29663 8.34438 0.0873896 1.62021 0.0595432 2.04288 -0.462286 -0.373508 -1.19034 Si
5 2 1.56042 1.39461 4.068 -2.19394 -1.13509 0.479466 -2.85001 0.357406 0.786541 Ge
12 1 2.78587 2.7871 5.55879 1.01244 0.851256 -0.84331 0.499523 -0.293033 1.09605 Si
15 2 4.19156 1.39788 7.02784 0.0876153 1.0155 2.2639 -1.52949 0.880547 -0.689635 Ge
37 2 6.81594 1.32058 4.11743 1.72214 4.85953 2.06776 0.919671 0.734871 1.36807 Ge
9 1 0.0563995 -0.0272074 5.3885 -1.66122 -4.25665 -2.74887 0.479608 1.62467 1.50447 Si
44 1 8.2489 2.73209 5.4894 -0.124088 -4.32193 -1.26727 1.12042 -0.166635 0.291025 Si
47 2 9.76262 1.38894 6.87132 0.687759 -0.439549 1.11793 -1.29012 -0.995128 -1.81028 Ge
14 2 1.36867 4.24248 6.92163 -0.695259 -1.00922 1.55292 0.267023 -0.43492 -0.302541 Ge
21 2 1.44593 6.89444 4.14381 -1.77295 -1.28709 -2.21795 -0.918376 0.376642 -0.132812 Ge
25 1 -0.0230742 5.57829 5.47326 -6.44619 -2.46216 -0.391773 -0.0748942 -0.0791641 1.14756 Si
8 2 4.18066 4.09111 4.1704 2.16512 -1.91533 -2.62479 0.0757177 0.868563 0.263767 Ge
31 2 4.19397 6.87808 6.9244 -2.39324 1.83315 -1.08124 0.0327745 0.584321 0.367943 Ge
46 2 6.98437 4.0979 7.03827 0.222044 -1.10328 -0.854255 -0.991434 0.622118 -1.22755 Ge
53 2 6.945 6.89588 4.20824 0.33159 1.256 2.87417 -0.446429 0.75977 0.226481 Ge
57 1 5.60834 5.46482 5.56892 5.74729 -1.31862 2.30428 -0.417013 -0.207301 0.515108 Si
40 2 9.73781 4.10842 4.09885 -0.816427 -0.838984 0.873499 -0.393052 -0.0273109 1.75022 Ge
63 2 9.68232 7.00794 6.9274 0.375627 3.01999 0.324312 -0.0393833 -1.60568 -0.745783 Ge
28 1 2.82179 8.26345 5.49033 0.329474 3.89597 2.44283 0.14663 0.419538 1.10021 Si
30 2 1.40132 9.68268 6.82762 0.852414 2.74954 -4.01936 -0.273171 -0.402664 1.043 Ge
41 1 5.51481 0.00882371 5.63133 -2.16335 -1.34076 -1.75775 0.444544 -0.511429 -0.127007 Si
24 2 4.19072 9.72926 4.20914 3.0855 -1.20423 0.616446 -0.377708 -0.666278 -0.40447 Ge
62 2 6.87662 9.65598 7.00272 0.164479 -0.480029 1.04212 0.841773 1.23014 -0.280775 Ge
56 2 9.67216 9.74097 4.13899 0.485262 -2.51111 -0.731729 -0.14461 -1.0755 -0.452741 Ge
60 1 8.27844 8.37011 5.55692 -3.18285 -1.59978 -0.161615 0.173679 -0.245582 -0.00611975 Si
1 1 -0.115219 -0.0594394 -0.0394787 0.71922 -2.93535 -4.54149 1.21734 1.5569 0.511147 Si
10 1 -0.0219048 2.76161 8.2083 1.40232 2.80151 0.0540823 0.215458 1.7932 0.592728 Si
11 1 2.72265 0.00628213 8.315 0.819704 -1.84372 -0.527648 0.277187 -0.422876 -0.227872 Si
13 2 1.23547 1.39501 9.61129 -3.03738 2.80511 -1.12065 1.47819 -0.927974 1.56573 Ge
42 1 5.43068 2.88913 8.42943 1.0751 -1.67938 0.770148 1.74047 -1.46485 -0.617146 Si
45 2 6.96827 1.45653 9.69877 -1.19806 -1.76232 -1.57401 -0.145819 0.745437 -0.402839 Ge
36 1 8.38714 2.84935 -0.0484256 1.34263 0.0497173 3.84048 -0.188945 -1.47725 1.25544 Si
43 1 8.32359 0.0666527 8.29071 0.228915 -0.500514 -0.757628 -0.352276 -0.779787 -0.378453 Si
17 1 -0.00661667 5.64276 -0.129431 -5.702 -1.07181 1.46686 -0.173229 -0.531311 2.18537 Si
27 1 2.7131 5.66729 8.3739 5.80237 -0.151803 1.59283 0.652109 -1.51372 -2.13347 Si
29 2 1.40784 7.02211 9.67586 1.03462 2.0999 -2.39023 -1.12776 0.476685 0.484886 Ge
16 2 4.02024 4.25812 9.73333 -0.0802672 0.243581 -2.01142 1.38437 -0.140201 1.4921 Ge
61 2 6.92165 6.90534 9.75388 1.54548 -3.73109 0.440736 1.44314 -0.136164 0.793805 Ge
48 2 9.76106 4.17857 9.65638 -0.508267 -0.130323 0.645155 -0.146181 0.143769 -0.780826 Ge
59 1 8.34948 5.55499 8.33478 -0.533485 0.917807 -3.03046 -0.143497 0.547601 -0.0262532 Si
32 2 4.19791 9.7206 9.69514 -0.457045 0.371298 3.21029 -0.375122 -0.0799108 0.48896 Ge
58 1 5.56736 8.24124 8.39675 -1.42942 -0.237518 2.61873 -1.1387 0.544902 -1.13041 Si
26 1 -0.0281707 8.31191 8.31413 -1.78474 2.60054 -1.26183 0.883874 1.55703 -1.00106 Si
64 2 9.64201 9.68994 9.65434 -0.381931 1.01915 0.173465 -0.526318 -0.374674 0.55144 Ge
ITEM: TIMESTEP
16100
ITEM: NUMBER OF ATOMS
64
ITEM: BOX BOUNDS pp pp pp
0.0000000000000000e+00 1.1085848640000000e+01
0.0000000000000000e+00 1.1085848640000000e+01
0.0000000000000000e+00 1.1085848640000000e+01
ITEM: ATOMS id type xu yu zu vx vy vz fx fy fz element
4 1 2.83963 2.79869 0.0624161 1.44785 0.0963378 4.14669 0.856132 -0.211583 0.0505624 Si
7 2 4.20415 1.39658 1.51299 2.27176 -0.225186 0.173219 -0.948869 0.979781 -0.857109 Ge
34 1 5.58898 2.80255 2.87388 1.1542 0.24621 3.28871 -0.524657 0.293986 -0.905782 Si
2 1 -0.0151007 2.8188 2.76672 -2.81084 0.599604 0.626354 -0.553318 -0.854998 0.244178 Si
39 2 9.67031 1.39322 1.3877 1.77946 2.31925 2.04371 0.331805 1.15345 0.229736 Ge
6 2 1.42629 4.14985 1.43897 0.744576 -0.210899 -1.04428 -0.198011 -0.163763 -0.587449 Ge
19 1 2.75223 5.6209 2.70759 -0.335556 5.34774 3.53988 0.306641 -0.645298 1.52608 Si
23 2 4.14407 6.94105 1.35157 -1.1947 -2.76431 -2.03412 0.857582 0.416319 -0.606822 Ge
38 2 6.89898 4.18696 1.37488 -0.758859 -2.32528 0.721588 0.109168 -0.867631 -0.0416143 Ge
49 1 5.5585 5.54834 -0.0523877 6.24431 1.9755 1.64795 -0.196254 1.13979 -0.541582 Si
51 1 8.30301 5.5542 2.69713 0.906365 2.99906 3.98918 0.450748 0.0233658 0.417221 Si
55 2 9.70995 6.89303 1.30811 -1.20084 0.173073 -2.3248 -0.0826194 0.479944 0.930714 Ge
3 1 2.70648 0.0622169 2.7845 -3.48587 1.72049 2.43875 0.438691 -0.629027 0.461577 Si
20 1 2.74956 8.31911 -0.0211083 -3.04943 -1.10015 -3.15377 -0.221975 -0.632081 -0.333774 Si
22 2 1.4029 9.6968 1.43501 -0.622657 0.322507 -0.582307 -0.509263 0.525021 -1.02589 Ge
33 1 5.45485 0.0206158 0.0539209 5.99096 3.85197 -2.42292 1.23123 -1.30351 -0.50421 Si
50 1 5.53973 8.35135 2.7356 -2.78222 1.99295 -2.69939 -0.511619 -0.481517 0.234512 Si
54 2 6.95258 9.6731 1.36607 -0.866232 -0.922394 1.13581 -0.0695694 0.64133 -0.850371 Ge
35 1 8.35515 -0.0241277 2.73337 -0.846367 0.0298997 -0.496127 -0.372734 -0.6542 0.340152 Si
18 1 -0.0303692 8.3192 2.74254 1.15567 -1.34498 4.2791 0.246678 -0.454565 0.865379 Si
52 1 8.35238 8.29291 -0.0715558 1.24719 -0.0536017 1.72479 -0.197278 0.902121 0.703799 Si
5 2 1.2897 1.3771 4.16575 1.78215 0.436918 1.35514 0.0985897 0.48289 0.573838 Ge
12 1 2.70064 2.75867 5.52024 -2.74503 1.44242 -2.38487 0.792875 0.123204 -0.71843 Si
15 2 4.19374 1.36643 6.76503 3.41963 -2.16291 -2.75891 -0.632102 0.117334 2.04082 Ge
37 2 6.97526 1.30661 4.11184 -3.36209 1.7558 -4.10598 0.821933 2.04614 1.29095 Ge
9 1 -0.0391054 0.0390385 5.68165 -2.16989 -4.1662 -0.557576 -0.061679 -1.09639 -1.23203 Si
44 1 8.32155 2.82062 5.58918 -4.37638 -1.10784 -2.40696 -0.32391 -0.857945 -0.695595 Si
47 2 9.6768 1.41649 7.07048 1.5221 3.84203 3.51427 -0.331127 0.0657733 -0.655434 Ge
14 2 1.39237 4.10025 6.96055 -0.919447 -0.643129 2.50391 -0.829932 -0.510843 -0.822825 Ge
21 2 1.4309 6.98178 4.17326 1.82109 3.4042 2.7163 -1.01383 -0.26558 -0.337952 Ge
25 1 0.0879138 5.54157 5.59745 3.10211 -0.140023 -1.96918 -1.08111 -0.248037 -1.44814 Si
8 2 4.08609 4.21655 4.15466 0.0445249 0.0423639 0.725454 0.0139414 -0.425962 -0.139462 Ge
31 2 4.12274 6.94275 6.97299 -1.49423 -1.40494 -2.13703 -0.633802 0.227503 -1.19433 Ge
46 2 6.87107 4.21925 6.93716 0.467261 -0.448998 0.996652 0.310878 0.414512 -1.00922 Ge
53 2 6.94347 6.92696 4.07859 0.0149996 1.98102 -3.01171 -0.57342 0.733631 1.19249 Ge
57 1 5.43069 5.64664 5.50722 -0.847315 2.97572 -2.33527 1.95362 -1.14173 0.224491 Si
40 2 9.69493 4.21191 4.13097 -0.498175 0.550837 -2.60076 0.341515 0.055313 1.03996 Ge
63 2 9.71764 6.86032 6.94139 -1.11375 0.941589 0.920154 0.260203 0.796463 0.107462 Ge
28 1 2.78679 8.35238 5.57031 -1.18713 -3.60464 -2.01729 -0.277465 0.040215 -0.0306426 Si
30 2 1.37387 9.6574 7.00371 -1.25455 -1.41481 1.3077 0.450691 1.26824 -1.4391 Ge
41 1 5.60292 -0.0246385 5.47229 2.77385 1.24955 -1.15667 -0.821917 -0.495859 -0.313762 Si
24 2 4.09645 9.74409 4.11424 -1.62374 1.41126 1.01376 1.13127 -0.410433 0.466032 Ge
62 2 6.94439 9.70323 6.89345 0.945283 -2.42854 -2.2975 0.349041 -0.176464 -0.0735986 Ge
56 2 9.68927 9.69753 4.19077 1.01646 1.3291 2.70096 0.847629 0.388298 0.102035 Ge
60 1 8.35609 8.27294 5.55814 0.437818 -0.443334 -0.903783 -0.841249 -0.199413 -0.49047 Si
1 1 0.041612 0.0910347 0.0823958 -2.57393 -3.82635 2.59732 0.39456 -1.79588 -1.37361 Si
10 1 0.0429497 2.77238 8.40602 1.65416 -7.16276 -0.701262 0.128233 -0.654611 -0.371131 Si
11 1 2.7771 0.0202627 8.2754 -1.59961 -0.20348 0.751161 0.846441 0.0922917 0.0171949 Si
13 2 1.5058 1.41087 9.76286 -0.0680141 0.386631 0.796984 -1.26932 -0.0932858 -0.140636 Ge
42 1 5.56123 2.73813 8.23975 -5.13153 3.98171 1.66185 -0.309884 -0.641747 0.314327 Si
45 2 6.87345 1.35522 9.74414 -1.34969 0.483164 -0.322873 -0.164774 -0.192045 -0.879192 Ge
36 1 8.24709 2.74034 -0.00603053 -1.41845 2.6173 -5.95715 0.636104 0.556236 0.334693 Si
43 1 8.28863 -0.0592365 8.38544 0.0612063 1.09327 0.641297 0.353629 0.59119 -0.0894643 Si
17 1 0.0141171 5.44505 0.0674264 2.42305 -1.59448 -4.41038 -0.39934 0.124264 -1.57107 Si
27 1 2.75069 5.43986 8.22809 -2.37997 2.28025 3.21739 1.21439 1.24671 2.46844 Si
29 2 1.37751 6.79222 9.71416 3.65849 -4.93239 2.71058 0.493351 1.06512 -0.388429 Ge
16 2 4.21496 4.1114 9.63876 -2.1957 0.197135 -1.48888 -0.896204 0.400459 0.412771 Ge
61 2 6.89941 7.0756 9.60631 -1.06793 3.35382 -2.74488 -0.000599346 -2.44317 0.897823 Ge
48 2 9.68298 4.10734 9.69443 0.659057 -2.49679 0.430545 -0.270577 0.700028 1.3109 Ge
59 1 8.30171 5.55829 8.34767 0.245261 -2.65955 0.75133 -0.344161 -0.106585 -0.382522 Si
32 2 4.13821 9.68385 9.65048 0.080787 1.18223 -1.05369 -0.28984 1.09534 0.789754 Ge
58 1 5.4991 8.38298 8.22225 3.59664 -0.537261 -0.806558 0.40842 -0.212073 0.715922 Si
26 1 0.0441065 8.26104 8.29547 -1.9929 -9.80512 5.52629 -0.725578 -1.00838 1.47872 Si
64 2 9.79631 9.68042 9.71348 2.18259 -0.475725 0.247287 -0.198002 0.688352 0.269099 Ge
ITEM: TIMESTEP
16200
ITEM: NUMBER OF ATOMS
64
ITEM: BOX BOUNDS pp pp pp
0.0000000000000000e+00 1.1085848640000000e+01
0.0000000000000000e+00 1.1085848640000000e+01
0.0000000000000000e+00 1.1085848640000000e+01
ITEM: ATOMS id type xu yu zu vx vy vz fx fy fz element
4 1 2.68509 2.775 -0.0785519 -5.61407 -0.256427 -2.15626 -0.0792902 -0.325397 1.04384 Si
7 2 4.08883 1.3755 1.32278 2.15067 0.526382 -0.572442 0.87976 0.13604 -1.05261 Ge
34 1 5.49755 2.76347 2.65962 -0.570738 -1.41562 1.14776 1.27223 -0.220712 0.994263 Si
2 1 0.0250514 2.72144 2.84026 2.85736 2.55207 -2.30264 -0.701506 0.299206 -0.885879 Si
39 2 9.69672 1.35098 1.40233 -1.02205 -1.07502 -1.31534 1.17885 0.156701 0.373215 Ge
6 2 1.34956 4.13462 1.44132 -1.44325 0.995287 -1.60137 0.267549 0.333417 -1.42433 Ge
19 1 2.77082 5.48301 2.80404 -0.655098 -2.11539 -6.30595 -0.101999 0.863995 -0.758256 Si
23 2 4.16343 6.96982 1.4731 -0.741911 0.359537 3.22417 -0.227765 -1.24098 -0.877305 Ge
38 2 6.97966 4.18324 1.3604 -0.144399 -1.89606 1.92613 -1.67257 -0.734662 -0.42535 Ge
49 1 5.44911 5.51123 -0.0173402 -0.208904 -6.00647 3.22524 1.76769 0.657698 1.5413 Si
51 1 8.31281 5.50858 2.77174 -0.887415 -2.47754 -1.34304 0.0904888 0.929474 0.715232 Si
55 2 9.68404 6.94744 1.47442 -0.122448 -0.0909168 -1.30389 -0.185864 0.474363 -1.84851 Ge
3 1 2.84041 -0.00122723 2.76021 2.6138 0.951917 -2.7312 -0.959894 -0.433001 0.233217 Si
20 1 2.79052 8.30728 0.0329929 1.17883 1.88216 2.77501 0.0396042 0.299386 -0.325637 Si
22 2 1.41725 9.70183 1.41176 0.654825 -0.858986 0.148759 -0.329407 0.438793 -0.802336 Ge
33 1 5.54718 -0.0265293 -0.0398739 -4.88476 1.74486 3.09807 0.44048 1.50551 -0.341712 Si
50 1 5.59616 8.35808 2.79731 3.4081 1.5678 3.49181 0.140014 -0.114312 -0.0672554 Si
54 2 6.94829 9.77513 1.34732 -0.325208 -0.97536 0.120126 -0.864572 -0.839464 1.30646 Ge
35 1 8.27974 0.0416542 2.78665 1.13647 0.283872 -2.98063 0.0071005 -0.184473 -0.439364 Si
18 1 0.00867365 8.34538 2.78126 -1.71786 0.506391 -4.24653 -0.0534195 -0.610683 0.0704331 Si
52 1 8.2436 8.3296 0.0218946 -0.214537 -1.78033 -0.511285 1.04421 -1.39807 0.233057 Si
5 2 1.46848 1.36801 4.15055 1.19923 -0.293774 -3.48073 0.590606 0.688158 0.460479 Ge
12 1 2.8565 2.77035 5.59499 -0.943701 -2.62142 2.8765 -1.52691 0.244059 -0.641826 Si
15 2 4.10086 1.42153 7.08345 0.803029 2.15142 -1.24396 1.47415 -0.695186 -2.08287 Ge
37 2 6.88836 1.3949 4.17759 -3.57113 -5.1329 -0.428539 -0.509404 0.714567 -0.185502 Ge
9 1 0.0636857 0.0198005 5.46332 1.28425 3.38081 1.54781 -0.501276 -1.5052 0.0941206 Si
44 1 8.35707 2.79426 5.53402 1.53498 2.40919 3.60807 -1.00898 -0.906724 -0.322617 Si
47 2 9.73972 1.31833 6.82357 2.27904 -0.5188 -1.16492 -0.167714 1.83614 1.11977 Ge
14 2 1.40273 4.1731 6.9456 1.62348 2.1485 1.40103 -0.0256983 0.712737 -0.303565 Ge
21 2 1.32521 6.83589 4.12116 3.37376 0.696823 0.10421 0.894916 1.75722 1.09798 Ge
25 1 -0.0709055 5.54783 5.54745 0.593416 1.54608 4.42726 1.15952 -0.421944 0.472596 Si
8 2 4.17786 4.12247 4.10037 0.952908 -2.18749 -1.05909 0.359368 -0.141073 1.27276 Ge
31 2 4.22032 6.96409 6.96807 -0.0103691 -0.715509 3.66828 -1.02 -1.27473 -1.48013 Ge
46 2 6.9358 4.15011 6.9023 0.374334 -0.756489 2.92933 0.859077 -0.5879 0.767147 Ge
53 2 6.9601 6.91853 4.1848 2.70613 -1.95759 2.03982 -0.351788 -0.0205955 -0.409888 Ge
57 1 5.57447 5.47865 5.53772 -5.1443 1.36746 0.421528 -0.92908 1.47587 -0.263887 Si
40 2 9.69504 4.16683 4.15437 1.45152 -2.46923 -1.30911 0.288823 -0.642272 -0.134931 Ge
63 2 9.67867 6.9543 6.93309 -1.30044 1.56113 -1.89483 -0.103031 0.822008 -0.0286949 Ge
28 1 2.75196 8.30536 5.5327 3.88005 1.59586 0.751022 0.179049 -1.16018 -0.160094 Si
30 2 1.398 9.70711 6.90475 1.66258 -2.51852 -3.75973 0.0622314 0.789663 0.387013 Ge
41 1 5.44832 0.0284371 5.59811 -1.88697 -0.679011 3.37767 0.589197 0.466794 0.181862 Si
24 2 4.16575 9.69319 4.17939 -0.460893 0.188731 1.43423 -0.0904014 0.0968713 -0.136808 Ge
62 2 6.87024 9.72295 6.93743 -1.76486 0.675282 0.741992 0.613938 -0.0193485 -0.271721 Ge
56 2 9.66692 9.72219 4.09299 -1.87927 -1.43645 0.151678 0.804405 0.401303 1.20069 Ge
60 1 8.2938 8.38102 5.5332 1.68908 1.57217 2.52578 0.164514 -0.695712 0.333944 Si
1 1 -0.022227 -0.0380292 -0.0499549 -3.21952 6.33136 2.23057 -0.551287 -0.243372 1.29605 Si
10 1 -0.0655274 2.82153 8.27838 -1.53461 4.58299 0.340232 0.802453 -1.37619 -0.790322 Si
11 1 2.79372 -0.00435806 8.37255 -3.45694 -0.562844 -1.19638 -1.01558 -1.28816 0.32698 Si
13 2 1.26491 1.37548 9.64724 -2.8151 1.32979 -2.00973 1.28681 0.259216 0.0247579 Ge
42 1 5.6053 2.73822 8.31298 0.373595 3.66547 -0.806957 -0.459627 1.26939 0.718182 Si
45 2 7.02243 1.39322 9.65559 1.1429 0.598045 3.81032 -0.679959 -0.30604 1.28867 Ge
36 1 8.38835 2.76688 0.0514481 2.12147 0.20671 2.40369 -0.456183 0.450416 -1.5448 Si
43 1 8.34015 0.0115322 8.24088 -0.347436 -2.6852 -1.07589 -0.496766 -0.420708 0.211683 Si
17 1 0.0127803 5.62352 0.010088 -0.706773 2.19396 3.6504 -0.0153552 -0.440172 0.534976 Si
27 1 2.79516 5.60818 8.36441 -4.24235 -1.79879 -6.17658 -0.524906 -0.397949 -0.784355 Si
29 2 1.33857 7.05119 9.65686 -2.33914 1.78315 -0.902822 0.959971 -1.25143 1.25256 Ge
16 2 4.1582 4.13201 9.69743 -0.836514 0.690494 -1.11707 -0.502039 -0.311625 -0.795044 Ge
61 2 6.9586 6.81595 9.72858 -0.566805 3.07924 1.52875 -0.924157 1.43382 -0.114544 Ge
48 2 9.75541 4.18717 9.70825 3.55153 0.518849 -2.72244 -1.03184 0.149022 0.618982 Ge
59 1 8.33887 5.52274 8.30508 1.95345 1.89672 1.47839 -0.035967 -0.288125 -0.0462184 Si
32 2 4.25599 9.60422 9.69913 1.50853 -3.29417 1.24992 -1.96249 1.19775 0.321167 Ge
58 1 5.59374 8.2637 8.33114 -1.92256 -0.295764 -0.402922 1.09324 -0.143509 0.29033 Si
26 1 -0.042116 8.41078 8.31721 2.17623 7.27018 -8.31055 -0.440007 -0.741032 -0.869513 Si
64 2 9.58619 9.6892 9.70086 -1.69893 -0.720312 0.312948 1.19648 0.521327 -0.167824 Ge
ITEM: TIMESTEP
16300
ITEM: NUMBER OF ATOMS
64
ITEM: BOX BOUNDS pp pp pp
0.0000000000000000e+00 1.1085848640000000e+01
0.0000000000000000e+00 1.1085848640000000e+01
0.0000000000000000e+00 1.1085848640000000e+01
ITEM: ATOMS id type xu yu zu vx vy vz fx fy fz element
4 1 2.86682 2.77917 0.0422469 3.23414 3.62432 -0.523712 -1.01145 0.034391 -0.29524 Si
7 2 4.14153 1.35177 1.4633 -0.183636 -0.593147 5.91393 1.15911 0.120246 -0.356429 Ge
34 1 5.59386 2.75205 2.83699 -2.50919 0.0994313 -0.309918 -1.09618 0.2787 -0.039522 Si
2 1 -0.0313461 2.78154 2.69508 0.0128062 -2.14043 4.65296 0.483635 0.591452 0.791538 Si
39 2 9.69132 1.3823 1.34962 -0.142865 0.156968 -1.68134 -0.295134 -0.468148 -0.764373 Ge
6 2 1.44003 4.18192 1.36842 -0.94175 -3.12812 4.40493 -0.791568 -0.678757 0.0444993 Ge
19 1 2.78613 5.54261 2.79271 -0.286215 0.282092 4.50349 0.149231 0.00626517 -0.808192 Si
23 2 4.12871 6.88197 1.31848 -0.293779 3.02107 -1.65105 -0.234963 0.944916 1.1155 Ge
38 2 6.93185 4.17057 1.45686 1.64442 2.12675 -0.879452 -0.0233678 0.27942 -1.09576 Ge
49 1 5.59942 5.62533 0.0203053 -6.4736 2.16683 -8.46367 -0.546869 -2.278 -0.393687 Si
51 1 8.32463 5.5804 2.796 -0.259491 0.62669 -2.16342 -0.289109 -0.989022 -0.00338 Si
55 2 9.69548 6.90106 1.41219 0.0689002 -1.2573 1.21886 0.643807 0.337836 -0.980791 Ge
3 1 2.71294 -0.0403702 2.78731 0.185515 1.97656 2.78648 0.449489 0.677835 -0.155438 Si
20 1 2.76685 8.32836 -0.0266242 -2.65974 -1.2721 -1.56433 -0.378591 0.122863 0.524366 Si
22 2 1.35884 9.70699 1.38112 1.07985 -0.284366 0.397824 0.522024 -0.934794 -0.207247 Ge
33 1 5.54755 -0.00729395 0.00583191 -0.657516 -2.78547 -0.0755187 -0.851741 -0.387477 1.09581 Si
50 1 5.49926 8.20116 2.75914 -1.63 1.2432 -2.72684 0.562187 0.939618 -0.107964 Si
54 2 6.93589 9.64227 1.43789 2.81051 1.94029 -4.73959 -0.0738413 0.274378 -0.803938 Ge
35 1 8.34891 -0.0251652 2.80046 -0.243241 3.57789 5.13969 0.177014 0.107024 -0.631616 Si
18 1 -0.00132024 8.30251 2.76585 -0.0151921 2.48317 1.13723 -0.115505 0.230316 -0.6844 Si
52 1 8.36275 8.30459 -0.00783921 -2.11906 4.11354 -2.40143 -0.33002 0.556975 0.0330105 Si
5 2 1.33368 1.39426 4.12213 -2.95183 -1.19173 2.17397 -0.0661489 -0.0979037 -0.0955307 Ge
12 1 2.72021 2.79643 5.475 2.60571 2.31805 0.105406 0.703829 -1.25033 0.918364 Si
15 2 4.18718 1.38397 6.86531 -0.755567 0.0592496 -0.947399 -0.487277 0.25235 -0.205018 Ge
37 2 7.03603 1.41058 4.1829 2.52448 1.84938 0.232783 -1.52169 -1.53335 -0.750009 Ge
9 1 -0.0251872 0.000229721 5.53285 -0.165269 3.42597 -0.151724 -0.189771 0.969089 0.667357 Si
44 1 8.31417 2.74695 5.53431 1.73323 1.68325 -0.82229 1.12745 1.80486 1.41931 Si
47 2 9.67661 1.40414 6.98524 1.1887 -1.93193 1.4791 0.159554 -0.78758 -1.23327 Ge
14 2 1.33342 4.11164 6.87146 0.130814 -4.19984 2.52914 1.59383 1.29856 0.669721 Ge
21 2 1.38178 6.94048 4.09022 -2.40451 -2.35781 -0.65084 0.569761 -0.0755361 1.17047 Ge
25 1 0.0463961 5.54165 5.48602 -0.261852 0.121585 -0.867365 -0.856441 0.269124 0.499964 Si
8 2 4.14758 4.17455 4.20103 -0.311811 -0.173416 -2.61274 0.987576 -0.0852739 -0.554309 Ge
31 2 4.17075 6.94747 6.9278 0.153648 5.45237 0.699386 -0.115229 0.145191 0.39025 Ge
46 2 6.91329 4.12405 6.9772 -2.98643 1.46398 -3.23913 0.289458 -0.122997 -0.509625 Ge
53 2 6.90877 6.86708 4.17527 1.07862 2.05755 0.22911 0.0818233 0.80992 0.194629 Ge
57 1 5.57427 5.52871 5.60724 1.5481 -2.88467 -0.567027 -0.858763 -0.26863 -0.476801 Si
40 2 9.69778 4.19022 4.1448 -1.6481 3.30833 -1.46578 0.0991689 -0.957947 -0.0836565 Ge
63 2 9.76659 6.90878 6.94459 -0.240339 -1.93545 0.745903 -1.14547 -0.183938 -0.882959 Ge
28 1 2.74952 8.31388 5.53418 -4.27193 3.0365 -1.34767 0.113644 0.772483 -0.153401 Si
30 2 1.34752 9.76306 6.94691 -1.67251 -0.791227 0.181576 0.542772 -1.57055 -0.477686 Ge
41 1 5.63039 -0.0295897 5.50604 2.209 -0.0586772 -4.8609 -0.467891 -0.188263 0.582063 Si
24 2 4.17424 9.69201 4.08993 -0.65215 -0.633017 1.29833 -0.180022 -0.567936 1.41825 Ge
62 2 6.95447 9.64678 7.02408 -0.479109 -1.87643 -2.99926 -0.0881433 1.07685 -1.58279 Ge
56 2 9.74905 9.68114 4.1597 -1.40794 -1.24689 0.299722 -1.30136 -0.555905 0.42048 Ge
60 1 8.30221 8.26433 5.54888 -0.117675 1.73306 -1.80954 0.884592 0.49179 0.345204 Si
1 1 0.0809178 0.00539962 -0.0371101 4.04955 -0.860729 -4.09427 -0.973666 0.973751 0.0400362 Si
10 1 0.0333572 2.75636 8.28593 -3.01555 4.4813 3.28383 -1.32296 0.645634 1.22715 Si
11 1 2.78309 0.0303405 8.27399 4.76926 5.69051 2.13896 -0.343763 0.824281 -0.394065 Si
13 2 1.46983 1.43697 9.67888 -1.41614 3.68675 1.2876 -0.308548 -0.248206 0.450275 Ge
42 1 5.50285 2.75653 8.35185 3.53002 -8.39699 -1.7397 -0.366249 0.510678 -1.2949 Si
45 2 6.8238 1.39461 9.68217 -1.40159 -1.75639 -2.09672 1.20149 -0.271313 1.05278 Ge
36 1 8.22382 2.76576 -0.0338515 -2.67009 -3.61516 2.32409 0.383893 -0.179179 0.951537 Si
43 1 8.27038 0.0489053 8.37533 -0.213834 2.63953 3.00867 0.781085 -0.88579 -0.468849 Si
17 1 -0.0186359 5.50197 -0.0287632 1.55721 0.0718195 -2.43289 0.142578 0.469379 -0.0390685 Si
27 1 2.80629 5.51558 8.29721 2.63455 0.248288 2.76034 -0.792607 -0.291392 -0.627641 Si
29 2 1.44003 6.91011 9.68489 -0.0256382 -2.29579 -1.97651 -1.10415 -0.297502 0.0978553 Ge
16 2 4.18225 4.17622 9.72484 2.91336 -1.87543 -1.43841 0.65795 0.490706 0.341872 Ge
61 2 6.89794 6.98272 9.68993 2.72981 -0.74572 -1.60614 0.810853 0.322214 0.372135 Ge
48 2 9.58923 4.14027 9.67036 0.367564 -2.51954 2.02811 1.62851 0.169481 -0.364594 Ge
59 1 8.25203 5.59996 8.29581 0.100948 -0.308315 1.8362 0.743633 -0.676333 0.145758 Si
32 2 4.06621 9.78589 9.69631 4.46262 -2.41497 -0.583793 1.64877 -1.05328 0.484469 Ge
58 1 5.49972 8.37132 8.37213 -2.31898 1.37057 -1.84391 -0.667646 -0.434236 -0.386866 Si
26 1 0.00343684 8.28848 8.33401 0.321376 -0.0688506 7.0864 1.06914 0.627369 -0.430905 Si
64 2 9.76495 9.72721 9.66973 -0.697394 -1.43547 2.67543 -1.17172 -0.106368 0.875268 Ge
ITEM: TIMESTEP
16400
ITEM: NUMBER OF ATOMS
64
ITEM: BOX BOUNDS pp pp pp
0.0000000000000000e+00 1.1085848640000000e+01
0.0000000000000000e+00 1.1085848640000000e+01
0.0000000000000000e+00 1.1085848640000000e+01
ITEM: ATOMS id type xu yu zu vx vy vz fx fy fz element
4 1 2.72389 2.71501 -0.00453414 -0.76528 -3.01035 -0.627817 0.338739 1.11711 -0.65451 Si
7 2 4.15394 1.40943 1.28935 -1.25152 -1.19013 -5.13675 0.361377 -0.326752 1.49686 Ge
34 1 5.49568 2.85473 2.69873 1.60786 1.32491 -4.79151 -0.354347 -0.835429 0.34875 Si
2 1 0.0228354 2.80504 2.84289 -0.0116633 0.0332786 -3.78918 0.537452 -0.54307 0.0759543 Si
39 2 9.69917 1.39924 1.49436 1.47416 -0.0810991 1.32688 0.102675 0.364725 -1.32533 Ge
6 2 1.42347 4.18146 1.40672 1.66744 3.26946 -1.48125 -0.83294 -0.727317 0.0264277 Ge
19 1 2.77088 5.61046 2.74196 -0.8671 -1.222 1.27378 -0.593379 -0.504696 1.4869 Si
23 2 4.16429 6.91582 1.39528 -1.92088 -3.70248 -1.68736 0.955021 0.761883 -0.670213 Ge
38 2 6.92223 4.1681 1.33411 1.19272 -1.79765 3.45757 1.4359 -0.470038 0.8906 Ge
49 1 5.57921 5.50427 0.0205077 4.49678 4.36184 6.7472 -1.82031 1.06651 -1.59007 Si
51 1 8.31866 5.51378 2.76431 0.14331 1.13576 -0.0765463 -0.0158525 0.372201 -0.67381 Si
55 2 9.69885 6.96851 1.41597 -2.02974 0.222249 1.96829 -0.0101805 -1.21803 -0.184909 Ge
3 1 2.76862 0.0383741 2.72906 -0.545987 -1.48985 -2.60881 0.15209 0.328983 0.227373 Si
20 1 2.80466 8.32351 0.0305666 3.13572 1.57405 -0.444012 -0.175158 -0.0880402 -0.182623 Si
22 2 1.40651 9.6837 1.42592 -0.657026 -0.0196479 1.13068 -0.357125 0.0954702 -0.517206 Ge
33 1 5.57955 0.0235128 -0.0376342 1.80805 2.18629 -1.90055 -0.259373 -0.222517 -0.781946 Si
50 1 5.52478 8.39227 2.73176 -0.389202 -2.97203 1.83495 -0.886636 -0.780316 0.400235 Si
54 2 6.90077 9.72681 1.40644 -0.996451 -1.05919 -0.0615798 0.539172 -0.499263 -2.03338 Ge
35 1 8.2983 -0.0499181 2.72231 -1.95076 -2.57052 -2.22713 -0.20872 1.5743 2.2111 Si
18 1 0.0282287 8.30234 2.7809 0.0325314 -0.481699 2.16169 -0.24433 0.646857 0.402522 Si
52 1 8.30857 8.30149 0.0122858 -0.627934 -2.56099 1.44546 -0.633641 0.571738 -0.939226 Si
5 2 1.43341 1.36227 4.22179 3.08349 1.40942 -0.550825 -1.26543 -0.139604 -0.426095 Ge
12 1 2.79868 2.73225 5.58139 -1.61409 2.17126 -1.1054 -0.18013 1.58718 0.0637972 Si
15 2 4.14913 1.38554 7.00284 2.03547 2.52325 2.01776 -0.466718 0.0484631 -0.1463 Ge
37 2 6.83317 1.40954 4.08894 -2.83113 1.65859 1.07211 1.02712 -0.395967 0.872402 Ge
9 1 -0.0161671 -0.0492819 5.61415 4.22345 -1.01069 -2.01375 0.749255 1.30531 -0.318868 Si
44 1 8.27816 2.78014 5.55535 -1.58812 -4.57971 -2.9136 -0.31119 -0.893518 -0.968537 Si
47 2 9.68764 1.43959 6.94532 1.8792 1.55583 -1.50652 0.430712 -1.50628 -0.672259 Ge
14 2 1.37473 4.18837 6.94126 -3.75337 -1.66263 -1.05592 -0.084699 -1.54535 0.0882668 Ge
21 2 1.36435 6.96242 4.20169 0.636353 1.38398 -1.54156 0.439665 -0.889877 -0.165359 Ge
25 1 -0.061008 5.53601 5.56006 0.743782 0.672536 -2.05424 0.869797 0.440784 -0.0623735 Si
8 2 4.12386 4.2157 4.15542 -0.708606 -1.6155 1.91698 0.0143565 -0.786728 -0.390176 Ge
31 2 4.18233 6.84469 6.90798 1.99276 -2.49963 -0.306274 -0.0962078 1.41604 0.253704 Ge
46 2 6.93845 4.16757 6.89639 -0.14054 -3.31908 3.08607 -0.728232 0.958043 -0.794068 Ge
53 2 6.91633 6.96225 4.01804 1.28076 -3.62196 0.445129 0.457554 0.287665 1.81297 Ge
57 1 5.56455 5.59033 5.45514 2.98838 0.947869 3.13837 0.49577 -0.845594 0.513747 Si
40 2 9.66816 4.14288 4.19713 0.304904 -0.102192 0.0139256 0.0752095 0.290552 -0.368166 Ge
63 2 9.67477 6.94069 6.92824 1.05202 2.48056 -1.83686 -0.238822 -0.886763 -0.257022 Ge
28 1 2.8034 8.30566 5.5841 2.5314 -2.87066 2.46911 -0.573315 0.447386 -0.259124 Si
30 2 1.36332 9.6505 7.01847 -0.719388 -0.125134 -1.67042 0.218019 -0.545646 -1.90755 Ge
41 1 5.46678 0.0299429 5.59389 -2.99992 0.958745 3.70562 1.09033 0.024193 -1.34448 Si
24 2 4.11101 9.76212 4.12593 -0.719702 1.91252 -1.73447 0.496232 -0.809386 0.924094 Ge
62 2 6.94177 9.73686 6.90922 -0.582377 -2.58415 4.07381 -0.238519 -1.07886 -0.94382 Ge
56 2 9.75059 9.73163 4.13913 2.9356 1.05221 0.493219 -1.03538 -0.980053 0.133637 Ge
60 1 8.32688 8.30984 5.50568 -4.269 -0.815381 -0.210643 -0.550786 0.563108 -0.59637 Si
1 1 -0.0787305 -0.0491321 0.100309 1.76256 -0.581208 2.4327 1.31132 0.177027 -0.891423 Si
10 1 0.0671399 2.65375 8.34891 4.94338 -4.21307 -4.61006 -0.0723952 1.77969 -0.0237763 Si
11 1 2.74623 -0.0852233 8.31302 -1.15827 -4.78398 -1.2447 0.979904 0.864413 0.784894 Si
13 2 1.41137 1.24234 9.75394 -2.56876 -2.13217 -1.25535 -1.15459 0.466197 0.185353 Ge
42 1 5.52618 2.87751 8.27054 -1.8208 4.88231 4.09465 0.952998 -2.30568 1.03821 Si
45 2 7.01138 1.42016 9.66095 -0.432915 3.98149 -1.3554 -0.698028 -0.0403254 -0.530663 Ge
36 1 8.38978 2.79922 0.00778443 2.89693 4.14904 -1.48498 -0.702768 -0.784758 0.223723 Si
43 1 8.37708 -0.0570886 8.2453 -2.45089 2.20681 -3.25846 -0.718438 1.6723 1.24185 Si
17 1 -0.0111962 5.53161 0.0474195 -2.07787 -0.3048 2.36217 0.187522 0.35292 -0.322003 Si
27 1 2.7524 5.54306 8.33146 2.20794 2.40942 0.360187 0.158604 0.134225 0.35264 Si
29 2 1.39693 6.93858 9.77867 3.32496 3.42666 2.41988 -0.145275 -0.662747 -0.757915 Ge
16 2 4.12665 4.1267 9.68795 -2.36316 0.880571 1.15803 -0.0489455 0.769997 1.01607 Ge
61 2 6.87678 6.92383 9.64297 -2.57744 1.25548 0.883283 2.03751 -0.977407 1.1423 Ge
48 2 9.75354 4.12468 9.68348 0.43049 -0.609398 -2.78883 0.373604 0.126568 0.0107811 Ge
59 1 8.33044 5.48074 8.28091 -3.33383 4.23196 -2.06166 -0.183685 1.16357 0.774253 Si
32 2 4.16724 9.65509 9.66058 -1.49906 -0.700192 1.40366 0.868739 0.239732 0.473072 Ge
58 1 5.58605 8.2845 8.25198 3.14916 1.15151 1.69235 -1.25196 0.487044 -0.0954482 Si
26 1 0.00504844 8.22934 8.30712 -2.87238 0.176653 -1.4861 -0.0380436 0.708297 1.25134 Si
64 2 9.72991 9.68403 9.65559 -0.371969 -0.618197 -0.890662 -0.481112 -0.920471 1.0712 Ge
ITEM: TIMESTEP
16500
ITEM: NUMBER OF ATOMS
64
ITEM: BOX BOUNDS pp pp pp
0.0000000000000000e+00 1.1085848640000000e+01
0.0000000000000000e+00 1.1085848640000000e+01
0.0000000000000000e+00 1.1085848640000000e+01
ITEM: ATOMS id type xu yu zu vx vy vz fx fy fz element
4 1 2.76641 2.8198 -0.0222237 3.13043 -0.556387 4.19213 0.556804 -1.06574 0.551711 Si
7 2 4.1339 1.40438 1.4884 0.105222 0.987574 2.65059 0.215883 -0.537011 -2.00529 Ge
34 1 5.59281 2.65418 2.88461 1.23614 2.33261 5.14207 0.529845 1.60545 -1.5873 Si
2 1 -0.021578 2.7349 2.71454 -1.80028 2.06426 -0.154146 -0.536428 0.263322 -0.507331 Si
39 2 9.65087 1.37967 1.27851 -1.113 0.700151 -0.311748 0.980619 -0.141252 1.12443 Ge
6 2 1.3419 4.11625 1.32524 2.43783 -0.204264 -0.713715 0.516806 1.48764 0.445547 Ge
19 1 2.79347 5.47289 2.75719 4.23129 3.60057 -4.80579 -0.178272 0.208926 -0.417016 Si
23 2 4.20104 6.97173 1.47294 -1.72187 0.3141 -1.35856 -1.17591 -1.71978 -1.91688 Ge
38 2 6.92409 4.14588 1.4124 -2.12569 2.23642 -0.40498 -0.753097 -0.804236 0.446744 Ge
49 1 5.49534 5.49396 -0.0171015 2.8336 -2.5239 0.880624 1.34052 1.56712 2.00409 Si
51 1 8.3227 5.53514 2.81512 1.73096 0.705991 3.42884 -0.326555 0.411039 -0.270003 Si
55 2 9.72575 6.92234 1.41196 -1.20465 1.25504 1.45171 -0.617732 -0.144638 -0.860548 Ge
3 1 2.80276 -0.0617824 2.78646 -2.10974 -2.00959 0.208789 -0.176604 -0.264011 -0.228034 Si
20 1 2.73368 8.29247 0.00799273 -0.580553 1.14461 1.57367 0.399143 0.125918 -0.489325 Si
22 2 1.36666 9.70874 1.35601 1.02991 -0.104566 -2.41647 -0.0466681 0.273265 -0.109741 Ge
33 1 5.50032 -0.0370421 0.0385075 0.885676 -0.776484 1.34457 0.293287 0.50405 0.999376 Si
50 1 5.59916 8.24947 2.84631 0.111471 0.644595 -1.55408 0.263797 0.844696 -0.00216993 Si
54 2 6.93377 9.68449 1.47022 0.339699 -0.706003 1.16671 0.390094 0.315814 -0.857696 Ge
35 1 8.34948 0.0641819 2.80833 3.41122 -3.6855 -2.37156 -0.0840036 -1.84613 -2.34736 Si
18 1 -0.0085706 8.30879 2.74508 2.35407 -2.14012 -4.05042 0.25967 0.0947408 0.382132 Si
52 1 8.34441 8.32449 0.000917441 5.1998 0.5672 2.13217 -0.265498 0.0703577 0.855615 Si
5 2 1.38619 1.36117 4.05102 -1.88936 -3.61902 1.35965 -0.0128442 0.342234 1.43687 Ge
12 1 2.755 2.76727 5.51658 0.334127 -5.31163 -2.50358 0.215059 -0.367953 -0.449707 Si
15 2 4.1233 1.36246 6.91582 1.65159 -0.0325873 -2.41283 1.53734 0.0803209 -0.724409 Ge
37 2 7.04194 1.31337 4.18706 1.48012 0.757495 -1.20927 -1.08467 1.7486 0.896456 Ge
9 1 -0.0323854 0.0120206 5.45123 -7.87185 -5.26685 1.56781 0.299104 -0.692016 0.126238 Si
44 1 8.34399 2.78295 5.54825 -0.198838 3.63209 3.64187 0.0164259 -0.318565 0.0653028 Si
47 2 9.68448 1.33241 6.90523 0.12926 4.55263 4.23158 0.0600761 1.41339 0.467804 Ge
14 2 1.44211 4.20524 6.91047 0.480317 0.146862 -1.4177 -1.35131 -1.07366 -0.163034 Ge
21 2 1.37941 6.86828 4.10623 -1.03534 1.44581 -0.192507 0.240172 0.729541 0.092539 Ge
25 1 0.0429159 5.54755 5.56021 -2.93564 -2.01878 0.00817733 -0.818432 0.0186587 -0.528964 Si
8 2 4.21231 4.11228 4.14268 0.058086 2.20706 0.68152 -0.95318 -0.222674 0.712664 Ge
31 2 4.15159 6.97639 6.99564 0.43076 0.3293 0.531459 -0.988495 -1.42772 -1.52206 Ge
46 2 6.96417 4.16544 6.94883 -0.439683 -0.626604 -0.546316 -0.267132 -0.802006 0.710165 Ge
53 2 6.92688 6.9062 4.27013 1.67491 -1.15985 -2.08743 0.654934 -0.649792 -0.460588 Ge
57 1 5.50549 5.48317 5.58984 -1.05522 2.38022 -3.49228 0.378017 1.24849 0.580698 Si
40 2 9.72216 4.1529 4.14717 -1.8538 0.316788 0.682341 0.536524 -0.205732 0.414402 Ge
63 2 9.73902 6.93674 6.96918 0.377238 1.11572 0.320394 0.0611394 0.44602 -0.638315 Ge
28 1 2.75331 8.29664 5.47379 0.266393 0.861637 0.286941 0.53471 -0.0910068 1.32572 Si
30 2 1.42475 9.77294 6.86747 -2.71848 2.53585 0.660201 -0.275292 0.0555797 -0.213935 Ge
41 1 5.62713 -0.0242363 5.49626 1.21082 -0.401798 -0.272942 -1.81537 0.217403 1.46384 Si
24 2 4.2317 9.63858 4.17555 -2.1806 1.19391 0.115137 -0.700199 0.656287 -0.417162 Ge
62 2 6.8837 9.72261 6.97675 0.56814 -0.595997 1.05409 0.993288 -0.847712 0.549376 Ge
56 2 9.61917 9.66458 4.09507 3.32515 -2.61015 0.280488 1.92793 0.403111 0.983641 Ge
60 1 8.33707 8.33746 5.59251 4.53234 -1.40935 1.00826 -0.901191 -0.446143 0.47496 Si
1 1 0.00845148 0.0305338 -0.108924 -4.55728 -2.67824 0.321969 0.271632 0.413183 0.820656 Si
10 1 -0.104637 2.89941 8.26038 -0.0906023 -2.70438 0.400608 1.43284 -1.31895 -0.510455 Si
11 1 2.76089 0.0754102 8.35139 -0.252089 -0.267677 -2.83847 -0.339939 -0.784652 -1.06007 Si
13 2 1.3628 1.52922 9.61402 2.51056 2.79967 0.435738 -0.549133 -0.720396 0.710532 Ge
42 1 5.58011 2.6793 8.3363 -2.20229 4.75258 -4.41228 -0.824433 1.74072 -0.566228 Si
45 2 6.91207 1.33118 9.7402 -2.88253 -2.65186 1.96546 -0.828736 -0.0833483 0.195551 Ge
36 1 8.2331 2.73175 -0.0255068 -2.82171 -0.233769 -2.58815 1.00093 1.62071 0.179848 Si
43 1 8.29446 0.0313082 8.37695 3.79859 -3.89568 0.708478 -0.0759813 -0.805526 -1.56543 Si
17 1 0.0197203 5.6061 -0.0619613 -1.41805 -0.636559 -1.1304 -0.741096 -0.705586 0.838207 Si
27 1 2.73013 5.54038 8.32168 -0.75278 -2.07988 -0.229166 1.1544 1.05252 0.330985 Si
29 2 1.29075 7.00178 9.58058 -0.214227 0.892638 1.45701 2.02706 -0.490529 1.66173 Ge
16 2 4.17697 4.17144 9.7075 3.05198 -3.62559 -2.39235 -0.71746 -1.10899 -1.38967 Ge
61 2 6.95492 6.89336 9.75484 -4.44324 3.97815 -1.08267 -0.817181 0.53329 -0.418115 Ge
48 2 9.66565 4.20408 9.72386 -1.11893 -3.63138 0.76611 -0.161235 -0.699049 0.604472 Ge
59 1 8.35949 5.55997 8.35965 0.799165 -4.56281 -1.40916 -1.0677 0.303716 -0.828254 Si
32 2 4.12314 9.72518 9.70312 -1.77953 -0.677789 0.3417 -0.610288 -0.423546 0.877802 Ge
58 1 5.48991 8.2963 8.39278 0.335944 -0.840323 2.40964 1.58308 0.649317 -0.243511 Si
26 1 0.0156458 8.43166 8.25068 1.47262 -2.74403 -2.26987 -0.724204 -0.335438 -0.428858 Si
64 2 9.6919 9.72852 9.66264 3.50191 1.78314 -1.73931 0.115154 -0.301642 0.397364 Ge
ITEM: TIMESTEP
16600
ITEM: NUMBER OF ATOMS
64
ITEM: BOX BOUNDS pp pp pp
0.0000000000000000e+00 1.1085848640000000e+01
0.0000000000000000e+00 1.1085848640000000e+01
0.0000000000000000e+00 1.1085848640000000e+01
ITEM: ATOMS id type xu yu zu vx vy vz fx fy fz element
4 1 2.77607 2.76472 0.0062844 -5.67176 0.629838 -5.4831 0.0391236 0.440958 0.739686 Si
7 2 4.16043 1.38118 1.38152 -0.650048 1.02847 -0.714305 -0.502987 0.397936 -0.274531 Ge
34 1 5.51274 2.81668 2.67873 -1.76291 -4.65022 -1.01358 0.184312 -0.721765 2.01371 Si
2 1 -0.0030196 2.77929 2.82703 1.16342 -3.1854 5.5671 -0.295767 0.202327 -0.0926117 Si
39 2 9.71542 1.36773 1.46421 -1.25504 -0.494645 -1.76838 0.382253 0.294498 -0.386126 Ge
6 2 1.39225 4.13713 1.46644 -1.36412 -2.28101 -0.610584 0.123364 -0.869382 -0.913563 Ge
19 1 2.70774 5.55822 2.80437 -2.04117 -0.934181 3.1783 1.47381 0.93261 -0.679762 Si
23 2 4.17382 6.95239 1.35173 0.62693 3.16314 1.62763 -1.2878 -0.207459 0.635345 Ge
38 2 6.92221 4.13077 1.33824 1.94726 -0.0105312 -1.36564 -0.494375 1.1045 -0.720495 Ge
49 1 5.52761 5.5948 -0.0343604 -1.96192 -5.71593 -5.24234 0.875763 -0.930569 -0.324636 Si
51 1 8.26577 5.54103 2.65916 -1.36228 -3.09805 -1.27685 0.905108 0.797346 1.59255 Si
55 2 9.76774 6.90555 1.31547 1.69118 1.17559 2.72617 -1.55543 0.850367 0.776414 Ge
3 1 2.76356 0.067992 2.79709 2.19011 2.47875 0.286869 -0.155783 -0.329049 0.255093 Si
20 1 2.76281 8.2817 -0.0729144 -0.406537 -2.28143 -0.10269 0.131932 0.813105 0.752987 Si
22 2 1.39008 9.68983 1.4845 1.00999 -2.36499 2.69976 0.667462 0.0069942 -1.65536 Ge
33 1 5.53996 0.0216386 0.0236025 -0.0449635 -0.18315 -3.46942 0.87535 0.208957 -1.83984 Si
50 1 5.52189 8.38635 2.70871 2.31762 -0.414632 -0.282991 -0.206221 -0.426226 -0.250544 Si
54 2 6.93455 9.73656 1.37758 -0.952178 2.55016 -0.404428 -0.534552 -0.563063 -0.661559 Ge
35 1 8.26998 -0.0110517 2.75846 -1.09487 6.22506 5.37133 0.477946 0.87282 0.937678 Si
18 1 -0.0475961 8.35677 2.82693 -2.39454 -0.121989 3.05921 0.137543 -0.861894 -0.746153 Si
52 1 8.23477 8.29997 -0.0309741 -3.04746 -3.41879 -3.07708 1.71492 -0.234863 0.592106 Si
5 2 1.39439 1.48154 4.21016 4.06929 0.132523 1.12994 0.606329 -1.14829 0.224983 Ge
12 1 2.79342 2.81671 5.58952 0.786241 2.57524 3.78685 -0.434553 -0.0747825 -0.418953 Si
15 2 4.13884 1.36137 6.89082 -2.13929 1.75137 3.78194 -0.0739931 0.394423 0.778271 Ge
37 2 6.88635 1.39904 4.14855 -1.23121 0.528207 -0.455572 -0.238056 0.275574 -0.420577 Ge
9 1 0.110102 0.0521904 5.65247 3.05217 2.91241 -1.165 -1.62178 -1.56029 -0.736508 Si
44 1 8.32427 2.76976 5.53764 1.67671 0.0617515 -1.24255 -0.577545 0.504721 -0.0136105 Si
47 2 9.66571 1.35761 6.95905 1.46952 -3.82582 -3.74264 1.31239 0.983354 0.268149 Ge
14 2 1.35309 4.11661 6.99199 0.325063 0.27374 3.41708 0.639774 0.677287 -0.569008 Ge
21 2 1.35739 6.96254 4.17454 -2.39905 -1.30824 0.427645 -0.000684899 0.162576 0.560191 Ge
25 1 0.0161735 5.53793 5.55213 3.63065 0.488268 1.29904 0.150414 -0.49014 0.177305 Si
8 2 4.12449 4.17412 4.13652 2.36091 -1.06261 -1.96804 0.666551 0.343829 0.289 Ge
31 2 4.13555 6.94962 6.89562 2.7355 1.55923 0.561578 0.57497 0.100402 -0.177318 Ge
46 2 6.88476 4.20006 6.90388 -0.678523 -0.631054 -3.46909 0.669936 -1.06935 0.0588913 Ge
53 2 6.85013 6.99342 4.05944 -0.629365 1.05291 0.570559 1.13992 -1.38329 0.535484 Ge
57 1 5.52955 5.58724 5.53259 -0.805694 -3.48657 -2.53117 -0.488911 -0.0496532 -1.28167 Si
40 2 9.70307 4.2024 4.1463 -3.3956 2.42897 0.33233 -0.917613 -0.17194 -0.162278 Ge
63 2 9.72328 6.85105 6.94751 0.178149 1.20024 -0.334775 -0.93609 1.45133 -0.346342 Ge
28 1 2.74907 8.34898 5.57856 -2.84841 -3.21803 -6.33296 0.198043 -0.370183 -1.08085 Si
30 2 1.38354 9.58499 7.083 0.139734 -2.45156 1.06641 -0.193502 1.80064 -1.48924 Ge
41 1 5.48158 -0.0103098 5.53649 3.78516 0.0629349 -1.94146 1.28628 0.0212215 -0.941072 Si
24 2 4.15255 9.70883 4.0954 0.721113 0.54276 0.235523 -0.954809 0.311763 1.38003 Ge
62 2 6.97356 9.72257 6.85547 -3.25566 2.34707 -2.177 -0.860107 -0.0832741 -0.27744 Ge
56 2 9.6789 9.76968 4.17245 -4.52687 2.13812 -0.865809 0.485108 -0.285714 1.43082 Ge
60 1 8.28369 8.26539 5.51183 -0.110815 2.28418 -2.37126 1.30196 0.413868 -0.135603 Si
1 1 0.0703756 0.0412591 0.0749078 1.5687 -0.727245 -1.22642 -1.62782 -1.95697 -0.17732 Si
10 1 0.0194656 2.73128 8.41215 -5.34292 0.537755 2.34388 -0.7208 -0.542839 -0.729937 Si
11 1 2.78292 -0.0034273 8.30336 -0.737591 1.52986 8.10642 0.185308 -0.518378 0.52321 Si
13 2 1.44543 1.32718 9.76268 -4.56313 1.23046 -0.0849677 -0.308926 0.993921 -0.757282 Ge
42 1 5.52724 2.74094 8.27968 4.11519 -6.49509 2.18845 -0.146817 1.21312 0.527221 Si
45 2 7.00396 1.44739 9.66693 4.45662 3.4674 -1.8378 -1.03692 -1.02342 1.28536 Ge
36 1 8.3939 2.78181 0.0781728 0.0193828 -3.67007 2.1186 -0.801033 -0.541625 -1.40247 Si
43 1 8.29559 -0.028734 8.28852 -0.175343 1.06297 1.16052 0.750269 -0.0931823 0.919425 Si
17 1 0.0409783 5.43586 0.0364703 4.75554 3.00847 -1.35689 0.119448 0.999903 -0.723803 Si
27 1 2.81875 5.53534 8.27165 -2.83527 -0.885397 -0.0457915 -0.782961 -0.653584 -0.0925223 Si
29 2 1.42261 6.78078 9.67914 -2.68318 3.60607 -1.60081 -0.664106 1.32886 0.997731 Ge
16 2 4.11967 4.19187 9.70871 -0.601742 1.3719 2.49383 1.24817 -1.108 -0.556143 Ge
61 2 6.95653 6.91985 9.61177 1.91795 -2.19938 -0.0920899 -1.74427 0.856426 0.474485 Ge
48 2 9.69882 4.1587 9.7214 3.56359 -0.638277 -0.161543 0.0860756 -0.415691 0.122317 Ge
59 1 8.29352 5.53239 8.30915 4.20435 -1.63847 3.03104 0.817245 -0.991999 -0.300639 Si
32 2 4.21954 9.696 9.61324 4.16281 -3.3429 -0.618077 -0.434734 -0.0316248 1.11649 Ge
58 1 5.58935 8.34804 8.17257 -0.813609 -4.06238 -2.69854 -0.0833325 -0.812173 1.51211 Si
26 1 -0.0262307 8.22147 8.41793 1.98543 0.910589 1.0676 0.0408809 -0.486626 -0.522049 Si
64 2 9.68522 9.66416 9.73699 -1.74379 -1.88153 0.54183 0.414316 1.25164 0.380758 Ge
ITEM: TIMESTEP
16700
ITEM: NUMBER OF ATOMS
64
ITEM: BOX BOUNDS pp pp pp
0.0000000000000000e+00 1.1085848640000000e+01
0.0000000000000000e+00 1.1085848640000000e+01
0.0000000000000000e+00 1.1085848640000000e+01
ITEM: ATOMS id type xu yu zu vx vy vz fx fy fz element
4 1 2.76464 2.77987 0.0203346 3.60433 -0.125307 0.39678 -0.902074 -0.350632 -1.40343 Si
7 2 4.13736 1.39401 1.34306 0.123404 0.327459 3.19821 1.17644 -0.452305 0.835458 Ge
34 1 5.53208 2.78663 2.78663 1.15606 -0.361147 -1.40388 -0.35443 -0.57789 -0.869872 Si
2 1 0.0336563 2.78475 2.67822 0.63246 1.44346 -6.0093 0.471826 -0.366495 1.09757 Si
39 2 9.69294 1.42524 1.425 -3.21896 -0.1176 -2.92251 -0.828262 -0.664898 -2.05405 Ge
6 2 1.3551 4.20225 1.33928 1.17361 2.05834 -1.90234 0.434038 0.457684 -0.118999 Ge
19 1 2.806 5.51784 2.77203 -1.61138 -5.59808 -1.12658 -1.03072 -0.481272 0.509514 Si
23 2 4.20488 6.86377 1.45895 1.16053 0.805988 -0.726278 -1.16483 1.69644 -0.935891 Ge
38 2 6.95491 4.14413 1.39088 0.485035 -3.3202 2.47846 0.460081 0.746093 0.644401 Ge
49 1 5.55623 5.56155 0.0546666 -5.39999 2.94921 3.86789 -0.319503 -1.493 -0.949213 Si
51 1 8.36879 5.56459 2.85904 -1.15185 -0.951109 -5.49056 -0.669993 -1.60125 -0.702426 Si
55 2 9.64576 6.94994 1.42152 2.72901 -2.45867 -3.08664 1.02457 -0.00267085 -0.135734 Ge
3 1 2.79633 -0.0331079 2.75442 -0.238929 -2.05164 -1.11209 0.0442024 0.511346 -0.229742 Si
20 1 2.78672 8.35487 0.0863509 -1.51601 -2.79992 -1.27251 -0.178007 -1.19351 -0.520932 Si
22 2 1.34965 9.74295 1.38148 -1.33764 0.886327 1.22259 0.293207 -0.700549 0.0968011 Ge
33 1 5.57234 -0.0180212 -0.0391242 -5.57822 -2.1643 7.85966 -0.919814 -0.528994 1.42862 Si
50 1 5.4997 8.29702 2.80962 -0.693372 -2.45873 2.99672 1.45568 -0.273866 -0.153975 Si
54 2 6.93087 9.64201 1.42265 1.03097 -1.55139 2.15569 -0.579701 1.01128 -0.700004 Ge
35 1 8.31018 -0.0222404 2.7565 -0.904615 -4.54551 -3.55934 0.138494 0.0419996 0.313406 Si
18 1 0.0442875 8.27715 2.73286 -0.965647 3.03248 -2.48185 -0.158763 0.160826 0.439345 Si
52 1 8.36097 8.35718 0.0269775 -1.04435 2.1714 -0.162309 -1.23357 -0.774035 -1.21849 Si
5 2 1.39604 1.37889 4.0609 -1.94187 2.2385 -2.78448 -0.516096 -0.279652 0.855854 Ge
12 1 2.73821 2.75831 5.50856 -0.335962 0.0252759 -0.217778 0.214862 -0.686531 0.708302 Si
15 2 4.14868 1.38945 6.96921 1.1181 -0.216011 -7.49176 0.196986 1.24146 -0.661756 Ge
37 2 6.88142 1.34788 4.11632 1.85633 -3.48099 1.64964 0.286401 -0.0407402 0.531544 Ge
9 1 -0.0469719 -0.0383389 5.45213 5.23017 5.01408 2.98154 1.07648 1.86319 0.898671 Si
44 1 8.25521 2.7187 5.50666 1.25852 -1.81223 0.895949 1.36479 0.62596 0.493457 Si
47 2 9.69362 1.42339 6.94541 -1.96536 1.01464 1.73237 0.242951 -1.02113 -1.6335 Ge
14 2 1.40424 4.21487 6.85608 -1.50018 -2.40245 -0.848151 0.170391 -0.233336 0.885218 Ge
21 2 1.42366 6.92011 4.16182 1.24082 2.39947 -1.46493 0.158806 0.141677 0.217399 Ge
25 1 -0.0340592 5.55955 5.53947 -0.604976 -0.169347 0.619349 0.628696 0.428583 -0.201362 Si
8 2 4.1287 4.11627 4.1949 0.0642409 -1.62565 1.92004 0.962763 0.80558 -0.444722 Ge
31 2 4.16698 6.86221 6.9756 -0.839707 2.2654 3.31668 0.475556 1.26103 0.365293 Ge
46 2 7.00664 4.16057 6.98834 -1.66293 1.91513 1.37635 -1.64389 -0.180633 -1.41208 Ge
53 2 6.91461 6.93312 4.17789 -1.79826 -0.87295 2.14805 0.211164 0.190775 0.723988 Ge
57 1 5.56154 5.51616 5.57214 0.584778 -1.11773 7.5392 0.0701472 -0.523849 0.175468 Si
40 2 9.80663 4.05283 4.16829 3.02354 0.962074 -0.128227 -2.14284 1.35 0.0111856 Ge
63 2 9.68432 6.98658 6.9378 4.27954 -1.22877 -0.0617042 -0.0344597 -0.445108 -0.738827 Ge
28 1 2.85783 8.3094 5.57895 2.36826 4.75554 7.50513 -0.940794 -0.446754 -0.750931 Si
30 2 1.42822 9.75081 6.84483 -0.891894 -2.67528 0.495239 -1.04032 -1.32904 0.407371 Ge
41 1 5.5159 0.0205903 5.57098 -4.82429 -1.60974 0.467467 0.752867 -0.740561 0.382787 Si
24 2 4.19655 9.69769 4.16867 1.73281 -1.40174 -2.07601 -0.810824 0.278545 0.303815 Ge
62 2 6.8882 9.67081 7.02365 1.38972 -1.91059 1.84132 -0.192752 1.00508 -1.06197 Ge
56 2 9.74306 9.65269 4.09279 0.483814 -1.42391 -1.79781 -1.49967 -0.0199961 0.350112 Ge
60 1 8.28824 8.36951 5.57122 -1.32347 -5.15189 2.00535 0.160225 -0.56297 -0.607986 Si
1 1 -0.0904323 -0.0382316 -0.00929386 5.2486 6.61926 -0.510961 1.32244 1.50477 -0.149635 Si
10 1 0.0803842 2.7955 8.23526 3.83587 6.13237 -0.107389 -1.00376 0.197509 1.48704 Si
11 1 2.79769 -0.0487564 8.25871 -0.00637867 0.382605 -8.47656 -0.675975 0.96293 0.703561 Si
13 2 1.40444 1.31143 9.66126 3.0184 4.36018 -0.760096 -0.46335 1.00172 0.593516 Ge
42 1 5.5289 2.85658 8.36772 -1.12132 -3.30334 -2.03759 0.843595 -2.23994 -0.708049 Si
45 2 6.93672 1.33187 9.7095 -0.957759 1.71486 2.70249 -0.145237 2.07945 -0.741099 Ge
36 1 8.33011 2.8082 -0.074916 2.39464 1.23464 3.18998 -0.10958 -0.873285 1.33508 Si
43 1 8.3137 0.0255726 8.30269 -2.84701 0.914446 -0.232419 -0.201448 -0.302964 -0.146701 Si
17 1 -0.0902453 5.6148 -0.010822 -2.88551 -5.51684 2.50759 1.13397 -0.445764 0.100574 Si
27 1 2.73628 5.57219 8.35898 2.68833 -1.15595 -1.07945 -0.14483 -0.557382 -0.672008 Si
29 2 1.37425 6.97996 9.72766 0.451586 -3.48842 -2.53238 -0.335763 0.530019 0.181282 Ge
16 2 4.1176 4.16087 9.69154 -1.52472 1.4936 1.71705 0.338881 1.19181 1.69579 Ge
61 2 6.9011 6.91539 9.73332 -1.55862 3.81489 0.63987 1.14369 0.927668 0.759139 Ge
48 2 9.69176 4.21336 9.65797 -1.30893 0.0544825 0.317115 0.76918 -0.538706 -0.90014 Ge
59 1 8.29972 5.60703 8.2919 -3.72465 4.33733 -1.34591 0.57798 -0.0492608 0.912315 Si
32 2 4.09273 9.71718 9.70966 -1.41018 -0.0585789 -0.964947 1.06708 -0.388499 0.718658 Ge
58 1 5.5017 8.30414 8.42894 -2.72622 4.56101 -2.11692 -0.239912 -0.492806 -1.37568 Si
26 1 -0.00730712 8.35791 8.27176 -0.223103 2.5071 0.864725 1.31352 0.201662 -0.0271459 Si
64 2 9.69588 9.72567 9.62145 0.702858 -0.0840278 -1.27852 -0.500784 -0.554823 1.06381 Ge
ITEM: TIMESTEP
16800
ITEM: NUMBER OF ATOMS
64
ITEM: BOX BOUNDS pp pp pp
0.0000000000000000e+00 1.1085848640000000e+01
0.0000000000000000e+00 1.1085848640000000e+01
0.0000000000000000e+00 1.1085848640000000e+01
ITEM: ATOMS id type xu yu zu vx vy vz fx fy fz element
4 1 2.79568 2.76397 0.0178827 0.210332 -0.497471 3.42743 0.7455 0.0549282 0.171353 Si
7 2 4.17492 1.36106 1.4702 -1.97117 1.55826 -2.35104 -0.210614 0.535104 -0.841647 Ge
34 1 5.56935 2.78019 2.82647 -1.70588 3.52858 -0.438657 -0.311659 0.0564343 -0.518176 Si
2 1 -0.0375917 2.75434 2.84142 -0.752984 -1.02324 1.9571 0.546166 0.0301424 -0.943709 Si
39 2 9.75213 1.39534 1.38399 0.475635 2.44972 5.39782 -1.36432 0.263768 -0.440832 Ge
6 2 1.38717 4.08592 1.44446 -1.83159 -1.4314 -0.741522 0.0264471 1.45976 -0.612034 Ge
19 1 2.76464 5.60479 2.75878 0.969379 4.35755 2.77134 -0.00104505 -1.53098 -0.259545 Si
23 2 4.14804 6.9441 1.34605 3.07003 -1.23201 0.244442 1.034 0.165526 -0.40809 Ge
38 2 6.86436 4.19071 1.39096 1.04879 -0.468439 -4.26857 1.55134 -0.773192 0.72525 Ge
49 1 5.62324 5.54176 -0.0392446 3.58255 3.276 -1.53834 -2.1921 0.658909 0.353028 Si
51 1 8.30538 5.55516 2.80119 1.75119 2.64093 5.05937 0.0144126 0.0984851 -1.52065 Si
55 2 9.72477 6.95765 1.39844 -1.55078 1.50513 0.832156 -0.416342 -1.18331 -0.409452 Ge
3 1 2.72271 0.00207036 2.80587 0.85432 1.77998 2.02433 0.325251 -0.776656 -0.544312 Si
20 1 2.78218 8.34238 -0.067589 0.174573 3.92187 0.325364 0.0728128 -0.254453 0.319698 Si
22 2 1.38488 9.68261 1.32991 0.449284 0.340004 1.1359 -0.0199968 0.601367 0.72498 Ge
33 1 5.55832 -0.00176655 0.035885 5.73895 1.73283 -7.1424 -0.676056 -0.165437 -0.0697146 Si
50 1 5.58021 8.32303 2.75488 -4.63528 5.43178 -2.40764 -1.50646 -0.537007 0.374843 Si
54 2 6.91983 9.69142 1.42813 1.68901 0.0749131 0.0669653 1.26121 0.655606 -0.961243 Ge
35 1 8.37818 0.0106506 2.76768 -1.19619 0.928193 1.70822 -0.436855 -0.401187 0.00808491 Si
18 1 0.0163204 8.29863 2.76401 2.68119 -2.80112 2.78047 -0.0330076 0.657282 -0.457437 Si
52 1 8.30709 8.30195 0.00549674 0.447278 2.36609 2.89464 0.332897 0.61036 0.228977 Si
5 2 1.33484 1.36184 4.1838 3.83295 -1.07861 2.20382 -0.0373232 -0.114825 0.270309 Ge
12 1 2.78026 2.72331 5.50428 -0.326325 2.74923 -2.1091 0.304808 0.779912 0.502851 Si
15 2 4.14989 1.34023 6.94257 -0.9157 -0.351978 2.66184 0.291471 0.387155 -1.1004 Ge
37 2 7.02989 1.43093 4.16267 -4.08322 2.37512 -2.92304 -0.624059 -0.433524 0.501654 Ge
9 1 -0.07134 -0.00846453 5.56749 -5.9868 -6.29485 -3.44666 0.807957 0.160373 0.046524 Si
44 1 8.35236 2.85924 5.57251 -4.21057 -2.96514 -3.03451 -0.530562 -1.66903 -0.017197 Si
47 2 9.65958 1.38259 6.94858 0.5913 2.33943 2.99698 0.0303703 0.241339 -0.1847 Ge
14 2 1.43042 4.17234 6.88998 -0.0669146 0.402679 -1.10186 -1.29193 -1.03144 0.561585 Ge
21 2 1.33029 6.89795 4.12344 -2.8952 -0.490209 1.66019 0.421391 0.455392 0.0342772 Ge
25 1 -0.00556072 5.54248 5.51017 -1.34675 -0.251304 -0.728797 -0.592429 -0.675418 0.643704 Si
8 2 4.1639 4.19626 4.13984 -2.22492 -1.31876 1.10749 -0.397215 -0.205095 0.281431 Ge
31 2 4.14929 6.9522 6.88375 1.93311 -1.78794 -2.6041 -0.149382 0.575044 0.296864 Ge
46 2 6.91925 4.13566 6.94125 2.14083 0.702195 -2.03583 -0.466959 1.56762 -0.53952 Ge
53 2 6.95363 6.95801 4.13863 -1.4676 4.03703 -4.24877 -0.000620632 0.275694 0.436253 Ge
57 1 5.54352 5.61299 5.49707 -0.483462 2.43637 -4.93145 0.471782 -1.3432 0.898296 Si
40 2 9.66106 4.15688 4.13439 1.56078 -2.87956 1.49794 0.928852 0.815913 0.767464 Ge
63 2 9.66894 6.86145 6.97307 -1.44515 1.66152 1.18703 0.768958 0.752996 -0.827787 Ge
28 1 2.67495 8.29121 5.4815 1.17491 -2.58635 -1.79615 0.850858 1.05681 1.63041 Si
30 2 1.37015 9.78235 6.98681 0.370565 -0.00985435 -0.273045 -0.0378463 -1.40938 -1.21292 Ge
41 1 5.62761 -0.0151659 5.54102 -1.29566 2.29549 0.596961 -1.26999 0.365051 -0.381597 Si
24 2 4.13908 9.67185 4.15533 0.80939 2.11602 1.00633 0.505379 0.485134 0.0984117 Ge
62 2 6.96985 9.71361 6.94447 -2.2298 -1.66077 0.227185 0.0474792 -0.967179 -0.248892 Ge
56 2 9.71934 9.66111 4.149 2.79653 -0.287448 -1.35517 -0.0441331 0.464602 0.0579314 Ge
60 1 8.34976 8.31165 5.55052 -1.78656 6.11501 0.440402 -0.417459 -0.406099 0.371366 Si
1 1 0.00891941 0.0312869 -0.0354574 -6.4378 -6.58732 1.82668 0.426422 -0.336801 0.288362 Si
10 1 -0.0576093 2.74777 8.33459 3.43861 -4.55016 -1.8862 1.15325 1.26218 -0.689718 Si
11 1 2.74035 0.0762788 8.37464 2.33137 -1.81161 3.43336 0.744168 -1.00669 -1.29166 Si
13 2 1.40545 1.4263 9.68969 -1.22005 -3.56774 2.3783 -0.995383 0.425172 0.999331 Ge
42 1 5.52689 2.74738 8.2677 -1.99751 6.31707 3.95256 0.260408 -0.354328 0.413317 Si
45 2 6.88015 1.32774 9.65003 4.53329 -3.03032 0.152361 0.290425 0.819402 0.778563 Ge
36 1 8.2083 2.73984 0.00459021 0.77052 2.94567 -3.98499 0.975295 -0.157909 0.417245 Si
43 1 8.31859 -0.0219424 8.33099 1.33008 -0.159082 -1.58266 -0.0143521 0.336472 -0.142702 Si
17 1 0.0397944 5.54132 -0.0102785 -2.22073 2.99486 -2.7281 -0.98171 -0.878389 0.670047 Si
27 1 2.7919 5.55708 8.28845 -0.498858 4.81075 3.38607 0.426062 -0.299006 0.24783 Si
29 2 1.38702 6.9282 9.67553 -0.248029 0.112513 1.8771 0.426984 0.0237527 -0.17715 Ge
16 2 4.22654 4.15013 9.67247 -2.777 -2.34069 -2.51645 -1.16777 0.209059 0.389142 Ge
61 2 6.96884 6.91216 9.68903 -1.23344 -1.43009 -2.94081 -0.126519 0.500975 0.115284 Ge
48 2 9.61966 4.12674 9.72889 1.60819 -1.47305 3.24107 1.46434 -0.131269 0.727227 Ge
59 1 8.30936 5.49424 8.36691 0.448204 -2.6974 0.369691 -0.598531 0.153773 -1.0647 Si
32 2 4.1545 9.77104 9.66872 2.74687 -2.23334 -2.47079 0.686464 -1.01237 0.513544 Ge
58 1 5.58395 8.30855 8.31965 2.55096 -0.842861 2.13074 -0.902609 0.495497 -0.420027 Si
26 1 0.000862809 8.30146 8.29683 -3.4168 -4.88829 3.35602 -0.45876 0.331322 0.457534 Si
64 2 9.70335 9.71335 9.70726 0.310427 -1.36928 -1.85557 0.08082 -0.734138 -0.037151 Ge
ITEM: TIMESTEP
16900
ITEM: NUMBER OF ATOMS
64
ITEM: BOX BOUNDS pp pp pp
0.0000000000000000e+00 1.1085848640000000e+01
0.0000000000000000e+00 1.1085848640000000e+01
0.0000000000000000e+00 1.1085848640000000e+01
ITEM: ATOMS id type xu yu zu vx vy vz fx fy fz element
4 1 2.71161 2.79143 -0.0694372 -2.11547 1.16229 -0.190352 0.337533 -0.49596 1.01433 Si
7 2 4.16576 1.40783 1.27757 0.575027 -1.4026 2.09513 -1.14588 0.144486 0.671307 Ge
34 1 5.51868 2.76193 2.7008 2.75707 -1.27482 3.34879 0.297696 0.0906942 0.559934 Si
2 1 0.0168621 2.81353 2.80682 -1.35786 1.43354 -1.04651 -1.07249 -0.481175 -0.158354 Si
39 2 9.74402 1.34959 1.41717 1.67525 0.454055 -4.23472 0.0879817 0.541477 0.587139 Ge
6 2 1.38738 4.16063 1.45349 0.446473 -2.7166 -0.794213 0.0271533 -0.559005 -1.77842 Ge
19 1 2.76995 5.52004 2.74364 -0.196774 1.56577 -3.87062 0.142075 1.32045 1.11832 Si
23 2 4.1505 6.94333 1.4191 -1.38382 -0.514869 -0.468351 0.0706271 -0.988379 -0.236639 Ge
38 2 6.92698 4.15648 1.38174 -2.72913 -0.967728 1.02781 -0.146542 -0.684547 -1.22798 Ge
49 1 5.45901 5.5191 0.0218685 5.81272 -0.678821 1.68541 2.1875 1.01871 0.198315 Si
51 1 8.30842 5.52083 2.68303 -1.63737 2.09471 2.45379 0.0021511 0.62182 2.02237 Si
55 2 9.71706 6.93779 1.4187 2.82708 2.67943 0.912121 -0.420324 0.220022 -0.85494 Ge
3 1 2.7788 0.0344946 2.71421 -2.68911 -0.124655 1.47452 0.0342039 0.523504 0.956256 Si
20 1 2.78342 8.28341 0.0685829 1.28244 1.14409 0.343292 -0.591917 0.796059 -0.728504 Si
22 2 1.38279 9.65123 1.4892 -1.54327 -1.81961 -0.148672 0.394125 0.497716 -1.48256 Ge
33 1 5.51256 0.030648 -0.0657496 -0.261736 1.91421 3.24117 1.21961 0.309587 -0.836513 Si
50 1 5.56707 8.28421 2.75185 6.33859 -1.597 2.26913 -0.277079 0.721732 0.0636278 Si
54 2 6.8731 9.71752 1.31802 -3.25015 -2.82548 2.49379 1.00742 -0.463057 0.456613 Ge
35 1 8.25178 0.0276325 2.76819 1.94847 1.66436 -3.38505 -0.0605262 -0.196277 -0.138095 Si
18 1 -0.068085 8.3701 2.80922 -2.64401 -0.270596 -1.97049 0.47162 -0.942718 1.06819 Si
52 1 8.3125 8.2644 -0.0325832 0.412183 -3.27185 -0.617128 -0.464734 0.421798 0.769448 Si
5 2 1.39868 1.47545 4.15846 -1.00947 1.62264 -1.32721 1.58741 -0.845899 0.467267 Ge
12 1 2.79591 2.82237 5.63841 -2.30122 -4.38021 -0.729651 -0.410556 -0.0270519 -1.44791 Si
15 2 4.1125 1.4131 7.04021 -0.624772 -0.777002 -1.80609 0.878297 -0.620596 -1.56724 Ge
37 2 6.8618 1.41209 4.16896 4.73741 0.687363 0.971362 0.501138 0.215633 -0.374104 Ge
9 1 0.138132 0.0334685 5.57632 0.874528 1.12439 0.138334 -1.36706 -1.5917 -0.913961 Si
44 1 8.32568 2.75287 5.56261 2.28512 6.4932 1.5825 -0.477711 0.214017 -0.955854 Si
47 2 9.70687 1.29657 6.85311 -1.35329 -1.0155 -1.63499 0.539992 1.66359 1.80238 Ge
14 2 1.34522 4.13936 7.01661 2.45832 0.649711 -3.07613 0.190952 -0.0783791 -1.23661 Ge
21 2 1.40525 6.95429 4.15731 -1.66114 0.0129556 -0.856988 -0.488995 -0.224515 0.365093 Ge
25 1 0.00764672 5.53135 5.58217 0.575988 1.1748 1.07238 0.363026 0.278678 -0.996977 Si
8 2 4.17098 4.16186 4.09 1.97887 -1.35191 1.63337 -0.382772 -0.741331 1.4138 Ge
31 2 4.13579 6.89299 6.95523 0.788626 -0.13004 1.49853 0.467651 -0.394153 -1.20845 Ge
46 2 6.92965 4.1534 6.92415 0.632574 -3.58132 1.46306 0.787805 -0.624436 -0.233084 Ge
53 2 6.91174 6.87765 4.1329 0.118309 -2.3256 2.71441 0.431646 -0.219511 0.0151179 Ge
57 1 5.55435 5.46405 5.5566 -0.722912 4.42766 0.768929 -0.790346 1.57286 -0.712407 Si
40 2 9.67732 4.19222 4.15517 -0.188727 -0.467896 -0.485012 0.155465 -0.451708 0.232248 Ge
63 2 9.70166 6.94173 6.87208 1.38674 -1.22287 -0.166216 0.565248 0.559443 0.795655 Ge
28 1 2.8171 8.34702 5.56173 -1.79258 -0.0202701 -1.87032 -0.184572 -1.25621 -0.692758 Si
30 2 1.45563 9.63871 6.98491 0.360716 3.2988 1.16564 -0.755858 1.15281 -1.33585 Ge
41 1 5.46606 0.0440021 5.53681 3.94132 -0.460018 0.0265562 0.153957 -0.199364 0.37574 Si
24 2 4.15171 9.69373 4.08972 0.348681 -2.33795 -1.73598 0.281208 0.580878 0.712074 Ge
62 2 6.94568 9.77101 6.89397 -0.28751 0.38295 4.30446 -0.739418 -1.36308 -0.0524906 Ge
56 2 9.63877 9.77108 4.19487 -0.0169924 -2.05673 -1.17055 1.26183 -0.0251923 0.092723 Ge
60 1 8.30404 8.27867 5.50554 0.970492 -2.81002 0.61967 -0.638967 1.06232 0.218708 Si
1 1 0.0445688 -0.0536599 0.0787079 -0.364096 4.20384 -1.16755 -0.707788 -0.477632 -0.592509 Si
10 1 -0.0279071 2.73508 8.33203 -4.57473 0.303245 0.277319 0.248253 -1.58008 -0.432715 Si
11 1 2.7886 -0.0798009 8.31714 -4.31825 1.8836 0.647326 0.0265453 0.617891 0.957051 Si
13 2 1.38896 1.25495 9.69909 1.39168 3.18898 -2.337 -0.503491 1.68468 -0.126428 Ge
42 1 5.58971 2.7808 8.30015 -0.913583 0.436354 -2.88391 -1.33069 1.29578 0.783308 Si
45 2 6.9763 1.50093 9.64957 -1.30684 -0.487188 -1.08003 0.303808 -2.33836 1.465 Ge
36 1 8.41292 2.76223 0.0416259 -4.46934 -0.314369 -1.64758 -0.797786 1.30984 -1.31082 Si
43 1 8.33858 0.00557857 8.32133 -1.16908 -1.59467 2.02395 -0.259302 0.180447 -0.0598126 Si
17 1 0.0244745 5.54059 0.0694567 1.46063 1.47108 1.92395 -0.0840181 0.444468 -1.41441 Si
27 1 2.75753 5.48779 8.31348 -1.11691 -1.44678 -3.16475 0.14921 1.29933 1.15185 Si
29 2 1.40283 6.9477 9.70491 -0.988982 0.654964 -0.147474 -0.24773 -0.745352 0.439496 Ge
16 2 4.16846 4.18095 9.73588 2.9919 0.624277 2.32634 -0.615561 -1.39689 -1.69602 Ge
61 2 6.93164 6.86651 9.67387 -0.380748 1.75737 0.785943 -0.853514 0.474936 -0.271406 Ge
48 2 9.73973 4.21153 9.61741 -3.53955 -0.854084 -0.983049 -0.447502 -0.54841 2.13071 Ge
59 1 8.33695 5.55814 8.21959 0.274341 2.6268 1.29616 -0.342162 -0.122185 1.03355 Si
32 2 4.14505 9.66502 9.71089 -1.66421 1.38656 -0.305124 0.324174 -0.417793 -0.0562053 Ge
58 1 5.52462 8.30925 8.25734 1.67919 -0.486359 3.37065 1.03123 0.128536 1.06612 Si
26 1 0.0106414 8.3429 8.30882 1.95159 4.39845 -6.47236 -0.738212 -1.00095 0.47134 Si
64 2 9.68431 9.69273 9.7386 -0.758 1.41494 -0.459185 0.814961 0.137704 -0.345069 Ge
ITEM: TIMESTEP
17000
ITEM: NUMBER OF ATOMS
64
ITEM: BOX BOUNDS pp pp pp
0.0000000000000000e+00 1.1085848640000000e+01
0.0000000000000000e+00 1.1085848640000000e+01
0.0000000000000000e+00 1.1085848640000000e+01
ITEM: ATOMS id type xu yu zu vx vy vz fx fy fz element
4 1 2.85571 2.75999 0.0381796 1.09182 1.28991 -3.34611 -1.07804 0.704237 -0.237999 Si
7 2 4.17334 1.3977 1.52261 0.134675 2.15722 -2.57248 0.173686 -1.05325 -1.77927 Ge
34 1 5.57617 2.7474 2.82962 -3.5763 1.13565 -2.37645 0.34512 0.425771 0.28067 Si
2 1 -0.0163658 2.73201 2.68598 1.57773 2.73965 4.08234 0.213867 0.813236 0.168465 Si
39 2 9.64877 1.38521 1.35953 0.618417 -0.777749 0.754121 0.592717 -0.654088 -0.941765 Ge
6 2 1.38544 4.20369 1.36791 0.132504 -1.24926 2.66091 0.399833 -1.00423 -0.313276 Ge
19 1 2.7888 5.51605 2.83488 0.871948 -0.704564 1.16186 0.246504 0.550913 -1.94172 Si
23 2 4.17171 6.94435 1.42533 2.13341 4.03156 0.249258 -1.49069 -0.553435 -0.781143 Ge
38 2 6.92053 4.17447 1.44814 -0.438315 0.615746 -0.360215 -0.434619 -0.274359 -0.78874 Ge
49 1 5.50367 5.5451 0.00567428 -9.23203 -3.42388 -1.16906 0.383159 -0.655554 0.50822 Si
51 1 8.33938 5.50987 2.82606 1.66698 -4.43902 -7.58323 -0.509259 0.797863 -0.388079 Si
55 2 9.66697 6.8816 1.3624 1.8197 0.226945 1.47536 1.13866 0.705601 -0.0590883 Ge
3 1 2.78683 -0.0636432 2.78055 0.21318 0.440003 -5.21979 -0.572373 -0.020616 -0.0836415 Si
20 1 2.72693 8.29414 -0.0490674 -0.314238 -2.24755 0.934097 0.753787 0.304191 0.812396 Si
22 2 1.36918 9.76569 1.25242 -0.286746 -2.38042 2.00664 0.480953 -1.07498 1.45408 Ge
33 1 5.49657 -0.0890798 0.0936441 -3.85021 -1.565 0.583987 -0.118732 0.982497 0.647176 Si
50 1 5.51355 8.28685 2.81206 -1.02982 -1.62418 -3.33386 1.37645 0.543284 0.027276 Si
54 2 6.98985 9.66946 1.45929 -1.79029 -0.608061 -2.29912 -1.55515 -0.00653969 -0.0963617 Ge
35 1 8.37836 -0.0622897 2.81273 -0.466527 -0.927276 3.74792 -0.25921 0.649933 -0.744344 Si
18 1 0.0914653 8.27134 2.71748 0.997755 3.60373 -0.638098 -1.21867 0.582226 -1.15145 Si
52 1 8.32932 8.38988 0.00919462 0.402163 0.854584 -2.3072 0.680185 -1.09073 -0.253643 Si
5 2 1.30006 1.30831 4.05848 -0.835932 2.40199 0.745311 1.1512 0.772828 1.10732 Ge
12 1 2.76097 2.74692 5.44727 3.79943 3.79244 4.10427 -0.557801 -0.642693 0.910841 Si
15 2 4.21714 1.36647 6.86203 -4.00323 1.60767 3.84019 -0.774823 0.421086 -0.346064 Ge
37 2 6.97269 1.31623 4.16038 -2.48466 1.35138 2.37203 -0.289266 0.0351931 0.208358 Ge
9 1 -0.0993034 0.00238556 5.50287 1.39427 5.3921 2.88388 0.522404 0.592766 0.846156 Si
44 1 8.32145 2.7388 5.51307 2.17626 -0.304419 4.28266 -0.213098 1.46299 0.975947 Si
47 2 9.67582 1.47341 6.99889 -1.84775 -2.28032 -2.19104 0.598973 -1.08708 -1.43604 Ge
14 2 1.40354 4.19253 6.88861 -1.33015 -1.42905 0.827383 0.8632 0.175626 -0.42246 Ge
21 2 1.4393 6.93313 4.11354 -1.45773 2.1724 -1.27293 -0.488082 -0.178946 0.868177 Ge
25 1 0.02507 5.56309 5.46766 -0.503978 -0.279237 -1.53783 -0.47839 0.176813 1.38719 Si
8 2 4.16489 4.1512 4.15657 0.929956 0.29596 -2.21095 0.716642 -0.241164 0.620133 Ge
31 2 4.11811 6.97629 6.97477 0.531303 1.53703 1.71446 1.00109 -0.669784 -0.208683 Ge
46 2 6.94047 4.19223 6.98419 -1.40381 1.66154 -2.01937 -0.270097 -1.72584 -0.594409 Ge
53 2 6.94071 6.95611 4.19511 -1.22387 -0.654181 -1.90634 -0.126435 -1.18459 0.1125 Ge
57 1 5.53297 5.53563 5.58925 0.685118 -7.38332 1.08334 -0.166865 0.863933 -0.066939 Si
40 2 9.75077 4.11782 4.12917 -0.881365 0.202247 1.22784 -0.382794 -0.2509 0.279449 Ge
63 2 9.70115 6.9169 7.00246 -0.620646 -1.69841 -2.27502 0.120561 -0.353398 -1.32886 Ge
28 1 2.72981 8.2932 5.56948 -0.485883 1.68569 0.0454701 0.1558 0.779228 -0.071021 Si
30 2 1.32765 9.7491 6.88821 1.34204 -2.755 3.41871 0.374041 -0.492524 0.814311 Ge
41 1 5.58757 -0.0763848 5.54127 -2.13135 0.412142 0.697719 0.201659 0.48893 0.00856903 Si
24 2 4.16941 9.648 4.21769 -1.24154 -1.55137 -2.33025 -0.732117 0.128348 -0.588241 Ge
62 2 6.97828 9.65145 6.91957 2.66634 1.74529 -1.2929 -0.709655 0.884695 1.06117 Ge
56 2 9.7535 9.61803 4.11686 1.15697 -1.28256 0.70077 -0.189554 -0.0366234 0.436989 Ge
60 1 8.34907 8.31491 5.56035 3.04217 0.515349 -1.68625 0.585609 -0.822358 -0.0841311 Si
1 1 0.038088 0.0814883 -0.130577 3.31451 -1.57978 2.06452 -0.909496 0.434755 1.12703 Si
10 1 0.0509711 2.85292 8.29503 -1.79966 3.18078 1.11413 -1.2341 0.228775 0.426519 Si
11 1 2.7933 0.0730694 8.25235 3.61807 -0.82192 -0.901958 -0.953284 -0.571203 -0.271307 Si
13 2 1.44251 1.47666 9.6304 2.68985 -4.94335 0.203619 0.340669 -0.149633 0.591879 Ge
42 1 5.52904 2.69678 8.33773 4.31613 -3.24426 -1.89356 0.601427 0.908347 -1.04317 Si
45 2 6.81144 1.28421 9.75621 1.54359 4.32323 -0.788351 1.38996 1.06838 0.0158074 Ge
36 1 8.23756 2.77418 -0.00633642 3.81572 -2.59638 6.60663 -0.0933407 -0.343424 0.124764 Si
43 1 8.28763 0.0511702 8.31082 2.23707 1.6579 -1.07478 -0.0695482 -0.876091 0.289134 Si
17 1 -0.0128914 5.52716 -0.0951169 1.45317 -0.12977 0.318979 0.224329 0.790357 1.58088 Si
27 1 2.80134 5.56281 8.35211 -0.298844 -1.90615 -0.579152 -0.797147 -0.54177 -1.72179 Si
29 2 1.39214 6.92697 9.64477 0.520337 0.992928 -1.02355 -0.333325 -0.335329 1.0108 Ge
16 2 4.16007 4.12779 9.62767 0.647785 0.569136 2.5223 0.45306 0.213021 2.04105 Ge
61 2 6.91989 6.93809 9.78368 -2.02375 -1.4609 0.43274 -0.558804 1.09221 -0.675686 Ge
48 2 9.64815 4.18466 9.70839 1.16599 0.678678 -0.943886 0.386191 -1.33067 -0.527808 Ge
59 1 8.26974 5.56651 8.39063 0.533369 -0.822405 -3.28361 0.425627 0.316682 -0.615258 Si
32 2 4.05922 9.77586 9.7171 0.0454633 -1.05347 -1.36011 1.06868 -1.21634 -0.283337 Ge
58 1 5.51159 8.36204 8.36851 -2.65519 1.07978 -5.92038 0.359519 -0.240961 0.0462405 Si
26 1 -0.00176785 8.3033 8.35446 1.45059 -0.914187 4.44792 0.331935 0.948775 -1.57137 Si
64 2 9.74062 9.75603 9.64599 -0.96997 0.311626 1.50903 -1.09273 -0.164358 0.627606 Ge
ITEM: TIMESTEP
17100
ITEM: NUMBER OF ATOMS
64
ITEM: BOX BOUNDS pp pp pp
0.0000000000000000e+00 1.1085848640000000e+01
0.0000000000000000e+00 1.1085848640000000e+01
0.0000000000000000e+00 1.1085848640000000e+01
ITEM: ATOMS id type xu yu zu vx vy vz fx fy fz element
4 1 2.67951 2.73599 0.00979211 0.494411 -1.79505 0.670979 0.62993 0.606818 -0.745472 Si
7 2 4.17695 1.36742 1.2876 0.595452 2.70745 2.95956 -0.190536 0.492538 0.890389 Ge
34 1 5.52209 2.80851 2.6873 2.45571 -1.74907 -1.77039 -1.17536 0.0932093 -0.106642 Si
2 1 0.0389546 2.74726 2.83555 0.34447 -4.49527 -2.02035 0.188495 0.6435 0.777606 Si
39 2 9.74442 1.39861 1.51852 -1.7373 2.25111 -0.13332 -1.32409 0.164542 -2.29944 Ge
6 2 1.34438 4.14804 1.42679 -2.0213 1.49788 -0.794472 0.190071 -0.426858 -0.431527 Ge
19 1 2.73051 5.55531 2.71032 -2.09508 -3.19785 3.54754 -0.0983811 -0.445231 1.59211 Si
23 2 4.14655 6.85887 1.35925 3.22146 0.234662 0.106445 1.46537 1.98498 -0.0711086 Ge
38 2 6.95382 4.13648 1.345 0.352619 0.549907 -0.183693 0.936137 0.679077 0.29801 Ge
49 1 5.65924 5.56149 -0.0233594 0.716357 2.72932 -3.41499 -1.96643 -0.515883 -1.2382 Si
51 1 8.26993 5.60519 2.80011 -0.499738 0.254725 5.23019 0.777887 -1.42588 -1.23188 Si
55 2 9.66335 6.94645 1.38774 -1.15342 0.471937 1.74278 0.359334 -0.636296 0.976413 Ge
3 1 2.80828 0.0452192 2.81654 2.6583 0.0146999 3.92315 0.0949419 0.254453 -0.923207 Si
20 1 2.82657 8.34267 0.0115903 -0.0583056 0.309815 -1.42765 -0.494343 -0.376342 -0.0802959 Si
22 2 1.42053 9.69532 1.47879 -2.44256 -0.368564 -1.1268 -0.547764 -0.631121 -0.153238 Ge
33 1 5.66778 0.0876275 -0.100216 0.884259 -2.20183 -4.34897 -1.14786 -1.13581 0.432735 Si
50 1 5.51924 8.41881 2.72878 -3.66983 -1.44167 2.06871 -0.644637 -0.820767 -0.605648 Si
54 2 6.93824 9.78091 1.38627 2.33876 -0.504832 0.685238 -0.173689 -1.02923 -1.62301 Ge
35 1 8.24426 0.0678019 2.73658 0.75695 1.04307 1.8075 0.594189 0.136919 1.44067 Si
18 1 -0.076504 8.302 2.83014 1.59859 -3.16291 2.16247 0.889072 0.581239 0.391447 Si
52 1 8.29001 8.25448 0.0275226 -0.393213 0.720298 -0.48852 -0.276747 1.26728 -0.805984 Si
5 2 1.46384 1.41302 4.23862 -1.73995 -1.88547 -1.22952 -1.27747 -1.07027 -0.47721 Ge
12 1 2.76626 2.76761 5.62139 -1.44313 -0.154146 -3.68237 0.968578 1.20432 0.480458 Si
15 2 4.1881 1.37955 7.0249 1.96916 -0.370803 0.758171 -1.72975 0.483572 -0.011055 Ge
37 2 6.83117 1.44086 4.06348 0.418891 3.06138 -1.54135 0.712649 -0.37409 1.27974 Ge
9 1 0.0734278 -0.0845212 5.56312 1.76652 -3.43046 -2.09649 -0.685144 1.76377 -0.0123477 Si
44 1 8.25498 2.73045 5.50909 -0.388456 -5.37925 -6.73048 1.10718 -0.138062 0.375105 Si
47 2 9.7455 1.35501 6.94228 -2.58855 2.31757 1.87059 -0.990892 -1.04842 -1.19548 Ge
14 2 1.36093 4.17827 7.02913 -0.847283 0.65176 0.362174 -0.0224259 -1.42113 -1.03883 Ge
21 2 1.37685 6.88294 4.2214 -1.15315 0.643736 -0.441134 -0.67554 0.596929 -0.62524 Ge
25 1 -0.0552082 5.51386 5.65255 1.78314 -0.625358 -1.05223 0.24642 0.274349 -1.44225 Si
8 2 4.10817 4.17281 4.1167 -0.253103 -1.99798 0.133469 0.575092 -0.138613 0.258474 Ge
31 2 4.13474 6.86115 6.80015 -1.10131 -0.0909046 -0.435423 1.19999 1.39076 1.97276 Ge
46 2 6.94087 4.12077 6.94697 2.35707 0.560961 -1.41433 -0.764601 1.36146 -1.89954 Ge
53 2 6.91855 7.05223 4.05599 -1.61746 5.26518 0.25447 -0.585509 -0.735288 1.17458 Ge
57 1 5.58445 5.60308 5.43765 2.67451 0.769867 -1.04861 0.11207 -1.79306 0.351434 Si
40 2 9.68133 4.14218 4.14807 1.2034 -1.46984 1.80663 -0.287018 0.506079 0.90646 Ge
63 2 9.64681 6.97413 6.94322 -0.0316819 2.31243 1.74182 0.0144101 -0.936813 -0.876228 Ge
28 1 2.8214 8.3249 5.51586 -0.439716 -0.761016 1.89349 -0.615626 0.0510527 -0.404992 Si
30 2 1.42757 9.63388 6.95359 -0.885434 1.42163 -1.45285 -0.196163 -0.219477 -0.430401 Ge
41 1 5.49902 0.0953132 5.54627 0.0388157 0.510833 -1.78553 0.776332 -0.460233 -0.196744 Si
24 2 4.18953 9.78601 4.16467 2.4011 -1.26977 1.59088 -0.5153 -0.870372 0.124577 Ge
62 2 6.85423 9.73455 6.8923 0.0739539 -1.47063 -0.518469 0.602689 -0.549791 0.0230217 Ge
56 2 9.60785 9.80513 4.1746 0.539082 -1.78404 -1.82438 0.635486 -1.67561 -0.0812461 Ge
60 1 8.24171 8.3334 5.53756 -3.53185 -1.05094 -1.52402 0.588504 1.03541 -0.229308 Si
1 1 -0.105578 -0.0978303 0.142538 3.29851 0.746502 -3.83325 1.08451 0.264437 -0.951142 Si
10 1 0.0320556 2.65737 8.33905 7.43339 -2.11106 -0.032822 -0.55011 1.72839 0.343803 Si
11 1 2.72125 -0.0794021 8.37574 0.877693 0.447666 1.08171 1.04273 1.18767 0.164198 Si
13 2 1.25787 1.2876 9.78857 0.21314 -0.334419 0.44996 1.48002 -0.707322 0.129318 Ge
42 1 5.51286 2.8728 8.3484 -0.191406 -3.37136 4.71402 0.830104 -1.839 -0.140062 Si
45 2 7.0448 1.43276 9.60977 -1.03485 -4.17824 -0.767635 -0.801009 0.292495 0.0934015 Ge
36 1 8.39438 2.77408 -0.0407797 -1.24757 0.955399 -3.82192 0.15324 -0.520351 1.4339 Si
43 1 8.33194 -0.101104 8.28817 -0.540632 2.31351 0.457676 0.392334 1.21037 -0.16667 Si
17 1 -0.0107148 5.54822 0.0715129 -1.79663 -2.35888 -1.09199 -0.0185232 -0.155832 -1.14669 Si
27 1 2.74507 5.59119 8.2775 3.6344 0.888385 3.87783 0.298504 -0.161049 0.598495 Si
29 2 1.39552 6.91426 9.73597 1.05398 2.19362 0.67821 -0.371078 0.875701 -0.18379 Ge
16 2 4.08086 4.20064 9.666 -1.19348 -1.23417 -2.81521 0.662077 0.198177 1.88738 Ge
61 2 7.04503 6.8871 9.58318 1.3927 -1.74046 1.41951 -0.862268 -0.189101 1.63422 Ge
48 2 9.76457 4.13075 9.68999 -1.14008 0.985015 1.15951 0.40837 0.171912 -0.0355349 Ge
59 1 8.37809 5.46048 8.26084 -1.05499 -0.392391 2.13198 0.179145 0.435331 0.435965 Si
32 2 4.26009 9.68039 9.67118 -3.71534 1.25352 1.23474 -0.322786 -0.0300292 0.451487 Ge
58 1 5.60344 8.23479 8.27456 -1.7918 -0.887454 3.26561 -1.44744 0.246693 -1.094 Si
26 1 -0.0115598 8.27863 8.272 -0.832083 0.457143 -0.636471 0.664735 -0.114833 1.59573 Si
64 2 9.68878 9.60433 9.70997 2.10117 0.530712 -2.73881 -0.102108 0.408724 0.440533 Ge
ITEM: TIMESTEP
17200
ITEM: NUMBER OF ATOMS
64
ITEM: BOX BOUNDS pp pp pp
0.0000000000000000e+00 1.1085848640000000e+01
0.0000000000000000e+00 1.1085848640000000e+01
0.0000000000000000e+00 1.1085848640000000e+01
ITEM: ATOMS id type xu yu zu vx vy vz fx fy fz element
4 1 2.86689 2.80481 0.0198271 1.18974 -3.86877 2.58329 -0.256542 -0.94798 0.00720203 Si
7 2 4.14554 1.34292 1.50159 1.23838 -0.563525 -1.11725 -0.0696672 1.11372 -0.706021 Ge
34 1 5.54633 2.7224 2.90545 1.15159 -0.305373 2.28122 0.985739 -0.633528 -0.882143 Si
2 1 -0.0411961 2.84424 2.67487 -1.11221 0.155029 -3.71015 0.513891 -1.48175 -0.386907 Si
39 2 9.71379 1.37214 1.29514 2.66204 1.17805 1.96003 -0.564286 0.551294 0.874195 Ge
6 2 1.4502 4.14648 1.38607 0.115345 -1.06861 -1.46961 -0.607483 1.28796 -0.864872 Ge
19 1 2.80865 5.55153 2.79507 2.41652 1.67438 -4.56913 -0.588382 -0.817822 -0.155253 Si
23 2 4.08942 6.95064 1.46205 -1.82459 -2.12237 -0.643398 1.33579 -0.151818 -1.45389 Ge
38 2 6.89168 4.13453 1.46392 -3.03783 -4.15448 1.74722 -0.17338 -0.402028 -0.602062 Ge
49 1 5.51453 5.54259 0.0706486 6.84738 0.0197383 8.41174 0.554853 0.952764 0.0437428 Si
51 1 8.35277 5.51721 2.69902 -1.66098 1.42409 0.33793 -0.417366 0.614725 0.821751 Si
55 2 9.71831 6.92573 1.31687 0.971012 1.47794 -3.75645 0.233363 0.436251 0.433849 Ge
3 1 2.70476 -0.0369214 2.74767 -0.888662 -3.42787 -0.879343 0.492266 0.389629 1.06445 Si
20 1 2.70261 8.2799 0.00252652 0.00690615 -0.695066 -1.05757 0.37517 -0.00680954 -0.791995 Si
22 2 1.38134 9.75654 1.31892 0.43789 1.49152 -1.62708 -1.00337 -0.8508 -0.066618 Ge
33 1 5.47086 -0.0428552 0.125925 4.45216 3.76327 3.85248 0.488103 0.187535 -1.42134 Si
50 1 5.58664 8.2342 2.81792 2.1252 2.20517 0.0875399 -0.544731 -0.422389 0.920717 Si
54 2 6.89255 9.62208 1.42299 -2.01729 -1.10061 5.55036 0.820808 0.867453 -0.114892 Ge
35 1 8.36156 -0.0602444 2.72047 -1.15583 -4.27148 -6.72513 -0.194358 8.24855e-05 -0.322448 Si
18 1 0.0334065 8.32972 2.73739 -0.260838 -0.685126 -2.18177 0.02425 -0.365313 0.128008 Si
52 1 8.32516 8.36636 -0.00861825 0.483235 -0.0884532 5.17696 -0.307198 -0.693129 0.274202 Si
5 2 1.29814 1.43339 4.04085 0.561337 3.57332 -0.163878 0.400308 -0.58475 1.4517 Ge
12 1 2.77223 2.75922 5.4734 1.60049 -5.09351 -0.32354 -0.427581 -0.323655 -0.827221 Si
15 2 4.16396 1.35097 6.78603 1.30914 -2.00283 -2.37645 0.711677 -0.200831 0.588751 Ge
37 2 7.0334 1.24165 4.18802 -0.384938 -0.0923226 -0.724765 -0.267459 2.66458 0.353949 Ge
9 1 -0.0992178 0.0543737 5.51908 -1.76363 -4.06565 0.238409 2.2407 -0.789526 -0.356373 Si
44 1 8.34469 2.85694 5.60913 -2.59445 0.74319 2.46343 -0.269559 -1.10954 -1.45726 Si
47 2 9.72442 1.40938 6.95319 0.912141 2.67632 1.07369 -1.7417 0.531627 0.270464 Ge
14 2 1.44507 4.13125 6.8799 0.736484 2.47867 -0.208808 -1.57954 0.47669 -0.162221 Ge
21 2 1.48866 6.94171 4.14769 0.213556 1.35348 1.80288 -1.97308 0.241029 -0.30808 Ge
25 1 0.049087 5.55828 5.48236 -1.59247 -1.00574 2.24348 0.258454 -0.369101 0.43309 Si
8 2 4.17367 4.18011 4.15673 1.34067 -0.426592 0.662015 -0.420654 -0.440118 0.987174 Ge
31 2 4.10624 6.9787 7.072 -3.04625 -0.530314 -3.07966 0.0362406 -0.686355 -1.99941 Ge
46 2 6.89354 4.184 7.03424 0.407231 -2.7432 5.02902 0.636227 0.307124 -1.37445 Ge
53 2 6.98238 6.77868 4.24491 1.42313 1.55955 -0.382427 -0.343226 1.82279 -0.213383 Ge
57 1 5.44531 5.52003 5.65791 -1.58703 1.62512 1.21769 1.19614 0.610823 -0.0920166 Si
40 2 9.74034 4.19094 4.05626 1.15534 -1.92146 -2.27356 -0.701809 -0.0559121 1.95799 Ge
63 2 9.75284 6.88963 6.96032 -0.238288 0.618102 0.817983 0.257155 0.942786 -0.374064 Ge
28 1 2.77658 8.31058 5.55424 2.62845 -1.8346 0.397373 0.223478 0.27222 0.955922 Si
30 2 1.39136 9.73017 6.92134 0.918519 -0.225488 0.958269 -0.8094 0.394867 -0.488058 Ge
41 1 5.62004 -0.114503 5.5067 -1.16048 -1.3262 3.09665 -1.35372 0.606192 0.0079653 Si
24 2 4.12686 9.64675 4.13574 1.49929 -0.414581 0.507516 0.835452 0.254452 -0.0431355 Ge
62 2 6.96278 9.69063 6.9573 0.0238911 0.0709399 0.426497 0.232739 -0.389124 0.209517 Ge
56 2 9.68188 9.67384 4.15316 -0.622523 0.362561 0.471087 0.853809 -0.0592944 -0.374061 Ge
60 1 8.38743 8.30732 5.59627 0.831171 -1.05346 3.84858 -1.14575 -1.1596 -0.328584 Si
1 1 0.0279451 0.0700726 -0.0939745 -5.1166 -1.20944 3.12846 1.11304 0.444415 -0.110821 Si
10 1 -0.0936993 2.88827 8.28308 -2.28199 -2.96166 -3.37115 2.53143 -1.21151 -0.539818 Si
11 1 2.80075 0.0644196 8.25793 -2.24637 -1.65219 -3.57319 -0.210278 -0.533156 0.0135011 Si
13 2 1.46306 1.52566 9.59056 -2.44555 3.21392 -1.04004 -1.29595 -0.46339 1.16479 Ge
42 1 5.50567 2.73028 8.23357 -5.15479 7.79386 -2.54271 -0.246656 -0.00955679 1.19062 Si
45 2 6.79474 1.40817 9.74271 1.04754 2.03489 0.833943 1.14243 -1.16194 0.0380917 Ge
36 1 8.24912 2.77446 0.0185805 -0.201902 2.09808 -2.1546 0.155493 0.395187 -0.900373 Si
43 1 8.29458 0.0326936 8.35313 -0.292187 -4.86319 -2.54711 -0.203881 0.463778 0.149628 Si
17 1 0.00298098 5.52252 -0.0594297 1.51924 1.00736 -0.31121 -0.104613 -0.815301 0.77154 Si
27 1 2.75287 5.47542 8.32092 -2.87622 1.82425 -1.82267 0.92937 0.190131 0.643424 Si
29 2 1.34109 6.84797 9.63498 -0.277689 -2.81333 -1.18281 1.12933 1.07079 1.1954 Ge
16 2 4.254 4.14983 9.71546 -1.84684 2.37936 0.0989276 -1.40995 0.0345477 -0.689913 Ge
61 2 6.87965 7.0038 9.73733 1.64459 1.71294 -1.03693 0.0964275 -0.528526 0.350663 Ge
48 2 9.63343 4.1977 9.63989 -1.54269 -0.709446 0.573001 -0.542937 -0.0266157 2.07961 Ge
59 1 8.28745 5.6375 8.35196 -0.322139 -2.9066 -2.50027 -0.67158 -0.546287 -0.1692 Si
32 2 4.10101 9.72465 9.71892 0.529052 2.66502 -1.56001 -0.0851852 0.108786 0.396199 Ge
58 1 5.50988 8.38213 8.34054 5.60506 0.767012 1.14577 0.408827 -0.117307 0.651509 Si
26 1 0.0295639 8.32028 8.34838 -0.502924 -2.48402 -1.47729 -0.687517 0.456698 -0.829859 Si
64 2 9.71 9.74602 9.72619 -1.12177 -0.727258 -0.164804 0.00581723 -0.336166 -1.02286 Ge
ITEM: TIMESTEP
17300
ITEM: NUMBER OF ATOMS
64
ITEM: BOX BOUNDS pp pp pp
0.0000000000000000e+00 1.1085848640000000e+01
0.0000000000000000e+00 1.1085848640000000e+01
0.0000000000000000e+00 1.1085848640000000e+01
ITEM: ATOMS id type xu yu zu vx vy vz fx fy fz element
4 1 2.63724 2.80592 -0.0610656 -1.87006 5.08048 -1.28075 1.16113 -0.680596 1.10865 Si
7 2 4.14646 1.41382 1.30614 0.330132 1.39431 0.0812862 -0.388623 0.160461 -0.753533 Ge
34 1 5.52408 2.81157 2.65744 -2.9469 -0.182772 2.06783 0.322202 0.273832 0.815258 Si
2 1 0.0464776 2.70243 2.90162 -0.0158993 2.86278 3.11827 -0.915911 0.532286 -1.03049 Si
39 2 9.70823 1.33655 1.48812 2.03413 0.215181 1.28714 0.906383 0.826499 -0.319855 Ge
6 2 1.32935 4.16448 1.48864 -0.845913 -2.53249 2.20056 -0.0703281 -0.787732 -1.69395 Ge
19 1 2.73742 5.51742 2.76072 -0.119103 1.78488 0.399601 1.17066 0.999651 -0.773209 Si
23 2 4.19342 6.94901 1.3961 -0.268381 2.98481 2.74448 -0.926591 -0.696604 -0.392042 Ge
38 2 6.99641 4.23922 1.3465 -0.300091 -0.0353605 -2.55784 -1.65769 -1.0809 -0.679385 Ge
49 1 5.46112 5.53976 -0.105126 -2.93269 -2.20241 -6.11046 1.1939 -0.549234 1.82773 Si
51 1 8.30425 5.53424 2.81831 2.03811 -0.13118 -2.03157 0.151626 0.0421215 -0.0523543 Si
55 2 9.64626 6.90752 1.46925 0.242488 1.7574 -1.55937 0.606199 0.713493 -1.51963 Ge
3 1 2.82416 0.0565833 2.77241 0.0966339 2.02849 0.437172 -0.198465 -1.34382 -0.956825 Si
20 1 2.83344 8.34025 -0.0011624 0.733237 0.999862 3.3762 -0.280362 -0.0376398 0.747749 Si
22 2 1.41873 9.66725 1.42383 1.07704 -0.408565 2.17473 0.156176 0.840902 -0.153755 Ge
33 1 5.53954 -0.011716 -0.0899037 -1.95974 -1.04247 -2.44637 0.648909 0.706149 0.840404 Si
50 1 5.54394 8.3835 2.75076 0.526945 0.181757 -1.40464 0.52562 0.681642 -0.745531 Si
54 2 7.00856 9.77688 1.29897 -0.58704 -0.684086 -3.99228 -1.36676 -0.646222 1.60206 Ge
35 1 8.28438 0.0697045 2.87913 -1.51347 4.40275 4.62634 -0.210482 -1.25157 -1.54819 Si
18 1 -0.0274905 8.31989 2.79007 -1.67437 -0.933013 2.6825 0.396142 -0.371034 -0.286009 Si
52 1 8.27997 8.2525 -0.0414881 0.806224 -1.27635 -3.85966 0.909049 0.230427 1.01512 Si
5 2 1.48094 1.3239 4.18858 -0.0947708 3.52495 -0.801332 0.0414731 1.95909 0.680389 Ge
12 1 2.75561 2.82696 5.60413 -2.25689 4.28817 3.12029 0.59937 -0.755297 0.0373325 Si
15 2 4.1402 1.47131 7.12582 -1.9991 1.2622 0.582369 -0.577797 -0.949207 -2.30416 Ge
37 2 6.82957 1.42543 4.16604 -3.20296 -1.71687 -0.861488 -0.0515826 0.395791 -0.0529543 Ge
9 1 0.114766 0.0214974 5.54006 -3.63914 -0.89659 0.416655 -2.01351 -1.46197 0.0676982 Si
44 1 8.30491 2.74111 5.51075 -0.607358 1.21815 1.07358 -0.33244 0.00507396 0.968963 Si
47 2 9.71306 1.33039 6.89179 2.54484 -1.67315 0.883477 0.607995 1.37989 0.59142 Ge
14 2 1.3271 4.16717 6.98873 2.128 -1.28096 2.41071 0.912305 0.904807 -0.684274 Ge
21 2 1.3798 6.86522 4.09275 3.53115 0.0690097 2.58862 -0.637003 1.49175 1.59987 Ge
25 1 -0.0322188 5.56294 5.55195 0.29423 -0.293586 0.230109 0.0311107 -0.559929 0.16994 Si
8 2 4.1066 4.16042 4.08578 -0.994011 -0.216801 -3.39252 1.23642 -0.232126 1.20688 Ge
31 2 4.22359 6.93034 6.87893 -1.98053 0.698042 2.59258 -1.19269 -0.312823 -0.80665 Ge
46 2 6.93517 4.17386 6.88332 -0.327193 1.43301 -0.689009 0.609269 -0.747169 0.793181 Ge
53 2 6.9118 6.97906 4.08236 -1.39683 -0.0276338 -0.971206 0.0441037 -0.510495 0.2337 Ge
57 1 5.60839 5.54599 5.45008 -3.41479 1.45992 -2.6744 -1.63779 -0.110236 0.221123 Si
40 2 9.67899 4.13135 4.19658 1.20852 -0.886242 -0.732696 0.627169 0.157923 -0.256641 Ge
63 2 9.63022 6.92544 6.9277 -0.711767 0.345695 -0.160853 0.478362 0.728091 -0.467931 Ge
28 1 2.7321 8.32442 5.51026 0.315086 1.01549 -3.60335 0.778551 -1.21416 -0.0601642 Si
30 2 1.3746 9.65974 6.92449 3.34854 -3.00325 0.0565322 0.753582 1.13573 0.386153 Ge
41 1 5.44215 0.078574 5.59825 4.4187 -1.43691 -4.83126 0.464285 -0.322297 0.375802 Si
24 2 4.12979 9.73736 4.17184 -0.295413 0.286363 -0.609197 0.412036 0.0221145 -0.0809326 Ge
62 2 6.908 9.71674 6.89672 -1.1336 2.61824 -3.61902 -0.0086486 0.22115 0.171318 Ge
56 2 9.70986 9.73525 4.1484 -3.33544 0.515408 1.29638 0.276071 0.112583 1.11858 Ge
60 1 8.26517 8.31531 5.46357 1.54142 2.45051 -1.93861 0.784061 0.635208 1.17436 Si
1 1 0.00773917 -0.0303387 0.0425732 -3.09493 -3.2094 0.428359 -1.36194 -1.43852 0.968718 Si
10 1 0.0395532 2.73476 8.35673 -5.16452 2.10577 4.03244 -1.12711 -1.0615 -0.821517 Si
11 1 2.7562 -0.0373073 8.39111 1.08948 -2.00958 4.65536 0.29751 -0.795097 -0.712587 Si
13 2 1.31996 1.25963 9.74281 1.44127 -1.70059 0.802496 0.90933 2.00469 -0.50594 Ge
42 1 5.64861 2.7454 8.38403 3.56918 -3.72756 -0.0753251 -0.994385 1.87688 -1.26025 Si
45 2 6.98328 1.37125 9.67073 0.390535 2.97939 -0.548526 0.509322 0.233745 2.02362 Ge
36 1 8.39119 2.74305 0.0603442 1.383 -2.7664 2.06381 -0.256056 0.467453 -1.10863 Si
43 1 8.3237 0.0201791 8.31974 0.248506 -0.96284 3.54524 0.219879 -1.50656 -0.866615 Si
17 1 0.0109906 5.58625 0.0494071 -0.874473 -0.155301 0.152544 0.253402 0.419302 -0.44117 Si
27 1 2.79067 5.5994 8.30027 -0.825978 -3.77739 -1.41717 -0.648537 -0.0365293 -0.370305 Si
29 2 1.41491 7.06817 9.68951 -2.15662 -2.25186 -0.66798 -0.779278 -2.11526 0.187991 Ge
16 2 4.11449 4.11553 9.6196 1.37887 -0.933834 -0.193366 -0.024678 0.2481 0.846681 Ge
61 2 6.94272 6.84102 9.68973 0.476376 -0.771691 -2.04468 -0.876457 1.21845 -0.699652 Ge
48 2 9.78527 4.15305 9.69216 2.59918 1.05043 -2.5611 -0.975684 -0.0938434 1.22129 Ge
59 1 8.32997 5.51805 8.33907 4.59 3.38075 2.36842 0.158368 -0.784318 -0.824988 Si
32 2 4.22396 9.62816 9.67969 1.41492 -3.15484 0.599344 -0.807572 0.734615 -0.388461 Ge
58 1 5.56618 8.25797 8.27801 -3.06346 -2.40627 -2.80107 1.05554 0.342721 0.249612 Si
26 1 -0.0522478 8.36481 8.28194 1.2795 -1.43867 0.972203 0.0917474 -1.12312 0.141886 Si
64 2 9.67707 9.66754 9.70887 0.527415 -1.5619 3.61532 0.0191277 0.873209 0.225117 Ge
ITEM: TIMESTEP
17400
ITEM: NUMBER OF ATOMS
64
ITEM: BOX BOUNDS pp pp pp
0.0000000000000000e+00 1.1085848640000000e+01
0.0000000000000000e+00 1.1085848640000000e+01
0.0000000000000000e+00 1.1085848640000000e+01
ITEM: ATOMS id type xu yu zu vx vy vz fx fy fz element
4 1 2.87676 2.72712 0.0689114 -2.49602 0.253925 -2.25367 -1.15091 1.10968 -1.00587 Si
7 2 4.16792 1.33395 1.45947 1.50857 -0.38242 2.98964 0.611105 0.624553 0.299744 Ge
34 1 5.57861 2.79215 2.81006 0.893993 0.634906 -2.77916 -0.570199 -0.335988 0.184188 Si
2 1 -0.0462056 2.80336 2.70221 0.607472 -2.8924 1.43564 0.338784 -0.000527629 0.842171 Si
39 2 9.67683 1.40477 1.32314 -0.777232 -0.183838 -2.92765 -0.170539 0.189937 -0.600618 Ge
6 2 1.4438 4.17905 1.40486 -1.2468 -0.195145 3.21296 -0.589695 -0.80792 -0.646412 Ge
19 1 2.78102 5.55834 2.79731 -3.04576 -4.15317 2.83574 -0.227011 -0.166191 0.216463 Si
23 2 4.1199 6.85347 1.33968 1.4114 0.629477 0.420049 0.107709 1.86429 0.866898 Ge
38 2 6.93079 4.18818 1.44304 0.981024 1.33027 2.36102 0.00303611 -0.551929 -1.07811 Ge
49 1 5.60242 5.58007 0.0547483 -3.50196 1.18651 -1.2033 -0.249622 -0.712077 -1.89211 Si
51 1 8.29423 5.56593 2.76717 -1.76079 -1.1046 0.644412 0.104956 -0.103826 0.414909 Si
55 2 9.66052 6.90107 1.41033 -1.79787 -1.17002 0.302597 1.29712 0.856566 -0.736023 Ge
3 1 2.71164 -0.0326326 2.76796 -0.169147 0.598122 1.66504 0.376306 0.433378 0.977597 Si
20 1 2.7318 8.32279 0.015422 -2.27046 -2.69099 -3.64785 0.557395 -0.0994881 -0.129316 Si
22 2 1.35908 9.7133 1.38947 -1.78281 -0.221804 -3.60899 0.217537 -0.524676 -0.245532 Ge
33 1 5.53255 0.00987318 0.0371556 -3.12574 -3.01654 5.31336 -0.159768 -0.878143 -0.177982 Si
50 1 5.48868 8.27336 2.74307 0.815791 -0.282698 2.59457 0.538271 -0.400156 0.488907 Si
54 2 6.92279 9.67221 1.43177 2.94977 -0.852744 -0.252918 -0.586958 0.0914812 -1.34417 Ge
35 1 8.35686 -0.0483023 2.68221 2.16773 -0.855431 -0.706343 0.115725 1.08055 1.63913 Si
18 1 0.00278261 8.33764 2.75742 -0.296407 2.24784 -1.87262 -0.717969 -0.63433 0.23117 Si
52 1 8.35848 8.36906 0.0315188 -3.04117 1.17295 -0.677414 -0.319998 -0.606339 -0.913047 Si
5 2 1.27765 1.3662 4.14263 -1.75323 -2.4656 -3.33399 1.07149 0.40972 -0.203935 Ge
12 1 2.79406 2.72086 5.49764 -0.531637 -1.63554 -1.6451 -0.970022 0.158645 0.294379 Si
15 2 4.23104 1.34181 6.84324 3.06814 0.885357 0.333644 -1.17868 1.18341 0.406975 Ge
37 2 7.06035 1.41649 4.11633 2.56632 -1.3128 1.34533 -1.43433 -1.19761 0.273478 Ge
9 1 -0.064492 0.0124249 5.58967 5.95843 7.49122 -0.159119 0.28852 0.204806 -0.31125 Si
44 1 8.35403 2.79022 5.54706 2.76621 2.37219 -0.688794 -0.179357 0.731737 -0.270524 Si
47 2 9.67291 1.4334 6.95541 -1.86945 0.35972 -2.40011 0.476977 -0.8325 -0.514387 Ge
14 2 1.36873 4.10741 6.92144 -0.580503 -0.412038 -1.00169 1.64154 0.732023 -0.39848 Ge
21 2 1.362 6.94854 4.14357 1.47623 -1.32605 -3.3331 0.769374 0.143979 0.75792 Ge
25 1 0.0213529 5.53266 5.54346 -0.240866 3.03244 -1.62184 -0.419299 0.246183 -0.20343 Si
8 2 4.15719 4.18958 4.19929 -0.925207 -1.61471 -0.442336 0.290552 -0.731068 -0.62292 Ge
31 2 4.16681 6.92746 6.93248 1.41886 2.67084 0.997738 0.16603 0.266817 1.02524 Ge
46 2 6.91385 4.1068 6.95633 0.291984 0.154225 1.31402 0.00247282 0.343732 -1.44103 Ge
53 2 6.94699 6.9161 4.15295 0.487101 2.50094 2.73601 -0.967197 0.464899 0.938086 Ge
57 1 5.54797 5.51353 5.5983 4.8008 -1.56283 2.87398 0.541336 0.722077 -0.808646 Si
40 2 9.68242 4.21945 4.11584 2.38915 -1.61898 -1.02375 0.521685 -0.904244 0.674409 Ge
63 2 9.74183 6.92576 6.9546 -1.4002 -2.0604 1.43881 -0.440945 -0.47363 -0.228131 Ge
28 1 2.76371 8.31832 5.60919 -4.08625 1.39562 1.52033 -0.588077 0.436945 -1.1556 Si
30 2 1.34438 9.75076 6.97734 -2.22507 0.218303 -1.56588 0.567262 -0.819824 -0.803134 Ge
41 1 5.59854 -0.00674393 5.51874 -3.56252 0.0880808 3.5194 1.22699 -0.834203 -0.885716 Si
24 2 4.15127 9.68463 4.14317 -0.897972 -3.45011 3.19778 -0.331801 0.0518932 0.603715 Ge
62 2 6.94086 9.64019 6.98611 1.53505 -2.70946 0.236576 -0.246229 1.55497 -1.38096 Ge
56 2 9.71379 9.71241 4.16301 0.771947 -1.95861 -1.30633 -0.586853 -0.511332 0.0797107 Ge
60 1 8.33118 8.30965 5.59827 -0.952924 -3.16901 -0.933349 0.223796 -0.342191 -1.13271 Si
1 1 0.0468928 0.0225724 0.010542 5.30814 8.12724 -3.6994 -0.567306 0.342154 -1.19797 Si
10 1 0.0376975 2.74738 8.28434 1.81987 4.5078 1.03812 -1.34475 0.632258 1.34952 Si
11 1 2.7992 0.0555019 8.22933 -1.7021 6.03485 -2.42425 -0.493023 -0.0729658 1.30689 Si
13 2 1.43736 1.42688 9.69129 -0.588423 2.14664 -1.11273 0.399435 -0.551895 0.335779 Ge
42 1 5.48269 2.79675 8.26005 1.90884 -5.28808 -0.444452 0.986047 -1.67026 0.477083 Si
45 2 6.84396 1.34977 9.64501 -4.33593 -3.01776 -0.668486 0.751716 0.756253 0.0993474 Ge
36 1 8.22564 2.80036 -0.0655876 -1.42318 0.063693 3.60614 -0.0508898 -1.11209 0.978037 Si
43 1 8.32106 -0.0064487 8.27561 -1.47852 3.16394 -0.668491 -0.249667 0.0776599 1.09545 Si
17 1 -0.0225064 5.50427 -0.0028912 0.805106 0.729272 -0.513319 -0.08989 0.069083 -0.111834 Si
27 1 2.79625 5.53112 8.33169 0.735833 2.7748 1.48172 -0.112863 -0.757549 -0.419154 Si
29 2 1.42621 6.89386 9.72373 2.3392 4.90917 -1.35315 -1.01202 0.153057 -0.0207779 Ge
16 2 4.22238 4.13807 9.70388 1.31293 -1.95833 -2.11585 -0.664523 0.927009 1.09847 Ge
61 2 6.95141 6.99894 9.67975 1.9413 0.123149 4.56695 -0.0436062 -0.647704 0.751002 Ge
48 2 9.61055 4.12404 9.66139 -0.602307 -0.0769897 -1.26056 1.72311 0.605538 -0.479196 Ge
59 1 8.25334 5.51832 8.24671 -3.74336 0.904249 2.34256 0.993481 1.09889 1.38412 Si
32 2 4.07821 9.76777 9.7119 -0.931548 0.983629 0.743857 0.88107 -0.476078 0.181863 Ge
58 1 5.51563 8.38165 8.35325 -0.284293 0.493572 0.00981555 -0.705059 -1.08111 0.088811 Si
26 1 0.0326204 8.29774 8.3519 -0.903975 4.02447 0.214944 0.309448 -0.213127 -0.24745 Si
64 2 9.76108 9.71467 9.65803 -0.856379 0.545704 -0.48372 -0.681214 0.486807 1.24496 Ge
ITEM: TIMESTEP
17500
ITEM: NUMBER OF ATOMS
64
ITEM: BOX BOUNDS pp pp pp
0.0000000000000000e+00 1.1085848640000000e+01
0.0000000000000000e+00 1.1085848640000000e+01
0.0000000000000000e+00 1.1085848640000000e+01
ITEM: ATOMS id type xu yu zu vx vy vz fx fy fz element
4 1 2.72747 2.7694 -0.0699278 2.62306 -1.56876 3.60343 -0.0156473 -0.304621 0.0456471 Si
7 2 4.11256 1.38343 1.29833 -0.419246 -0.259399 -5.25691 1.06078 -0.0658618 0.395894 Ge
34 1 5.4977 2.71136 2.79091 -0.204719 0.357052 0.618465 0.0257187 0.400631 -0.867497 Si
2 1 0.0500607 2.7947 2.75354 -0.00542545 2.4934 -1.80759 0.141069 0.0107663 0.510316 Si
39 2 9.72047 1.34904 1.48958 3.38117 -0.363406 4.70378 -0.294033 0.36124 -1.70698 Ge
6 2 1.43923 4.18992 1.3205 1.60589 0.0728061 2.19133 -0.932319 -0.0723206 0.765279 Ge
19 1 2.80476 5.56206 2.75021 1.31896 2.84012 -1.63808 -1.03819 -0.776317 0.584202 Si
23 2 4.11219 6.94723 1.44217 -0.825778 -3.15094 -2.43295 2.04803 0.0444111 -1.40565 Ge
38 2 6.91809 4.10255 1.42305 0.31274 0.422886 0.580624 0.662964 0.190172 0.101644 Ge
49 1 5.5598 5.5111 0.0506163 0.726484 2.55539 3.66102 -1.26966 0.612275 0.299895 Si
51 1 8.3552 5.51299 2.77987 1.37055 1.52843 -0.847793 -0.33437 -0.352351 -1.30618 Si
55 2 9.72542 6.95656 1.3998 -3.43094 -0.148319 1.25877 -0.332852 -0.873024 -0.168181 Ge
3 1 2.81096 0.00941279 2.75382 -0.809345 0.95257 -3.99589 -0.511918 0.292992 -0.659033 Si
20 1 2.82279 8.34067 -0.0106588 1.46328 4.10064 2.71958 -1.13219 -0.931679 -0.32283 Si
22 2 1.44038 9.71718 1.34809 1.06059 -0.551589 1.14624 -1.09737 -0.195071 0.361389 Ge
33 1 5.60636 0.0293239 -0.0733321 1.99742 5.19484 -7.26597 -0.765031 -0.125895 1.13172 Si
50 1 5.56265 8.2726 2.82244 -5.86125 -0.726604 -4.03342 -0.315274 -0.0207355 -0.303732 Si
54 2 6.87806 9.70511 1.44905 -0.132238 -0.710595 -1.08436 0.936314 0.0341633 -1.11921 Ge
35 1 8.28095 0.00182446 2.83013 -2.43154 0.296876 -0.785527 -0.0378744 -0.338212 -0.332631 Si
18 1 0.0588879 8.27773 2.76483 1.32213 1.99107 0.614791 -0.081015 1.27408 -0.285604 Si
52 1 8.28582 8.29961 0.0304892 2.72265 1.53314 2.26874 -0.519284 0.231215 -0.292035 Si
5 2 1.46013 1.40536 4.15302 -1.60388 2.08431 2.55105 -1.34414 -0.695183 -0.0794095 Ge
12 1 2.78978 2.79249 5.54539 1.82844 4.30538 2.13624 0.39553 0.376624 0.268578 Si
15 2 4.1042 1.40019 7.02196 1.27158 0.576121 3.44791 0.793076 -0.518732 -0.949206 Ge
37 2 6.85403 1.34345 4.18776 -1.09133 3.85385 -0.368659 0.768196 0.526143 0.100263 Ge
9 1 -0.00384763 -0.0775935 5.48452 -1.79 -2.93694 1.19091 1.10779 2.06348 0.796663 Si
44 1 8.25699 2.74643 5.55087 -1.44504 -4.73773 0.107388 0.54467 -0.323029 0.329294 Si
47 2 9.75591 1.39142 6.92327 0.934151 0.953031 0.188398 -1.36529 -0.976232 -1.09426 Ge
14 2 1.39898 4.20852 6.89489 -3.58053 -2.74116 1.23504 -0.746025 -1.12839 0.241926 Ge
21 2 1.41174 6.9107 4.15724 -0.702613 0.469615 0.491624 -0.0984384 -0.300907 -0.153423 Ge
25 1 -0.0357122 5.52889 5.50338 1.00887 -2.1413 1.9935 0.178465 0.525844 0.379133 Si
8 2 4.18341 4.18832 4.13062 -0.755886 1.67242 -0.0482763 -0.45625 -0.642451 0.514443 Ge
31 2 4.14149 6.90065 6.94309 -0.370348 -1.04957 -4.44255 0.371106 0.800463 -0.391343 Ge
46 2 6.91634 4.13448 6.98304 -0.801006 -2.85152 2.3232 0.0428781 1.27161 -0.6962 Ge
53 2 6.98184 6.81992 4.13538 1.81669 -0.48448 -3.68288 -0.446956 2.30618 0.918387 Ge
57 1 5.54159 5.56381 5.53064 -2.39537 -3.01165 -0.056467 0.470688 -1.24229 0.913863 Si
40 2 9.6487 4.11783 4.14683 -1.60181 -0.227978 -0.599129 1.15497 -0.286055 0.293059 Ge
63 2 9.71747 6.97751 6.92606 -0.96567 1.98893 -1.52088 -0.52968 -0.953178 -0.836333 Ge
28 1 2.81247 8.3088 5.49534 3.07338 -0.395937 3.16087 -0.340922 0.17764 0.811284 Si
30 2 1.40213 9.68466 6.91187 1.54376 -1.48456 0.777835 0.0962539 -0.503383 -0.480897 Ge
41 1 5.5166 -0.021668 5.56143 -1.99967 5.11207 -0.397547 -1.08372 0.887497 0.855146 Si
24 2 4.1704 9.73084 4.1131 1.05977 0.846467 -1.55882 0.324862 -0.956236 0.876453 Ge
62 2 6.90177 9.74378 6.95241 -0.771628 -1.81303 -0.072594 0.748694 -1.18811 0.0461399 Ge
56 2 9.71309 9.68636 4.12005 0.351591 1.75429 2.41993 -0.250188 -0.779856 -0.193796 Ge
60 1 8.31748 8.33727 5.51867 -1.00217 3.63498 2.79957 -0.546501 -0.361981 0.340066 Si
1 1 -0.0820417 -0.0471166 -0.0284975 -1.40228 -6.08312 6.4028 1.56194 0.947653 0.764737 Si
10 1 -0.00721832 2.76238 8.27828 4.85518 -4.14713 -5.11869 0.670852 1.42654 -0.060154 Si
11 1 2.75247 -0.0761994 8.36943 2.92673 -4.13144 -0.717263 0.0071328 0.968851 -1.00278 Si
13 2 1.33033 1.3639 9.63191 -2.57365 -5.17687 1.61172 -0.00493231 -0.474006 1.3969 Ge
42 1 5.49793 2.83518 8.38184 -4.10396 8.6957 3.52496 0.27913 -0.699739 -0.250599 Si
45 2 6.99297 1.49779 9.71545 0.628406 3.52846 -2.05864 -0.624336 -1.18297 -0.494596 Ge
36 1 8.38012 2.78018 0.0322619 1.99333 2.13325 -3.72379 0.129727 0.249236 0.787451 Si
43 1 8.32874 0.0349824 8.33753 1.57082 0.13056 -1.36976 -0.174275 0.344667 -0.575224 Si
17 1 0.00501638 5.57867 -0.0189268 -1.59125 -1.77605 3.21061 -0.089954 -0.208138 0.39554 Si
27 1 2.74529 5.54872 8.31784 0.711892 0.304512 -1.16208 -0.259189 0.569096 0.154634 Si
29 2 1.32711 6.95403 9.67251 1.91729 0.68202 2.04565 1.72676 0.311772 0.454409 Ge
16 2 4.10868 4.20836 9.73307 1.1699 -0.471796 -0.465303 0.439463 -0.22432 -0.0348989 Ge
61 2 6.87205 6.88688 9.69856 1.922 -0.12239 -2.63143 1.59971 0.302362 0.996791 Ge
48 2 9.7291 4.18149 9.69677 -1.27818 -0.921294 -1.52158 0.0312797 -0.42866 0.0908297 Ge
59 1 8.35567 5.57748 8.33475 -1.54363 -2.91085 -6.25755 -0.84411 -0.461673 -0.509848 Si
32 2 4.19751 9.67435 9.68859 -0.513319 0.141167 0.14466 0.257143 0.418364 0.431087 Ge
58 1 5.54716 8.27536 8.34403 -0.509496 3.05168 0.240802 -0.264135 0.465073 -1.25088 Si
26 1 -0.00208293 8.31658 8.27487 -2.37322 0.372543 0.0901054 -0.145017 0.8093 0.506079 Si
64 2 9.66538 9.67857 9.68244 1.6518 -3.0976 0.949541 -0.284097 -0.608747 -0.0357278 Ge
ITEM: TIMESTEP
17600
ITEM: NUMBER OF ATOMS
64
ITEM: BOX BOUNDS pp pp pp
0.0000000000000000e+00 1.1085848640000000e+01
0.0000000000000000e+00 1.1085848640000000e+01
0.0000000000000000e+00 1.1085848640000000e+01
ITEM: ATOMS id type xu yu zu vx vy vz fx fy fz element
4 1 2.7883 2.81045 0.043628 1.30256 -0.72664 -1.64999 0.618091 -0.280207 0.963215 Si
7 2 4.169 1.41741 1.50132 -0.654283 -0.3775 2.8183 -0.569578 -0.161688 -1.55073 Ge
34 1 5.59709 2.8467 2.73501 -0.0830381 0.808616 0.795877 -0.154393 -0.222074 0.673853 Si
2 1 -0.0494687 2.72628 2.84915 -1.25336 -0.323654 -1.18833 -0.222588 0.260903 -1.04002 Si
39 2 9.63241 1.40273 1.32516 1.00701 -0.449422 0.14999 1.88109 -0.416731 1.47323 Ge
6 2 1.32238 4.12454 1.43964 2.88199 -0.0268008 -0.517438 0.548123 0.0692306 -0.38909 Ge
19 1 2.73877 5.52944 2.74894 2.56149 3.21531 0.390582 0.354331 0.682846 -0.0967341 Si
23 2 4.19422 6.96051 1.39339 -5.02372 1.12609 2.35915 -0.28203 -0.963361 -0.546406 Ge
38 2 6.95912 4.22399 1.31266 -2.79994 0.312641 0.414675 -0.972086 -0.592453 0.00313105 Ge
49 1 5.5238 5.54355 -0.106912 5.65659 -1.16528 -0.934669 0.275272 0.444004 0.817964 Si
51 1 8.26593 5.57652 2.75215 -0.450455 0.453869 5.02359 0.460838 0.545168 0.767017 Si
55 2 9.71626 6.90576 1.39351 0.560064 2.79917 -0.588741 -0.678058 0.374142 -0.390978 Ge
3 1 2.76305 -0.0134405 2.81533 -0.280499 -0.378109 6.03779 0.160351 0.389747 0.0937923 Si
20 1 2.72939 8.24333 0.00596841 0.27197 0.312973 -1.07466 0.500474 1.64567 0.199136 Si
22 2 1.37054 9.67823 1.49311 0.699567 0.551852 -5.32412 0.12649 -0.250901 -1.78705 Ge
33 1 5.48573 -0.0393981 0.101266 2.18554 -2.0413 2.36953 0.292697 0.841889 -1.88053 Si
50 1 5.59693 8.42187 2.71503 4.51591 0.112601 3.35272 -1.52786 -0.166397 0.220356 Si
54 2 6.99735 9.75874 1.35401 -1.57844 -1.06489 1.42774 0.000279112 -1.40407 -0.394477 Ge
35 1 8.32322 0.0253263 2.73983 2.62578 -1.32976 -1.97973 0.0314953 0.193618 -0.382274 Si
18 1 -0.0696984 8.30981 2.81427 2.58003 -4.48596 1.04468 0.645443 -0.128563 0.299474 Si
52 1 8.34137 8.26832 -0.0578804 -1.29443 0.775923 0.229386 0.207688 1.0213 0.795715 Si
5 2 1.3798 1.33099 4.19001 -2.83552 0.445188 -0.620981 -0.352984 0.790635 0.283462 Ge
12 1 2.7431 2.74342 5.56232 -0.396386 -6.72437 -5.02501 0.158833 0.820474 -0.394642 Si
15 2 4.16289 1.36308 6.86723 1.12805 -0.342843 -1.11441 0.187827 -0.436862 0.312878 Ge
37 2 6.97454 1.39268 4.08777 2.1435 -1.01168 0.518669 -0.394191 1.15544 0.926173 Ge
9 1 -0.000870244 0.0129821 5.60333 -3.22651 -5.16023 -2.91305 -0.816542 -1.05552 -0.601365 Si
44 1 8.34054 2.79218 5.54494 0.429067 5.72064 -1.08245 -0.0507854 -0.550633 -0.510551 Si
47 2 9.67278 1.34543 6.98187 2.552 3.98311 1.91203 0.194177 1.06675 0.225778 Ge
14 2 1.39653 4.14167 7.02612 2.65448 1.11179 -2.42135 -0.888163 -0.632544 -1.15971 Ge
21 2 1.38456 6.90552 4.16601 2.58013 -0.61666 1.67579 -0.695506 0.359976 -0.0115068 Ge
25 1 0.0210165 5.54895 5.61148 -2.09689 -0.176111 -3.83332 0.256392 -0.38864 -0.281203 Si
8 2 4.10734 4.1588 4.11006 0.36371 2.12717 -1.56085 0.81031 -0.0291809 1.03417 Ge
31 2 4.14083 6.95823 6.95314 -3.01486 0.402922 1.93518 -0.495283 -0.789554 -1.45211 Ge
46 2 6.94288 4.22565 6.82719 -0.163343 -2.66938 1.30551 0.242306 -0.911502 1.34691 Ge
53 2 6.84688 7.04205 4.11664 2.22607 -3.36287 0.477485 1.45339 -1.81976 -0.173958 Ge
57 1 5.52398 5.60408 5.48812 0.0156564 7.1947 -1.75911 -1.07941 -0.153231 -0.0272441 Si
40 2 9.699 4.22144 4.18436 -1.88129 -0.488179 -1.29822 -0.213599 -0.474675 -0.118379 Ge
63 2 9.71745 6.90827 6.97689 2.21136 1.9237 2.33113 -0.225074 0.480869 -0.695831 Ge
28 1 2.73363 8.32822 5.52279 -1.49482 0.544111 -3.17265 0.58198 0.100878 0.854131 Si
30 2 1.36241 9.69216 6.98683 -1.8326 1.38433 0.0485589 0.664094 0.27829 -0.905077 Ge
41 1 5.59026 0.0227025 5.49306 3.2318 -5.26284 -0.806959 -0.77894 0.0871708 -0.318252 Si
24 2 4.15343 9.72442 4.16231 -0.911026 -1.53052 0.565434 0.534681 -0.392091 -0.120499 Ge
62 2 6.91091 9.72923 6.8859 0.0494239 1.14142 -1.39345 0.795444 -1.32708 -0.297185 Ge
56 2 9.62298 9.74441 4.14401 0.115007 -1.8522 -0.711645 1.45813 -0.516291 1.1582 Ge
60 1 8.30528 8.26869 5.51741 0.800777 -1.03408 -2.83944 -0.0150297 1.22268 0.860836 Si
1 1 0.05633 0.0219446 0.0277858 -1.78976 2.68047 -7.19399 -0.588224 -0.45206 0.100792 Si
10 1 -0.0404417 2.77001 8.42408 -2.79763 -3.72335 4.05647 1.46465 -1.18764 -1.53746 Si
11 1 2.76581 0.0341002 8.32204 -0.931622 1.66559 2.69574 0.570058 -0.457909 0.224171 Si
13 2 1.46102 1.44188 9.77961 2.05188 4.02607 -2.44636 -1.18237 -0.880055 -0.858622 Ge
42 1 5.65941 2.64685 8.18981 -1.42698 -1.67243 -4.25781 -1.5492 2.17322 0.983408 Si
45 2 6.9141 1.28362 9.68808 -4.798 0.756009 -0.155455 -0.0696349 0.00845368 0.745963 Ge
36 1 8.26335 2.72856 -0.0102839 -3.86596 0.45392 -1.13596 0.140962 0.863994 -1.15276 Si
43 1 8.3097 -0.0982512 8.32591 -0.0490555 -0.0830492 1.78487 0.212632 0.854367 -0.0737019 Si
17 1 0.0129967 5.53464 0.0185841 1.60342 2.27165 -4.36168 -0.234259 -0.448261 -0.0138054 Si
27 1 2.77219 5.52456 8.32347 1.27994 -0.771628 4.21079 0.701148 0.201055 0.262751 Si
29 2 1.37246 6.89356 9.68054 -2.46884 -0.303649 0.167846 0.452651 -0.498347 0.80649 Ge
16 2 4.17038 4.07674 9.63639 3.51738 -3.04241 -0.75441 0.921245 -0.0131338 -0.443562 Ge
61 2 6.94948 6.93961 9.62341 -2.73995 -0.0292947 0.706252 -0.285156 -0.557431 0.260677 Ge
48 2 9.72817 4.11984 9.73611 -1.71427 -0.578149 -0.878155 -1.48688 0.7546 0.910568 Ge
59 1 8.35839 5.50929 8.33174 1.51833 2.98947 3.84932 -0.528576 -0.111906 -0.521054 Si
32 2 4.16718 9.66124 9.67178 -2.36257 -0.917495 2.10236 -0.616895 0.0356218 0.771417 Ge
58 1 5.56434 8.30181 8.2344 1.16801 -1.1987 5.09308 -0.0978371 0.859277 1.06751 Si
26 1 0.0426359 8.27603 8.33165 4.72695 -3.06282 -0.0191088 -0.836298 0.30182 -0.126338 Si
64 2 9.7643 9.6826 9.68308 2.22268 0.485934 0.529712 -0.0161412 -0.213328 0.809934 Ge
ITEM: TIMESTEP
17700
ITEM: NUMBER OF ATOMS
64
ITEM: BOX BOUNDS pp pp pp
0.0000000000000000e+00 1.1085848640000000e+01
0.0000000000000000e+00 1.1085848640000000e+01
0.0000000000000000e+00 1.1085848640000000e+01
ITEM: ATOMS id type xu yu zu vx vy vz fx fy fz element
4 1 2.74486 2.76247 -0.0099017 -3.63986 3.09581 -2.6085 -0.295509 -0.0544878 -0.55846 Si
7 2 4.13519 1.36706 1.35697 1.12583 1.63564 -2.61677 0.692145 0.12731 -0.275183 Ge
34 1 5.53146 2.66249 2.82254 2.67714 -1.40603 -0.654941 0.238592 0.572379 -0.19585 Si
2 1 0.0238131 2.78303 2.67703 1.7285 -1.34027 3.14004 -0.0658462 -0.472152 0.528784 Si
39 2 9.64493 1.3881 1.36316 -2.25474 0.0138483 -0.792345 1.28975 -0.182451 0.353889 Ge
6 2 1.40347 4.18072 1.33616 -3.60189 -0.878945 1.50189 -0.109585 -0.613949 0.450898 Ge
19 1 2.76034 5.47078 2.81988 -0.276869 -4.03839 -3.70661 0.894232 0.910517 -0.578109 Si
23 2 4.19585 6.89641 1.44852 2.09729 0.827792 1.16317 -2.40053 -0.165201 -0.572613 Ge
38 2 6.95614 4.07549 1.46414 3.2074 0.558924 0.210458 -1.24593 0.554497 -0.896438 Ge
49 1 5.49667 5.51037 0.0779926 -4.8136 -2.13233 -0.812768 1.87867 0.0884663 -0.220411 Si
51 1 8.34559 5.49701 2.74403 -0.0679277 -0.252616 -5.55592 -0.543991 0.638218 1.33179 Si
55 2 9.69166 6.87598 1.3558 -1.65768 -2.44359 0.428078 0.34292 1.1971 -0.0509544 Ge
3 1 2.8148 -0.0305972 2.7021 1.64455 -4.72675 -6.95032 -0.348892 -0.0132143 1.01437 Si
20 1 2.78233 8.31472 -0.0202221 1.91149 -3.45182 1.91759 0.311266 0.231138 0.250706 Si
22 2 1.36917 9.73787 1.37753 -0.151777 -0.588665 2.19842 0.31417 -0.589052 -1.29637 Ge
33 1 5.54148 -0.0160987 -0.00912536 -1.61373 -0.9253 3.93218 0.87253 0.26376 0.703972 Si
50 1 5.49462 8.22931 2.83878 2.95879 1.30872 -1.87301 1.6538 1.02797 0.263003 Si
54 2 6.90872 9.6702 1.4835 1.75619 2.70421 0.760907 -0.814798 0.011364 -0.967855 Ge
35 1 8.32019 -0.0245596 2.7833 -2.20696 2.47916 4.09514 -0.071585 0.206616 -0.0592328 Si
18 1 -0.0182603 8.35541 2.71557 -4.11056 2.83431 -2.65833 -0.141083 -0.773353 0.0115814 Si
52 1 8.30335 8.3673 0.0451073 3.28112 -4.87527 -1.91952 0.135287 -0.62149 -0.0428531 Si
5 2 1.46026 1.40493 4.04805 4.12191 -0.675427 -0.438136 -0.350709 0.574942 1.10316 Ge
12 1 2.77982 2.828 5.55989 -0.477843 2.92068 6.42888 -0.410551 -1.96322 -0.61683 Si
15 2 4.16607 1.40367 6.9097 0.514493 2.88893 3.7581 0.0374303 0.512853 0.755114 Ge
37 2 6.92611 1.27726 4.18815 -2.1272 -2.76054 -0.108188 -0.151348 0.731747 0.226048 Ge
9 1 0.0512616 0.0772964 5.50451 3.50267 3.45877 2.79076 -0.0296426 -1.11021 -0.346575 Si
44 1 8.31578 2.73502 5.51907 -2.2847 -3.78441 2.20841 -0.696436 1.38588 -0.26618 Si
47 2 9.66453 1.39384 6.86016 0.747594 -2.49699 -4.25919 1.49699 0.526205 0.591839 Ge
14 2 1.37606 4.18243 6.88001 -1.90379 0.710046 3.71877 0.873136 1.27258 -0.382595 Ge
21 2 1.37166 6.96878 4.07759 2.44681 -1.10265 -1.14782 0.682688 -0.22401 1.38533 Ge
25 1 0.0256937 5.56785 5.49304 1.05002 1.25425 4.35845 -0.35423 0.0971288 0.00840278 Si
8 2 4.1897 4.09679 4.22404 -1.56702 -1.74795 -2.39301 -0.138748 0.41703 -1.16893 Ge
31 2 4.24318 6.93431 6.98483 1.2677 2.15324 -1.1744 -1.10138 -0.815745 -1.10317 Ge
46 2 6.93452 4.15529 7.01646 0.084859 0.0204929 0.275158 0.0853434 -1.9357 -0.39718 Ge
53 2 6.93716 6.88429 4.21772 -2.20443 4.56602 0.112816 0.376366 -0.584263 0.179954 Ge
57 1 5.55238 5.41982 5.6301 2.44869 -3.97374 0.319102 0.376733 2.30515 -0.731309 Si
40 2 9.76224 4.14781 4.11302 1.09031 -0.710335 0.777601 -0.717402 -0.503283 0.451871 Ge
63 2 9.70357 6.88444 6.94565 -1.78708 0.439458 0.08166 -0.121663 0.477402 -0.297381 Ge
28 1 2.79641 8.27734 5.59969 -0.294931 -1.87274 -2.32794 -0.334453 0.0506152 -1.22472 Si
30 2 1.36964 9.67562 6.9239 -0.399902 -2.92795 -0.155854 -0.281652 0.692805 -0.338633 Ge
41 1 5.50497 -0.0627699 5.57666 2.48701 2.73927 0.709545 1.06151 -0.0668517 0.211091 Si
24 2 4.15151 9.67455 4.15757 0.394432 0.536073 2.34556 -0.620261 -0.328675 0.417766 Ge
62 2 6.94698 9.65309 7.0004 -2.32535 0.865584 -1.80043 -0.420861 1.31065 -1.12638 Ge
56 2 9.73761 9.73132 4.13569 -4.15395 3.32054 0.345614 -0.202933 -0.350935 1.04454 Ge
60 1 8.35592 8.32882 5.60887 1.62477 -2.50329 0.219527 -0.193909 -0.446215 -1.31885 Si
1 1 -0.0180983 0.0361025 -0.0256921 0.16605 -3.09981 4.01922 -0.440177 -0.181267 -0.648975 Si
10 1 0.00412366 2.86141 8.18764 -4.6333 5.76217 -1.8756 -1.50916 -1.41121 1.62715 Si
11 1 2.77378 0.00927498 8.24685 -2.53518 -2.8155 -0.553943 -0.533136 0.288297 0.557211 Si
13 2 1.3428 1.42156 9.60735 -2.79337 0.613415 1.79729 0.439118 0.0321337 0.352582 Ge
42 1 5.48622 2.80596 8.4413 8.74154 -4.92741 0.374703 0.58451 -0.299414 -1.21719 Si
45 2 6.97759 1.42073 9.75133 0.201551 2.55618 0.585712 -1.10528 -0.00196673 -0.196201 Ge
36 1 8.36244 2.81447 0.0157052 2.44224 -4.40256 3.74105 -0.688187 -0.174512 -0.389954 Si
43 1 8.29074 0.0807052 8.27267 -0.409245 -2.81154 -0.421168 -0.165081 -0.756806 0.577464 Si
17 1 0.0061979 5.51073 -0.0288291 1.10117 2.80862 3.13652 0.474321 1.56755 -0.559665 Si
27 1 2.76543 5.57558 8.26649 -3.05582 -0.342696 -5.80065 -0.264395 0.00658601 0.402152 Si
29 2 1.37393 6.96322 9.62506 -1.40532 6.64022 -2.74125 -0.503147 -0.149723 1.09551 Ge
16 2 4.06811 4.23699 9.75288 -2.97571 -0.474693 0.255766 0.56883 -0.905784 -0.292662 Ge
61 2 6.92457 6.97021 9.78125 2.0856 -0.655354 1.30612 -0.8782 -0.743911 -0.295676 Ge
48 2 9.69794 4.20656 9.67984 4.51459 -0.79689 -0.847147 0.157588 -0.853144 -0.620224 Ge
59 1 8.26901 5.56744 8.33615 2.80348 -1.21088 -0.308995 0.569925 0.526881 0.714449 Si
32 2 4.17504 9.75725 9.64449 1.88676 -0.323811 -1.44324 -0.882069 -0.871041 0.854211 Ge
58 1 5.53946 8.33362 8.33806 1.58376 -2.60985 -4.92569 0.884881 -0.388673 1.0719 Si
26 1 -0.0951405 8.35679 8.31301 -2.15673 2.60454 -2.28222 1.10211 -0.498578 -0.308621 Si
64 2 9.61503 9.74651 9.65798 0.0630694 -2.32138 -0.2185 0.73792 0.444714 1.02548 Ge
ITEM: TIMESTEP
17800
ITEM: NUMBER OF ATOMS
64
ITEM: BOX BOUNDS pp pp pp
0.0000000000000000e+00 1.1085848640000000e+01
0.0000000000000000e+00 1.1085848640000000e+01
0.0000000000000000e+00 1.1085848640000000e+01
ITEM: ATOMS id type xu yu zu vx vy vz fx fy fz element
4 1 2.77914 2.74395 0.015205 2.70527 -1.74218 2.84447 0.152252 0.698102 -0.447066 Si
7 2 4.11831 1.38312 1.38415 -0.426783 0.717975 3.13942 1.10919 0.078141 -0.00835352 Ge
34 1 5.48716 2.85229 2.7158 -1.62915 -0.482493 -0.299804 0.402819 -0.166826 0.102241 Si
2 1 0.0210978 2.78407 2.82731 -1.98448 0.794869 -1.62386 0.0106139 0.666006 0.0300318 Si
39 2 9.74426 1.38407 1.49731 -2.85831 0.844217 -0.57844 -0.867628 0.325028 -2.37004 Ge
6 2 1.42942 4.16433 1.39508 3.22113 0.932965 0.479142 -0.970228 -0.0992249 0.302984 Ge
19 1 2.76397 5.61405 2.77131 -3.71374 -1.17029 5.44838 -0.310978 -0.681545 -0.120276 Si
23 2 4.14496 6.93588 1.34339 1.08036 0.170843 0.898142 0.427966 0.587321 -0.256081 Ge
38 2 6.92173 4.18999 1.31387 0.451421 -1.01431 -0.836758 0.705085 0.217553 1.17531 Ge
49 1 5.61902 5.60337 -0.0607625 -1.7546 -0.399801 -2.94615 -1.84576 -0.745756 -0.0942585 Si
51 1 8.30813 5.55737 2.82692 0.524513 -3.41302 -1.00161 0.542672 -0.704155 -2.35516 Si
55 2 9.73046 6.98672 1.43523 -0.378215 -1.49352 -3.11643 -0.966436 -1.34858 -0.627719 Ge
3 1 2.73666 0.112398 2.8808 1.22765 5.05817 4.44425 0.284247 -1.39088 -2.14772 Si
20 1 2.7348 8.3438 -0.0117746 -3.35934 -3.1205 -4.07976 0.456222 -1.05259 0.446224 Si
22 2 1.4316 9.69994 1.47109 0.0639856 1.16483 1.27936 -0.578063 0.551501 -0.199967 Ge
33 1 5.57878 0.0524081 -0.0925578 -1.93886 -3.30574 -1.49535 -0.890992 -0.899757 1.4065 Si
50 1 5.52513 8.34546 2.7151 -4.55753 -2.96425 -0.732766 0.517301 -0.428569 -0.833337 Si
54 2 6.92679 9.71311 1.32079 1.13694 -0.458631 -0.225979 -0.267487 0.443703 0.143151 Ge
35 1 8.28716 0.0059521 2.76158 2.35472 -3.51955 -2.76842 0.175815 -0.19368 0.58356 Si
18 1 0.0620644 8.26554 2.82714 0.123817 -0.655683 3.18824 -0.484377 0.964663 -0.770463 Si
52 1 8.28143 8.29247 -0.0314698 -3.38951 5.01344 -0.342201 0.667206 -0.31387 -0.390368 Si
5 2 1.33669 1.40217 4.24101 -4.09846 1.38281 -0.778691 -0.571649 -0.341528 -0.419152 Ge
12 1 2.7545 2.74238 5.49962 1.27013 1.45674 -2.67055 0.560945 1.33104 1.31554 Si
15 2 4.09883 1.37344 6.94735 2.869 0.195907 -6.04621 0.368611 0.774348 -0.344761 Ge
37 2 6.91752 1.49857 4.1186 2.54848 -2.24336 -1.32119 -0.726133 -1.49252 0.157924 Ge
9 1 -0.0223706 -0.0775701 5.54981 0.302434 1.96358 1.39341 -0.436786 1.41675 1.04437 Si
44 1 8.3077 2.78303 5.54629 5.56854 0.477657 -0.823728 0.422568 -0.696825 1.23059 Si
47 2 9.71281 1.37351 7.05798 -1.98429 2.31633 2.32426 0.0682155 -0.406786 -2.4597 Ge
14 2 1.40206 4.12989 6.93302 -1.28791 -4.15413 0.756855 -0.158992 -0.562044 0.940965 Ge
21 2 1.34344 6.89539 4.2131 0.483761 2.01472 0.340996 1.28133 0.266692 0.172606 Ge
25 1 -0.030927 5.49787 5.57247 0.749161 -0.938299 -3.44668 0.164195 0.2702 0.18948 Si
8 2 4.12286 4.23077 4.14269 -1.65085 1.0607 1.9815 0.0514947 -0.718599 -0.110131 Ge
31 2 4.12572 6.89469 6.90346 0.158185 2.46063 2.16262 -0.0709775 1.46708 0.543957 Ge
46 2 6.90617 4.18362 6.86843 -2.16667 2.09168 0.10885 -0.614788 0.364605 0.0609411 Ge
53 2 6.90998 6.91505 4.06519 -1.36853 1.65282 -1.08323 -0.684454 1.75546 1.1069 Ge
57 1 5.51775 5.64053 5.47384 -1.55225 -3.84224 0.354547 0.411093 -1.85504 0.620429 Si
40 2 9.65636 4.14512 4.19054 1.29611 2.01686 -1.31834 0.874962 0.235912 -0.321262 Ge
63 2 9.73395 6.97286 6.91846 2.59197 -0.249061 2.2142 -1.19505 -0.514092 -0.343767 Ge
28 1 2.7939 8.36249 5.50843 1.18894 1.43382 4.01763 -0.0143979 -0.504453 -0.104442 Si
30 2 1.42639 9.72069 6.94006 -1.40796 -3.80148 2.27526 -0.0606965 -0.723552 0.124933 Ge
41 1 5.48985 0.0648339 5.5296 -4.08531 -3.69921 -2.3143 1.2837 -0.353691 -0.280445 Si
24 2 4.18906 9.75627 4.04984 0.422955 -0.0538501 -0.877885 -0.704963 -0.153252 2.29078 Ge
62 2 6.87924 9.72947 6.97065 0.197387 -2.19823 -2.1277 -0.00402396 -0.0383696 -1.23238 Ge
56 2 9.72008 9.64679 4.10989 -1.11371 2.10849 0.426342 -1.20392 0.646544 0.687391 Ge
60 1 8.22901 8.33037 5.49306 0.821004 0.68893 2.54323 1.14535 -0.18122 0.748279 Si
1 1 -0.00417226 -0.0389676 0.0449968 2.86296 4.3295 -0.888074 0.153708 -0.299206 0.668248 Si
10 1 0.0903307 2.66642 8.42615 6.04585 -0.449952 2.60447 -1.10099 2.04467 -0.782562 Si
11 1 2.79964 -0.0160203 8.36126 3.7055 4.18056 -3.13101 0.0189563 -0.716889 -0.424132 Si
13 2 1.43951 1.28816 9.77023 2.08602 1.29446 1.31756 -0.256575 0.484274 0.461687 Ge
42 1 5.48762 2.81449 8.28256 -5.66951 -0.29062 2.12461 1.79608 -1.32805 -0.208504 Si
45 2 7.00694 1.37611 9.65306 -1.15471 0.988722 0.457588 -1.68627 1.53926 -0.17451 Ge
36 1 8.32114 2.77822 -0.0204063 1.78663 2.71163 0.61096 0.311187 -1.16225 1.5663 Si
43 1 8.33228 -0.0396953 8.35703 0.334706 1.04409 -0.570223 0.165384 -0.363777 -0.652206 Si
17 1 -0.0363385 5.52238 0.0216788 -0.989461 -8.83899 -2.7339 -0.112659 -0.410958 0.835665 Si
27 1 2.78583 5.52441 8.36631 3.49698 -0.539931 2.56621 -0.238849 -0.552478 -1.39517 Si
29 2 1.38678 6.81633 9.75664 -0.730169 -4.22506 -0.177245 0.033152 2.01339 -0.518755 Ge
16 2 4.17883 4.15133 9.68758 2.13184 -1.60271 -0.493153 -0.135913 0.342217 1.35947 Ge
61 2 6.9144 6.91548 9.55744 1.00636 4.00782 -1.56274 1.20399 0.403093 1.95708 Ge
48 2 9.65225 4.13607 9.72262 -2.03842 0.699615 0.0632873 1.73508 0.0196387 -0.953682 Ge
59 1 8.32182 5.52226 8.26825 -1.93474 -1.85463 -0.312502 0.388504 0.166583 -0.519268 Si
32 2 4.18325 9.64251 9.69651 0.0471954 0.644854 -0.0170424 -0.363186 1.29831 0.356864 Ge
58 1 5.51135 8.29423 8.31967 -2.83796 1.1836 -3.49816 -0.254611 -0.0908447 -1.70476 Si
26 1 0.0779359 8.27244 8.3237 -0.119001 -3.65901 4.07787 -0.213143 0.150977 0.156581 Si
64 2 9.72886 9.64978 9.68337 2.59135 -1.64671 0.127145 0.101074 -0.0311989 0.783403 Ge
ITEM: TIMESTEP
17900
ITEM: NUMBER OF ATOMS
64
ITEM: BOX BOUNDS pp pp pp
0.0000000000000000e+00 1.1085848640000000e+01
0.0000000000000000e+00 1.1085848640000000e+01
0.0000000000000000e+00 1.1085848640000000e+01
ITEM: ATOMS id type xu yu zu vx vy vz fx fy fz element
4 1 2.80148 2.78798 0.00503906 -2.54676 -2.07547 -0.0779617 -0.350875 -0.707284 0.213653 Si
7 2 4.1443 1.33638 1.4392 -3.81516 -1.21934 -4.56877 -0.202733 1.17569 -0.02292 Ge
34 1 5.576 2.77271 2.81462 -0.87221 -2.89109 0.967257 -0.398489 -0.708844 -0.490938 Si
2 1 -0.0264646 2.75873 2.75599 4.24927 -2.86222 -2.49921 0.243281 -0.534603 0.280286 Si
39 2 9.70404 1.40982 1.29434 2.01676 -0.616153 4.84986 -0.541335 -0.437258 1.07458 Ge
6 2 1.34356 4.11683 1.38855 0.714971 0.388244 -2.21064 1.05712 1.31426 -0.369982 Ge
19 1 2.79746 5.53681 2.7398 2.24465 -0.117499 -2.38398 -0.797629 -0.812069 0.930265 Si
23 2 4.15016 6.9353 1.4007 -0.961851 -0.596048 2.22045 0.749025 0.590993 0.470252 Ge
38 2 6.91888 4.17679 1.42872 0.425619 -1.17435 -1.13568 0.0561313 -0.608336 -0.538172 Ge
49 1 5.52157 5.53293 0.0713746 3.50825 2.44454 4.49155 -0.00548535 -0.0408378 -0.979874 Si
51 1 8.3101 5.58757 2.7439 -0.486108 3.00965 5.16717 0.0718488 -0.7118 0.985421 Si
55 2 9.71318 6.95283 1.42946 0.32749 3.14206 1.22448 -0.129629 0.186188 -1.008 Ge
3 1 2.72718 -0.136176 2.69482 -1.59601 -1.03499 2.27171 0.712555 1.75258 1.79654 Si
20 1 2.81614 8.35563 0.0448664 -0.0972898 4.11296 1.43586 -0.794732 -0.514331 -1.3524 Si
22 2 1.33606 9.67699 1.34332 1.30786 1.49143 -2.11508 -0.0324825 0.130955 -0.870467 Ge
33 1 5.51993 -0.0104692 0.0976642 3.52738 5.1027 -4.89572 0.287512 -0.710206 -1.75763 Si
50 1 5.56351 8.33561 2.80662 -1.45675 -0.267832 4.15478 -1.09651 -1.5852 0.79412 Si
54 2 6.91182 9.67047 1.46948 -0.00544518 -0.393968 2.78433 1.12569 0.787814 -1.48516 Ge
35 1 8.34341 0.019554 2.74814 -2.79509 2.75857 1.05989 0.515624 -0.36158 0.0942512 Si
18 1 -0.00068638 8.34211 2.72809 4.69998 -1.95963 -2.62531 0.316988 -0.81732 0.622731 Si
52 1 8.35074 8.31793 0.0289916 -0.734618 -2.87463 1.91222 -1.00922 0.465421 -0.222199 Si
5 2 1.42028 1.33017 4.12183 3.20744 0.817617 -0.285743 -0.854893 0.383877 -0.0166322 Ge
12 1 2.78798 2.74319 5.55236 -2.06544 -2.69219 -2.41848 0.0682644 -0.0222546 -0.724906 Si
15 2 4.13036 1.33174 6.9461 -1.29571 0.128688 3.95724 1.41829 0.40812 -0.701721 Ge
37 2 6.99491 1.40049 4.15477 -0.988568 1.05635 0.955873 -0.439955 -0.197559 0.29962 Ge
9 1 -0.062084 0.0205229 5.5286 2.1871 -4.57992 -5.37749 1.63096 -0.237646 -0.682569 Si
44 1 8.30941 2.80433 5.55678 -5.73187 -2.69678 -3.4459 0.884527 -0.389249 -1.27472 Si
47 2 9.67832 1.38414 6.86695 3.35281 1.30563 0.252055 -0.65457 0.557256 0.50396 Ge
14 2 1.42582 4.20861 6.87575 0.944493 2.94413 -4.68758 -1.22479 -0.987265 0.262865 Ge
21 2 1.34359 6.92028 4.10629 -0.158353 -3.16807 0.596678 0.615278 0.010688 0.155055 Ge
25 1 -0.00827564 5.5672 5.53617 0.36863 -1.02914 3.81509 -0.124976 -0.442448 -0.581244 Si
8 2 4.20811 4.14016 4.17715 0.00197569 1.04277 0.490223 -0.983878 0.491401 0.119018 Ge
31 2 4.20253 6.91612 6.95654 1.54155 -0.607998 -2.22709 -0.846898 1.01104 0.0851601 Ge
46 2 6.98274 4.1366 6.92625 0.851605 -1.85482 2.48124 -0.701027 1.31419 0.250697 Ge
53 2 6.93718 6.90493 4.19275 1.74988 -2.26327 0.613913 0.184092 1.01101 0.0663261 Ge
57 1 5.55017 5.54354 5.59001 -1.06329 3.84546 0.192073 0.669951 -0.678254 -0.484941 Si
40 2 9.68717 4.17708 4.12902 -0.18337 -3.86756 -0.203733 0.0279076 0.0482903 0.378112 Ge
63 2 9.68685 6.88769 6.95575 1.68594 3.76143 0.491325 0.657257 1.12825 -0.0602833 Ge
28 1 2.69956 8.26527 5.56321 0.631265 -0.215342 -0.636629 0.481771 0.775477 0.698959 Si
30 2 1.34663 9.79953 6.96544 0.0330944 1.34812 -2.92678 -0.214221 -1.9513 -1.3143 Ge
41 1 5.65043 -0.0189052 5.56222 -2.99872 3.50314 2.53963 -1.94324 -0.372215 -0.136551 Si
24 2 4.10686 9.65372 4.18939 2.54755 -0.732213 -1.03825 1.03652 0.519536 0.197071 Ge
62 2 6.99073 9.68582 7.01021 -3.50527 -1.46799 4.14368 -0.438538 -0.292217 -1.76508 Ge
56 2 9.75111 9.67184 4.11823 1.43078 -2.40668 -3.52522 -1.36248 0.852764 0.578434 Ge
60 1 8.36636 8.3209 5.57681 -3.98214 0.140602 -1.87984 -0.55784 -0.437775 -0.51761 Si
1 1 -0.0119126 0.0106385 -0.0565837 -2.72071 -1.36572 -1.53533 0.814062 0.811561 -0.529544 Si
10 1 -0.0926115 2.82421 8.21314 3.19865 -2.02301 -3.62599 2.2141 -0.239413 0.745138 Si
11 1 2.73651 0.00278809 8.33324 -2.38045 -2.49878 2.35414 0.558432 0.674326 -0.151374 Si
13 2 1.41198 1.46824 9.62893 -2.95235 0.941179 -2.15591 -1.52031 -0.298664 0.702222 Ge
42 1 5.60906 2.75275 8.24111 -3.44693 4.86523 2.3826 -1.81669 -0.24404 1.40639 Si
45 2 6.88327 1.31106 9.66148 2.84492 1.05421 1.25899 0.023195 0.611331 0.707024 Ge
36 1 8.21481 2.73206 -0.0209763 -0.334692 1.17112 -5.45348 0.875663 0.788628 -0.225553 Si
43 1 8.31372 0.0190619 8.26654 -0.483533 2.64514 0.540402 0.281598 0.499897 0.785095 Si
17 1 0.0181438 5.62947 0.0267615 -1.01174 5.44561 0.690267 -0.238522 -1.59856 -0.863989 Si
27 1 2.76292 5.54877 8.28993 -2.17448 0.639469 1.27798 0.792592 0.222846 1.00692 Si
29 2 1.41639 7.00076 9.68041 -2.34488 2.80468 -0.347949 -0.124692 -0.278386 0.460743 Ge
16 2 4.17717 4.1469 9.70083 -1.33273 -0.0310624 0.160756 0.473012 0.182475 -0.691954 Ge
61 2 6.90292 6.90999 9.76036 -1.47075 -1.75116 -0.35327 0.576488 0.506781 0.122062 Ge
48 2 9.68481 4.13214 9.71244 -1.33927 0.462498 2.15104 -0.356637 1.1841 0.513907 Ge
59 1 8.30114 5.56324 8.34276 -0.865295 -0.356318 0.491021 -0.112378 -0.884081 0.392588 Si
32 2 4.13357 9.73306 9.67739 3.02963 -2.7469 -0.0601845 0.793226 -0.108084 1.46408 Ge
58 1 5.58222 8.34771 8.36488 1.35352 -1.06628 7.50277 -0.747254 -0.79856 -0.132558 Si
26 1 -0.0266334 8.36189 8.30548 -0.310758 4.00746 -3.51382 0.0290734 -0.219468 0.102361 Si
64 2 9.65945 9.76614 9.65697 -2.17503 -2.07783 -1.90286 0.380885 -1.17065 0.687362 Ge
ITEM: TIMESTEP
18000
ITEM: NUMBER OF ATOMS
64
ITEM: BOX BOUNDS pp pp pp
0.0000000000000000e+00 1.1085848640000000e+01
0.0000000000000000e+00 1.1085848640000000e+01
0.0000000000000000e+00 1.1085848640000000e+01
ITEM: ATOMS id type xu yu zu vx vy vz fx fy fz element
4 1 2.70776 2.79847 -0.0587604 3.23415 2.70772 1.60721 0.644443 -0.690349 0.88674 Si
7 2 4.20145 1.45806 1.33689 0.89266 -0.827039 1.82147 -0.832122 -0.814325 -1.06482 Ge
34 1 5.54719 2.76123 2.74995 0.334793 7.01329 -0.310329 0.328058 -0.153965 0.695886 Si
2 1 -0.0166168 2.79885 2.81929 -5.02914 2.67883 2.61587 0.228589 -0.549611 -0.957251 Si
39 2 9.67631 1.37424 1.41365 -0.00600669 1.61643 -2.84548 1.2203 -0.0443832 0.751703 Ge
6 2 1.37448 4.17091 1.38343 -1.32009 -3.82517 2.57595 -0.280408 -0.314338 0.122309 Ge
19 1 2.77371 5.54048 2.77326 1.21002 4.38367 -2.52079 0.473072 0.255645 -0.51527 Si
23 2 4.2044 6.93457 1.38231 -0.126785 -0.353461 -2.73201 -0.801644 -0.965723 -0.317718 Ge
38 2 6.94003 4.12971 1.42334 1.00762 2.64831 -1.20394 -0.16698 0.714791 -1.07367 Ge
49 1 5.52769 5.51687 -0.0383901 0.344672 -0.554483 -0.531262 0.829184 0.336263 1.47608 Si
51 1 8.32882 5.48993 2.79039 -0.748301 0.81915 -2.25067 -0.401856 0.556812 0.225057 Si
55 2 9.70997 6.87575 1.41821 0.660248 0.141636 1.17803 -0.662422 0.67636 -1.05832 Ge
3 1 2.83512 0.0804428 2.73032 -2.39681 -2.99821 -4.1919 -0.878398 -0.908472 -0.249679 Si
20 1 2.79397 8.29161 -0.0113841 2.66204 1.79228 2.80106 -0.422136 0.521981 0.64225 Si
22 2 1.39526 9.63945 1.46959 -0.822202 -3.00209 3.01769 0.331476 1.20775 -1.3316 Ge
33 1 5.5331 -0.0310152 -0.0541886 -1.81587 -0.248367 7.83185 0.357561 1.3997 0.246238 Si
50 1 5.58004 8.26036 2.76572 3.0026 7.01942 -5.57064 -0.476463 1.55616 -0.386753 Si
54 2 6.91446 9.69741 1.33523 0.0628023 -1.39738 -0.129992 0.471052 -0.293079 1.14251 Ge
35 1 8.30272 -0.0141375 2.8133 1.1303 -0.761784 -4.31045 -0.753357 0.177959 -0.768816 Si
18 1 -0.0851518 8.33358 2.80085 -3.42148 2.42884 2.47316 0.765072 -0.129332 -0.198021 Si
52 1 8.3192 8.31495 -0.020396 2.30827 1.51511 -0.322761 0.327583 -0.53036 0.554854 Si
5 2 1.43177 1.4092 4.12791 -0.859534 -0.498342 2.39032 -0.020244 0.562913 0.86431 Ge
12 1 2.76372 2.82215 5.58764 0.791041 -1.18678 3.0574 -0.225156 -0.685695 -0.290957 Si
15 2 4.12965 1.45102 7.0022 -0.85542 -0.0598903 -1.27617 0.666249 -0.847782 -1.05888 Ge
37 2 6.87891 1.36199 4.18311 4.50117 1.68174 -0.517863 0.719939 0.603748 -0.0510509 Ge
9 1 0.0841556 0.0341142 5.55878 -7.05198 0.867691 3.99907 -0.889131 -0.76941 -0.0642591 Si
44 1 8.33421 2.7816 5.55387 2.46564 4.77949 5.16401 -1.31107 -0.783375 0.0372446 Si
47 2 9.63705 1.32198 6.91688 -1.68446 -0.593144 -0.534464 1.81743 1.30991 0.530353 Ge
14 2 1.33688 4.1425 6.99904 -0.301051 -2.28284 0.278341 0.133053 0.867907 -1.33178 Ge
21 2 1.38504 6.99275 4.08562 -1.46477 0.591724 -0.881346 0.154863 -0.735128 1.39618 Ge
25 1 -0.00205759 5.56265 5.48466 -1.79747 0.374036 -2.23641 0.969921 -0.168883 1.11681 Si
8 2 4.16627 4.1081 4.13837 -0.571508 1.19308 1.06047 -0.207872 0.983589 0.333078 Ge
31 2 4.17339 6.88697 6.96226 2.27302 -0.0965965 -1.34712 -0.0247673 0.199804 -2.34134 Ge
46 2 6.91891 4.16612 6.91945 0.382428 -1.72272 -2.8 0.718732 -0.737812 1.1307 Ge
53 2 6.90061 6.88058 4.14289 -2.9945 0.55113 -2.38441 1.37211 0.218192 0.111874 Ge
57 1 5.58483 5.48719 5.51494 -2.85838 2.28376 -0.0202214 -1.70177 0.61037 0.469753 Si
40 2 9.69839 4.15756 4.20511 -0.721034 1.78491 1.75248 0.0487803 -0.12389 -0.736937 Ge
63 2 9.67864 6.88987 6.8783 0.00837079 -2.5019 0.84708 0.359603 1.04476 0.39559 Ge
28 1 2.81916 8.3425 5.51441 -2.76197 -1.41241 -1.5022 -0.16377 -1.03238 -0.0437963 Si
30 2 1.43169 9.65651 6.93113 -1.38615 1.45251 4.48703 -0.436402 0.85764 -0.319874 Ge
41 1 5.48114 -0.00944088 5.55761 6.33624 -0.220653 0.104735 0.193079 0.827906 0.435604 Si
24 2 4.1544 9.73146 4.08476 -1.63936 -0.132328 -1.69572 0.770006 -0.62098 0.624884 Ge
62 2 6.95871 9.75452 6.92353 1.35947 -0.0287287 0.964991 -0.888134 -1.2737 0.101988 Ge
56 2 9.69529 9.7462 4.20614 1.2255 1.02377 0.766881 0.304911 -0.343927 0.0198313 Ge
60 1 8.30287 8.30095 5.51436 2.41583 2.44526 2.82747 -0.344218 0.263813 0.39409 Si
1 1 0.0129857 -0.0253912 0.0418754 -2.20904 -1.59959 2.14336 -0.193189 -0.556317 0.455807 Si
10 1 -0.0306189 2.73218 8.35586 -8.92272 -2.18848 2.30895 0.187786 -1.23546 -1.13344 Si
11 1 2.77666 -0.00108324 8.29758 -0.517627 0.906503 0.152278 -0.301976 -0.402475 0.0260917 Si
13 2 1.38018 1.28259 9.69519 4.89674 0.557372 2.3744 -0.386945 1.69199 0.226167 Ge
42 1 5.55767 2.77157 8.39217 4.30753 -1.26699 -7.45628 -0.396762 1.31241 -0.774152 Si
45 2 6.9908 1.42906 9.71647 -2.65832 -0.810519 -2.52687 -0.509091 -0.393036 1.25612 Ge
36 1 8.3954 2.81108 0.0654976 -3.62632 -3.34702 2.5385 -0.812891 0.0598826 -1.61467 Si
43 1 8.31407 0.0169382 8.36713 -0.211053 -4.71467 -1.63188 -0.208984 -0.311338 -0.801929 Si
17 1 0.00546145 5.52233 -0.0334934 1.61512 1.11284 1.4242 0.475916 0.999124 0.380275 Si
27 1 2.76316 5.56649 8.30854 0.28952 0.229457 -2.11037 -0.638303 -0.322025 0.225364 Si
29 2 1.39379 6.95562 9.6761 0.168975 0.696243 0.402975 -0.489964 -0.401041 0.308068 Ge
16 2 4.09802 4.2143 9.71566 2.97958 -3.16667 1.01135 0.624745 -1.23247 -0.75835 Ge
61 2 6.91236 6.92975 9.70306 -0.632724 1.69641 -2.8926 0.0191969 0.216133 -0.546124 Ge
48 2 9.75135 4.18645 9.63827 -0.802554 -4.25745 -0.0836283 -1.31606 -0.489018 1.60295 Ge
59 1 8.32151 5.56804 8.31811 0.207199 1.97978 -1.35349 -0.494557 -0.511222 -0.553 Si
32 2 4.11818 9.709 9.66762 -1.28172 0.38119 -2.65794 0.753861 -0.767601 -0.0865092 Ge
58 1 5.51606 8.29945 8.26744 0.724081 3.28837 -2.72089 1.00801 0.957852 0.984721 Si
26 1 -0.0199752 8.31066 8.28491 0.822463 -2.00969 1.72662 -0.106973 -0.0793197 -0.00168664 Si
64 2 9.69914 9.72729 9.69894 3.25422 -0.559028 0.135746 0.46944 -0.773132 0.259175 Ge
ITEM: TIMESTEP
18100
ITEM: NUMBER OF ATOMS
64
ITEM: BOX BOUNDS pp pp pp
0.0000000000000000e+00 1.1085848640000000e+01
0.0000000000000000e+00 1.1085848640000000e+01
0.0000000000000000e+00 1.1085848640000000e+01
ITEM: ATOMS id type xu yu zu vx vy vz fx fy fz element
4 1 2.83292 2.7322 0.0559572 -4.79881 2.21264 -5.2241 -0.328028 1.11655 -0.594243 Si
7 2 4.14732 1.37121 1.4997 -0.621081 2.3952 -2.39971 0.456926 -0.413177 -1.2313 Ge
34 1 5.55274 2.78247 2.77856 0.687703 -3.79629 0.391028 -0.525107 0.811132 -0.423198 Si
2 1 0.0160517 2.76028 2.74175 1.20075 0.813792 1.5158 -0.630494 0.687339 0.24748 Si
39 2 9.69379 1.39042 1.39144 -2.30213 0.0959533 -0.360467 -0.0182257 0.056387 -0.918968 Ge
6 2 1.41761 4.17405 1.39277 2.07602 0.62714 -1.35204 0.00809785 -0.843831 0.154881 Ge
19 1 2.74856 5.55311 2.82346 -0.663168 -1.86274 2.93711 0.341806 0.654507 -0.692332 Si
23 2 4.14179 6.95932 1.39184 1.78317 1.8831 3.04962 -0.993658 -0.79411 -0.321554 Ge
38 2 6.87401 4.17269 1.35955 -0.054027 -2.69585 0.908287 0.651373 -0.050494 -0.214611 Ge
49 1 5.52217 5.57906 -0.024306 -3.42416 0.394598 -2.97237 -0.180169 -0.367912 -0.252985 Si
51 1 8.29841 5.56143 2.72167 0.901062 -0.349781 -0.604057 -0.0826529 0.267509 0.220265 Si
55 2 9.72305 6.94142 1.363 1.39309 -0.821506 1.50949 0.0154323 -0.151796 0.0801579 Ge
3 1 2.7323 0.00603225 2.85454 2.3807 3.3333 1.30788 0.279809 -0.333179 -0.481924 Si
20 1 2.68619 8.26179 -0.0371024 1.0463 -1.33904 -1.25326 1.48731 0.867208 0.71417 Si
22 2 1.40596 9.75566 1.37544 -0.586703 -2.21907 0.168394 0.181741 -1.00767 0.0512785 Ge
33 1 5.52515 0.0116298 -0.00136003 -1.02316 -3.56654 -5.33442 -0.266875 -0.341495 1.06696 Si
50 1 5.49355 8.32058 2.76212 0.669885 -8.2152 4.77062 1.15066 0.686724 -0.0379899 Si
54 2 6.92803 9.72573 1.39486 -2.62848 -1.077 -0.348526 -0.401657 -0.621287 -0.331084 Ge
35 1 8.3192 -0.00239832 2.78294 0.767744 1.65961 6.43317 0.130947 0.0476861 -0.392062 Si
18 1 0.0872242 8.28811 2.73844 -2.52024 0.631476 -2.75779 -1.32021 0.428763 0.147554 Si
52 1 8.30603 8.30763 -0.0129876 -0.865229 0.099647 -1.61544 0.194317 0.551803 0.07455 Si
5 2 1.29192 1.36527 4.17747 1.28624 0.598507 -2.70913 1.12743 0.491848 0.168443 Ge
12 1 2.77277 2.77276 5.47372 -0.791529 3.34774 -0.936892 -0.229124 -0.364423 0.839264 Si
15 2 4.15712 1.3186 6.8379 -1.14792 2.81026 3.73536 -0.0852429 1.71849 0.707771 Ge
37 2 6.92807 1.44077 4.09322 -0.695722 -2.17187 2.39922 0.394521 -1.43405 1.0988 Ge
9 1 -0.0311594 -0.0134713 5.58753 6.25907 3.55087 -0.869725 -0.837783 -0.239894 -0.0764325 Si
44 1 8.32171 2.74108 5.50985 -0.142318 1.16114 -2.6731 0.118866 1.41116 0.765531 Si
47 2 9.71551 1.42904 7.02964 -2.47229 -0.41593 -3.99422 0.409801 -0.080884 -1.83597 Ge
14 2 1.44416 4.15457 6.9571 -0.243119 -0.7031 -1.15785 0.29125 -0.34162 -0.837826 Ge
21 2 1.35303 6.92767 4.22699 -0.559226 1.97144 -3.08833 0.867391 -0.209188 -0.471734 Ge
25 1 0.0371031 5.52481 5.62058 -1.48977 2.09258 -2.31479 -1.35486 -0.0597346 -0.949452 Si
8 2 4.17165 4.18236 4.13374 0.723726 -1.97371 0.529762 -0.101855 -0.28322 0.365049 Ge
31 2 4.08603 6.95348 6.96149 2.91781 -0.692673 4.43499 1.36598 -0.605859 -0.113324 Ge
46 2 6.9072 4.21596 6.88992 -0.679267 0.0463854 -1.51557 0.0227518 -2.02599 -0.222333 Ge
53 2 6.94653 6.99029 4.13057 -1.33752 -3.07203 1.24449 -0.845338 -1.35255 0.0726468 Ge
57 1 5.51113 5.5833 5.53423 7.52214 -2.35499 -0.966927 0.160781 0.870023 -0.218274 Si
40 2 9.68982 4.1818 4.10285 0.334208 -1.66107 0.938872 0.692369 -0.296087 1.09361 Ge
63 2 9.72237 6.94633 6.9732 1.39572 -1.33052 -0.683893 -0.217207 -0.878698 -0.129181 Ge
28 1 2.74255 8.31349 5.58497 0.944206 3.65429 0.810192 -0.142485 0.635711 -0.330986 Si
30 2 1.37773 9.71694 6.97246 0.14717 -2.03441 0.910897 0.0458831 -0.46738 0.100718 Ge
41 1 5.55414 0.0163987 5.48119 -2.7995 -1.75863 -1.6281 0.732703 -0.69517 -0.123743 Si
24 2 4.15284 9.67957 4.17345 -1.10005 -1.57866 -1.3342 -0.641605 0.14793 0.222948 Ge
62 2 6.93262 9.69601 6.89375 1.20892 1.31102 0.715673 0.120437 0.353421 -0.196019 Ge
56 2 9.70857 9.6322 4.10547 1.66459 0.501164 -0.336426 0.497904 0.907108 0.968233 Ge
60 1 8.33247 8.28811 5.5393 0.305213 -2.76094 -4.33429 0.27322 0.528556 0.133479 Si
1 1 0.0613103 0.0412325 -0.015773 1.87009 2.26833 -2.39457 -1.53577 -0.225305 -0.258604 Si
10 1 0.108202 2.80841 8.3433 1.63934 5.06718 0.292327 -2.11222 0.224056 0.674599 Si
11 1 2.81222 0.0150691 8.3021 0.799772 -0.211426 0.618112 -0.44103 -0.374891 0.299931 Si
13 2 1.44323 1.42409 9.69747 0.87942 -2.68897 -2.57678 0.60302 -0.624443 0.374031 Ge
42 1 5.52504 2.74153 8.27202 1.23239 -2.8218 5.69225 0.803329 -0.447139 -0.504379 Si
45 2 6.93544 1.30979 9.68835 1.90796 2.5932 0.636149 -0.536822 1.51684 -0.598357 Ge
36 1 8.27096 2.77517 -0.0394534 2.10568 2.16356 2.99136 0.0300251 -0.691622 1.17093 Si
43 1 8.3323 -0.00707381 8.28627 0.09609 5.28509 3.96724 -0.486105 -0.46762 0.344799 Si
17 1 -0.00484823 5.50049 0.0206737 -1.91333 -0.377741 -0.772827 -0.232747 0.0524417 0.2018 Si
27 1 2.79437 5.4984 8.34427 0.350276 -0.323866 0.98372 0.0961298 0.178698 -0.809937 Si
29 2 1.40086 6.77789 9.71389 -0.854826 3.84515 -0.787395 -0.826109 1.73425 -0.0413276 Ge
16 2 4.17221 4.12976 9.64972 -1.41778 0.128167 2.03824 0.30067 -0.327591 1.6937 Ge
61 2 6.94797 6.92408 9.66703 -2.76855 -0.502158 3.64795 -0.346188 -0.111463 0.0998714 Ge
48 2 9.66361 4.164 9.74576 2.22453 1.69006 -2.38949 1.20014 -0.726486 -1.31987 Ge
59 1 8.30476 5.4878 8.29637 -0.175887 3.07218 3.34715 0.487983 1.43949 0.339929 Si
32 2 4.15265 9.68763 9.71816 -1.41401 -0.291378 0.00904064 -0.254044 -0.318523 -0.351367 Ge
58 1 5.5541 8.32184 8.29731 -2.74498 -2.65032 0.830965 -0.39853 0.00651565 0.199754 Si
26 1 0.0374349 8.27454 8.38332 -1.58596 2.11267 -1.18029 -0.0332294 0.180939 -0.434761 Si
64 2 9.6918 9.70627 9.67495 -1.31825 1.3608 -1.47738 0.864371 0.0017052 1.02299 Ge
ITEM: TIMESTEP
18200
ITEM: NUMBER OF ATOMS
64
ITEM: BOX BOUNDS pp pp pp
0.0000000000000000e+00 1.1085848640000000e+01
0.0000000000000000e+00 1.1085848640000000e+01
0.0000000000000000e+00 1.1085848640000000e+01
ITEM: ATOMS id type xu yu zu vx vy vz fx fy fz element
4 1 2.72273 2.76295 -0.0171228 3.26321 -4.25094 4.28324 -0.474112 0.184393 -0.743486 Si
7 2 4.16738 1.34629 1.33382 -1.40342 0.587633 2.14285 -0.554689 0.662938 0.158604 Ge
34 1 5.5077 2.71933 2.74948 0.963858 1.02064 -0.972053 0.260702 -0.0448766 0.133577 Si
2 1 0.0441091 2.74674 2.71812 0.381282 0.0779732 -1.08749 -0.103345 0.180112 1.18555 Si
39 2 9.72608 1.38399 1.41156 -0.316339 -0.0018449 1.35399 -0.726505 -0.191345 -0.953461 Ge
6 2 1.2938 4.16948 1.3209 -0.583576 0.111047 -1.34278 1.80955 -0.264362 0.27556 Ge
19 1 2.78582 5.46728 2.70265 -1.89105 -0.671408 0.748879 -0.652026 0.0801369 1.34077 Si
23 2 4.15795 6.88468 1.40459 2.22269 1.95235 -1.36567 0.994553 1.12549 0.106832 Ge
38 2 6.96614 4.08832 1.46861 -0.744325 0.682617 -1.03823 0.403777 0.225076 -0.824073 Ge
49 1 5.5995 5.48642 0.0913345 0.593802 0.524667 1.94656 -0.447335 0.829482 -1.28779 Si
51 1 8.32921 5.53341 2.84073 0.397989 -2.63724 -1.12644 0.0486903 0.0783529 -0.875559 Si
55 2 9.68187 6.95633 1.40397 1.0109 0.995423 0.208611 0.407138 -0.874068 0.400708 Ge
3 1 2.836 -0.0677706 2.72543 -0.699669 0.477815 -0.402843 -0.240589 1.07969 0.411952 Si
20 1 2.83736 8.37218 0.0338704 -5.82756 -4.11282 -2.17625 -1.13031 -0.936473 -0.844268 Si
22 2 1.35937 9.71753 1.38743 0.510761 0.966575 1.232 -0.106558 -0.563241 -0.323368 Ge
33 1 5.61813 0.0287878 0.0247186 -0.05381 2.34468 1.47127 -0.213181 -0.837707 -0.686369 Si
50 1 5.55549 8.33806 2.81066 -2.09499 2.39713 -4.62655 -0.0822863 -1.36875 0.0934489 Si
54 2 6.94114 9.69828 1.46128 1.1635 0.580289 1.77858 -0.409136 0.0356168 -1.50906 Ge
35 1 8.30088 0.0140725 2.72824 -0.992092 -2.18069 -2.05047 0.114268 0.354132 1.73597 Si
18 1 -0.00605869 8.30169 2.79952 6.78372 -0.489603 1.43634 0.159773 0.27725 -0.439591 Si
52 1 8.30725 8.32643 0.0620674 -0.809226 -0.771111 0.261866 -0.48123 -0.128861 -0.785212 Si
5 2 1.50977 1.3939 4.09951 -2.70768 -1.07101 1.8745 -1.44758 -0.759259 0.136793 Ge
12 1 2.79207 2.73569 5.60794 2.93931 0.900769 -1.44663 -0.00215618 1.13438 -0.74263 Si
15 2 4.14205 1.36908 7.00043 -1.52238 -3.11668 -2.21529 0.125627 0.195573 0.248018 Ge
37 2 6.84974 1.36277 4.14112 0.770583 4.71469 -1.72368 1.3233 -0.335599 0.679483 Ge
9 1 0.0184885 -0.0483075 5.42162 -2.37457 0.436503 1.39229 0.621577 1.73759 0.642406 Si
44 1 8.30339 2.72117 5.54842 2.10365 -4.11286 0.783613 0.0747898 0.154475 -0.330871 Si
47 2 9.73751 1.33454 6.89292 -0.239656 -0.118682 3.85319 -0.734716 -0.517514 -1.10044 Ge
14 2 1.38806 4.24363 6.92371 0.253696 -0.494348 1.16214 -0.369778 -1.9748 -0.505059 Ge
21 2 1.41178 6.89703 4.13293 -2.7788 -0.895992 1.43054 0.02893 -0.384249 -0.0705204 Ge
25 1 -0.0283385 5.52754 5.52479 4.28311 0.0559589 3.52979 0.00544468 1.19827 -0.0684974 Si
8 2 4.19808 4.0941 4.15697 0.745943 0.448311 0.176452 -1.21276 0.410491 0.254181 Ge
31 2 4.15136 6.90023 6.88353 -2.67333 1.99665 -2.53377 0.640947 0.966772 1.29865 Ge
46 2 6.98624 4.10684 7.04027 -0.373437 1.8466 -1.36406 -1.00839 0.887851 -1.88132 Ge
53 2 6.95297 6.93023 4.21201 -1.16954 4.25906 -1.05665 -0.885912 -0.038855 0.279606 Ge
57 1 5.52447 5.49871 5.58858 -4.06236 -2.84531 1.9118 1.74721 -0.526946 -0.357261 Si
40 2 9.72627 4.11124 4.13373 -1.14208 -0.938701 0.292918 -0.203564 -0.433194 0.614622 Ge
63 2 9.649 6.98918 6.91244 1.52747 3.07244 1.02419 1.37184 -0.936188 -0.41888 Ge
28 1 2.81907 8.28573 5.51256 -0.334395 -4.19815 0.315358 -0.411921 0.474699 -0.509766 Si
30 2 1.41806 9.72592 6.82289 0.199424 1.41897 0.646393 -0.488419 -0.969421 0.566736 Ge
41 1 5.54354 -0.0100415 5.63042 -1.68863 4.17796 2.55564 -0.0546042 0.253846 -0.397343 Si
24 2 4.21166 9.72734 4.1848 3.73977 -0.922724 -1.10095 -0.494929 -0.709413 0.0756794 Ge
62 2 6.90435 9.68108 7.01977 -2.4398 -1.40052 0.990142 -0.32051 0.070145 -0.895201 Ge
56 2 9.66096 9.70036 4.13604 -0.628464 -3.58339 -3.25519 -0.206468 -0.306693 -0.250588 Ge
60 1 8.28052 8.37472 5.60043 -0.413163 1.27688 3.03761 -0.105417 -0.336618 -0.980557 Si
1 1 -0.108092 -0.0311265 -0.0169371 4.79576 0.991197 2.67652 1.42345 0.583259 -0.0943866 Si
10 1 -0.0537214 2.77867 8.21587 5.23102 -1.15627 -1.73762 0.516821 1.39399 0.847063 Si
11 1 2.7068 -0.0351407 8.31884 1.15916 1.66777 -2.19947 0.366086 0.995188 0.332005 Si
13 2 1.24102 1.42142 9.64017 1.17527 2.09588 0.961459 1.54739 -1.17639 0.898778 Ge
42 1 5.48001 2.84592 8.37789 -2.19563 2.31496 -1.00566 0.446843 -1.12128 0.538825 Si
45 2 6.97814 1.39948 9.69422 1.34845 -2.46651 0.684639 -0.807696 0.425358 -0.259956 Ge
36 1 8.3734 2.75721 -0.0167113 -0.286739 1.68365 -2.42424 -0.31775 0.547554 0.782344 Si
43 1 8.30595 -0.0173153 8.27871 1.45884 -2.10353 -4.42294 0.129374 0.875345 0.638071 Si
17 1 0.000307711 5.60333 -0.0270896 2.38339 0.141661 -0.319757 -0.548676 0.414516 -0.271257 Si
27 1 2.74041 5.61428 8.26424 -0.489527 1.2624 1.34239 -0.12263 0.285619 0.702473 Si
29 2 1.38053 6.99927 9.65021 -0.307262 -2.52011 -0.222146 0.255199 0.721932 0.643803 Ge
16 2 4.05871 4.28592 9.71478 -0.333002 -0.519875 -1.25095 1.17646 -1.56141 0.697208 Ge
61 2 6.98202 6.89835 9.72161 1.83131 -0.169476 -2.09457 -0.669488 -0.0692492 1.01386 Ge
48 2 9.72275 4.19208 9.69354 -3.14642 0.023787 4.76696 0.165639 -0.456722 -0.41764 Ge
59 1 8.36717 5.5661 8.30859 -1.38268 -6.32275 -4.82895 -0.464465 -0.0862746 0.573025 Si
32 2 4.20579 9.73702 9.69511 -0.153434 0.263337 0.0770568 -0.324962 -0.00294533 0.662539 Ge
58 1 5.54815 8.27183 8.37476 2.02239 1.1845 -2.93164 -0.353968 -0.380928 -0.762413 Si
26 1 -0.0187557 8.38146 8.23122 1.66582 -0.146216 1.7905 0.0524699 -0.00278273 0.791582 Si
64 2 9.61193 9.69738 9.68501 0.428525 -2.74499 -2.43948 0.960226 -0.543128 -0.173912 Ge
ITEM: TIMESTEP
18300
ITEM: NUMBER OF ATOMS
64
ITEM: BOX BOUNDS pp pp pp
0.0000000000000000e+00 1.1085848640000000e+01
0.0000000000000000e+00 1.1085848640000000e+01
0.0000000000000000e+00 1.1085848640000000e+01
ITEM: ATOMS id type xu yu zu vx vy vz fx fy fz element
4 1 2.84326 2.79666 0.0227101 1.29029 0.189461 1.65561 0.348923 -0.474974 1.26182 Si
7 2 4.23415 1.41835 1.50932 1.17644 -0.704433 -0.155079 -1.48035 -0.384256 -1.66972 Ge
34 1 5.56731 2.84917 2.8204 -1.48709 -1.22525 0.561273 0.262406 -0.338221 -0.16935 Si
2 1 -0.0578381 2.77711 2.84292 1.66987 -2.59071 -3.33161 0.286949 0.378111 -1.05013 Si
39 2 9.70988 1.42253 1.37408 -0.520165 2.38621 1.13223 -0.20762 -0.76843 0.434732 Ge
6 2 1.41368 4.12417 1.49948 -2.77994 -1.34155 -1.71268 -0.320843 0.559392 -1.28807 Ge
19 1 2.77897 5.62982 2.80741 2.85495 -1.68541 -4.14355 -0.516134 -0.541375 -0.879085 Si
23 2 4.14554 6.93642 1.34341 -0.756658 -0.907667 0.585134 0.924861 0.133365 -0.0676739 Ge
38 2 6.89819 4.20066 1.36302 -0.774324 -3.60197 0.029579 0.0931877 0.128997 -0.370615 Ge
49 1 5.56425 5.5832 -0.119428 2.93066 -3.25317 2.47064 -0.652873 -0.267619 1.33718 Si
51 1 8.30359 5.57579 2.71709 -0.490024 3.50757 3.78118 0.19016 -0.51197 0.120372 Si
55 2 9.71162 6.89644 1.34205 1.30833 3.07201 -2.30174 -0.421524 0.594593 -0.228472 Ge
3 1 2.70006 0.0683818 2.81805 1.1728 -2.88285 2.58754 0.161719 -0.169164 -0.747782 Si
20 1 2.76676 8.32101 -0.0159297 6.79621 6.25443 1.73153 -0.383741 -0.511812 -0.147462 Si
22 2 1.38453 9.67306 1.43975 -1.92846 -1.00513 1.10342 -0.170426 0.479362 -0.509684 Ge
33 1 5.49387 -0.0330775 0.0138403 2.68859 1.62101 -1.59962 -0.061883 0.930921 -0.466371 Si
50 1 5.55046 8.34595 2.73081 -1.29115 2.34566 3.56685 -0.884534 0.168154 -0.396793 Si
54 2 6.9364 9.69329 1.27735 -0.344051 -1.01467 3.50807 0.687278 -0.00666431 1.88946 Ge
35 1 8.3469 -0.0132333 2.77384 1.0454 1.89157 -4.12386 -0.0500811 -0.261567 -1.1457 Si
18 1 -0.0711529 8.31278 2.7815 -3.77805 -2.6667 0.914716 1.03192 0.156118 0.302789 Si
52 1 8.33619 8.30587 -0.0724081 2.0035 0.711404 2.49613 0.075246 0.0816188 0.539421 Si
5 2 1.28554 1.40775 4.18827 3.14843 2.9433 -0.0456012 0.274656 -0.66168 0.772769 Ge
12 1 2.71071 2.76735 5.50223 -1.64281 -4.20502 2.19951 0.68596 0.480208 0.491634 Si
15 2 4.18524 1.40259 6.82604 -0.0512199 -1.19918 -1.40273 -0.250909 -1.48423 -0.284568 Ge
37 2 6.9706 1.37317 4.11046 -2.11374 -0.0840266 -2.20936 -0.100009 1.15826 0.54703 Ge
9 1 -0.0377057 0.0243472 5.66384 1.94284 -6.62237 -3.42891 0.260601 -0.14426 -0.104322 Si
44 1 8.28968 2.84077 5.54708 -1.53352 0.213215 -2.12599 0.718987 -0.859598 -0.0324298 Si
47 2 9.64514 1.41221 7.04454 -0.857509 1.42702 0.125286 -0.181529 0.0336488 -0.816476 Ge
14 2 1.3807 4.08704 7.00297 0.853124 2.79945 -0.778197 -1.00354 0.179363 -0.852917 Ge
21 2 1.41226 7.01159 4.17652 -1.46277 2.61518 1.08032 -1.35656 -0.813861 -0.126556 Ge
25 1 0.0196318 5.54399 5.53022 -2.13843 -5.12675 0.526812 0.844833 -0.380869 0.80986 Si
8 2 4.09707 4.20074 4.12745 1.95279 -1.3322 1.48973 0.87409 0.135263 1.22947 Ge
31 2 4.12738 6.91745 6.99383 0.256838 -1.75567 -1.46736 -0.139755 0.50666 -2.15114 Ge
46 2 6.89384 4.23142 6.88322 2.71536 -1.79273 1.80441 0.328123 -0.183355 0.496003 Ge
53 2 6.9277 6.93392 4.08091 -0.999294 1.8604 -0.447528 0.0747953 0.87449 0.0554966 Ge
57 1 5.53695 5.63593 5.47595 -1.84477 3.87656 -1.66683 -1.11571 -1.09337 0.851973 Si
40 2 9.69669 4.23023 4.14546 0.670632 0.166339 -0.683649 -0.793549 -0.522344 0.275858 Ge
63 2 9.66533 6.81692 6.93313 -1.52491 1.07189 1.66158 0.681927 1.83635 0.173535 Ge
28 1 2.75139 8.3743 5.54308 2.04009 3.5781 2.9389 0.333799 -0.79872 1.44093 Si
30 2 1.37536 9.6685 7.01288 -0.880677 -1.01395 1.13544 -0.272548 0.363329 -0.0676984 Ge
41 1 5.59996 -0.0498815 5.42619 1.73146 -3.26264 -2.73341 -1.19182 0.952238 0.843406 Si
24 2 4.04953 9.72965 4.1134 0.381692 0.480059 0.413092 2.16278 -0.387187 0.0426273 Ge
62 2 7.01903 9.73599 6.84296 2.00768 -0.193794 0.787516 -1.09567 -1.16605 0.800545 Ge
56 2 9.7164 9.72935 4.23629 0.0939955 1.8017 0.826414 -0.166812 -0.322957 -1.08175 Ge
60 1 8.33793 8.25942 5.48195 0.227281 -0.680694 0.654603 0.101067 0.0492283 1.11762 Si
1 1 0.0496837 0.00105309 0.027263 -6.8183 -1.78331 -2.54994 0.295062 0.390935 0.831008 Si
10 1 -0.0175715 2.69686 8.45645 -0.673326 -3.36469 -0.53452 1.72644 -0.230104 -1.93567 Si
11 1 2.81111 0.0358305 8.31266 -1.33043 -3.6382 0.365377 0.0912923 -0.421586 -0.97736 Si
13 2 1.5042 1.3456 9.7705 -1.26978 2.20362 -0.739346 -1.2931 0.705498 0.032979 Ge
42 1 5.59953 2.68314 8.20072 -3.04831 2.92819 -0.1774 -0.761844 1.84016 0.602788 Si
45 2 6.86135 1.35062 9.68181 1.8672 0.340693 -0.562936 0.583085 -0.170321 1.03106 Ge
36 1 8.24478 2.7474 0.0171901 1.9142 -2.89133 -3.50124 0.629727 0.425468 -1.04074 Si
43 1 8.29414 -0.0292894 8.40254 -0.329924 -1.30097 0.529898 0.476234 0.234475 -1.08883 Si
17 1 -0.0107604 5.45446 0.00593904 -0.652813 -3.59161 0.23691 0.596807 -0.571942 0.625047 Si
27 1 2.7963 5.44725 8.33613 1.55218 -2.4526 -2.38582 0.248812 0.173952 -0.34129 Si
29 2 1.43844 6.7635 9.73891 -0.898788 -2.37078 -0.371896 -0.324317 1.58016 0.40296 Ge
16 2 4.22903 4.09729 9.63978 -3.0503 2.82915 0.999399 0.218343 -0.269992 0.0920205 Ge
61 2 6.88696 7.01499 9.61432 0.992608 1.28159 -1.49211 0.712856 -0.381349 0.702894 Ge
48 2 9.70157 4.09977 9.64868 0.102366 0.0319054 0.836152 -1.6146 0.719005 2.69043 Ge
59 1 8.2803 5.56146 8.37888 3.92388 1.82645 1.53408 -0.188137 -1.11375 -1.60118 Si
32 2 4.14108 9.69825 9.64855 1.90153 0.994892 -1.94307 0.22076 -0.000773647 0.685781 Ge
58 1 5.52884 8.36289 8.23458 -0.405054 -0.0457659 3.57369 0.53804 0.633125 -0.144247 Si
26 1 0.0238623 8.17267 8.39896 -0.282786 -2.08701 -2.91901 -0.505597 1.00321 -0.768086 Si
64 2 9.76735 9.74268 9.75167 -2.32439 0.226051 -0.0844708 -0.235716 -1.6713 -0.97935 Ge
ITEM: TIMESTEP
18400
ITEM: NUMBER OF ATOMS
64
ITEM: BOX BOUNDS pp pp pp
0.0000000000000000e+00 1.1085848640000000e+01
0.0000000000000000e+00 1.1085848640000000e+01
0.0000000000000000e+00 1.1085848640000000e+01
ITEM: ATOMS id type xu yu zu vx vy vz fx fy fz element
4 1 2.6528 2.78511 -0.0708537 -1.46727 0.415735 -4.95352 0.686333 -0.451517 -0.329953 Si
7 2 4.10063 1.37109 1.29108 2.08271 3.9101 0.759437 0.513114 0.729652 -0.0158855 Ge
34 1 5.54175 2.70025 2.71828 0.012459 -0.779482 0.954724 -0.453242 0.302325 0.161744 Si
2 1 0.0274525 2.78071 2.74685 -0.703061 -0.189532 2.23266 0.28606 -1.00917 -0.186887 Si
39 2 9.73748 1.33475 1.38212 0.17026 3.19922 -0.372123 -0.984632 1.07694 0.968645 Ge
6 2 1.37775 4.20207 1.3846 -1.47264 -1.06843 -0.286609 -0.682529 -0.573886 -0.917593 Ge
19 1 2.74864 5.48373 2.76838 0.831684 1.22456 4.29064 1.43024 0.282902 0.203437 Si
23 2 4.14186 6.93361 1.46634 1.8367 1.32861 1.47667 -0.65841 -0.624388 -0.171739 Ge
38 2 6.93037 4.16614 1.44542 -0.178798 -1.38552 0.419904 -0.772002 -0.704432 -1.65609 Ge
49 1 5.42466 5.53633 0.0745651 1.70622 1.14807 -3.04961 1.77865 -0.779084 -0.11023 Si
51 1 8.32541 5.48614 2.76866 0.590917 -3.28889 -2.2878 -0.0930183 0.465235 1.5374 Si
55 2 9.65653 6.91861 1.48472 0.777211 -0.808764 -0.382657 0.776209 1.25946 -1.64277 Ge
3 1 2.82062 -0.036888 2.68199 0.230781 0.138527 -3.03893 0.151302 -0.247538 1.29613 Si
20 1 2.75946 8.26022 0.0547186 -3.30745 -3.99215 0.554435 0.980381 1.72912 0.0626217 Si
22 2 1.41363 9.73056 1.34347 -0.228348 -0.644378 1.75421 -0.222039 -0.715973 -0.0258422 Ge
33 1 5.52771 -0.00549879 -0.0300527 -0.438739 -2.80497 4.83023 0.556006 0.275657 0.00613883 Si
50 1 5.582 8.25098 2.81123 4.85542 0.254217 -0.408174 0.177403 0.921526 0.692977 Si
54 2 6.90064 9.72044 1.38252 -2.02003 -1.87045 -2.79569 -0.140736 -0.518319 0.758888 Ge
35 1 8.27011 -0.000316191 2.82648 -1.19042 -2.30049 4.09003 0.400012 0.115454 -0.789089 Si
18 1 0.0561378 8.35443 2.72846 -0.531653 0.572225 -0.791714 -0.489332 -1.11158 0.351819 Si
52 1 8.27309 8.29945 0.033086 -1.23042 -0.997205 -2.56693 0.625184 0.0154832 0.197565 Si
5 2 1.46207 1.33794 4.07336 0.000907678 2.46608 -2.98539 0.167478 1.92555 0.706367 Ge
12 1 2.81561 2.81911 5.56209 -0.645309 -0.598499 -2.54848 -0.460973 -1.71616 -0.26359 Si
15 2 4.12036 1.43065 7.10489 -1.68809 3.72596 0.978382 0.433132 0.526339 -1.43123 Ge
37 2 6.85109 1.39457 4.21641 -1.19807 -2.70312 0.787624 0.551868 -0.821107 -0.041222 Ge
9 1 0.0574246 0.0473721 5.46815 -2.9292 3.24116 0.516212 0.0245723 -1.86637 -1.02474 Si
44 1 8.32796 2.73913 5.53928 -3.0337 0.072388 1.21951 -0.442319 0.591025 -0.249993 Si
47 2 9.77093 1.35715 6.81334 0.0126629 -0.764533 0.880985 -0.854127 1.28715 1.3219 Ge
14 2 1.42027 4.20431 6.92099 2.09669 0.303141 0.570922 0.0837032 1.34757 -1.23971 Ge
21 2 1.39213 6.86566 4.08304 2.90352 2.64206 -0.308002 -0.224994 1.30396 1.11019 Ge
25 1 -0.00749782 5.59087 5.53116 1.47959 3.97982 -4.30717 -0.124227 -1.25941 -0.583212 Si
8 2 4.19908 4.09702 4.10727 -1.67172 -2.52578 -0.825594 -0.144754 0.69237 0.669484 Ge
31 2 4.18691 6.93082 6.9777 0.121818 -0.971349 4.25925 0.421271 -0.824569 -0.938776 Ge
46 2 6.93907 4.1329 6.97036 -0.570335 2.72676 -0.139684 0.495759 -1.06981 -0.279591 Ge
53 2 7.00095 6.86064 4.22935 -1.14808 -1.79101 2.1215 -1.09197 0.0405467 -0.50285 Ge
57 1 5.56979 5.44641 5.59881 1.92132 -0.227675 0.686185 -0.677036 1.33896 -0.812262 Si
40 2 9.71096 4.10766 4.11805 3.44096 -2.19665 0.427283 0.210821 0.695117 1.16178 Ge
63 2 9.67208 6.97004 6.88909 -1.32437 -2.43884 -1.50591 0.457198 0.170198 1.02823 Ge
28 1 2.77539 8.21605 5.54948 -0.358487 -3.24272 -7.33943 0.0801298 0.812385 -0.730653 Si
30 2 1.45466 9.75133 6.8336 2.79976 -0.119186 -2.35958 -1.07285 -0.625022 0.614264 Ge
41 1 5.4472 0.0467367 5.66998 3.51149 -2.32206 1.21898 0.596682 -0.822877 -0.695204 Si
24 2 4.15362 9.66525 4.2008 -2.07009 -0.600215 -1.08222 0.296649 0.140606 -0.456626 Ge
62 2 6.87621 9.68702 7.00052 0.610399 1.58302 0.323428 0.622848 0.704315 -1.13198 Ge
56 2 9.72155 9.65645 4.1045 0.731503 -1.58098 1.07238 -0.0568538 1.33981 1.28332 Ge
60 1 8.30584 8.34818 5.56565 -0.730762 1.14586 -3.06385 -0.229446 0.104631 -0.450324 Si
1 1 0.00200455 -1.00039e-05 0.00307788 1.93613 -2.45877 -0.806564 -0.781508 -0.590029 -1.27587 Si
10 1 -0.00208217 2.88061 8.17135 -6.35371 0.238811 3.9075 -0.635559 -2.01344 1.39279 Si
11 1 2.76037 -0.0497301 8.34318 0.535381 2.24262 1.46056 -0.0250766 0.173289 0.533504 Si
13 2 1.25827 1.35725 9.58467 2.32531 -0.737514 -0.542711 1.13405 1.04991 0.719651 Ge
42 1 5.59975 2.80187 8.42897 5.1082 -6.28976 -1.78329 -0.85526 -0.0983277 -1.11993 Si
45 2 6.98338 1.38992 9.69736 -0.00942395 1.05827 2.42147 0.0670177 0.149035 1.07274 Ge
36 1 8.36911 2.80731 0.0335821 -1.85166 -0.30529 3.94058 0.0296581 -0.10517 -0.776043 Si
43 1 8.32265 0.0551715 8.23958 -1.76394 -0.601674 2.45395 -0.0395279 -0.417682 0.483702 Si
17 1 0.00858538 5.65865 0.0416987 0.52006 4.53247 -3.39108 0.192955 -0.271696 -1.22281 Si
27 1 2.74584 5.63034 8.31326 -3.60962 0.669548 2.31181 0.138791 -0.556119 0.543687 Si
29 2 1.40011 7.10388 9.66978 -0.779006 -0.104631 -1.15403 -1.95685 -1.77976 -0.316219 Ge
16 2 4.12263 4.1825 9.6761 -1.99933 0.223745 -0.322872 -0.772351 0.204165 0.955011 Ge
61 2 6.93509 6.82563 9.80464 -2.38419 1.3094 0.886542 -0.735977 0.962352 -1.12394 Ge
48 2 9.76227 4.22862 9.65542 2.42557 0.67159 -3.30107 -0.709193 -0.122535 0.761687 Ge
59 1 8.28895 5.54398 8.27498 -1.10082 3.35663 4.93293 0.913806 0.533706 0.971097 Si
32 2 4.15923 9.64062 9.76457 -1.24039 -0.393742 -1.70886 -0.266285 -0.0297963 -0.884348 Ge
58 1 5.57744 8.26568 8.36802 0.437952 -1.675 -1.27424 -0.288584 -0.180701 1.18204 Si
26 1 -0.0656412 8.48633 8.24866 1.71784 -3.09891 2.82248 1.02541 -1.5997 -0.0538245 Si
64 2 9.6088 9.74172 9.68488 -0.090657 2.17433 0.618779 0.636964 0.23941 0.702214 Ge
ITEM: TIMESTEP
18500
ITEM: NUMBER OF ATOMS
64
ITEM: BOX BOUNDS pp pp pp
0.0000000000000000e+00 1.1085848640000000e+01
0.0000000000000000e+00 1.1085848640000000e+01
0.0000000000000000e+00 1.1085848640000000e+01
ITEM: ATOMS id type xu yu zu vx vy vz fx fy fz element
4 1 2.87969 2.75196 0.101353 -1.24533 2.18318 3.65255 -0.536055 0.510438 -0.989559 Si
7 2 4.19828 1.32018 1.51968 -0.316242 -1.13882 2.52438 -0.12868 1.08484 -0.855522 Ge
34 1 5.55164 2.85036 2.79641 1.54656 1.67585 -1.87475 0.33364 -0.849384 0.152535 Si
2 1 -0.0459683 2.78602 2.79304 -2.63657 2.08055 1.59507 0.0414402 0.0308165 0.0973851 Si
39 2 9.72341 1.34281 1.37672 2.96792 -1.13316 -1.91408 -0.257186 1.83973 -0.926873 Ge
6 2 1.42454 4.15576 1.44055 0.433661 -1.28586 4.26911 -0.656984 -0.595511 -0.621714 Ge
19 1 2.7818 5.58929 2.76112 -4.64732 -0.162781 -3.58654 -0.243933 -0.111407 -0.011679 Si
23 2 4.09773 6.90932 1.26586 -0.0995204 2.91842 -1.88334 1.03925 0.920923 0.680364 Ge
38 2 6.93762 4.20752 1.43753 -1.43261 1.92188 -0.1345 0.366071 -0.251839 -0.854501 Ge
49 1 5.63612 5.56088 -0.026982 -7.5272 1.96218 -1.38431 -0.643929 0.629491 -0.620445 Si
51 1 8.29885 5.60501 2.82013 -1.08736 2.06929 -4.58379 0.182835 -0.425578 -1.80758 Si
55 2 9.69824 6.9206 1.39874 1.15803 0.536661 1.98015 0.339157 -0.320013 -0.501688 Ge
3 1 2.70856 0.0223686 2.87592 -1.35138 0.640957 0.422444 0.17216 -0.827452 -1.42902 Si
20 1 2.75501 8.39377 -0.0777529 0.714431 -2.28467 -1.47515 -0.0875722 -1.62391 0.737954 Si
22 2 1.39264 9.69004 1.37817 0.725476 -0.876841 0.425147 -0.310246 0.65783 0.805037 Ge
33 1 5.54008 0.0154972 -0.00488501 -3.59609 -2.07476 -2.18197 0.107286 -0.737522 1.15219 Si
50 1 5.47463 8.30806 2.71392 -0.878319 -2.14664 -2.70117 1.20028 -0.152519 -0.608976 Si
54 2 6.9854 9.70405 1.37948 0.622275 1.41128 -2.95054 -1.40499 0.0299193 -0.25932 Ge
35 1 8.3806 0.00225156 2.72607 0.939079 0.611987 -0.206121 -0.79091 -0.1953 1.28072 Si
18 1 -0.00512882 8.29186 2.79543 -0.756629 2.42066 -1.72437 -0.143177 0.612791 -0.657308 Si
52 1 8.35125 8.33554 0.000276882 -0.383777 -0.790375 0.261101 -0.0142153 -0.594439 -0.508201 Si
5 2 1.2724 1.35023 4.22077 -3.11501 -2.43949 2.04788 0.830988 1.18643 -0.239979 Ge
12 1 2.7637 2.75215 5.5238 0.296012 4.9201 1.89309 -0.17569 0.229031 -0.0259432 Si
15 2 4.21568 1.31435 6.81713 -0.864883 -1.32051 0.149436 -1.63513 1.36498 0.679637 Ge
37 2 7.03767 1.48047 4.11158 0.411837 6.45448 -0.428811 -0.803336 -1.11615 0.483011 Ge
9 1 -0.062871 -0.0350723 5.58666 2.28459 2.43329 3.7827 -0.581285 0.710362 0.908597 Si
44 1 8.38651 2.81827 5.58269 4.36382 1.66291 1.24821 -1.0034 -0.804339 0.0980672 Si
47 2 9.66943 1.37898 7.04396 -0.256412 -1.36857 -0.900125 0.976012 -0.0798636 -1.68144 Ge
14 2 1.32632 4.08373 6.98196 1.16852 -3.226 2.98467 1.53503 0.470747 -0.468294 Ge
21 2 1.35747 6.91947 4.14996 -3.30498 -0.830892 -1.43339 0.694514 0.327264 1.25918 Ge
25 1 -0.0170303 5.4866 5.55941 -2.46075 0.329593 4.51717 -0.00026351 1.06243 0.035284 Si
8 2 4.16949 4.23048 4.14661 1.85437 -0.482656 -1.12924 -0.93487 -0.902327 0.350851 Ge
31 2 4.10816 6.97924 6.86645 -1.67305 2.99181 -0.590514 0.576481 -0.0965774 0.86974 Ge
46 2 6.90441 4.10334 6.93458 -1.35856 0.666348 -2.46605 -0.388393 1.46215 -1.02404 Ge
53 2 6.95103 6.96031 4.09987 0.316732 4.24138 -0.91604 -1.69777 0.688384 1.39778 Ge
57 1 5.53089 5.58372 5.51589 1.82291 -1.56827 -0.68057 1.02398 0.0648112 0.432596 Si
40 2 9.61972 4.22873 4.14348 -0.583242 -0.255879 -1.13362 1.85026 -1.13254 0.607495 Ge
63 2 9.71708 6.93885 6.9532 -1.21958 -0.545284 -0.218181 -0.0732944 -1.00359 -0.577897 Ge
28 1 2.73068 8.42211 5.56315 -1.8588 0.681401 6.50845 -0.256567 -1.17782 -1.16675 Si
30 2 1.31803 9.72499 6.98189 0.974815 1.37011 1.67473 1.03868 0.129152 -0.0968271 Ge
41 1 5.59716 -0.00493626 5.45535 -4.07839 1.73115 -0.938293 1.59692 -0.141806 -0.00392591 Si
24 2 4.17981 9.72183 4.11607 -0.982275 -1.85376 1.17474 -0.89174 -0.241245 0.822043 Ge
62 2 6.96193 9.66122 6.9193 0.268785 -1.2569 -0.321138 -1.01262 1.20796 -0.0805018 Ge
56 2 9.68858 9.69192 4.18467 1.55491 -2.79524 -1.61294 -0.0219067 -0.33128 -0.542101 Ge
60 1 8.31261 8.30023 5.55882 1.94429 -2.67625 2.22945 0.424716 -0.300483 -0.494862 Si
1 1 0.0432719 0.0332442 -0.0133777 1.29865 3.18734 5.02283 -0.122217 -1.0266 0.444517 Si
10 1 0.0276119 2.69469 8.40723 3.06528 6.62305 -2.1852 -1.66717 1.37044 -0.30892 Si
11 1 2.77353 0.0722823 8.28047 0.516389 -3.23089 -0.740007 -0.154617 -0.807969 0.316806 Si
13 2 1.41995 1.41842 9.74917 -0.313789 -0.148617 0.261707 1.51232 -0.289974 0.494378 Ge
42 1 5.43086 2.78762 8.24282 1.82977 0.741981 3.26412 2.26834 -1.76806 0.165274 Si
45 2 6.84161 1.3327 9.6315 0.224617 -3.00058 -3.69134 0.577528 1.81937 0.378437 Ge
36 1 8.24479 2.76468 -0.0182715 0.0760387 -2.00536 3.06684 -0.503854 -1.56329 1.11235 Si
43 1 8.31676 -0.0270735 8.33741 -0.145694 -0.747468 -1.16937 -0.397414 -0.790663 0.271964 Si
17 1 -0.0394689 5.44243 -0.0195761 -1.0057 -3.83805 8.61981 0.549838 0.868518 0.722688 Si
27 1 2.82988 5.51253 8.29199 3.42242 -0.0395575 -4.20368 -0.633109 -0.386584 -0.475121 Si
29 2 1.45827 6.81995 9.71078 4.13711 -0.0989968 1.48271 -1.26295 1.04433 -0.0492976 Ge
16 2 4.24377 4.17031 9.67735 3.19648 -1.91494 -2.83022 -1.42525 -0.122523 1.39022 Ge
61 2 6.97419 6.98878 9.59883 2.87032 -1.57166 -0.440602 -0.454308 -0.468343 1.31466 Ge
48 2 9.58851 4.08682 9.7138 -0.270822 -0.689302 1.74995 1.92296 0.481606 -0.826321 Ge
59 1 8.3069 5.50032 8.26914 -2.01828 -3.38757 -5.00888 -0.0787244 0.492096 0.33341 Si
32 2 4.13841 9.7715 9.7032 0.81517 -0.824246 1.97766 0.0383278 0.142152 -0.883935 Ge
58 1 5.48288 8.37036 8.30544 0.472353 0.626308 -4.04039 0.494594 -0.543913 -0.583291 Si
26 1 0.0432731 8.25286 8.34517 -4.68188 6.07431 -2.27654 -0.0486792 0.0686095 0.536347 Si
64 2 9.76197 9.6856 9.71374 -1.81323 -0.299839 0.311518 -0.251174 0.273206 -0.149679 Ge
ITEM: TIMESTEP
18600
ITEM: NUMBER OF ATOMS
64
ITEM: BOX BOUNDS pp pp pp
0.0000000000000000e+00 1.1085848640000000e+01
0.0000000000000000e+00 1.1085848640000000e+01
0.0000000000000000e+00 1.1085848640000000e+01
ITEM: ATOMS id type xu yu zu vx vy vz fx fy fz element
4 1 2.71721 2.7526 -0.0728378 -0.161921 -3.48654 -0.118787 -0.373924 -0.119481 0.700933 Si
7 2 4.16869 1.40273 1.27556 1.13 -1.40628 -2.30015 -0.51904 -0.0415035 0.749089 Ge
34 1 5.49786 2.72043 2.76466 -3.09288 -0.446255 -0.0584291 -0.0300429 0.771369 -0.886787 Si
2 1 0.0885207 2.77173 2.75219 1.01107 0.493083 -0.414189 -1.0871 0.432309 0.554492 Si
39 2 9.66878 1.41328 1.45987 2.08666 -1.22414 1.85669 0.601581 -0.733126 -1.36935 Ge
6 2 1.39403 4.20239 1.3494 -0.618192 1.00952 -1.9867 0.401319 -0.231209 0.124144 Ge
19 1 2.7937 5.53903 2.80941 1.40877 -0.686475 4.77999 -1.20886 -0.357962 -0.298683 Si
23 2 4.14886 6.8739 1.47318 -1.30018 -1.48849 -0.786276 0.965802 1.48207 -0.851372 Ge
38 2 6.94886 4.117 1.40118 0.651309 -2.99359 4.17821 -0.329181 -0.294698 -0.467721 Ge
49 1 5.53359 5.51801 0.0429186 5.65604 -2.0833 4.07198 -0.718909 -0.367372 -0.160511 Si
51 1 8.32413 5.50516 2.75488 0.585096 -0.759249 8.27707 -0.0370837 -0.151235 -0.329333 Si
55 2 9.64192 6.92183 1.38584 -1.41872 2.01241 2.04843 1.36464 0.489888 0.0395792 Ge
3 1 2.80328 0.00656078 2.68543 -0.369095 2.05233 2.43809 0.0844309 0.689604 0.597931 Si
20 1 2.80161 8.32 0.079061 -2.76966 5.89823 -0.705652 -0.306451 -0.708788 -1.02998 Si
22 2 1.38155 9.71964 1.3918 -1.00633 -1.76603 -2.17189 -0.353729 -0.644862 -0.108898 Ge
33 1 5.60116 0.0555554 -0.0384545 2.71361 3.66698 -4.73594 -0.677557 -1.3618 -0.417586 Si
50 1 5.53265 8.35398 2.81968 -4.91664 -3.56906 3.3788 -0.166722 -1.14071 -0.019582 Si
54 2 6.89309 9.70764 1.41204 -0.405114 -2.69248 0.607596 0.73591 0.214096 -0.737686 Ge
35 1 8.24099 0.0298615 2.81538 0.417273 0.645372 0.23503 0.920471 -0.902895 -0.778974 Si
18 1 0.0105454 8.31627 2.78908 1.93409 -1.8481 2.98751 -0.3951 0.0447562 0.160791 Si
52 1 8.2987 8.31019 -0.0148526 -1.23329 1.90237 1.24255 -0.785936 0.366955 0.372995 Si
5 2 1.4997 1.40399 4.13559 0.210688 0.846525 -2.06349 -1.48449 -0.910574 0.0821806 Ge
12 1 2.77603 2.77514 5.57159 1.54634 -1.02554 -0.721021 0.600793 0.758553 0.420257 Si
15 2 4.17022 1.42473 7.02017 1.92174 -0.881147 3.16149 -0.214765 -0.800204 -0.909258 Ge
37 2 6.78599 1.29109 4.11879 -0.973549 2.2035 0.263339 1.38008 1.8632 0.57533 Ge
9 1 0.0396697 -0.00746084 5.53577 0.444535 -0.770923 -6.36721 0.488729 0.861838 -0.0499448 Si
44 1 8.18993 2.70445 5.47693 1.23433 0.328178 -1.51217 1.83725 0.903551 0.434885 Si
47 2 9.75298 1.44608 6.90084 0.0938389 -0.177759 -0.170298 -1.69989 -1.47011 -1.18973 Ge
14 2 1.37588 4.2262 6.92767 -2.96755 -0.0543984 -1.19717 0.0227743 -1.7876 -0.207973 Ge
21 2 1.45676 6.95332 4.20126 0.186157 1.43754 -1.86229 -1.43194 -0.702974 -1.37839 Ge
25 1 0.0244555 5.56741 5.52856 0.737323 -1.05062 -4.382 -1.14733 0.133137 -0.0732912 Si
8 2 4.1373 4.14371 4.12981 3.29705 -1.68516 -0.0258853 0.78381 -0.259927 1.28095 Ge
31 2 4.19569 6.84019 6.98041 0.704107 -0.951622 -0.981091 -0.946089 1.5284 -0.329093 Ge
46 2 6.97031 4.17526 6.96198 2.41403 -4.81445 3.85511 -0.364752 0.274688 -0.903723 Ge
53 2 6.97305 6.86007 4.11712 3.22907 -3.4728 1.374 -1.10179 1.67349 0.691121 Ge
57 1 5.54917 5.54874 5.54345 -1.43095 -3.22638 1.09609 0.524811 -1.34256 -0.294059 Si
40 2 9.68616 4.14837 4.12875 -2.2068 -1.42537 -2.01121 0.677315 -0.851821 0.655123 Ge
63 2 9.66744 6.94632 6.91902 -0.734449 3.50646 -2.07347 0.735972 0.0430039 -0.304703 Ge
28 1 2.815 8.26825 5.52933 0.814646 1.53938 -0.740507 0.585933 0.720059 1.67175 Si
30 2 1.37992 9.62986 6.92128 -0.125385 0.703861 -3.77771 0.538513 0.331926 0.00111975 Ge
41 1 5.55166 0.0251345 5.58613 -2.01493 1.1939 3.36634 -2.2349 -0.683618 0.334572 Si
24 2 4.10752 9.75847 4.16881 2.06421 -0.891912 -1.08652 1.18093 -0.55653 0.282501 Ge
62 2 6.93201 9.73224 6.9132 2.062 -2.76563 2.95045 0.493006 -0.624264 0.600074 Ge
56 2 9.6945 9.75703 4.17514 0.719244 -0.936461 2.006 0.0868692 -0.681187 -0.784075 Ge
60 1 8.30509 8.33651 5.49266 -3.40095 3.97541 -0.301724 -0.0747635 -0.298482 0.655683 Si
1 1 -0.0668804 -0.0656125 0.00201319 0.117251 0.147265 -3.76753 0.347412 1.5522 0.861734 Si
10 1 0.0241681 2.72972 8.26273 2.74918 -6.80285 -1.25814 0.994846 1.25014 0.221944 Si
11 1 2.76099 -0.0655613 8.3419 0.158776 5.35728 0.288634 0.230915 0.205632 -0.651984 Si
13 2 1.32613 1.30635 9.67237 -4.03869 -1.38764 -3.42919 0.282308 0.2401 0.408967 Ge
42 1 5.59147 2.8187 8.32889 -9.04941 6.423 0.373423 -1.10671 0.420438 0.852836 Si
45 2 6.97999 1.4688 9.71148 -0.270752 0.412904 -0.50005 -0.164438 -1.15702 -0.928134 Ge
36 1 8.36961 2.7848 -0.0463915 0.721656 7.45495 -5.3141 0.654041 1.00771 1.05552 Si
43 1 8.34075 0.0543492 8.30148 2.05241 5.77795 -1.04954 0.0473463 -0.120194 -0.173098 Si
17 1 0.0183874 5.61573 -0.0191098 -2.26089 3.09431 -8.2762 -0.979582 -1.31677 0.61468 Si
27 1 2.70507 5.5338 8.35837 -0.98352 4.01458 4.36845 0.6158 0.882532 -0.305587 Si
29 2 1.35478 6.95494 9.72849 2.48316 1.25299 0.661511 1.70084 0.455739 0.335283 Ge
16 2 4.06571 4.16673 9.70533 0.235937 3.58967 0.542901 2.01605 -0.191888 -0.0452763 Ge
61 2 6.86839 6.91623 9.72044 0.238924 0.838699 0.906727 1.32555 -0.100532 0.446232 Ge
48 2 9.81306 4.16015 9.62196 -2.08841 0.596829 -2.23762 -1.25665 0.381176 1.43072 Ge
59 1 8.34566 5.58672 8.35897 -0.587817 -0.100336 0.441346 -0.35396 -0.696295 -0.574159 Si
32 2 4.19042 9.63367 9.67521 -0.617495 1.14938 2.28032 -0.078501 1.32779 1.48334 Ge
58 1 5.57013 8.29433 8.32637 -1.84785 0.000798119 5.50488 -0.12711 -0.0867695 -1.09748 Si
26 1 0.0115752 8.26583 8.3332 1.90468 -1.47166 1.66647 -0.994832 1.01534 -0.649668 Si
64 2 9.69143 9.6945 9.6815 -1.89676 1.15449 0.114631 -0.473923 -0.626715 -0.390659 Ge
ITEM: TIMESTEP
18700
ITEM: NUMBER OF ATOMS
64
ITEM: BOX BOUNDS pp pp pp
0.0000000000000000e+00 1.1085848640000000e+01
0.0000000000000000e+00 1.1085848640000000e+01
0.0000000000000000e+00 1.1085848640000000e+01
ITEM: ATOMS id type xu yu zu vx vy vz fx fy fz element
4 1 2.80089 2.80868 0.0229901 3.66659 3.1295 0.0820962 0.221644 -0.150304 0.37317 Si
7 2 4.13881 1.41576 1.51675 3.71049 1.79718 3.01545 0.379944 -0.234763 -1.85378 Ge
34 1 5.60413 2.7817 2.79261 1.29427 1.74859 3.0038 -0.244469 -0.389759 1.26836 Si
2 1 -0.0617714 2.74546 2.74071 2.90498 0.181547 -1.68186 0.823146 0.0787847 -0.176842 Si
39 2 9.65583 1.36325 1.29727 -0.224191 2.7089 1.07855 1.22556 0.0213637 1.85355 Ge
6 2 1.37916 4.1596 1.38196 -0.125716 0.180015 1.60646 -0.364334 -0.760149 -0.174178 Ge
19 1 2.77073 5.50967 2.70463 2.35031 2.81168 -3.97369 0.301 0.333902 0.936973 Si
23 2 4.15896 6.93946 1.40277 -1.57151 -0.303382 -1.71512 0.800047 -0.122283 -0.449451 Ge
38 2 6.91881 4.19637 1.41609 -1.75826 1.2756 1.06454 -0.332888 -0.531165 -0.892925 Ge
49 1 5.51258 5.53976 -0.0309424 -1.48286 1.88271 -0.42142 0.583324 0.239473 0.445668 Si
51 1 8.31028 5.54352 2.74474 -0.038233 1.02344 -1.6837 0.172145 0.379563 1.76022 Si
55 2 9.71057 6.87576 1.37779 -1.0549 -0.931615 -1.72273 -0.0551259 1.00737 -0.312844 Ge
3 1 2.80679 -0.0507705 2.7818 -1.94965 -1.20159 -2.49647 -0.778208 0.606249 0.619481 Si
20 1 2.76813 8.24624 -0.037987 3.80148 0.719899 3.21828 -0.664954 1.36472 0.262591 Si
22 2 1.41085 9.72986 1.38767 1.07336 -0.389597 -0.941044 -0.215697 -0.95094 -1.11609 Ge
33 1 5.4604 -0.0867113 0.150731 -0.82719 3.31408 4.22706 0.382567 1.95845 -1.76679 Si
50 1 5.64244 8.32902 2.78169 0.69089 7.10776 -1.93421 -1.90822 -0.153173 0.322771 Si
54 2 6.96902 9.72549 1.40434 -0.406376 -0.896189 -1.36861 -0.0305898 -1.56351 -0.31565 Ge
35 1 8.37063 -0.050948 2.70068 -1.56467 1.93962 -0.58199 -0.586856 1.28219 1.07232 Si
18 1 -0.0185849 8.31631 2.72832 1.13533 0.728532 -1.37906 0.747052 -0.533436 0.521731 Si
52 1 8.34531 8.32372 0.0183506 3.67088 -1.10017 -1.60104 0.0400754 -0.182288 -0.311846 Si
5 2 1.36098 1.32922 4.10114 -1.69786 -0.499393 2.01165 -0.116303 0.647206 0.548062 Ge
12 1 2.75487 2.73604 5.5096 -3.44463 -1.60691 -0.963052 -0.57704 0.496744 -0.478683 Si
15 2 4.1594 1.39934 6.83935 1.14348 1.29986 -1.90166 0.291251 -1.20661 1.18565 Ge
37 2 7.01604 1.31554 4.17564 -1.93011 0.179704 -1.95289 -0.372054 0.9784 -0.0374503 Ge
9 1 -0.0363972 -0.00115785 5.53323 -2.68793 -2.07385 5.28148 0.167491 -0.355131 -0.589364 Si
44 1 8.38038 2.81252 5.60115 -6.19838 -1.55906 0.758206 -1.09736 -0.555887 -0.80961 Si
47 2 9.70127 1.35681 6.9699 1.46058 3.77791 4.81086 -0.392422 0.423101 0.57346 Ge
14 2 1.43564 4.14971 6.96027 0.627978 0.54771 2.35121 -1.06104 0.311274 -1.25815 Ge
21 2 1.41255 6.87326 4.10318 2.32935 2.46036 2.66601 -0.617185 1.22341 0.552315 Ge
25 1 0.00944076 5.54913 5.55684 2.64678 -0.297017 3.31281 1.31455 -0.17513 0.172385 Si
8 2 4.12121 4.14778 4.13286 -0.826957 0.773858 -2.69652 0.906532 0.0643799 0.285928 Ge
31 2 4.10966 6.98801 6.97656 -1.54647 -2.00863 0.389294 1.27824 -0.955323 -1.47662 Ge
46 2 6.88643 4.19518 6.9386 -0.858012 1.32353 -0.757487 1.16525 -0.831515 0.343276 Ge
53 2 6.92229 6.93506 4.21133 2.17748 -0.155938 -3.1285 1.08242 -0.465514 -0.636308 Ge
57 1 5.51369 5.56057 5.55129 -2.83606 7.65596 0.0505418 -1.10446 0.195973 0.232284 Si
40 2 9.74888 4.19716 4.17217 -1.50496 0.411671 -0.266445 -1.15484 -0.69154 -0.503827 Ge
63 2 9.74027 6.90148 6.9723 -2.55815 -1.43378 0.601169 -0.471135 0.661046 -0.702338 Ge
28 1 2.778 8.3073 5.53517 -2.12639 -0.466491 -1.38896 -0.746419 -0.0387347 -0.434161 Si
30 2 1.39935 9.73268 6.89111 -1.24015 -0.927126 1.18937 -0.0303269 0.152199 -0.333073 Ge
41 1 5.5317 -0.0673035 5.531 5.93447 2.05034 -2.47959 0.503914 1.60127 -0.191635 Si
24 2 4.1621 9.68942 4.17847 -3.60075 0.572959 -0.290439 0.574726 -1.10522 -0.89257 Ge
62 2 6.86902 9.69649 6.94256 1.43897 0.512208 -3.26724 1.23395 -0.929392 -0.509552 Ge
56 2 9.6597 9.67337 4.11466 1.87577 -2.24697 2.10274 1.00582 -0.317134 1.08858 Ge
60 1 8.33777 8.28868 5.60349 1.23405 -2.23454 -0.92166 -0.581353 0.397836 -0.429302 Si
1 1 0.0397969 0.0697178 -0.0232499 -1.01001 -1.55273 0.23361 0.206278 -0.596947 -0.632323 Si
10 1 -0.0679097 2.88828 8.33331 -1.5753 -1.09822 1.55688 1.32249 -1.91128 -0.743807 Si
11 1 2.76269 0.035614 8.2892 -0.907813 -2.65309 -0.559961 0.0594114 0.760093 0.334176 Si
13 2 1.39487 1.5407 9.68784 2.35203 -0.105696 1.74317 -0.182376 -1.75608 -0.364889 Ge
42 1 5.59234 2.66269 8.295 6.15467 -1.58875 -4.37237 -1.1932 1.6902 -0.0908411 Si
45 2 6.87404 1.31155 9.75809 -2.86221 -0.268222 0.969454 0.524435 -0.642909 0.812931 Ge
36 1 8.27472 2.74583 0.0748596 -3.39035 -6.04807 -0.276297 -0.510771 1.0274 -2.35716 Si
43 1 8.2678 -0.0931771 8.3373 -1.15246 -1.06938 1.15637 0.463894 1.74483 0.242115 Si
17 1 0.0211138 5.52866 0.00217909 4.24928 0.570387 4.23994 -0.0154252 0.632309 -0.887368 Si
27 1 2.78911 5.56454 8.28166 -0.951985 -5.68615 -1.01097 -0.368493 -0.39236 0.986727 Si
29 2 1.33368 6.95816 9.59577 -0.208451 -3.55275 1.72853 0.59748 -0.709964 1.24794 Ge
16 2 4.16961 4.12856 9.65342 -0.713168 -2.79709 -2.66301 0.356858 0.0238197 -0.0423212 Ge
61 2 6.94319 6.95203 9.70641 -2.03742 1.7914 -1.84611 -0.318761 -0.0367897 0.0179673 Ge
48 2 9.69551 4.17392 9.72803 2.4735 -3.59123 -1.51613 -1.48817 0.0920699 1.09348 Ge
59 1 8.32717 5.55941 8.33429 0.168812 2.29727 0.199816 -0.50283 -0.283032 0.137106 Si
32 2 4.13576 9.70341 9.70413 -1.11037 -2.3982 -1.72006 -0.0886684 -0.316118 -0.03052 Ge
58 1 5.54155 8.32413 8.29874 -0.619817 4.14618 -0.66684 -0.414155 0.0628703 1.288 Si
26 1 -0.000581474 8.39305 8.23776 2.81829 -2.61684 -0.218682 0.098832 -0.850248 0.761183 Si
64 2 9.74185 9.70037 9.6941 3.32264 -0.376337 0.92473 -0.244187 0.236149 0.461871 Ge
ITEM: TIMESTEP
18800
ITEM: NUMBER OF ATOMS
64
ITEM: BOX BOUNDS pp pp pp
0.0000000000000000e+00 1.1085848640000000e+01
0.0000000000000000e+00 1.1085848640000000e+01
0.0000000000000000e+00 1.1085848640000000e+01
ITEM: ATOMS id type xu yu zu vx vy vz fx fy fz element
4 1 2.73817 2.74424 0.0217578 -3.27886 -1.09459 -2.99605 0.303838 0.404609 -0.667706 Si
7 2 4.11173 1.32506 1.3232 -0.239032 0.830977 0.323114 1.47941 0.354017 0.223107 Ge
34 1 5.51714 2.74378 2.73067 0.0857363 -0.736558 -5.47177 -0.323543 1.00768 -0.608047 Si
2 1 -0.00325796 2.76435 2.83941 -3.21543 -1.93277 2.23578 0.116978 0.0329287 -0.552854 Si
39 2 9.71661 1.33574 1.44889 -0.638218 -0.841683 -2.80763 -0.231787 1.13687 -0.687133 Ge
6 2 1.42098 4.12443 1.45329 -1.67655 -0.0510585 -0.083072 -1.17887 0.315071 -0.401342 Ge
19 1 2.73612 5.56017 2.84194 -0.666568 -1.89608 0.0283255 0.663988 0.258746 -1.19793 Si
23 2 4.14583 6.93745 1.38747 -1.67736 0.648592 2.67261 -0.995681 -0.894033 -0.939879 Ge
38 2 6.97076 4.15394 1.33083 0.146199 -1.8681 1.92371 -0.981602 0.055374 0.495095 Ge
49 1 5.57148 5.56915 -0.0500468 -0.210265 -2.26997 -1.18248 -0.190711 -0.0142547 0.877438 Si
51 1 8.30671 5.57947 2.73392 -1.08122 -0.612194 -4.16167 -0.485715 -0.201037 -0.0377191 Si
55 2 9.70162 6.94035 1.40184 -0.37696 -0.955042 1.17967 -0.0269111 -0.0267078 -0.878527 Ge
3 1 2.76017 0.0469296 2.82578 5.2499 -1.46331 -1.05211 0.115256 -0.545185 -0.775459 Si
20 1 2.74162 8.33229 -0.0346931 1.11032 -3.26409 -1.08509 1.08213 0.285666 0.795501 Si
22 2 1.38415 9.715 1.46361 0.193092 -0.270659 1.5652 0.262759 -0.833684 -0.546662 Ge
33 1 5.61768 0.0283603 -0.149843 -1.33088 -6.47078 3.06209 -0.293387 0.318707 2.23116 Si
50 1 5.4842 8.2879 2.72773 6.3298 0.00580205 1.78291 1.29432 2.21379 0.102366 Si
54 2 6.95095 9.76736 1.36287 -0.244471 2.68395 -0.972601 -0.945425 -1.04861 0.198451 Ge
35 1 8.27489 0.053064 2.84673 1.52012 -2.5396 -1.41337 0.191108 -0.486691 -1.81521 Si
18 1 -0.0374356 8.31894 2.80802 -3.72351 1.98129 -0.472414 -0.104826 0.726191 -0.0627783 Si
52 1 8.27894 8.28698 -0.014194 -1.36563 1.34799 1.91157 0.350748 0.396916 0.603946 Si
5 2 1.42327 1.41974 4.21959 2.88362 -0.720809 -2.11107 -0.186668 0.424941 0.164701 Ge
12 1 2.79577 2.85246 5.58561 3.83525 -0.345321 2.67157 -0.156064 -1.47353 0.140531 Si
15 2 4.15099 1.36448 6.95323 -0.0606987 2.42742 1.75825 -0.0931764 0.820914 -0.205345 Ge
37 2 6.90115 1.42172 4.12895 -2.25041 -0.954442 -0.428429 -0.413748 0.00689467 0.655493 Ge
9 1 0.053329 0.00100914 5.56342 1.39227 0.305045 -3.15638 -0.394744 -0.452056 0.347631 Si
44 1 8.32512 2.74454 5.48916 4.58762 2.41624 0.656432 -0.26455 0.816658 0.950283 Si
47 2 9.71269 1.35041 6.90924 2.85607 -2.11686 -4.02281 0.42936 0.786949 0.0286875 Ge
14 2 1.33558 4.11284 6.97012 1.65087 -0.116622 3.93521 1.12314 1.36511 -0.321751 Ge
21 2 1.32121 6.9223 4.17332 0.721084 -1.86567 -1.44784 0.777927 0.574456 0.630081 Ge
25 1 -0.0134734 5.53561 5.5622 -4.49325 0.490866 -2.22484 -0.392056 -0.363281 0.03269 Si
8 2 4.152 4.19321 4.16739 0.506547 -3.19268 -2.22872 0.479174 -0.843887 -0.62838 Ge
31 2 4.1949 6.97334 6.89035 -1.59892 2.02928 2.04941 -0.376724 -1.82312 -0.550036 Ge
46 2 6.9159 4.14848 6.91313 -1.07818 -0.82871 0.244711 0.272004 -1.09341 -0.058755 Ge
53 2 6.91188 6.96955 4.0951 -0.120462 1.473 3.06341 0.298385 -0.662565 0.399302 Ge
57 1 5.59847 5.5091 5.48829 3.26205 -2.58446 -2.04722 -0.768687 1.66279 0.630282 Si
40 2 9.6565 4.21176 4.11825 2.11132 1.07498 -0.409794 0.661529 -0.699902 0.873974 Ge
63 2 9.7141 6.93335 6.93821 0.0896121 1.34491 -0.149627 -1.08329 -0.423829 -0.269175 Ge
28 1 2.75336 8.33272 5.54278 3.50588 0.0889565 0.293095 -0.0572294 -0.00434358 -0.201544 Si
30 2 1.35476 9.63471 7.01446 1.63148 -1.75014 -2.44966 0.334933 0.622405 -0.346204 Ge
41 1 5.53055 0.0284234 5.50184 -4.35285 -4.31707 0.990587 0.278028 -0.0714893 0.784282 Si
24 2 4.16111 9.74008 4.13994 -0.192205 0.461936 3.6561 -0.505883 -0.935453 0.158716 Ge
62 2 6.91317 9.70285 6.89469 -2.58281 -0.0230826 -0.07102 0.683352 0.414977 -0.0409037 Ge
56 2 9.66937 9.79649 4.15859 -3.71761 1.7842 0.0167228 0.897389 -1.47707 0.632773 Ge
60 1 8.3139 8.33016 5.49912 0.690907 2.23296 0.910357 0.113704 0.0902141 0.515862 Si
1 1 -0.00851914 -0.0733581 0.0531683 -0.155074 -0.0909638 0.413119 -0.591597 0.458316 -0.298412 Si
10 1 0.0357951 2.71045 8.33802 -4.32818 4.9622 1.15263 -1.69834 0.223272 0.323316 Si
11 1 2.80256 -0.0325994 8.3586 0.231728 -1.12425 2.05839 -0.683424 -0.146851 -0.419313 Si
13 2 1.35301 1.32254 9.74046 -5.9718 3.96165 -1.64046 0.818456 -0.0382104 0.154961 Ge
42 1 5.49176 2.79937 8.36111 2.3511 -5.39933 2.18313 1.15676 -0.385069 -1.38155 Si
45 2 7.0129 1.44095 9.62482 0.866858 1.04035 -0.831259 -0.715756 0.0804336 0.472298 Ge
36 1 8.36948 2.78367 -0.0255181 3.56329 1.56033 5.94622 -0.153871 -1.20141 1.10681 Si
43 1 8.34942 0.00557754 8.30498 0.207651 -4.6331 -1.73752 -0.68476 -0.687623 -0.834451 Si
17 1 -0.0224221 5.48739 0.0199092 -0.855988 0.286614 -0.476003 1.04547 0.620554 0.678991 Si
27 1 2.79948 5.5432 8.29321 0.400941 5.53785 -1.2251 -0.219956 -0.0842383 -0.346845 Si
29 2 1.40842 6.86731 9.70814 -1.29918 4.41477 -3.06958 -0.811861 0.177522 0.402356 Ge
16 2 4.15439 4.18235 9.72142 -2.13678 0.934857 -0.730358 -0.762025 -0.391691 0.33053 Ge
61 2 6.96274 6.91906 9.63308 2.27157 -1.05462 1.20799 -0.134195 -0.565593 0.474479 Ge
48 2 9.68991 4.14996 9.71789 4.67563 1.21263 -1.06019 1.1819 -0.601685 -1.08647 Ge
59 1 8.32173 5.47868 8.29688 3.72653 0.662858 1.88419 0.272215 1.02816 -0.318627 Si
32 2 4.26297 9.68936 9.65786 2.49866 -1.64101 2.14661 -1.3576 -1.04381 0.0307411 Ge
58 1 5.59315 8.26124 8.25937 2.34424 -3.58123 -2.48686 -0.106938 1.23786 0.269198 Si
26 1 -0.0582861 8.2484 8.409 -1.80184 3.77757 -2.18709 0.902262 0.420538 -0.804521 Si
64 2 9.64289 9.67255 9.71409 -2.47506 -0.841613 0.780468 0.785063 0.180801 0.567491 Ge
ITEM: TIMESTEP
18900
ITEM: NUMBER OF ATOMS
64
ITEM: BOX BOUNDS pp pp pp
0.0000000000000000e+00 1.1085848640000000e+01
0.0000000000000000e+00 1.1085848640000000e+01
0.0000000000000000e+00 1.1085848640000000e+01
ITEM: ATOMS id type xu yu zu vx vy vz fx fy fz element
4 1 2.7869 2.76961 -0.00978699 2.08208 -0.408896 4.43835 -0.280687 0.119724 -0.439323 Si
7 2 4.12995 1.38221 1.37237 -0.583029 -0.679799 3.53121 0.268397 0.625973 1.15584 Ge
34 1 5.52447 2.784 2.80768 2.80537 -5.12479 5.33012 0.516696 -0.785408 -0.0615351 Si
2 1 0.044099 2.81247 2.66522 -0.0244775 0.401944 -1.5668 -0.515861 -0.291371 0.8653 Si
39 2 9.66717 1.40777 1.38877 0.320052 -1.32876 0.297046 0.39186 0.341636 -1.35207 Ge
6 2 1.40812 4.239 1.29463 2.24855 -0.0630814 0.480093 -0.366828 -1.11787 0.278037 Ge
19 1 2.78321 5.49769 2.75305 -2.23956 -1.16143 3.58907 -0.0134717 0.556342 0.556358 Si
23 2 4.1598 6.86241 1.40844 -0.350263 1.82043 -0.696761 -0.286481 1.39195 0.299655 Ge
38 2 6.95722 4.17516 1.43542 1.51374 -1.08147 1.61405 -0.180241 -1.10041 0.0333428 Ge
49 1 5.54652 5.50994 0.0892383 1.33583 2.40861 -2.99583 0.0877438 0.297715 -1.40277 Si
51 1 8.34286 5.47094 2.86548 2.47553 0.698516 0.180381 0.290246 0.833045 -1.57263 Si
55 2 9.6678 6.94481 1.42269 -0.173843 -0.452351 -1.28209 0.534224 -0.795578 -0.0718789 Ge
3 1 2.74324 -0.0152381 2.73671 -2.367 2.06844 3.83129 0.700876 -0.088155 -0.0311821 Si
20 1 2.75879 8.31274 0.0483685 -5.54475 -2.3435 -4.02316 0.163427 -0.221132 -0.386877 Si
22 2 1.35789 9.73683 1.3448 -0.326508 2.61634 -0.42409 -0.163531 -0.226062 0.0694745 Ge
33 1 5.5249 0.0115496 0.0648696 3.02228 0.568893 -5.81137 -0.0119496 -1.49881 -0.582349 Si
50 1 5.52587 8.26711 2.81522 -3.8373 -7.9727 -1.74099 0.661304 -1.28979 -0.0446024 Si
54 2 6.9158 9.62122 1.45899 1.88329 0.568927 -1.05878 -0.43292 0.982058 -1.60631 Ge
35 1 8.33511 -0.057717 2.7046 -0.328313 0.690787 5.09092 0.115845 0.22653 1.94168 Si
18 1 0.0812738 8.27867 2.76023 1.7901 -3.26698 -0.652983 -0.693075 0.298651 -0.792166 Si
52 1 8.30594 8.32667 0.00508376 -0.32134 -1.77152 -2.55599 0.33604 0.257229 -0.488564 Si
5 2 1.36858 1.37021 4.06929 -2.81741 0.893438 0.118154 -0.36096 0.21088 0.223087 Ge
12 1 2.73968 2.69011 5.49212 -1.72983 4.43528 -3.7223 0.6102 1.11365 0.236176 Si
15 2 4.18117 1.39526 6.92866 1.93822 -0.762445 -5.04302 -0.546281 0.650576 -0.179054 Ge
37 2 6.95589 1.32414 4.18315 1.30044 -0.242844 -0.638169 -0.456023 0.314771 -0.295203 Ge
9 1 -0.0277594 0.0252883 5.48763 0.513058 2.14177 1.35743 -0.432038 0.437449 0.0923823 Si
44 1 8.30344 2.7682 5.56734 -0.609837 -4.54156 -2.9051 0.184443 -0.127231 -0.309789 Si
47 2 9.68495 1.44467 6.95957 0.634516 0.57532 4.05175 0.47395 -1.20308 -1.39298 Ge
14 2 1.39416 4.20148 6.80732 -3.00282 -3.95429 0.96992 0.444737 -1.39877 1.79053 Ge
21 2 1.44698 6.92806 4.13209 0.256597 1.51726 0.272067 -0.153795 -0.634138 0.23101 Ge
25 1 0.0222954 5.56024 5.50011 4.53468 2.66147 1.30317 -0.833521 0.420043 -0.439781 Si
8 2 4.1387 4.16438 4.20279 -0.450677 0.539487 0.966263 -0.101798 -0.807949 -0.223498 Ge
31 2 4.20043 6.87526 6.99415 -0.624192 4.85417 1.35252 -1.77386 1.56733 0.683773 Ge
46 2 6.9683 4.14889 6.98939 -2.12983 1.06836 2.23519 -0.980849 0.445664 -1.30006 Ge
53 2 6.93988 6.80927 4.18888 1.17921 -0.0713576 0.479531 -1.094 1.51168 1.10549 Ge
57 1 5.49215 5.50949 5.64938 1.93637 -4.04757 1.1306 1.84139 -0.732936 -1.31689 Si
40 2 9.72701 4.08925 4.16313 -1.65098 1.32531 -3.34249 0.670201 0.356975 0.238246 Ge
63 2 9.73073 6.95629 6.93111 1.8388 1.09219 0.215805 -0.0470798 -0.435426 -0.310412 Ge
28 1 2.79766 8.27844 5.5593 -1.11999 -0.481713 -0.943836 0.526639 0.767945 -0.0875697 Si
30 2 1.37731 9.77838 6.85716 -2.26574 -1.23598 -0.43968 0.604542 -1.25937 -0.0934316 Ge
41 1 5.55299 -0.0192836 5.64519 3.65991 -0.7743 -3.80537 0.298583 -0.673045 -1.70429 Si
24 2 4.1799 9.69545 4.11755 0.239867 0.64377 -0.866244 -0.600252 0.265219 1.73905 Ge
62 2 6.91893 9.68196 7.05911 -0.541881 -2.77602 -0.495956 0.127251 0.0344971 -1.534 Ge
56 2 9.76993 9.63124 4.09562 -0.913007 0.032011 0.580142 -1.6377 0.571134 1.0545 Ge
60 1 8.28944 8.28867 5.57316 0.570782 -2.69585 -1.37369 0.396553 0.539775 -0.562748 Si
1 1 -0.0166226 0.0840868 -0.05254 2.2575 0.171192 0.546639 0.295214 -0.857816 0.313327 Si
10 1 0.0523129 2.76893 8.25385 5.66309 -0.823393 -1.19515 -0.377135 1.42425 0.62936 Si
11 1 2.76382 0.0307069 8.23327 2.14124 1.4601 -1.49862 0.437845 -0.558127 0.999131 Si
13 2 1.4436 1.38035 9.64735 0.0551636 3.32131 -0.32846 -0.793604 0.930692 0.220038 Ge
42 1 5.52284 2.83739 8.29812 -3.88813 1.91213 4.01037 0.40568 -1.60671 1.17909 Si
45 2 6.87874 1.38449 9.74466 -2.27019 0.816234 1.44928 -0.10256 0.708832 -0.986573 Ge
36 1 8.28668 2.79138 -0.0388255 -1.58141 0.297685 -4.63759 0.0970165 0.0783952 0.940224 Si
43 1 8.2939 0.0736968 8.3094 0.163047 2.77982 4.5455 0.258874 -0.707357 1.01351 Si
17 1 -0.0239381 5.5993 -0.048241 -2.14811 -2.59528 -1.72361 -0.98189 -0.377379 0.215837 Si
27 1 2.73512 5.51133 8.35106 1.70279 -3.10339 0.30197 0.41606 0.475135 -0.466359 Si
29 2 1.37733 6.9707 9.71567 1.76383 -4.76567 -0.58753 0.436881 -0.146241 -0.581412 Ge
16 2 4.16872 4.15692 9.72934 2.38377 -0.139473 -1.46194 -0.214266 0.350639 0.0595548 Ge
61 2 6.84847 6.95687 9.7429 -0.337265 4.92061 -1.29055 0.900313 -0.479206 0.291987 Ge
48 2 9.64279 4.17723 9.63271 -3.55272 -1.06629 0.4953 1.33835 0.0617195 0.157303 Ge
59 1 8.26327 5.60813 8.28806 -2.87121 -2.58082 -1.06565 0.609505 0.276157 0.971419 Si
32 2 4.07565 9.72026 9.71598 2.04277 1.82929 -0.29415 0.443077 0.909823 0.680673 Ge
58 1 5.47722 8.36083 8.4116 0.697918 -0.817266 -1.03596 0.277303 -1.00657 -0.722229 Si
26 1 0.0716648 8.34786 8.26195 -2.18495 -2.96537 4.01109 -0.776753 0.395779 0.327751 Si
64 2 9.74227 9.74267 9.63305 -0.143337 -0.232663 0.528664 -0.951857 -0.323933 0.745414 Ge
ITEM: TIMESTEP
19000
ITEM: NUMBER OF ATOMS
64
ITEM: BOX BOUNDS pp pp pp
0.0000000000000000e+00 1.1085848640000000e+01
0.0000000000000000e+00 1.1085848640000000e+01
0.0000000000000000e+00 1.1085848640000000e+01
ITEM: ATOMS id type xu yu zu vx vy vz fx fy fz element
4 1 2.78893 2.79072 -0.00727906 -1.36188 -1.54207 -0.441479 -0.180059 -0.642062 1.19468 Si
7 2 4.16439 1.39463 1.41022 -0.285618 -0.405765 -4.91365 -0.458875 0.393159 -0.294447 Ge
34 1 5.53073 2.85175 2.75823 -4.0348 6.61439 -5.38454 0.50917 -0.570539 0.0846449 Si
2 1 -0.0167704 2.73305 2.89658 3.87848 0.802326 -0.263796 0.0102356 0.314474 -0.463305 Si
39 2 9.71879 1.39699 1.40399 -0.30362 0.819393 3.90577 0.378996 -0.4288 0.130311 Ge
6 2 1.39351 4.08688 1.48765 0.272424 2.55311 0.409602 0.320153 0.87539 -0.737549 Ge
19 1 2.79152 5.62282 2.73014 1.10704 -1.69987 -3.6423 -0.918719 -1.02707 0.370063 Si
23 2 4.18167 6.94947 1.3365 -1.15835 -2.77313 -0.312276 0.505005 0.894941 0.329249 Ge
38 2 6.89297 4.22998 1.32482 1.05948 2.22813 -1.02596 0.226661 -0.650413 0.552259 Ge
49 1 5.51012 5.56157 -0.0815224 -0.915967 -4.16308 5.14847 0.319738 -0.140462 0.419308 Si
51 1 8.28762 5.60798 2.72688 -1.88188 -3.99665 4.74859 0.374477 -1.15196 0.564873 Si
55 2 9.74201 6.91919 1.41829 -2.44475 2.32838 1.94318 -0.698978 0.42514 -1.02319 Ge
3 1 2.75166 -0.014153 2.76272 -0.997636 -0.0350861 -1.98634 -0.0316621 0.568833 0.388836 Si
20 1 2.85789 8.38926 0.00218813 3.86151 3.04481 4.01926 -1.50487 -1.85199 -0.839621 Si
22 2 1.42253 9.63208 1.41356 0.937525 -0.719436 0.959854 -0.414311 1.41949 -0.668091 Ge
33 1 5.49114 0.0045045 -0.00588393 -0.848546 4.00833 1.12488 1.2447 -0.128542 -0.681043 Si
50 1 5.52497 8.42374 2.7465 -1.92228 7.04598 -0.0463906 -0.347114 -1.33405 -0.703597 Si
54 2 6.93935 9.7403 1.3856 0.878043 -0.0973549 0.389905 0.563106 0.354617 -0.578091 Ge
35 1 8.34572 0.055605 2.79168 0.287769 -1.93073 -8.06293 -0.162159 -0.862582 -0.425124 Si
18 1 -0.0332181 8.34551 2.74572 1.82668 -0.0702471 3.06035 0.729021 -0.827844 0.895868 Si
52 1 8.36333 8.30316 -0.00296617 -1.35215 -2.62157 1.88719 -1.11533 -0.478093 -0.141325 Si
5 2 1.39769 1.32809 4.2463 3.28919 -1.2035 1.1602 -0.324648 0.268601 -0.23116 Ge
12 1 2.76904 2.78052 5.59323 -0.552649 -4.91467 2.99577 0.336952 0.310777 -0.853134 Si
15 2 4.11119 1.37178 6.97523 1.54102 2.87179 3.90483 0.699267 -0.539635 -0.970202 Ge
37 2 6.98499 1.44418 4.14081 -4.71094 1.91444 -1.54907 -1.3863 0.468599 -0.1309 Ge
9 1 -0.0297345 -0.0502971 5.61329 2.70113 -3.03657 -1.44886 0.916946 0.593824 0.0141928 Si
44 1 8.29831 2.81184 5.57317 0.239874 1.6173 1.78758 0.636513 -0.782575 -0.706223 Si
47 2 9.65859 1.36753 6.92647 1.30144 3.94433 1.14842 0.286699 0.374106 0.706517 Ge
14 2 1.39973 4.16454 6.95776 -0.427056 2.24695 -1.42452 -1.25238 -0.811424 0.364143 Ge
21 2 1.30466 6.89623 4.12266 0.770906 0.373057 0.499158 0.63346 0.989857 0.961363 Ge
25 1 -0.0467865 5.4817 5.57 -0.748845 -5.36499 1.52233 1.07689 1.2557 0.288966 Si
8 2 4.13166 4.23396 4.12518 -1.37579 1.13657 -0.208007 -0.123572 -0.763474 0.534906 Ge
31 2 4.17649 6.91059 6.86094 3.34425 -3.11426 -1.42388 -0.72448 1.09633 0.142145 Ge
46 2 6.91896 4.17555 6.84465 1.2224 -1.59264 0.780046 -0.467626 0.931618 1.35824 Ge
53 2 6.90787 7.00885 4.04155 2.01793 -0.355051 -3.78933 0.690272 0.573128 1.17139 Ge
57 1 5.55763 5.6354 5.41843 -6.18244 3.13427 1.27974 0.178052 -1.19317 0.914714 Si
40 2 9.65964 4.20282 4.21645 -0.801958 -1.64614 0.512685 -0.595008 -0.774482 -1.56136 Ge
63 2 9.66827 6.84519 6.97473 -2.42515 2.69593 -0.183715 0.271316 1.4923 -1.04347 Ge
28 1 2.71021 8.35636 5.54767 1.46845 -3.03921 3.38744 0.0454441 -1.14783 -0.103494 Si
30 2 1.37042 9.69626 7.04803 -1.36351 -0.52011 -1.34008 -0.0636503 0.0262603 -1.70892 Ge
41 1 5.53899 0.0486307 5.47341 -5.18357 2.62705 8.16217 -0.31081 -0.0956185 1.006 Si
24 2 4.11085 9.71498 4.14029 -0.998978 2.2567 -0.505288 0.327005 0.426998 0.502458 Ge
62 2 6.93976 9.73944 6.88665 -1.62215 -0.641343 2.30796 -0.665765 -0.749684 -0.234867 Ge
56 2 9.73635 9.72813 4.15035 3.6664 -0.83765 -1.66261 -0.906712 -0.254642 0.227868 Ge
60 1 8.3298 8.33361 5.52518 -2.22891 -1.33758 1.26308 -0.0636172 -0.788031 -0.106648 Si
1 1 0.0126738 -0.0647056 0.0198337 -3.43656 1.24432 1.0001 0.406865 0.760524 0.704137 Si
10 1 -0.0591673 2.75637 8.37508 3.03369 -4.45646 -1.00511 1.89874 -0.79763 -0.816585 Si
11 1 2.7494 -0.0158933 8.39474 -1.93109 -1.51751 -2.37556 0.401062 0.332444 -0.980069 Si
13 2 1.41685 1.35446 9.76786 -2.06635 -3.07528 1.69974 -1.33219 0.617411 -0.415437 Ge
42 1 5.59049 2.71244 8.25105 -1.26827 5.44881 -5.34973 -0.692551 1.29296 0.58296 Si
45 2 6.94907 1.32672 9.63285 1.19437 0.763025 -0.655809 -0.367773 0.202742 1.443 Ge
36 1 8.26762 2.72096 0.0452918 3.16031 0.759891 -1.55804 0.354231 0.524504 -0.964088 Si
43 1 8.33549 -0.0692827 8.30691 0.618206 0.327239 -6.87877 0.142341 0.652128 -0.074609 Si
17 1 0.0358008 5.51193 0.0832508 1.03019 0.121226 1.70497 0.310231 -0.0324788 -0.819802 Si
27 1 2.79175 5.55087 8.2815 -1.37108 -0.605322 -0.503905 -0.0246626 0.236313 0.811385 Si
29 2 1.38095 6.9653 9.70106 0.378477 3.10287 3.6258 0.964606 -0.721671 0.819013 Ge
16 2 4.1636 4.12385 9.6806 -1.44629 -1.69545 -0.760592 0.356259 0.113341 -1.18131 Ge
61 2 6.93459 6.87353 9.63207 -2.05748 0.799607 -1.96714 0.190212 1.75504 1.0361 Ge
48 2 9.72468 4.10493 9.77556 2.59048 -2.36105 -0.671392 -0.942134 0.648599 0.585204 Ge
59 1 8.34306 5.48869 8.36334 0.735312 -1.48334 -2.43214 -0.662944 -1.09237 -0.850606 Si
32 2 4.17639 9.68061 9.63252 2.12864 -5.67924 0.0539559 0.381857 0.657807 1.19811 Ge
58 1 5.53899 8.31101 8.26519 -1.41405 0.554124 1.01467 0.819792 -0.360962 -0.624878 Si
26 1 -0.0203162 8.28993 8.30391 3.46897 -1.05904 -2.89107 -0.192669 -0.638597 0.622984 Si
64 2 9.74281 9.6755 9.69795 0.84501 -1.18085 -0.844234 -0.574717 -0.209279 0.00726022 Ge
ITEM: TIMESTEP
19100
ITEM: NUMBER OF ATOMS
64
ITEM: BOX BOUNDS pp pp pp
0.0000000000000000e+00 1.1085848640000000e+01
0.0000000000000000e+00 1.1085848640000000e+01
0.0000000000000000e+00 1.1085848640000000e+01
ITEM: ATOMS id type xu yu zu vx vy vz fx fy fz element
4 1 2.71669 2.76251 -0.0472847 2.47533 2.97119 -3.98581 0.768699 0.0292203 0.0946699 Si
7 2 4.11832 1.38738 1.35015 0.0950929 -0.550215 4.26049 1.08415 -0.42439 -0.677354 Ge
34 1 5.57211 2.65833 2.76931 -0.137212 -2.13135 5.79443 -0.331193 0.972691 0.0119778 Si
2 1 -0.061393 2.78987 2.73422 -1.55459 -2.02982 0.509315 0.922234 -0.247752 -0.640923 Si
39 2 9.67953 1.34725 1.34258 -0.384156 1.08985 -4.96144 -0.116643 0.408238 0.87597 Ge
6 2 1.37574 4.14738 1.33329 0.134314 -2.88528 0.164367 -0.596306 0.846499 0.595158 Ge
19 1 2.74921 5.51881 2.82871 2.85832 3.19489 1.94048 0.858342 -0.597723 -1.08988 Si
23 2 4.18023 6.93995 1.47213 -1.10694 -0.117856 -1.00184 -1.33634 -1.08921 -1.4219 Ge
38 2 6.94483 4.08685 1.40897 0.0427953 1.15849 2.33265 -0.68549 1.09882 -0.189563 Ge
49 1 5.5639 5.58193 0.0410107 -0.0246651 2.15033 -2.70758 -0.297151 -1.35373 1.05036 Si
51 1 8.31516 5.5186 2.75044 0.288962 4.44704 -0.909808 -0.335237 0.255295 0.837933 Si
55 2 9.72919 6.9235 1.40505 0.499357 -0.864929 2.75578 -1.06472 1.03839 -0.688361 Ge
3 1 2.80814 0.0281415 2.76335 -1.33087 -3.74129 -0.635195 -0.442826 -0.931553 0.0701291 Si
20 1 2.68743 8.22812 -0.00147497 1.39992 4.99975 1.44065 1.48682 2.03483 0.941138 Si
22 2 1.35028 9.70324 1.44349 0.0695973 -2.56987 -0.922495 0.840528 -0.290493 -0.82668 Ge
33 1 5.59353 -0.0181401 -0.0216761 -4.1454 -1.08794 2.69638 -1.2831 1.22653 0.0936065 Si
50 1 5.61721 8.21669 2.78429 0.102643 -1.36333 2.61773 -0.835005 1.26128 0.934337 Si
54 2 6.86958 9.69236 1.41172 -1.15064 -2.30503 1.37359 1.03388 -0.199705 0.0143068 Ge
35 1 8.26037 -0.0122339 2.78625 1.4006 3.87616 4.2552 0.317666 0.397329 -1.32777 Si
18 1 -0.0424418 8.35082 2.82102 -1.03457 0.816592 -3.31802 -0.0488811 -0.270705 -0.242892 Si
52 1 8.26398 8.36508 0.00993667 4.60163 3.33254 -0.428836 1.1718 -1.17391 0.358446 Si
5 2 1.41191 1.45924 4.08391 -1.34782 -1.50573 -1.47015 -0.209693 -0.412175 0.659929 Ge
12 1 2.80557 2.79889 5.51283 -1.11224 -1.09118 -1.74933 -0.766743 -0.915958 0.978208 Si
15 2 4.12036 1.3546 6.95146 0.271355 0.692817 -1.35523 1.4371 1.02021 -0.456826 Ge
37 2 6.95548 1.33671 4.19235 7.69108 -1.57012 1.82566 -0.689591 0.346331 -0.22489 Ge
9 1 0.0431306 0.0526672 5.49407 -6.02329 0.152581 -0.526467 0.355519 -1.59387 -0.397128 Si
44 1 8.34393 2.75292 5.50041 -2.45493 2.18133 1.49542 -0.315541 0.382766 0.671145 Si
47 2 9.69348 1.30418 6.83631 0.253143 -0.501414 -1.62101 -0.0695686 1.8964 1.50969 Ge
14 2 1.37808 4.1344 6.94226 1.51416 -1.77924 -1.18761 0.204624 1.52493 -0.749942 Ge
21 2 1.38018 6.93829 4.1404 -1.34351 -0.263627 -4.12363 0.290504 0.902933 -0.0559026 Ge
25 1 0.0184684 5.63672 5.49964 -0.457017 -0.765672 -3.60792 0.252768 -2.71801 0.799204 Si
8 2 4.21133 4.08728 4.15665 0.450266 0.387638 -0.167336 0.180776 0.998129 -0.225324 Ge
31 2 4.16278 6.93771 7.00641 2.34766 1.855 1.80232 0.409977 -0.484953 -1.63844 Ge
46 2 6.95678 4.14707 6.94178 -0.286853 -2.6313 -0.974269 0.447181 -1.50373 0.728638 Ge
53 2 6.89465 6.84086 4.24968 0.958706 -2.81949 1.48326 1.8433 0.638312 -1.12427 Ge
57 1 5.58917 5.44839 5.61434 0.722181 0.10732 -0.930165 -2.28601 1.1373 -0.173852 Si
40 2 9.70981 4.1755 4.13721 -0.657707 3.05365 1.04981 0.01645 0.357226 0.343849 Ge
63 2 9.7787 6.94969 6.90831 1.48757 -1.9593 0.918266 -1.84589 1.26259 0.166567 Ge
28 1 2.79358 8.30666 5.49795 -3.13011 2.75809 -3.3961 0.353356 0.0376993 1.10323 Si
30 2 1.42973 9.70745 6.94865 -0.389118 1.92862 0.396563 -0.711585 0.199739 -1.06936 Ge
41 1 5.55002 -0.0322069 5.55101 5.7729 -0.405341 -6.6166 -0.48117 0.523693 0.288358 Si
24 2 4.22505 9.6663 4.11414 -1.34119 -2.12392 -0.302874 -0.514936 0.110993 0.190618 Ge
62 2 6.92607 9.74513 6.96418 0.311494 -2.01742 2.64775 0.491004 -0.750477 -0.146816 Ge
56 2 9.61323 9.75748 4.14975 0.791921 -0.84289 0.438447 1.81439 -0.516482 0.631021 Ge
60 1 8.30373 8.34908 5.54415 1.11996 4.09816 1.12692 -0.175066 -0.777793 0.747685 Si
1 1 0.0259076 -0.00930098 0.000654238 1.73276 -3.23645 -5.14114 -0.549508 -0.112233 -0.739039 Si
10 1 -0.0667854 2.76889 8.26967 -8.74671 2.06545 -0.0220865 0.233488 -0.516602 -0.226471 Si
11 1 2.78932 0.00330171 8.32952 -0.773428 2.34658 4.685 -0.545303 -0.328406 -0.48869 Si
13 2 1.37574 1.36616 9.62124 0.464546 5.50917 -1.56575 -0.79094 0.612085 0.985868 Ge
42 1 5.546 2.76632 8.39524 2.62707 -6.72065 -0.683797 -0.453254 0.586292 -1.53714 Si
45 2 6.99298 1.44575 9.70444 -3.14062 -1.01583 -1.08516 -0.791934 -0.876766 0.844872 Ge
36 1 8.34318 2.81409 0.0072882 -6.31668 -2.65241 1.01679 0.526586 -0.0767201 -0.831768 Si
43 1 8.31283 0.0426715 8.33856 -0.299318 -0.488637 3.52765 0.145071 -0.266512 -1.06437 Si
17 1 0.00878535 5.60744 -0.0609863 0.641269 1.76059 -0.656735 -0.446809 -1.19409 0.629819 Si
27 1 2.75516 5.58416 8.37656 -0.215603 -0.80687 1.05599 0.0583038 -1.22902 -1.11598 Si
29 2 1.33539 6.95195 9.63839 -1.24988 4.65031 -3.01877 0.102018 0.210594 0.802903 Ge
16 2 4.16032 4.20628 9.76149 2.35227 -0.899964 1.47139 -0.20838 -0.434978 -0.357484 Ge
61 2 6.9429 6.88019 9.74237 -1.35306 0.901047 0.44844 0.0435584 1.71538 -0.706838 Ge
48 2 9.67277 4.24227 9.62793 -0.733009 -2.11287 -1.02773 0.352261 -0.909941 0.977136 Ge
59 1 8.3021 5.60465 8.2655 -0.169108 4.31563 3.89585 0.502597 -0.312932 -0.0538993 Si
32 2 4.12082 9.73008 9.71054 -1.38203 0.0631012 -0.789293 0.737783 -1.79644 0.541922 Ge
58 1 5.59356 8.3174 8.33404 -3.11322 1.59837 4.86026 -0.941135 0.26038 0.938882 Si
26 1 -0.0277738 8.37169 8.33833 0.0199755 2.30544 -0.676489 0.542005 -0.169878 -1.18544 Si
64 2 9.66047 9.7259 9.67762 2.038 1.16943 0.300993 0.341201 0.184036 1.25762 Ge
ITEM: TIMESTEP
19200
ITEM: NUMBER OF ATOMS
64
ITEM: BOX BOUNDS pp pp pp
0.0000000000000000e+00 1.1085848640000000e+01
0.0000000000000000e+00 1.1085848640000000e+01
0.0000000000000000e+00 1.1085848640000000e+01
ITEM: ATOMS id type xu yu zu vx vy vz fx fy fz element
4 1 2.82531 2.77514 0.0923485 -4.43824 -1.75172 0.78742 -0.390842 0.353028 -1.6523 Si
7 2 4.16101 1.40519 1.45856 -2.16619 1.48911 -2.64771 0.540079 -0.451399 0.0112871 Ge
34 1 5.5729 2.82194 2.78342 1.46367 -0.596023 -4.70417 -1.10797 -0.527489 0.357326 Si
2 1 0.0318831 2.79317 2.72079 -3.55181 2.09328 3.71442 -0.160826 -0.620538 0.874212 Si
39 2 9.6671 1.38687 1.45117 0.196332 -2.268 1.81153 0.703449 0.900137 -1.46506 Ge
6 2 1.41132 4.20005 1.37751 3.28389 -0.749872 0.774449 -0.429467 -1.30316 -0.0922254 Ge
19 1 2.77867 5.52883 2.71981 -3.65396 2.54998 -0.0643173 0.342797 1.1751 1.51846 Si
23 2 4.18606 6.94226 1.37947 0.607408 3.25854 0.695461 -0.893947 -0.125683 -0.486982 Ge
38 2 6.89323 4.15922 1.36543 0.93865 -1.9821 -1.23975 1.27044 0.203178 0.327052 Ge
49 1 5.51302 5.50728 0.00756605 -0.353461 5.29808 -1.258 0.211855 0.937334 -1.10264 Si
51 1 8.32079 5.54029 2.76224 -0.98066 -1.33943 -5.11845 0.0050105 -0.0170294 -0.0641367 Si
55 2 9.72668 6.91659 1.32513 2.3 -0.470769 1.76766 -0.503429 -0.396776 1.17594 Ge
3 1 2.75578 0.00163519 2.80593 0.921451 5.97073 -0.62016 0.175804 0.0629581 -0.242558 Si
20 1 2.78465 8.31053 -0.0479912 -2.99227 -7.23675 -2.43721 -0.440418 -0.0110443 0.191547 Si
22 2 1.38952 9.76455 1.34028 0.552972 -1.0837 3.28541 0.290104 -0.898954 -0.00874139 Ge
33 1 5.51063 -0.0115045 0.0387258 4.48397 -2.23656 -2.82559 0.421753 -0.078208 0.664343 Si
50 1 5.50895 8.33733 2.76184 4.38122 -1.18928 -4.32385 0.720296 0.382548 -0.30009 Si
54 2 6.97813 9.70588 1.44558 -1.08727 2.1892 -2.19783 -0.986867 -0.772825 -1.84557 Ge
35 1 8.35097 -0.0305224 2.7717 -2.81442 -2.14843 2.43585 -0.503012 0.31783 1.37527 Si
18 1 0.0523905 8.28349 2.69308 -2.28467 4.25458 1.50461 0.0996896 0.109667 0.394565 Si
52 1 8.32863 8.27297 -0.0183817 -5.8436 1.15255 -1.08808 -0.231563 1.3858 -0.225901 Si
5 2 1.33904 1.37176 4.15539 2.50037 2.11054 2.64572 0.603754 0.596427 0.254117 Ge
12 1 2.73585 2.79384 5.53771 1.89214 3.77524 0.0429256 0.278318 -0.674545 -0.727851 Si
15 2 4.15454 1.3612 6.85189 -2.04129 0.82688 1.66641 -0.163485 1.29618 0.97523 Ge
37 2 6.88355 1.37064 4.1289 -2.10797 2.56062 1.33358 1.39668 -0.181059 0.80231 Ge
9 1 0.00173841 -0.010106 5.58241 2.52904 4.02933 4.06595 -1.60998 0.363484 -0.0559965 Si
44 1 8.31707 2.751 5.56075 1.00282 -0.628869 -1.30917 -0.848338 0.287549 0.0483224 Si
47 2 9.66008 1.44133 7.05701 0.275837 -1.65976 -1.69017 2.0029 -0.342638 -1.64612 Ge
14 2 1.39531 4.20244 6.88588 -2.52637 -4.2656 3.23005 0.366889 -1.13121 0.587385 Ge
21 2 1.39494 6.91461 4.17816 -1.77254 0.129823 0.284669 0.353623 0.168707 -0.135278 Ge
25 1 -0.00343031 5.51936 5.59336 -3.08791 7.26459 0.74891 -0.636781 0.733689 -1.41848 Si
8 2 4.14255 4.18142 4.17721 0.568288 -1.75399 -0.814294 0.0425399 -0.211551 -0.679567 Ge
31 2 4.10969 6.92412 6.91942 0.248271 1.33643 1.55302 1.32172 0.50228 0.379612 Ge
46 2 6.9216 4.22131 6.94706 -0.923873 0.653953 -2.98983 -0.306725 -0.99532 -1.20624 Ge
53 2 6.88665 6.98713 4.10082 -1.40594 -1.91002 -1.50828 0.609467 -1.69734 0.764286 Ge
57 1 5.50292 5.5978 5.52846 6.76506 0.363817 -0.100452 0.794552 -0.168073 -0.0462779 Si
40 2 9.73739 4.08839 4.15534 -3.175 -0.564601 0.410298 -0.627157 1.42332 0.179904 Ge
63 2 9.70459 6.90639 6.99645 2.82305 -0.379114 -1.11433 -0.0417686 -0.653625 -0.965646 Ge
28 1 2.78605 8.34019 5.62062 0.34007 1.05555 -0.539065 -0.980772 -0.032667 -1.91819 Si
30 2 1.34652 9.69619 6.96772 -0.501019 -3.87263 4.34864 0.570646 -0.231544 -0.703661 Ge
41 1 5.52209 -0.0226325 5.54341 -4.29806 0.0255446 2.65719 1.00788 0.0191176 -0.724126 Si
24 2 4.17445 9.69914 4.15408 0.531703 0.988256 -2.89653 -1.13168 -0.159195 0.637223 Ge
62 2 6.95403 9.69745 6.90855 -0.572366 2.23274 -1.72658 -0.102776 -0.593649 -0.398869 Ge
56 2 9.75507 9.62514 4.09949 -1.27516 1.37091 -0.4549 -0.421003 0.4213 1.47223 Ge
60 1 8.33888 8.21298 5.54119 -1.21163 0.115529 -4.26924 0.00359242 1.93829 -0.302935 Si
1 1 -0.00882963 0.101855 0.00405641 0.962277 0.903501 6.50074 -0.000721828 -1.2569 -0.849389 Si
10 1 0.132914 2.84348 8.35782 0.817324 0.274753 2.16947 -2.28943 -0.537461 0.504428 Si
11 1 2.78082 -0.00612958 8.22509 0.940209 -2.64044 -0.314869 -0.0300422 0.552572 1.2988 Si
13 2 1.49964 1.39781 9.708 0.103723 -3.466 0.427139 -0.689643 0.325254 0.20169 Ge
42 1 5.51172 2.80926 8.29175 1.2177 0.466589 4.78312 0.789255 -1.7127 0.108051 Si
45 2 6.90187 1.33375 9.75006 4.38918 4.78887 -1.45059 -0.0330646 1.50337 -1.03248 Ge
36 1 8.32105 2.7806 0.00905881 2.87906 0.879689 4.43841 -1.20196 -1.16503 0.78257 Si
43 1 8.29694 -0.00561988 8.31483 -1.3874 0.247133 1.6502 -0.331274 -0.137225 0.729693 Si
17 1 -0.0460052 5.46759 0.0252023 1.18947 1.11691 2.09422 1.25894 1.23503 -0.739985 Si
27 1 2.79405 5.497 8.23019 0.408084 3.08058 0.00226637 -0.391402 0.450706 1.36174 Si
29 2 1.40456 6.80518 9.68463 0.201829 -0.565645 0.233095 -0.508786 1.33653 0.0400361 Ge
16 2 4.133 4.14372 9.66322 0.36258 -0.986054 0.808489 0.0677468 0.0327123 0.96389 Ge
61 2 6.90038 6.93711 9.67917 -1.41485 -1.9842 -1.32286 -0.119311 -0.628255 0.328656 Ge
48 2 9.65221 4.16084 9.76676 1.08817 -1.08546 -1.36335 1.34246 -0.758375 -1.78749 Ge
59 1 8.31101 5.51756 8.33167 -1.54085 -1.20896 -2.34812 -0.147143 0.820802 0.729772 Si
32 2 4.13876 9.75784 9.66705 2.25217 -2.5446 -1.52847 0.361946 -1.07447 -0.0722531 Ge
58 1 5.52504 8.33326 8.28129 4.70106 0.708624 -6.68718 -0.110585 -0.0275074 0.300825 Si
26 1 0.00575152 8.28698 8.31113 -3.22315 1.43392 2.92979 0.514274 -0.460717 1.01371 Si
64 2 9.71982 9.7034 9.64717 -0.41107 -2.43007 -1.30367 -0.0962991 0.199271 1.54256 Ge
ITEM: TIMESTEP
19300
ITEM: NUMBER OF ATOMS
64
ITEM: BOX BOUNDS pp pp pp
0.0000000000000000e+00 1.1085848640000000e+01
0.0000000000000000e+00 1.1085848640000000e+01
0.0000000000000000e+00 1.1085848640000000e+01
ITEM: ATOMS id type xu yu zu vx vy vz fx fy fz element
4 1 2.73206 2.76858 -0.0497496 3.33657 0.159091 4.06975 -0.619495 -0.210958 1.16905 Si
7 2 4.17822 1.37755 1.31364 -1.59473 1.18573 2.10185 -0.98266 0.41662 0.330804 Ge
34 1 5.45677 2.8066 2.72445 2.35633 2.12435 0.997052 1.3528 -0.0213418 -0.446629 Si
2 1 0.0564852 2.72626 2.82951 0.344458 2.22064 -4.84489 -1.20993 0.719914 -0.209242 Si
39 2 9.71441 1.4405 1.42708 -3.60291 0.852899 -1.2408 0.114713 -1.36115 -1.2946 Ge
6 2 1.29314 4.12156 1.41161 0.0463605 1.57292 -3.52592 2.45205 0.843332 -0.548348 Ge
19 1 2.76269 5.52702 2.81613 0.740764 -3.69763 -1.16768 -1.01781 0.0591036 -1.35244 Si
23 2 4.20903 6.86121 1.40123 1.87108 -1.24264 1.58303 -0.853705 0.910086 -0.375785 Ge
38 2 6.95878 4.16488 1.34666 -0.210837 -0.675681 0.156167 0.0679618 -0.631584 0.892211 Ge
49 1 5.59031 5.49911 -0.0466856 -0.66541 -5.54327 3.29301 -0.228229 1.03206 0.194721 Si
51 1 8.31711 5.54662 2.85855 1.27935 0.768526 2.04148 -0.383268 0.519087 -1.71954 Si
55 2 9.67343 6.95654 1.41238 -0.444797 0.420301 0.0133709 0.751588 -0.91754 0.190453 Ge
3 1 2.81577 -0.00729887 2.77172 0.694966 -3.13835 0.486849 -0.23634 0.493116 -0.42724 Si
20 1 2.79781 8.35254 0.0536524 -0.558572 2.4626 0.281478 -0.00665751 -0.960761 -0.370665 Si
22 2 1.36756 9.66355 1.47543 -1.00006 1.22067 -0.627742 0.0181759 0.0947015 -0.503361 Ge
33 1 5.60617 0.0481576 -0.0364618 -3.92362 -0.249008 0.844405 -0.31748 -1.32953 -0.291407 Si
50 1 5.47771 8.39625 2.75171 -4.40804 -0.872161 1.87618 0.767317 -0.947588 -0.127957 Si
54 2 6.92316 9.70858 1.40274 1.75196 -1.38401 4.91404 0.0731297 0.595173 -0.988453 Ge
35 1 8.29199 0.0540645 2.74079 1.90765 -0.195443 -2.84856 0.104293 -0.402793 0.0214331 Si
18 1 -0.0129555 8.26793 2.87688 1.927 -2.48735 -2.05854 -0.958984 1.26998 -1.33916 Si
52 1 8.31861 8.32481 0.00567675 3.06663 -2.61855 0.596631 -0.606104 -0.308696 0.126736 Si
5 2 1.45939 1.38816 4.15984 0.0165584 -1.96488 -2.70588 -0.342477 -0.924192 0.550116 Ge
12 1 2.80138 2.74034 5.59591 0.0683966 2.46221 0.854173 -0.251796 0.915088 0.186302 Si
15 2 4.141 1.3587 7.03248 0.404619 -1.22311 -3.73759 0.482917 0.478551 -1.53973 Ge
37 2 6.87684 1.40099 4.06666 -1.07358 -0.570905 -2.43521 0.219745 1.00506 1.03507 Ge
9 1 0.0159193 -0.0496662 5.47816 0.161403 -0.694287 -3.01459 0.670717 1.25398 1.14343 Si
44 1 8.28928 2.76424 5.51025 2.95849 -0.722583 -0.0728718 0.527173 -0.252276 -0.147954 Si
47 2 9.69615 1.33736 6.88927 -1.9131 3.16193 3.1484 0.13436 0.081885 -0.980883 Ge
14 2 1.41494 4.22249 6.95793 1.35356 1.38619 -3.0056 -0.638351 -2.31413 0.376723 Ge
21 2 1.36359 6.92114 4.18537 -0.00573972 -0.552573 -0.22319 0.619471 -0.916316 -0.12076 Ge
25 1 0.0223236 5.50787 5.53541 2.53791 -2.27462 2.18184 -0.78445 1.48639 1.11871 Si
8 2 4.11611 4.15952 4.15083 -0.211749 -1.9148 2.52955 0.146172 -0.916921 0.495835 Ge
31 2 4.17733 6.85959 6.86516 -0.470197 0.129209 1.86028 -1.00909 0.893731 1.15551 Ge
46 2 6.9613 4.15744 6.93854 1.42322 0.204819 1.02594 -0.726652 0.165974 -0.883986 Ge
53 2 6.88839 7.05041 4.11831 -1.84439 2.79285 0.545586 0.138448 -1.36172 1.14843 Ge
57 1 5.51955 5.51207 5.48462 -4.71436 -2.15034 -0.334803 1.66537 0.465819 0.201127 Si
40 2 9.75283 4.16313 4.16898 2.78696 -2.60298 0.363119 -0.721577 -1.0762 0.17902 Ge
63 2 9.64108 6.94609 6.92477 1.73421 3.01242 2.59775 1.59194 -0.417163 -0.793181 Ge
28 1 2.77737 8.27611 5.48371 3.18443 0.473935 5.11405 0.683119 0.797089 1.34057 Si
30 2 1.44136 9.70125 6.92026 -1.11407 0.526674 -1.2786 -0.765422 -0.776367 0.00209153 Ge
41 1 5.57123 0.0644371 5.55054 -0.149045 -0.652727 0.291089 -1.01999 -0.612501 0.383817 Si
24 2 4.17326 9.743 4.18141 2.25773 -0.811208 1.05404 -0.287945 -0.0736695 0.161617 Ge
62 2 6.88018 9.70623 6.94327 -1.74951 -2.87402 3.05985 0.0502521 0.0586318 0.269949 Ge
56 2 9.64945 9.7671 4.14712 1.63551 -3.37968 -4.17404 0.275147 -1.14363 -0.229234 Ge
60 1 8.28022 8.41155 5.56623 0.382698 -3.26785 3.58187 -0.0852408 -1.04916 -0.659317 Si
1 1 -0.0571406 -0.106531 0.0120002 -0.17035 4.20207 -1.16226 0.432983 1.42402 1.65495 Si
10 1 -0.026774 2.67252 8.30108 6.69938 2.70401 -1.94856 0.947354 1.86071 0.0891008 Si
11 1 2.75145 0.00872055 8.38594 0.565499 1.29081 -3.74293 0.0177127 -0.889494 -0.739901 Si
13 2 1.3155 1.29856 9.74683 2.19838 3.8843 -1.67087 0.277944 0.791432 -0.258597 Ge
42 1 5.53346 2.79469 8.29605 -2.76833 5.45481 -1.36969 0.222281 0.0974939 1.36128 Si
45 2 7.00451 1.35791 9.6375 -1.09863 -3.73047 3.00154 -0.778738 0.80134 -0.307527 Ge
36 1 8.34473 2.7534 -0.0630447 1.62166 6.12281 -3.98655 0.242976 0.668369 1.07111 Si
43 1 8.36057 -0.0456205 8.25998 2.00846 1.09914 -2.6029 -0.728028 -0.0144806 0.531421 Si
17 1 0.0334904 5.58283 -0.022838 -6.26522 -1.17728 -1.46507 -1.36551 -0.213915 1.41778 Si
27 1 2.73885 5.59965 8.37556 0.424493 -0.251161 -0.932419 0.418537 0.253055 -1.31562 Si
29 2 1.35982 6.97978 9.71947 0.107136 0.019707 -1.32397 1.63807 -0.11837 0.889069 Ge
16 2 4.08602 4.21309 9.70442 -1.6433 -1.11208 -0.00882395 1.38397 -1.31412 -0.38423 Ge
61 2 7.00897 6.89401 9.65761 -1.43382 2.37529 0.553432 -0.83952 0.07773 0.945848 Ge
48 2 9.75217 4.17439 9.70767 -1.82311 -0.0418652 2.4642 0.135619 -0.965834 -0.58817 Ge
59 1 8.37877 5.50807 8.31474 0.343777 0.0902473 -0.711556 -0.580398 0.186028 -0.317238 Si
32 2 4.18278 9.70197 9.67023 -2.42982 0.652056 1.09958 0.200465 -0.1552 1.30883 Ge
58 1 5.53486 8.2291 8.32712 -1.59438 -0.556382 2.59589 0.227102 0.754959 -0.935834 Si
26 1 0.0376143 8.25174 8.31217 -0.10735 1.01621 -1.61546 -1.3111 2.02106 -0.747704 Si
64 2 9.67901 9.67126 9.70064 1.71305 -0.130061 -4.2676 0.605073 -0.893992 -0.998434 Ge
ITEM: TIMESTEP
19400
ITEM: NUMBER OF ATOMS
64
ITEM: BOX BOUNDS pp pp pp
0.0000000000000000e+00 1.1085848640000000e+01
0.0000000000000000e+00 1.1085848640000000e+01
0.0000000000000000e+00 1.1085848640000000e+01
ITEM: ATOMS id type xu yu zu vx vy vz fx fy fz element
4 1 2.81858 2.77555 -0.0159762 0.505303 1.31329 -2.80631 0.576347 0.0920042 0.661548 Si
7 2 4.16246 1.36831 1.49072 1.35359 0.0705232 -0.300689 -0.345397 0.112552 -1.17184 Ge
34 1 5.60643 2.67847 2.87632 -4.43467 -0.984491 1.9065 -0.17048 0.592255 0.0158593 Si
2 1 -0.0481268 2.77622 2.69203 5.59977 -2.78743 1.32689 0.176742 0.706367 0.390549 Si
39 2 9.72716 1.37216 1.33078 -1.22331 2.69564 2.51411 -0.755642 -0.398552 0.426543 Ge
6 2 1.41688 4.1431 1.39857 -2.45547 -3.51588 0.299287 -0.101361 -0.30499 -0.84528 Ge
19 1 2.78326 5.54252 2.74163 1.32286 0.114709 2.50572 0.150869 0.0787416 0.808265 Si
23 2 4.12411 6.97835 1.41297 2.36894 -0.0802416 -0.892345 1.07552 -0.54475 0.0179116 Ge
38 2 6.86829 4.12614 1.44115 0.0760082 -1.54547 -1.51825 0.304343 0.0431613 -0.708087 Ge
49 1 5.53726 5.60934 0.0475897 2.61134 -0.139981 -2.00276 -0.241689 -1.19342 0.335249 Si
51 1 8.30587 5.5415 2.68822 0.396353 -1.11733 5.44967 0.629614 -0.211385 1.27409 Si
55 2 9.74478 6.93879 1.33886 0.717418 2.36746 -0.866134 -0.861607 -0.216054 0.112294 Ge
3 1 2.70988 -0.0178405 2.77625 0.66527 0.558012 2.54152 0.150294 0.0105064 0.168386 Si
20 1 2.77594 8.29194 -0.0328929 1.49286 2.45281 -0.972155 -0.920841 0.67304 -0.333064 Si
22 2 1.36171 9.72682 1.32122 -0.548234 -1.95391 2.30647 0.695473 -0.200124 -0.140868 Ge
33 1 5.50156 -0.0311149 0.0682055 5.16659 5.78873 -0.361645 -0.0573914 0.808267 -0.638264 Si
50 1 5.63418 8.22006 2.84726 -1.71664 2.94656 0.506711 -1.42663 0.225166 -0.469506 Si
54 2 6.88352 9.65157 1.41042 -0.098567 -0.840085 2.65071 1.21747 0.293052 0.441241 Ge
35 1 8.36095 -0.0470564 2.75693 -0.0297452 2.43846 0.400305 -0.0566107 -0.00417214 -0.234164 Si
18 1 -0.0177169 8.36487 2.69286 1.13006 -2.8537 3.99322 0.651562 -0.750767 1.1352 Si
52 1 8.31105 8.33194 0.0156192 0.21501 1.51419 -0.254999 0.179386 0.0423222 -0.150789 Si
5 2 1.27421 1.43892 4.08489 3.0105 2.02052 1.56408 1.04039 -1.60703 0.750934 Ge
12 1 2.73363 2.71917 5.4613 -1.34715 -3.8101 -0.755849 0.66057 1.20982 0.259553 Si
15 2 4.15845 1.36361 6.85657 -1.53436 -0.79052 0.674799 0.171738 -0.579938 -0.060933 Ge
37 2 7.06518 1.29733 4.24569 -0.0181702 -1.18283 -1.50746 -1.67497 0.352795 -1.09757 Ge
9 1 -0.00753154 0.0263952 5.57424 0.625603 -3.67508 -1.42346 -0.265989 -0.223423 -1.05984 Si
44 1 8.31515 2.80346 5.56428 -3.75425 0.0670232 -1.74604 0.688438 0.196514 0.208109 Si
47 2 9.66707 1.36499 6.93231 -0.960624 -0.16034 1.61243 -0.218837 0.898143 0.784996 Ge
14 2 1.40459 4.14981 6.87893 0.247878 2.05401 -0.431424 -0.707402 -0.520147 -0.40112 Ge
21 2 1.39969 6.95637 4.11116 -3.13113 2.91809 0.25933 -0.626203 0.0794806 0.153061 Ge
25 1 0.00266197 5.55307 5.51456 2.135 -3.04519 -1.1628 0.688747 -0.399077 -0.63757 Si
8 2 4.20051 4.17337 4.14801 -0.942413 -0.0543193 0.0863778 -0.226918 -0.260328 0.947872 Ge
31 2 4.13048 6.96432 7.00578 2.47731 -0.344075 -3.13056 0.566734 0.194653 -0.816635 Ge
46 2 6.91375 4.16504 6.99289 0.408825 -0.56554 0.593255 0.223478 -0.499977 -0.232894 Ge
53 2 6.97908 6.80222 4.24742 -0.318583 3.99667 -2.94831 0.256346 1.45606 -1.1194 Ge
57 1 5.56218 5.57543 5.6507 -1.44588 2.48543 -0.40823 -1.28453 -1.12641 -0.603756 Si
40 2 9.70335 4.17214 4.10487 -0.71452 1.44293 -0.152383 -0.489438 -0.0748056 0.216025 Ge
63 2 9.72765 6.86362 6.93022 -1.89765 -0.260025 1.27567 -0.364966 1.61148 0.332038 Ge
28 1 2.75548 8.33068 5.56187 -3.42113 -1.89582 -5.20467 -0.0277425 -0.267239 -0.0449683 Si
30 2 1.39818 9.76554 6.94869 0.0663852 -1.39418 2.13155 -0.327825 -0.849025 -1.01943 Ge
41 1 5.57018 -0.0919653 5.51776 4.28953 2.76639 -1.16911 -0.138189 0.6951 0.213264 Si
24 2 4.14539 9.62629 4.10731 0.142518 0.631391 -0.911841 0.335509 0.584588 0.771069 Ge
62 2 7.01517 9.73787 6.95431 -0.637234 -0.323695 -0.232072 -1.3645 -1.60444 -0.382076 Ge
56 2 9.70856 9.66826 4.17589 -0.528561 1.08969 -0.141877 0.447212 0.267088 -0.178476 Ge
60 1 8.34879 8.25737 5.55034 0.813905 2.25673 0.00186451 0.0650447 0.319632 0.630075 Si
1 1 0.0613907 0.0725386 -0.0633129 -2.80836 -4.13801 -3.9888 -0.394175 -0.21636 -0.334271 Si
10 1 -0.0718948 2.84834 8.28388 -2.88651 -4.69242 0.396397 0.958556 -0.930896 -0.289843 Si
11 1 2.78074 0.0122546 8.27265 -1.15563 2.7257 2.05948 0.215773 1.07606 0.0749251 Si
13 2 1.4469 1.45884 9.61172 -1.38514 -0.465619 2.35138 -1.07944 0.116774 0.416327 Ge
42 1 5.55362 2.67875 8.30566 -0.859449 -1.39293 -1.70036 -0.887066 1.99295 -0.613269 Si
45 2 6.85406 1.41015 9.71734 3.92107 0.341358 0.102949 0.535114 -1.7134 1.52653 Ge
36 1 8.24742 2.72395 0.0519827 -0.975641 -5.37919 -3.06072 0.455937 1.52983 -1.29927 Si
43 1 8.25226 0.0333009 8.38521 0.426999 -0.405955 0.521723 1.15915 0.617138 -0.617011 Si
17 1 0.0239782 5.49614 0.0128663 7.08007 -0.551591 -2.95436 -0.597755 0.301872 -1.21132 Si
27 1 2.79992 5.45072 8.2726 -1.76693 -0.743032 1.97163 -0.0994424 1.18656 1.131 Si
29 2 1.37107 6.87696 9.64616 -3.09588 0.18424 -1.40361 0.327891 0.492138 0.0251613 Ge
16 2 4.25676 4.1651 9.70252 -4.00749 2.65317 1.43189 -0.996225 -0.54521 -0.0805911 Ge
61 2 6.9 6.9507 9.75985 1.40857 1.5571 -2.35878 0.0110871 1.19561 -0.715974 Ge
48 2 9.60183 4.20141 9.65207 0.348575 -1.36975 2.23749 0.550421 -0.831609 2.17022 Ge
59 1 8.25352 5.61393 8.34044 2.82875 -1.4859 1.80176 0.162835 -0.598474 -0.341072 Si
32 2 4.10838 9.76505 9.68803 2.72253 -0.0147116 -4.85542 0.613173 -0.869833 0.702197 Ge
58 1 5.54069 8.40055 8.34793 -0.515686 -2.8181 0.549514 0.328908 -0.697074 0.0136912 Si
26 1 -0.0158158 8.38392 8.27233 3.27529 -6.68464 0.918991 -0.166687 -1.06552 1.06086 Si
64 2 9.67162 9.77136 9.72581 -0.978697 -0.974364 0.765989 0.605274 -0.747284 -0.325896 Ge
ITEM: TIMESTEP
19500
ITEM: NUMBER OF ATOMS
64
ITEM: BOX BOUNDS pp pp pp
0.0000000000000000e+00 1.1085848640000000e+01
0.0000000000000000e+00 1.1085848640000000e+01
0.0000000000000000e+00 1.1085848640000000e+01
ITEM: ATOMS id type xu yu zu vx vy vz fx fy fz element
4 1 2.70496 2.75957 0.00807065 -0.821532 -2.36328 -2.97325 -0.0159937 0.56145 -0.98899 Si
7 2 4.13835 1.41657 1.28131 -1.12793 1.93892 0.570875 0.856235 -0.61411 0.713083 Ge
34 1 5.52139 2.85403 2.63468 1.90538 -0.526229 -2.05466 -0.529591 -0.289615 0.645712 Si
2 1 -0.020978 2.77928 2.89423 -3.21477 -1.15054 -0.777337 1.60007 -0.701943 -1.11214 Si
39 2 9.76275 1.35091 1.4977 0.500241 1.2162 -1.12933 -1.50049 0.709231 -0.52022 Ge
6 2 1.37155 4.17857 1.47713 0.188429 -0.346706 0.230632 -0.712696 -0.445174 -1.08138 Ge
19 1 2.76466 5.59151 2.76864 -0.335715 -0.68605 -2.19292 0.563194 -0.667825 -0.129791 Si
23 2 4.17015 6.93957 1.38 -0.716608 2.19809 1.63649 -0.55374 -0.284155 -0.608724 Ge
38 2 6.94708 4.22891 1.31719 -0.517909 -1.38148 -1.16617 -0.0830541 -0.653965 0.120258 Ge
49 1 5.48131 5.52064 -0.0462521 0.186659 1.61949 0.381518 0.698858 0.320218 0.0612325 Si
51 1 8.31343 5.52724 2.76075 -1.28444 -0.721252 -8.07607 -0.26533 0.00316957 0.999141 Si
55 2 9.68273 6.9126 1.45253 2.43254 2.13478 0.95572 0.117749 1.15659 -1.05596 Ge
3 1 2.81073 0.0388546 2.72817 -0.0307469 -0.000687214 -2.27438 -0.200814 0.0716798 0.840349 Si
20 1 2.76212 8.29848 0.0300438 1.5149 -3.38701 2.05561 0.976304 0.617627 0.347819 Si
22 2 1.43544 9.68523 1.43655 -1.76871 -0.514488 3.132 -0.458097 -0.403149 0.0698174 Ge
33 1 5.53018 -0.0299746 -0.0854717 -3.35842 -3.7052 2.3805 0.657605 1.63034 0.131341 Si
50 1 5.53005 8.37812 2.66005 6.49134 0.326026 1.67258 0.355436 0.4037 1.11398 Si
54 2 6.95875 9.75641 1.29149 -2.56795 -0.780906 -1.74053 -0.517095 -0.742715 0.762564 Ge
35 1 8.2449 0.00430632 2.82752 0.141598 -1.36005 -2.20517 0.208656 0.99529 -0.381342 Si
18 1 0.0105731 8.3267 2.80583 -1.86796 3.153 -3.06969 0.125126 -0.577168 0.107135 Si
52 1 8.28958 8.2685 -0.0318477 -0.131767 -1.7173 0.900946 0.460151 -0.360734 0.134099 Si
5 2 1.42463 1.36875 4.20478 -1.69127 4.69162 -1.32152 0.601356 1.11927 0.315514 Ge
12 1 2.83174 2.85431 5.62349 0.41329 -2.60975 0.572529 -1.19544 -1.42562 -0.495175 Si
15 2 4.12117 1.42605 7.09871 -1.88513 1.4612 -0.391545 0.416931 0.185007 -1.72206 Ge
37 2 6.79657 1.51266 4.13947 1.70963 0.20436 1.66636 1.16414 -1.64706 0.589212 Ge
9 1 0.00843442 0.00565379 5.55848 0.533454 1.01517 3.11449 0.744706 -0.888595 -0.0563234 Si
44 1 8.3329 2.75377 5.57271 1.10635 -0.675694 1.61396 -1.01304 0.0154093 -0.61164 Si
47 2 9.72607 1.35562 6.91026 -0.861411 -1.27035 -0.938089 0.0198976 0.54284 0.876797 Ge
14 2 1.35292 4.1502 7.01085 1.74526 -0.768746 0.477785 0.347786 1.17521 -0.773071 Ge
21 2 1.39238 6.86576 4.16302 -0.185756 0.9661 0.24252 -0.469252 1.90908 0.485841 Ge
25 1 -0.0477851 5.55641 5.54049 -1.46704 -0.341905 1.92798 0.855349 -1.01869 0.824722 Si
8 2 4.14078 4.17976 4.09793 0.385691 -1.12411 -0.7112 0.0772443 -0.361222 -0.105363 Ge
31 2 4.13381 6.90227 6.88625 -1.60815 0.585919 4.06835 1.38355 -0.0576656 -0.468156 Ge
46 2 6.92515 4.17922 6.87573 -0.109234 1.42816 -1.08089 0.138574 -0.726969 0.0671294 Ge
53 2 6.88165 6.97739 4.06684 -1.4045 -2.79465 1.94972 0.547975 -0.458116 0.372564 Ge
57 1 5.54889 5.49751 5.44292 1.08645 1.38849 2.73897 -0.320044 1.66147 0.76843 Si
40 2 9.69677 4.11469 4.19699 1.49559 -0.327219 0.639029 -1.03608 1.38995 0.0602757 Ge
63 2 9.6547 6.93452 6.90388 1.82862 -0.235697 -1.35272 0.0221996 0.442342 0.317963 Ge
28 1 2.7903 8.30969 5.53212 3.55042 0.323074 1.88231 -0.567192 -0.168578 -0.469567 Si
30 2 1.41775 9.67364 6.94786 1.89467 0.52754 1.56864 -0.941875 -0.0199652 -0.0139017 Ge
41 1 5.42305 0.0696156 5.59345 -2.74678 -3.63567 0.0370789 1.30545 0.460856 -0.420032 Si
24 2 4.15687 9.73773 4.15341 0.931613 -1.44933 -2.7228 -0.0925189 -0.344837 -0.622641 Ge
62 2 6.91237 9.73693 6.87122 1.27597 2.99865 1.71928 -0.125418 0.0463863 0.298371 Ge
56 2 9.70198 9.72587 4.16026 -1.24469 -1.36135 -1.11565 -0.216243 -0.0688397 0.235285 Ge
60 1 8.27885 8.34738 5.49737 -0.934005 -0.578437 -0.112549 0.0653601 -0.495398 -0.0935786 Si
1 1 -0.00174499 -0.0764105 0.117265 3.2869 1.21265 2.36172 -0.167179 0.0879459 -1.32448 Si
10 1 0.0345781 2.69676 8.37118 -2.9809 2.41976 0.683853 -0.411013 -0.120298 -0.247942 Si
11 1 2.7945 -0.0720549 8.36789 0.863911 -4.14115 -0.56504 -0.429836 0.0502457 -0.0312863 Si
13 2 1.38111 1.23708 9.73986 2.59588 0.348407 -0.775584 -0.277599 1.34848 0.709451 Ge
42 1 5.58693 2.83965 8.33344 2.39209 -5.08504 -0.862919 0.166352 -0.960026 -0.550449 Si
45 2 6.98272 1.40626 9.63841 1.40746 3.55058 -0.973003 0.222267 0.0555672 1.3902 Ge
36 1 8.39845 2.81748 0.0421224 0.729447 -1.39328 5.63221 -0.391155 -1.47499 -0.591387 Si
43 1 8.35466 -0.0259025 8.27636 -2.48591 -3.47936 -0.7295 -0.529182 0.160366 0.0771538 Si
17 1 -0.0290974 5.57443 0.0424926 -0.915065 -1.722 4.22877 1.45785 -0.177475 -0.00491136 Si
27 1 2.78086 5.61527 8.3384 1.34845 -4.13694 -3.57285 -0.278667 -1.67013 -0.373114 Si
29 2 1.45002 6.95884 9.74769 -1.57557 -1.38249 -0.297641 -2.43463 -0.386727 -0.281516 Ge
16 2 4.15057 4.12646 9.64848 2.48888 -0.953837 1.34264 -1.25062 0.66031 1.29154 Ge
61 2 6.93894 6.80946 9.64886 -1.81346 -1.03014 -0.1354 -0.384448 1.53084 0.111483 Ge
48 2 9.76097 4.17173 9.69854 -1.41569 1.0501 -2.80709 -0.420696 -0.460739 0.00278811 Ge
59 1 8.32141 5.47575 8.26692 -0.39069 2.01662 -0.266534 0.61317 0.488017 0.201497 Si
32 2 4.16372 9.63742 9.71588 -0.372489 -1.55653 -0.699979 0.540691 -0.883298 -0.979628 Ge
58 1 5.59114 8.26624 8.23683 0.670795 3.46318 -1.35124 -0.7094 0.130917 0.989514 Si
26 1 -0.0439966 8.31229 8.35611 0.878078 4.49592 -3.04182 1.42047 -0.748666 -0.941784 Si
64 2 9.69466 9.67592 9.70124 -1.61249 0.478086 -0.0903709 -0.232286 0.374648 1.02429 Ge
ITEM: TIMESTEP
19600
ITEM: NUMBER OF ATOMS
64
ITEM: BOX BOUNDS pp pp pp
0.0000000000000000e+00 1.1085848640000000e+01
0.0000000000000000e+00 1.1085848640000000e+01
0.0000000000000000e+00 1.1085848640000000e+01
ITEM: ATOMS id type xu yu zu vx vy vz fx fy fz element
4 1 2.82293 2.80421 0.0561707 0.109533 0.704129 4.75718 0.14953 -1.14287 -0.654992 Si
7 2 4.19398 1.32592 1.51362 -2.04025 1.69362 0.984191 -0.849011 1.03208 -0.883858 Ge
34 1 5.57046 2.73004 2.89158 1.67231 -2.06459 1.13979 -0.0173635 0.058202 -0.977664 Si
2 1 0.0146671 2.78513 2.65621 -3.03769 0.638303 2.0448 -1.007 -0.577494 0.761794 Si
39 2 9.67493 1.4005 1.28692 1.83404 0.717449 -0.623715 -0.241685 0.773885 -0.274613 Ge
6 2 1.39129 4.17773 1.36166 0.296591 -0.930684 1.37939 -0.088547 0.46404 -0.565986 Ge
19 1 2.77142 5.49749 2.78769 -0.617684 1.60846 0.503022 0.0987189 0.377377 -0.180684 Si
23 2 4.12924 6.85965 1.37614 2.17342 1.91664 0.374602 -0.29169 1.11648 0.0678269 Ge
38 2 6.91361 4.15681 1.50385 -0.810394 1.34619 -0.338622 0.555428 -0.193024 -0.96413 Ge
49 1 5.59 5.54436 0.0456426 -4.41684 -0.779326 -1.61541 -0.152281 -0.185872 -0.429158 Si
51 1 8.31544 5.59093 2.88859 2.35828 0.889097 1.72562 -0.0490561 -0.608807 -2.40161 Si
55 2 9.65403 6.90215 1.35294 0.867838 -0.89563 2.39603 0.678992 0.174046 0.796446 Ge
3 1 2.72097 -0.0686991 2.82844 0.350038 -2.42316 -1.08104 0.682654 -0.364035 -1.44577 Si
20 1 2.76089 8.36246 -0.011399 -2.31713 -0.398172 -2.13271 0.197284 -1.22556 0.345875 Si
22 2 1.35171 9.71652 1.28687 0.0845298 -0.672067 -2.07475 -0.634233 0.237735 1.59393 Ge
33 1 5.55299 0.00391533 0.0500537 0.0499833 -4.38759 -2.5456 -1.00745 -1.7577 1.43184 Si
50 1 5.45843 8.21547 2.83837 -3.18037 -4.92095 -3.71408 1.21251 0.681293 -0.48305 Si
54 2 6.93205 9.63364 1.5004 1.32697 -1.45221 1.26508 -0.612726 0.673369 -1.27382 Ge
35 1 8.38596 0.00346548 2.73591 0.00232062 -2.54568 5.80656 -0.00136458 -0.892119 0.0239727 Si
18 1 -0.00735532 8.27228 2.74653 1.36184 -0.970966 -1.31581 0.0910357 0.824242 -0.844662 Si
52 1 8.35052 8.37081 0.0182766 -0.678054 2.40299 -1.82924 0.046809 0.294628 0.116778 Si
5 2 1.30256 1.31591 4.06891 -0.344484 -1.85227 -1.86733 0.493067 1.55902 0.627109 Ge
12 1 2.70553 2.72633 5.4653 2.69767 4.99022 -0.307292 1.18622 -0.400669 0.577241 Si
15 2 4.25635 1.32445 6.83358 -1.44321 0.215732 2.27861 -1.62187 1.45806 -0.0823391 Ge
37 2 7.04549 1.33252 4.12178 -0.682988 4.09651 0.678989 -0.669005 0.712057 0.594105 Ge
9 1 -0.0270215 0.0101487 5.50866 -2.72859 1.94199 -2.36266 -0.816556 0.375976 0.728918 Si
44 1 8.31819 2.79962 5.48529 1.45183 -0.149412 0.379253 0.64235 -0.191902 0.95025 Si
47 2 9.67784 1.43568 6.93784 -1.08712 1.13594 -0.966118 0.433839 -0.225625 -1.03667 Ge
14 2 1.39263 4.18135 6.87472 -0.229865 -1.09753 -1.38148 0.626996 -0.254226 0.348352 Ge
21 2 1.41484 6.94545 4.12536 -1.60271 -1.41386 -3.19775 -0.424002 -0.377465 0.389805 Ge
25 1 0.0362274 5.57716 5.53827 -2.29656 4.3322 -4.68104 -0.996239 -0.148833 -0.557257 Si
8 2 4.17403 4.15604 4.19029 0.467805 -0.760324 1.24271 -0.179587 -0.153182 0.452342 Ge
31 2 4.16807 6.92144 6.93801 -0.113093 1.87749 0.795823 -0.760885 0.692877 0.772127 Ge
46 2 6.96071 4.09961 7.01324 0.701361 0.020035 -0.232829 -0.527029 1.20191 -1.56491 Ge
53 2 6.96431 6.95638 4.22034 -1.98986 2.5666 -0.187955 -1.21859 -0.562189 0.35466 Ge
57 1 5.57862 5.55093 5.59951 3.09818 -6.59046 -3.47348 0.280851 -0.797749 -0.0153021 Si
40 2 9.72872 4.16762 4.09618 1.84538 -3.01398 -0.0173817 0.796956 -0.0240883 1.2402 Ge
63 2 9.70646 6.92386 6.98321 -0.0480983 -1.50088 0.769086 0.531329 -0.274102 -0.958463 Ge
28 1 2.70835 8.3319 5.57108 -1.75463 0.016606 -0.210909 1.11125 -0.382495 0.216879 Si
30 2 1.34313 9.76633 6.90726 0.724919 1.38878 0.434242 0.344732 -0.588833 0.362444 Ge
41 1 5.69539 -0.0426425 5.49554 -1.93811 -1.59325 -0.00688002 -1.28361 -1.01049 0.360078 Si
24 2 4.14699 9.65367 4.20308 -0.559883 -1.83842 1.96386 0.0990761 0.530368 0.160062 Ge
62 2 6.95436 9.62289 6.9756 0.716647 -2.27423 0.965413 -0.0364375 0.876432 0.518827 Ge
56 2 9.72227 9.68443 4.15851 3.56062 -2.69947 -1.59217 -0.250301 -0.427154 -0.309499 Ge
60 1 8.35424 8.27934 5.57552 1.87175 0.705509 -0.92108 0.206655 0.884986 0.214252 Si
1 1 -0.0118554 0.0824598 -0.108352 -0.555611 -1.15226 1.01571 0.883026 -0.471605 0.795328 Si
10 1 0.0270601 2.82434 8.25651 2.19162 0.894862 -0.582942 -1.06002 0.228736 0.459524 Si
11 1 2.74604 0.0977491 8.24713 1.55391 0.210725 0.510383 0.390982 -0.815625 -0.0291113 Si
13 2 1.40008 1.46342 9.63574 2.28956 1.13744 -2.74337 0.448024 0.640698 0.870113 Ge
42 1 5.48682 2.77264 8.3092 0.442982 1.99426 4.6151 0.598076 -1.17427 -0.0656679 Si
45 2 6.80016 1.28835 9.68845 -1.34426 -1.88868 -0.949643 1.21191 2.41646 -0.527366 Ge
36 1 8.19284 2.76887 -0.105648 -1.28183 1.51884 -0.717906 0.457416 -0.00740309 1.79362 Si
43 1 8.3039 0.0629776 8.33643 0.85178 1.88488 3.60143 -0.0587922 -1.67042 -0.676609 Si
17 1 -0.0241193 5.55947 -0.0620976 -2.32211 1.20688 -1.22196 0.180245 -0.424036 0.499885 Si
27 1 2.77162 5.53256 8.33277 1.57385 5.67546 2.4721 0.221948 0.188656 -0.904417 Si
29 2 1.42289 6.95087 9.68827 4.74387 3.17534 -0.813465 -0.586028 -0.0886002 0.0748155 Ge
16 2 4.18219 4.1824 9.68925 0.612671 -0.856196 -2.05329 -0.123719 -0.0681099 1.13987 Ge
61 2 6.97273 6.99723 9.77092 -1.02342 -2.06337 1.89221 -1.11209 -0.733667 -0.250788 Ge
48 2 9.63559 4.16458 9.65422 -0.919543 0.201603 2.21866 0.887086 -0.065358 0.0319093 Ge
59 1 8.2834 5.59136 8.33369 -3.31561 -1.37837 0.937678 0.0570141 -0.305203 0.248142 Si
32 2 4.03988 9.82446 9.74318 -2.78 1.94695 0.255551 1.55059 -0.703027 -0.539897 Ge
58 1 5.46655 8.32849 8.44195 1.72483 -2.6862 -0.757527 0.46488 0.485211 -1.12173 Si
26 1 0.0280043 8.30813 8.3028 -5.72244 1.08485 3.97174 -0.00995464 0.809234 0.152535 Si
64 2 9.75257 9.74755 9.66343 -0.277238 1.51834 -2.40239 -1.13035 -0.474256 -0.0518543 Ge
ITEM: TIMESTEP
19700
ITEM: NUMBER OF ATOMS
64
ITEM: BOX BOUNDS pp pp pp
0.0000000000000000e+00 1.1085848640000000e+01
0.0000000000000000e+00 1.1085848640000000e+01
0.0000000000000000e+00 1.1085848640000000e+01
ITEM: ATOMS id type xu yu zu vx vy vz fx fy fz element
4 1 2.72944 2.7371 -0.0963851 -1.95276 0.265935 0.716257 -0.120696 0.305018 1.52016 Si
7 2 4.19729 1.39056 1.27941 2.77094 -0.207869 -1.44453 -1.66407 1.35093 0.856582 Ge
34 1 5.48131 2.80381 2.70567 -0.445655 4.07484 -2.00102 0.930703 -1.29833 0.604932 Si
2 1 0.0461574 2.7932 2.84097 2.59174 2.48081 0.404167 -0.460729 -0.0783765 0.102477 Si
39 2 9.72967 1.35033 1.55143 0.785133 0.512426 2.88965 0.527633 0.609877 -1.96702 Ge
6 2 1.39408 4.16288 1.41093 -0.246678 -1.44488 1.66549 0.576177 -0.613737 -0.632168 Ge
19 1 2.77839 5.57594 2.76054 -1.69942 -0.623994 0.553373 -0.638488 -0.175555 0.0498905 Si
23 2 4.13712 6.94631 1.40205 1.00396 -1.58768 -2.61619 1.79444 0.699512 0.13798 Ge
38 2 6.92164 4.1109 1.37106 -0.553477 -0.980085 0.830096 0.0129275 0.421682 -0.589148 Ge
49 1 5.56293 5.54738 0.0159316 5.17327 0.130488 2.48005 -0.469507 0.132715 -0.741973 Si
51 1 8.30809 5.47174 2.67343 -1.75903 -0.140664 6.35412 0.546034 0.996698 1.07067 Si
55 2 9.68476 6.94508 1.35668 -0.603563 2.51544 0.146006 0.92526 -0.443558 0.940704 Ge
3 1 2.8066 0.0863695 2.71807 -2.9499 2.67811 3.76498 -0.105003 -0.236003 0.809917 Si
20 1 2.79894 8.31 0.00213202 -0.574447 3.56948 0.106799 -0.614928 -0.186834 -1.09049 Si
22 2 1.44092 9.72659 1.40788 0.471651 -3.19821 1.40677 -0.514182 -0.498749 -0.0959931 Ge
33 1 5.57323 0.080353 -0.0153953 3.57292 5.08817 -3.46973 1.09288 -1.14255 -2.09712 Si
50 1 5.60755 8.42508 2.77203 -3.72233 0.845957 -0.51698 -0.833959 -2.2242 -0.605125 Si
54 2 6.91893 9.76377 1.34723 -0.458303 -1.48808 1.13304 0.397193 -0.345063 -0.164025 Ge
35 1 8.24657 0.0159021 2.76625 0.022527 2.43565 -4.83495 0.151535 -0.379512 1.27577 Si
18 1 0.00560021 8.36178 2.80369 -2.4083 -1.05973 4.38092 -0.258293 -0.635412 0.250166 Si
52 1 8.27459 8.28267 0.0228158 -1.09762 -3.95814 1.61729 -0.357369 0.207829 -0.689309 Si
5 2 1.43439 1.4422 4.21883 -0.583892 0.177702 1.26007 -0.115056 -1.23928 -0.166183 Ge
12 1 2.81123 2.78216 5.61711 -4.22208 -1.24816 0.239621 -0.272607 1.25819 -0.643305 Si
15 2 4.13144 1.40461 7.02929 2.65154 -1.39931 2.3509 -0.472984 -0.353044 -0.583913 Ge
37 2 6.81847 1.3342 4.15303 -0.206324 2.5124 -1.97621 0.565619 2.11809 0.192749 Ge
9 1 0.033982 -0.0276038 5.58781 3.44091 -1.32346 0.972825 0.19157 0.258309 -0.727761 Si
44 1 8.26656 2.75239 5.58978 -0.496667 0.909629 -2.65007 0.0144882 -0.70164 -0.792721 Si
47 2 9.74869 1.35097 6.95375 -3.1092 0.152229 1.3322 -1.09992 0.419596 -0.784642 Ge
14 2 1.36686 4.1805 6.98711 -1.97049 -0.0387989 0.907936 -0.466685 -1.92331 -0.897562 Ge
21 2 1.42476 6.91657 4.21043 -1.2082 2.96748 0.855372 -1.35987 0.0151876 -0.797023 Ge
25 1 -0.0310689 5.47513 5.56074 2.20706 -0.0370078 3.8004 -0.0171132 1.57895 -0.302484 Si
8 2 4.14591 4.18329 4.07358 0.225891 -0.85508 -0.924938 -0.241148 -0.300207 2.065 Ge
31 2 4.11212 6.89444 6.88232 1.35245 -2.83074 -3.52772 0.606104 0.98415 0.951583 Ge
46 2 6.89792 4.17419 6.96803 1.33685 -3.80304 1.0816 0.250453 0.625258 -1.43103 Ge
53 2 6.98781 6.88186 4.07981 0.400409 3.85759 -2.60501 -1.24319 1.12771 0.921738 Ge
57 1 5.49455 5.58088 5.52916 -0.300901 5.16839 0.857587 1.44993 -1.21202 -1.04904 Si
40 2 9.64223 4.14046 4.14833 -1.21194 -1.51023 0.23049 0.377288 -0.411098 0.417648 Ge
63 2 9.6537 6.94869 6.906 -1.61327 1.6395 -0.50816 1.1801 -0.384773 -0.116846 Ge
28 1 2.82967 8.31253 5.51107 -2.42165 1.02896 -0.733801 -0.447754 0.583442 -0.1482 Si
30 2 1.41506 9.62394 6.94199 -0.280172 -0.716038 1.39652 0.300806 0.844012 -0.497866 Ge
41 1 5.44414 0.0528843 5.601 3.81219 4.17576 2.44395 0.582277 -0.509609 -0.900168 Si
24 2 4.18066 9.76195 4.10041 1.28555 0.0500143 -3.03669 -0.660936 0.0368605 1.02515 Ge
62 2 6.9294 9.78195 6.86015 0.612262 0.341306 -0.251794 -0.716293 -1.0353 0.54146 Ge
56 2 9.62491 9.74965 4.19882 0.412109 0.795717 0.673811 1.23978 -0.358115 -0.674021 Ge
60 1 8.27528 8.34211 5.54447 -3.58853 -2.28566 -0.947913 -0.00396916 -0.666395 -0.821414 Si
1 1 -0.0395164 -0.056832 0.0661619 -2.33487 1.23248 1.63668 -0.522133 -0.143491 0.584814 Si
10 1 -0.029939 2.7276 8.34385 3.16799 -4.77454 1.72271 1.42709 -0.0448362 -0.167813 Si
11 1 2.7487 -0.0508142 8.35025 -2.79238 2.5215 0.0900805 0.47741 -0.387868 0.37029 Si
13 2 1.28973 1.26801 9.74419 -1.06601 -6.10744 1.83115 0.933259 1.17989 -0.940707 Ge
42 1 5.53303 2.81051 8.28734 -3.84043 5.17941 -2.13905 0.0659579 0.160751 2.00681 Si
45 2 7.02526 1.509 9.69656 1.96484 -0.753137 -2.7232 -0.413798 -1.55837 -0.149185 Ge
36 1 8.44354 2.79241 0.100599 0.332393 1.41895 -3.73894 -0.563205 -0.311753 -1.12082 Si
43 1 8.33625 -0.0322497 8.26233 0.59454 2.25041 -3.53575 0.0777048 0.746872 2.00664 Si
17 1 0.0331893 5.5315 0.0231939 -2.54189 1.83519 -0.700505 -1.11199 -0.0135786 -0.0963277 Si
27 1 2.71593 5.5398 8.28536 -2.30481 -0.586842 1.4051 0.694435 0.79844 1.01721 Si
29 2 1.3116 6.88696 9.68795 1.51354 0.846928 2.74953 2.16741 0.988977 0.456494 Ge
16 2 4.11479 4.19481 9.6935 -0.434171 1.2402 0.0355078 0.619328 -0.291839 -0.429698 Ge
61 2 6.9679 6.89205 9.6293 3.32106 1.96526 -1.62589 -0.707556 0.504558 0.773122 Ge
48 2 9.76772 4.15374 9.6739 -0.792124 -1.5966 -2.61593 -0.670402 0.117119 1.51152 Ge
59 1 8.37414 5.51681 8.29633 0.614456 -0.96017 -2.80741 -0.677858 -0.0286493 0.076586 Si
32 2 4.27394 9.63385 9.65608 -2.20975 0.21066 -0.581296 -1.52732 1.44921 0.984666 Ge
58 1 5.5838 8.31578 8.2105 -1.91929 -0.482291 2.3366 0.307856 -1.03833 0.121174 Si
26 1 0.0219276 8.28713 8.29347 2.68297 -3.72282 -1.37638 -1.60359 -0.0968209 0.560096 Si
64 2 9.67051 9.62548 9.75353 2.30155 -1.35498 -0.825357 0.468949 0.748392 -1.29291 Ge
ITEM: TIMESTEP
19800
ITEM: NUMBER OF ATOMS
64
ITEM: BOX BOUNDS pp pp pp
0.0000000000000000e+00 1.1085848640000000e+01
0.0000000000000000e+00 1.1085848640000000e+01
0.0000000000000000e+00 1.1085848640000000e+01
ITEM: ATOMS id type xu yu zu vx vy vz fx fy fz element
4 1 2.8241 2.82303 0.0618686 3.43522 1.72999 -4.35463 -0.178665 -0.37074 -0.192623 Si
7 2 4.12397 1.39288 1.5201 1.76842 -0.27251 2.93718 0.993019 -0.582133 -1.91688 Ge
34 1 5.59163 2.74139 2.82081 -2.17458 -0.0585352 4.16473 -0.35928 1.56158 -0.860832 Si
2 1 -0.0527011 2.721 2.72554 1.17596 1.6802 -3.79602 0.240757 1.11245 -0.0848579 Si
39 2 9.69156 1.3801 1.27005 -0.0589684 0.86871 0.681723 -0.225132 -0.449858 1.19102 Ge
6 2 1.36155 4.15913 1.42421 -0.357904 -0.758815 -1.42573 0.474947 -0.506261 -0.377031 Ge
19 1 2.76976 5.52179 2.77329 3.24063 0.719205 -0.421643 -0.0686752 -0.251591 -0.0855803 Si
23 2 4.13033 6.92445 1.45315 -1.96447 1.70636 2.238 0.388261 -0.182161 -1.57233 Ge
38 2 6.94301 4.2214 1.38155 -2.9922 -3.05256 1.84827 -1.03036 -0.966401 -0.316366 Ge
49 1 5.46238 5.55549 -0.0679998 -3.89665 -0.2257 3.12634 1.16188 -0.367224 1.66279 Si
51 1 8.3217 5.61962 2.76312 0.243183 -1.26631 -4.96816 -0.613816 -1.17092 0.804544 Si
55 2 9.6861 6.88305 1.37625 -0.428004 1.99378 -2.42993 0.887215 1.82516 -0.911498 Ge
3 1 2.77935 -0.0394545 2.82116 -0.404082 -1.38131 -3.53032 -0.877622 0.139996 0.0361454 Si
20 1 2.74809 8.25839 0.00352484 1.55266 0.551528 4.39402 -0.444481 0.734723 0.337045 Si
22 2 1.36907 9.73862 1.38089 0.255955 1.52803 -3.85707 0.715705 -1.2021 -0.0571405 Ge
33 1 5.46906 -0.0776973 0.0493017 -5.71451 3.12505 7.10401 -0.0267058 1.79766 0.616565 Si
50 1 5.56799 8.29763 2.77758 2.45939 3.51755 5.17238 -0.439415 0.957603 0.233011 Si
54 2 6.96882 9.71057 1.35027 -1.77272 -2.75108 2.2367 -0.476185 -0.535177 1.12731 Ge
35 1 8.33966 0.0166304 2.77163 -0.338254 1.7326 -0.440701 -0.0015102 -0.129581 -1.96845 Si
18 1 0.015355 8.28062 2.75713 2.94548 2.34758 -3.45379 -0.341931 0.175623 0.579562 Si
52 1 8.3481 8.35728 -0.045128 3.03093 2.88128 0.686039 -0.439698 -1.63828 0.863882 Si
5 2 1.33643 1.37816 4.1023 -2.73873 3.0711 -3.11636 0.548244 -0.0654948 0.834626 Ge
12 1 2.76009 2.78495 5.48733 1.88308 -1.12471 0.372227 -0.503998 -0.633432 0.381944 Si
15 2 4.16552 1.37623 6.83577 -0.566777 -0.666664 -1.51862 0.609727 -0.547426 0.39668 Ge
37 2 6.98851 1.36516 4.11444 0.344125 -4.06391 0.337129 -0.240086 0.433605 1.03816 Ge
9 1 -0.0332637 0.00179001 5.50778 -4.37184 -0.819208 0.787932 0.630424 -0.415411 0.24989 Si
44 1 8.33319 2.78719 5.52565 -1.68208 2.71963 3.39444 0.527979 0.464059 0.220985 Si
47 2 9.75204 1.37363 6.94896 2.04468 1.77536 1.90905 -1.75456 0.339554 0.448116 Ge
14 2 1.4422 4.13062 6.98286 2.67131 2.14662 -1.08445 -0.448909 1.14024 -1.51634 Ge
21 2 1.45379 6.86027 4.16695 2.2646 0.374583 1.31113 -1.21338 1.82732 0.18167 Ge
25 1 0.0315385 5.56173 5.56867 -0.850406 -5.89672 -0.142822 0.703055 -0.804116 0.511964 Si
8 2 4.12548 4.1634 4.12953 3.11163 -0.796898 -2.47039 1.17577 -0.53636 0.285338 Ge
31 2 4.09071 6.9837 7.01966 -3.32561 0.259027 2.6907 1.66864 -1.263 -1.86537 Ge
46 2 6.91265 4.22389 6.91395 0.506475 -0.384433 2.99699 0.756374 -1.7757 0.503676 Ge
53 2 6.89897 6.93533 4.19605 2.7854 -3.31956 0.562949 1.03938 0.186706 -0.29358 Ge
57 1 5.51204 5.53439 5.52555 -5.79036 0.314275 4.17756 -1.23144 1.23995 1.07902 Si
40 2 9.75539 4.23099 4.11989 0.664034 -1.27851 -1.89371 -1.10127 -1.14771 0.418212 Ge
63 2 9.74199 6.91757 6.98438 -0.313878 0.758847 1.29222 -0.551876 0.773949 -0.879991 Ge
28 1 2.76418 8.32523 5.57143 1.49559 -0.461957 2.33042 -0.434062 -0.718264 0.163838 Si
30 2 1.3975 9.71909 6.92198 1.23747 -0.0478672 0.394905 -0.648474 0.314446 0.155935 Ge
41 1 5.56717 -0.0323981 5.42957 -1.77594 0.920599 -2.76617 0.180355 0.68416 1.96216 Si
24 2 4.13608 9.67072 4.22231 1.72426 -3.04572 -0.181845 0.627559 -0.524468 -2.01773 Ge
62 2 6.89882 9.67347 6.90272 2.64808 0.644537 -0.332879 0.684016 0.7018 0.507848 Ge
56 2 9.63729 9.70789 4.1347 -1.32145 -3.57075 -0.21635 1.89252 -0.739291 0.0515824 Ge
60 1 8.35062 8.3192 5.55939 3.22405 2.22675 4.32282 -0.753673 -0.791281 0.349267 Si
1 1 0.0696891 0.0321113 -0.0576675 0.490071 0.14729 -6.01682 -0.281538 0.68998 -0.226597 Si
10 1 -0.00849929 2.85208 8.31614 -5.44992 5.21669 -3.53158 -0.021756 -0.844852 0.198817 Si
11 1 2.82122 -0.000318407 8.31395 -0.593932 1.41307 -1.72373 -0.924966 1.12998 -0.372804 Si
13 2 1.44776 1.53371 9.66935 1.09929 2.88437 -2.71724 -0.045865 -1.98855 0.358584 Ge
42 1 5.60482 2.66296 8.2992 1.96296 -2.38654 -5.47654 -1.17923 1.71976 -1.90258 Si
45 2 6.81625 1.31719 9.71741 -2.07335 2.7765 1.25764 1.48422 -0.753338 0.886187 Ge
36 1 8.2345 2.72638 -0.044542 -0.427196 -0.0235898 2.25633 0.45605 1.2795 0.0346125 Si
43 1 8.28345 -0.0380297 8.40019 0.723604 0.149307 -2.23016 0.193363 0.615754 -2.08904 Si
17 1 0.0243136 5.50902 0.0150976 3.85477 -1.49129 0.669223 -0.495525 0.638007 -0.371839 Si
27 1 2.83287 5.50715 8.35057 -2.01432 -3.48583 -1.47355 -0.853109 -0.2234 -0.33234 Si
29 2 1.38091 6.88324 9.647 -3.31415 -2.11726 -3.00076 0.0622821 0.274762 1.2444 Ge
16 2 4.22232 4.06961 9.63239 1.05234 -0.826435 0.578943 -0.514665 0.488455 1.12736 Ge
61 2 6.91392 6.90865 9.70229 -0.479172 -0.742858 1.40244 0.0508784 1.33561 0.0245631 Ge
48 2 9.68086 4.19718 9.71655 -0.735802 0.257546 -1.57407 -0.44693 -0.969707 0.114596 Ge
59 1 8.31537 5.57891 8.34002 1.2018 2.89992 0.380987 -0.178617 -0.48953 -0.474646 Si
32 2 4.11869 9.6927 9.73702 0.0639027 -1.50626 -0.24869 0.176247 -0.906672 -0.378327 Ge
58 1 5.52986 8.32904 8.33364 -1.90773 4.48825 1.47043 -0.0391271 0.0377843 0.405944 Si
26 1 -0.00273836 8.34644 8.33014 3.05473 2.28044 -0.991244 0.701781 -0.357075 -0.31049 Si
64 2 9.72914 9.71543 9.71653 -1.25059 -0.520336 1.58855 0.3559 0.227331 -0.212576 Ge
ITEM: TIMESTEP
19900
ITEM: NUMBER OF ATOMS
64
ITEM: BOX BOUNDS pp pp pp
0.0000000000000000e+00 1.1085848640000000e+01
0.0000000000000000e+00 1.1085848640000000e+01
0.0000000000000000e+00 1.1085848640000000e+01
ITEM: ATOMS id type xu yu zu vx vy vz fx fy fz element
4 1 2.69127 2.70669 0.00910152 -3.56202 0.298712 -0.212928 0.460076 1.59951 -1.20437 Si
7 2 4.14193 1.35712 1.29916 -0.288686 3.15151 0.676671 1.17055 -0.50358 0.745319 Ge
34 1 5.55614 2.73572 2.71548 -0.115424 -1.58149 -3.04077 -1.20839 0.0602044 1.35461 Si
2 1 0.0161147 2.75401 2.78264 -1.24152 -5.85694 4.3696 0.659966 -0.258827 -0.28788 Si
39 2 9.69514 1.35188 1.43712 2.27668 0.263906 0.667341 -0.161508 0.953731 -0.284516 Ge
6 2 1.40268 4.19044 1.41418 -3.51645 -1.72826 3.69754 -1.59437 -0.826089 -1.33774 Ge
19 1 2.7564 5.50954 2.77892 -1.23281 0.452264 0.626486 0.706526 0.795121 0.0557418 Si
23 2 4.14944 6.88382 1.38782 1.25699 1.2551 1.38464 0.110323 0.420384 -0.618972 Ge
38 2 6.97206 4.14818 1.44335 1.41017 0.465245 -0.5922 -0.158246 -0.453714 -0.965786 Ge
49 1 5.63104 5.52398 0.0394216 -0.59865 1.99055 -7.41165 -1.72192 0.19812 -0.652579 Si
51 1 8.31176 5.49932 2.80787 -0.529408 2.87127 0.796785 0.109411 0.8569 -0.101082 Si
55 2 9.65644 6.8808 1.40065 -0.58619 -1.85759 0.537061 0.178862 0.744084 0.00554176 Ge
3 1 2.80127 -0.0215028 2.74582 4.84105 2.97081 2.03557 0.00481857 0.193492 -0.339807 Si
20 1 2.79029 8.34277 -0.0474934 -0.139817 -3.4562 -4.80312 0.738669 0.600843 1.29163 Si
22 2 1.37621 9.71601 1.3784 -0.707235 -1.48814 2.53568 0.130066 -0.73656 -0.0543995 Ge
33 1 5.64739 -0.0391762 -0.0313416 3.1309 -5.28339 -2.49102 -1.43971 1.09441 0.446488 Si
50 1 5.52917 8.27798 2.76029 2.94082 1.60214 -3.2761 -0.105962 0.971357 0.802282 Si
54 2 6.9526 9.7238 1.44228 2.60124 1.10586 -3.42379 -0.643685 -1.6714 -0.749759 Ge
35 1 8.32747 -0.0525458 2.78769 -1.0174 0.794628 4.91714 -0.28649 1.64469 0.945105 Si
18 1 -0.0509554 8.3292 2.75652 -0.537942 -1.74678 2.9553 0.628979 -0.00361306 -0.401804 Si
52 1 8.27027 8.28653 0.046914 -2.90948 3.03065 -1.84734 1.45135 1.48459 -0.195841 Si
5 2 1.46227 1.34898 4.13269 2.9907 1.58847 0.0792135 -0.459233 1.08569 0.0748127 Ge
12 1 2.77173 2.75732 5.57108 0.745069 1.36958 -0.384579 0.0201128 0.161497 0.248531 Si
15 2 4.20104 1.42704 7.01403 -0.616583 1.88501 3.10024 -1.37772 -0.470761 -0.849415 Ge
37 2 6.89178 1.33957 4.18774 -3.8227 2.38903 -1.96372 0.162912 -0.480801 -0.196304 Ge
9 1 0.0860506 0.0345954 5.52797 2.66903 1.56283 -1.58866 -1.32723 -0.28018 -0.0607124 Si
44 1 8.33181 2.74018 5.50523 -1.05993 -1.45436 -2.45965 -1.01973 0.774411 0.566279 Si
47 2 9.69041 1.38518 6.86405 2.49019 -2.41026 -1.13338 1.10858 -0.198062 0.776546 Ge
14 2 1.31405 4.18633 6.89552 -0.459755 -1.3377 6.1144 1.31263 0.232678 -0.000730281 Ge
21 2 1.38495 6.94653 4.07869 1.57409 -2.54353 -0.347574 -0.0997281 0.208025 0.618521 Ge
25 1 -0.0100527 5.61676 5.47273 -1.10404 5.23037 -1.00643 -0.512276 -1.39778 0.266486 Si
8 2 4.12146 4.15029 4.18327 -2.60922 -2.01993 -3.26302 1.64777 -0.502088 -0.505344 Ge
31 2 4.23603 6.94046 6.87423 -3.15026 2.05545 -0.893526 -0.488403 -0.347727 0.0803558 Ge
46 2 6.93051 4.10516 7.02133 -1.16223 1.78321 -0.995484 0.309314 -0.115165 -1.4738 Ge
53 2 6.9546 6.94225 4.16567 -3.53108 4.598 -0.935357 -0.479802 -0.931425 -0.654044 Ge
57 1 5.63843 5.50089 5.55177 4.85729 -0.751947 -6.5816 -1.21474 0.00162542 -0.0997018 Si
40 2 9.70803 4.12636 4.11053 2.52274 0.28676 0.303809 0.315326 0.444742 1.26244 Ge
63 2 9.66647 6.90461 6.92264 -0.143712 -0.794845 0.37068 -0.285909 0.226026 -0.0301452 Ge
28 1 2.76584 8.28135 5.51636 0.387443 1.5407 -3.47635 -0.142301 0.457206 0.13445 Si
30 2 1.34004 9.67265 6.90317 1.77633 -3.85727 0.285998 1.04973 -0.106329 0.363362 Ge
41 1 5.52865 -0.0595879 5.6822 -2.53197 -0.683779 -1.3514 -0.217263 1.12182 -1.92246 Si
24 2 4.1271 9.71725 4.18216 -0.149491 0.554801 2.70978 1.12699 -0.837545 -0.0959221 Ge
62 2 6.9262 9.65739 6.97006 -1.87476 -0.873407 -3.65244 0.882588 -0.202849 -0.434763 Ge
56 2 9.74368 9.7616 4.17249 -4.76308 2.0619 0.763091 -0.461295 -1.40659 0.409621 Ge
60 1 8.29883 8.30256 5.51448 -1.33525 2.96811 -3.50947 0.980279 1.10062 0.778801 Si
1 1 -0.0362216 0.0124925 0.0538181 1.33775 -0.070324 3.42996 -0.219588 -0.863524 -1.18321 Si
10 1 0.0280051 2.73153 8.30384 1.0216 -0.887258 3.1781 -1.60866 0.845606 -0.749555 Si
11 1 2.74009 0.0102873 8.28262 1.37092 -2.31396 3.46423 0.0209517 -0.266709 0.368371 Si
13 2 1.29932 1.33116 9.68245 -2.56744 1.23986 1.55803 1.32472 0.193023 0.596716 Ge
42 1 5.47278 2.82655 8.40736 0.8077 -3.8151 7.23954 1.28783 -0.63003 -0.213997 Si
45 2 6.95215 1.4031 9.69344 0.483178 0.814789 -1.39754 0.288881 0.686735 0.291538 Ge
36 1 8.36577 2.80425 0.0272265 0.693206 -2.88297 1.51152 -0.318717 -0.819375 -0.214186 Si
43 1 8.30373 0.0215327 8.26486 -2.18968 -3.30592 5.91733 0.130518 -0.0441514 0.424131 Si
17 1 -0.0283719 5.59912 -0.0447255 2.81448 0.982308 -0.474684 1.47415 -0.542268 0.623659 Si
27 1 2.7565 5.64374 8.24109 2.02805 4.29946 1.29568 -0.205807 -0.950439 0.286957 Si
29 2 1.42204 7.02715 9.68411 0.819458 2.24006 -2.16642 -1.47502 -1.14275 -0.617271 Ge
16 2 4.07966 4.22879 9.68923 -1.45576 -0.933884 -4.104 0.0188609 -0.247845 1.51868 Ge
61 2 6.96155 6.96363 9.7394 2.73549 -3.24145 -0.965889 -0.522888 -1.57529 -0.285034 Ge
48 2 9.72817 4.163 9.66938 3.10565 1.23736 0.521393 0.0428257 -0.389727 0.417945 Ge
59 1 8.28452 5.51424 8.35271 2.12579 -0.428164 3.26247 0.716203 0.728245 -0.289207 Si
32 2 4.19088 9.76439 9.66665 1.11366 -0.963267 -0.276938 0.110572 -1.52836 -0.310968 Ge
58 1 5.59716 8.26349 8.31704 1.9251 -2.42845 -3.59864 -1.18419 1.13294 0.583261 Si
26 1 -0.0702934 8.32626 8.313 -1.83721 -0.705451 0.469279 0.742847 -0.0311473 -0.361171 Si
64 2 9.6667 9.72539 9.6745 -0.296884 -2.72728 1.59665 -0.483396 -0.255615 1.40429 Ge
ITEM: TIMESTEP
20000
ITEM: NUMBER OF ATOMS
64
ITEM: BOX BOUNDS pp pp pp
0.0000000000000000e+00 1.1085848640000000e+01
0.0000000000000000e+00 1.1085848640000000e+01
0.0000000000000000e+00 1.1085848640000000e+01
ITEM: ATOMS id type xu yu zu vx vy vz fx fy fz element
4 1 2.84656 2.80588 0.0158372 1.75974 -4.65519 6.81974 -0.893488 -1.41803 0.070035 Si
7 2 4.16068 1.3623 1.39498 0.434198 0.449586 1.79982 -0.309 1.44935 0.973692 Ge
34 1 5.52951 2.84094 2.80237 6.68128 -2.41289 -0.155714 0.456647 -0.392093 -1.13681 Si
2 1 0.0145482 2.85582 2.78052 -2.27981 3.29839 -3.34008 -0.676476 -0.926253 0.605651 Si
39 2 9.70894 1.39748 1.44498 -0.253783 0.729979 -1.31363 0.325593 0.316584 -1.66148 Ge
6 2 1.44884 4.18423 1.3988 2.18305 0.434672 2.56611 -0.638895 -0.343859 -0.0791856 Ge
19 1 2.77598 5.59804 2.75902 -0.958451 -3.05317 -1.36926 -0.63012 0.00583011 0.595555 Si
23 2 4.12438 6.90605 1.35285 -1.15113 -1.25096 1.17842 0.686535 0.64538 0.426443 Ge
38 2 6.94555 4.22006 1.35006 -0.228616 -0.684121 2.64153 -0.197751 -1.32306 0.291449 Ge
49 1 5.51807 5.54902 -0.0146235 4.74158 -0.142189 4.34092 1.25591 0.851594 -0.815448 Si
51 1 8.34211 5.53833 2.76185 0.682894 -0.689553 -2.26486 -0.426929 0.143479 -0.634383 Si
55 2 9.68572 6.96006 1.42775 -2.37196 -0.377581 -2.11721 0.832087 -0.762171 -0.575306 Ge
3 1 2.69379 0.0359715 2.79367 -2.00544 -4.13646 -0.903375 0.90952 0.695581 0.197194 Si
20 1 2.77029 8.33271 0.0694575 -1.02467 -0.148173 -0.614288 -0.457295 -0.875305 -1.57039 Si
22 2 1.42984 9.72525 1.42606 -1.73789 2.37927 -1.57048 -1.53468 -0.818078 -0.170261 Ge
33 1 5.49698 0.0741725 -0.0542288 1.58501 -2.52292 -0.062749 0.839609 -1.72361 0.163597 Si
50 1 5.50032 8.31183 2.71516 -1.49281 -3.96742 -1.53128 0.980584 -0.120528 -0.167993 Si
54 2 6.90937 9.71654 1.33005 0.278028 -0.659947 2.27157 0.122823 -0.0965362 -0.515671 Ge
35 1 8.30698 0.0138684 2.73473 1.6683 -4.55636 -4.25053 0.158314 -0.781296 0.727416 Si
18 1 0.0367194 8.30799 2.79399 -3.37075 1.89257 -3.18806 -0.0360062 0.268909 0.0995105 Si
52 1 8.36122 8.28147 -0.04703 0.589964 -4.91201 1.19494 -1.40534 0.61907 -0.0167275 Si
5 2 1.26583 1.3767 4.2192 -4.41614 0.448064 -2.47212 1.01649 0.427558 -0.282997 Ge
12 1 2.76216 2.77478 5.53851 -0.707485 -0.00980533 -0.214457 0.129662 -0.362683 -0.52422 Si
15 2 4.17254 1.37299 6.90934 4.44968 0.836753 -3.23795 0.0675685 0.372221 -0.532591 Ge
37 2 6.97862 1.42629 4.12075 1.49058 -1.67526 -1.11501 -0.293962 0.58954 0.166297 Ge
9 1 -0.0972452 -0.0500062 5.60737 2.13943 0.605156 2.46773 0.803783 1.36196 0.129397 Si
44 1 8.30916 2.77734 5.60238 3.09669 -2.50106 -1.99893 0.252131 -0.376437 -0.917628 Si
47 2 9.69166 1.41786 7.02977 -1.82894 2.83647 0.75313 -0.0762573 -0.830776 -1.8214 Ge
14 2 1.39444 4.09841 6.93962 -2.00019 -1.41673 -1.20809 -0.131305 -0.357052 0.913156 Ge
21 2 1.39191 6.93206 4.21915 1.05197 2.41491 0.669458 -0.312787 -0.564105 -0.166846 Ge
25 1 -0.00205863 5.45494 5.60555 2.88505 3.15042 1.38488 -0.412847 2.00315 -0.802324 Si
8 2 4.12753 4.25019 4.14244 -1.77366 -0.402881 1.87397 -0.431979 -1.65791 0.325594 Ge
31 2 4.14284 6.90366 6.94581 -0.0334914 1.6245 1.42559 -0.988858 0.266909 0.508013 Ge
46 2 6.90885 4.1543 6.88959 -0.570227 -1.51216 5.14842 -0.048502 1.1543 -0.960376 Ge
53 2 6.95746 6.88797 4.06109 1.75797 2.63548 2.06739 -1.46436 1.24219 2.02575 Ge
57 1 5.47633 5.56243 5.53175 2.52453 -0.00449711 3.9044 2.01309 0.295725 -0.427279 Si
40 2 9.62916 4.17958 4.17808 2.27507 -1.32578 -4.5941 1.47793 -0.679698 0.353919 Ge
63 2 9.69976 6.97224 6.93637 -0.270897 0.550434 0.899588 0.947144 -1.35561 -0.394463 Ge
28 1 2.78192 8.34584 5.56426 2.20026 -0.0272781 2.91347 0.349729 0.275976 -0.387338 Si
30 2 1.39109 9.74014 6.95037 -2.19169 -0.335663 -0.267879 -0.0907308 -1.22289 -0.0746833 Ge
41 1 5.58695 0.0685376 5.45461 3.33223 -4.60833 2.29961 -0.683488 -1.12364 0.853252 Si
24 2 4.15931 9.74882 4.07412 -1.54039 -1.51689 1.50566 -0.273674 -0.45082 1.51994 Ge
62 2 6.90559 9.74435 6.94231 0.380441 -2.15012 0.20222 0.246346 -0.32531 -0.904658 Ge
56 2 9.71428 9.69035 4.14961 1.34747 0.494413 0.487553 -1.26263 -0.307611 -0.0425388 Ge
60 1 8.3083 8.29493 5.56296 0.409325 -5.29688 0.246467 -0.638805 0.690629 -1.13636 Si
1 1 -0.0256658 -0.0692648 0.0296221 -0.0688699 1.12305 2.77904 1.09321 1.4241 0.710722 Si
10 1 0.0206253 2.71507 8.35347 5.07679 -0.0932061 0.224546 0.828021 0.366083 0.843808 Si
11 1 2.81034 -0.0301796 8.313 0.426245 0.472848 -5.60603 0.0387135 0.310971 0.14802 Si
13 2 1.45361 1.29664 9.7565 -0.129346 0.77856 -1.55849 -0.756856 1.29941 -0.0342335 Ge
42 1 5.59114 2.79761 8.21467 -1.82178 2.93646 -1.87956 -0.896083 -1.12558 1.52544 Si
45 2 6.91417 1.40308 9.64492 -3.93137 -0.764374 -0.484762 0.445083 -0.192833 -0.109824 Ge
36 1 8.30728 2.74198 -0.0361587 0.0402932 2.6777 -0.777498 -0.341076 0.227319 0.990858 Si
43 1 8.35763 -0.00775253 8.32013 0.283127 0.984996 -2.06365 -0.849577 -0.316606 0.849546 Si
17 1 -0.0630661 5.46838 0.0626424 -7.25825 -0.497482 0.575255 0.148789 0.683748 -0.648219 Si
27 1 2.77768 5.42353 8.36905 1.60497 -0.623838 -3.75135 0.380433 1.32859 -0.306307 Si
29 2 1.37779 6.83159 9.77428 2.35246 -1.09001 0.716704 0.475123 0.625528 -0.0621288 Ge
16 2 4.25348 4.09692 9.71953 1.9139 -1.23559 -1.91312 -0.731436 0.379443 -0.948017 Ge
61 2 6.89936 6.9581 9.57854 1.14663 6.04289 1.39751 0.575912 -0.947028 1.6775 Ge
48 2 9.64443 4.11562 9.66223 -2.07731 -0.754113 -2.79264 0.862994 0.61801 0.0681304 Ge
59 1 8.3088 5.53503 8.20483 -3.7743 -0.329145 -1.20186 -0.278475 0.178716 1.56379 Si
32 2 4.14747 9.65774 9.70401 -2.07313 3.50369 0.640783 -0.345007 1.0517 0.652926 Ge
58 1 5.48301 8.35133 8.30316 2.42351 -0.158631 -0.697927 0.75602 -0.428233 -0.895851 Si
26 1 0.0683325 8.25866 8.32759 -3.52433 2.62143 1.20533 -0.168903 0.554706 0.304574 Si
64 2 9.76823 9.67344 9.69656 1.38422 0.88528 -1.46734 -0.79223 -0.518613 -0.55723 Ge
