(written by ASE)

216 atoms
1 atom types

0.0      16.331106185913086  xlo xhi
0.0      16.331106185913086  ylo yhi
0.0      16.331106185913086  zlo zhi

Atoms # atomic

     1   1     0.97520493315472123      3.2327484002926212      2.5557871597706594
     2   1      5.0879871403845414      4.5709069966057427      6.6702379738828768
     3   1      15.979549508684613      7.2807085123574211      9.3955634288538477
     4   1      6.4613364471726982      3.1860128064387538      2.5935987760864236
     5   1      2.3853793662816827      1.8415894664384638      6.6928035594723951
     6   1      11.917880379940925     0.48206409952170048        10.7723143161287
     7   1      11.944093331987347      3.2288292091538153      8.0553640789306655
     8   1      1.0763829103050284      11.342635107988713      10.792683889247769
     9   1      9.2037316160983664      8.6369881051908806      16.227456538809406
    10   1       11.89697348462164      11.367439536079132      10.789918432054264
    11   1      10.569518988987284      1.8752436495710327      9.4208234127227115
    12   1      7.8252524397537968      15.486242952036037      3.9686951100826207
    13   1       15.99776103231477      1.8296404963234636       3.900963797266769
    14   1      6.4883792310591275      8.6491800627229622      2.5977523156304869
    15   1      13.293265573290228       12.70914280411705      6.6937784293700702
    16   1      2.3846658569107433      12.685779995915254       1.270173953601244
    17   1      14.595624591309047      5.9485694821423749      13.529160726692794
    18   1      5.1151613345916758      10.005171039555762      1.2299636122277207
    19   1      6.4618270457033304      3.2168192792511547      8.0187346687963554
    20   1      14.597704768015319      8.6610858377788418      5.2953711212430221
    21   1      6.4812991350024731      5.9179562311718996      16.197878509143152
    22   1      11.902865534038142      5.9476773520762549      5.2927891517936132
    23   1       10.56130049018941      15.464249731398922       6.663470829071457
    24   1       2.376776370619524      1.8486369532673876       12.16330618852885
    25   1      6.4741961638159182      8.6283753754308918      8.0536766730718341
    26   1      3.7344158169198352      3.1922326515996815      16.185377007300076
    27   1      10.570716283020374      1.8451418037653013      14.819056205850075
    28   1      10.570447621920266      4.5273473955213603      6.6575549311152713
    29   1       1.027723858719952      3.2515704952091653      8.0448137769976142
    30   1      7.8392637001703065       4.570404230452823      14.858710000180167
    31   1      3.7471514238157226      8.6389534195427586      10.794897423094312
    32   1      13.250338201859904      7.3186383979618199      12.120197762878888
    33   1      10.541077901947574      10.004739819021893      12.149135288907928
    34   1      3.7617486769215986      5.9328133846898368      2.5967197712031691
    35   1      15.978685120797309      12.729183364729465      3.9897565342049575
    36   1      13.272392747313347      12.761670916237108      1.2535366769426446
    37   1      14.649421056376354     0.47131634749797868      13.473607256967171
    38   1       9.190193432836395      14.090099795064248      10.753074871767694
    39   1      11.906645284225533      14.088481014595118      2.5986695109985192
    40   1      10.539630441600252      7.2668199015735695       9.385268646988834
    41   1      15.951643797025554      10.003135639699508      1.2141222197429471
    42   1      7.8108133657376584      10.022487026185559      3.9518952739902602
    43   1       14.61993063359057      5.9128516702698448      2.5620797673128664
    44   1      9.2219684483828814     0.47074653774625475      13.524901085482384
    45   1      7.8482536262212079      7.2527001059662553      1.2464149676177669
    46   1      10.550466439304614      7.2825102938657551      3.9631780667850194
    47   1      6.5031833337438911     0.49570102303853503      16.202065144619837
    48   1      10.582131459545622      9.9864903324101988      6.6862330434371415
    49   1      14.609754607719083      11.415268025766864      13.502894237108308
    50   1       15.99621039053045      1.8706456267848068      9.4015654735758289
    51   1      14.626439824809495      3.2051407953796058      10.826606246775555
    52   1      13.251066312377588      9.9828556202804748      9.4153051526628815
    53   1       14.64213313733103      5.9187383659325405      8.0415475004707559
    54   1      2.3993407394468136       4.596024375941397       9.434442388996672
    55   1      14.635504216708796       14.07607296009121      10.758426678754631
    56   1      7.8293811573483936      12.725362731331188      12.096627618393313
    57   1       10.56667273878179      15.455927077754268       12.14048070252727
    58   1      2.3766293857422909       12.69542648686479       12.14106766862642
    59   1      14.610787395498846      8.6242208624770456      10.761266115091644
    60   1      7.8555824284774189      1.8734541573612091      6.6651071309166809
    61   1      3.7238898502313589      3.2203697914346492      5.3347659885708367
    62   1      3.7101547948407756      14.076093401696653      5.3360684108604914
    63   1      16.025317289861732      4.6071465561219611      6.6704331425443684
    64   1      9.1948891616295896     0.48397018797209412      8.0487955097149779
    65   1      11.931658995419298      3.2347402400610861      2.5498710184620279
    66   1      1.0101325796359006      11.357428989870755       5.318806935178543
    67   1      2.3973978135199445      9.9896772760397425      9.4115078810993964
    68   1       3.746874488732459     0.48463168075775442      8.0421276527014243
    69   1      15.998109513017084      1.8791561485175805      14.822722067092855
    70   1      1.0403851214436628      14.079889699850355      13.484023715055059
    71   1     0.99598090485819313       5.950566919017092      16.194689618694042
    72   1       11.90595318986982      5.9547238654953958      10.761740165655965
    73   1      16.015909284309032      15.416685035762384      1.2488615114311159
    74   1      14.648569322816229      14.091530707445258      16.179015774368168
    75   1      16.001276015041185      15.457619837366906      6.6928089132262016
    76   1      6.4885466575418036       14.10537064773996       13.47379512505529
    77   1      11.963287026088551     0.47765555703354678      5.3020311909783118
    78   1      2.3934163241550266      10.019307869834279      3.9439318085555328
    79   1      7.8449605809253171      7.2856402930229933      12.164281545131416
    80   1      7.8433612686518472      7.2447692497592584      6.6735777428483516
    81   1      5.0913697393804682      1.8454466027036034       14.85260866766032
    82   1      3.7526482688603267      8.6636741343918402      16.218063134403451
    83   1       9.230336852287337      5.9018385119849768      8.0053176750523676
    84   1      14.652100853508955      11.348555386288922      8.0942454725979474
    85   1      13.235224068159255      10.061987021769937      14.879885556599561
    86   1      6.4623147240046137      5.9261260594806231      5.2870182918950945
    87   1      3.7490544399414887      11.380237927906023      2.5618614801690285
    88   1      13.276849990709707      4.5630642339841074      3.9332031292797467
    89   1      7.8222027469036561      4.5596461055311011      9.4105004019739908
    90   1      1.0183255872650818      11.353727112466004      16.183175154370929
    91   1      6.4700937282854625      14.113121909841993      8.0218967904764327
    92   1      2.3735891836375345      15.453625937027255      14.865954115785257
    93   1       1.011628649634261     0.51851853924751623      5.3282378158611436
    94   1      13.264994832962543      1.8290867478331592      1.1843690979919757
    95   1      10.537148246653601      10.034037506670643      1.2115217555076612
    96   1      13.298231910003096       1.821185458948321      6.6735310191787676
    97   1      9.2003110541209026      11.361530938696319      13.478322453956025
    98   1      1.0755231461141932      3.2432371340568977       13.49520332641282
    99   1      7.8102906446841871      15.448154400637009      9.3988262984464654
   100   1      11.925840925146304       8.623127723290736      8.0393490544758492
   101   1      13.258980133913383      7.2901389063351303      1.1879955361385441
   102   1      13.253837610029791      10.006265152151855       3.915043926425426
   103   1      3.7165430398941623      8.6267040308334799      5.2885922955142064
   104   1      9.1779128950140603      11.380377125504992      2.5907442518977746
   105   1      14.639753150411593      14.112081334783966      5.3567850045672003
   106   1      10.544838183939305      7.2977212818398129      14.878436149432673
   107   1      7.8426253708558988      1.8264741159755857      1.2120584693267631
   108   1      13.268723965841218      7.2761772898175536      6.6479099002804105
   109   1      13.293088412709722      15.445391863672853       3.946586540386221
   110   1      9.1726409076293294      3.2106627057261221       5.310563614431203
   111   1      5.0964222228591325      12.740865255535255      3.9146531023975513
   112   1      6.4777028725591776      5.9620049706722398      10.798497092471848
   113   1      2.3679896438608239      7.2912700085029769      1.2516839130969259
   114   1      14.624927146006712       3.207798447439643      16.177301599740304
   115   1      2.3678081029362943      7.3183901784671548      12.169728746277087
   116   1       11.90925596926354     0.49492886572816985      16.182121924985722
   117   1      15.980868478940579      4.5728182867146643      1.2177226191778203
   118   1      10.557567463671603       12.72452949255694      9.4065775605484987
   119   1      5.1271649373307469      7.2763821925768752       3.927762498650111
   120   1      11.912311502572379      3.1915398271866309      13.509948537805712
   121   1      11.911740111029758      8.6610702632223138      13.517983062154599
   122   1     0.98265595917681026      8.6525577946699741      13.516948327555269
   123   1      9.1999742543359844      5.9215276716657286       2.608798569847977
   124   1        1.03959994477745      8.6426037062290106      8.0685547549001058
   125   1      3.7436164861887562      14.075164768763671      10.786128947769043
   126   1       2.392308583821972      9.9856979768468364       14.86127688177794
   127   1      5.1211093550707005      9.9819542428214163      6.6818269040543896
   128   1      3.7509545358379057       3.226354801485428      10.796734247354834
   129   1      3.7431572801236257     0.46451400783909236      13.505819333506224
   130   1      5.0929374158359906      1.8349483781939426       3.942432757489712
   131   1      16.006115808482264      12.672298270420697      9.4330270511721892
   132   1      14.624303190335809      3.2377570803310505      5.3058469573276739
   133   1      5.0611482858476506        15.4772836883933      12.165959703597309
   134   1       6.440103946280999      11.387506378755688      5.3154243361826161
   135   1       14.67741632173545      11.396143443760252      2.5889777564940744
   136   1      5.0724067433978348      15.429298479730505      1.2267040278931205
   137   1      10.542438728824209      15.460632540645292      1.2270959470070011
   138   1      11.923775349586776      11.370164110061751      16.253759044555864
   139   1      1.0234129918197112       5.924108181000463      10.767149403820099
   140   1      7.8218304176616584      1.8295690723806359      12.187761162507172
   141   1      7.8694783398346431      10.044759615430394      14.859322274933675
   142   1     0.99441401929811946       0.496683254347694      10.797143079463694
   143   1      6.4701307178572165      8.6498244599993086      13.510201624349293
   144   1      5.1083138834731585      15.468932805864938      6.6637579849574422
   145   1      15.924809809537578      7.2882753133055758      14.843838245515485
   146   1      14.659900786100138     0.50232343398284485      8.0476215775166793
   147   1      11.929940927152302      14.104647404271191      8.0247410938623602
   148   1       7.825675873009402      12.753860276138312      6.6748514495494078
   149   1      15.992841419271485       12.76141198923483      14.837684348867356
   150   1      11.922910961699472      11.365788633087163      5.3200796684698162
   151   1      5.1232795721819002      7.2705383269446315      14.848163105181357
   152   1      13.268806705672773      1.8482823887539297      12.154149322700164
   153   1      15.992177553799479      15.447488588345436      12.144970068446469
   154   1       11.94629713173606      14.068856099960044      13.517982088744816
   155   1      2.3622898428764643      12.670092523852418      6.7237370622614776
   156   1      3.7406529401044111     0.49178280530951213      2.5704944081820145
   157   1      2.3922054023849739      15.494039964397871      3.9640259067060128
   158   1      15.980937591035172      4.6098536087284856      12.138503707257996
   159   1      9.2170614896667757      3.2029338320490979      16.206682027220609
   160   1      7.8271900119268594      15.451735575228668      14.838263527688241
   161   1       6.466495519022601       3.209991783033189      13.505562353323512
   162   1      11.879294416142784      8.6783638614271013      2.5753400420817911
   163   1      7.8103252007314836      12.759190668110023      1.2311123574478842
   164   1      1.0161821389229146     0.48087368019520227      16.223896779232973
   165   1      5.1057314273188581       12.75554330165312      9.3893530744383042
   166   1       13.29490771559415      15.458966063096796      9.4135432809556505
   167   1       16.00983228703376      7.2774407757158883      3.9569903441469307
   168   1      3.7741703591624685       11.38212828970461      8.0403823289605043
   169   1       5.117493624431745      4.5798682070680456      1.2007518279923204
   170   1      10.547007914345613      12.718108881628268      14.843916118298125
   171   1      14.638631782341577     0.48378128563608058      2.5534246942273171
   172   1      5.1002477233063246      12.732424819306857      14.827801319340551
   173   1      3.7449863171058837      11.348346103185577       13.50015700879851
   174   1      5.1196205248076012      7.3047040369181673      9.4117307919397035
   175   1      13.273971617981374      4.5602817421194004       9.418030700055283
   176   1      10.546565012894348      12.722387991034338      3.9551072829217162
   177   1      14.598138908778537      8.6800050303212402      16.189493557272385
   178   1       13.26089969800546      4.5707186418127321      14.849999929441879
   179   1      9.2109513964588814      8.6330000453099274      10.790314609835946
   180   1      1.0298209484212038      14.109102700847984      8.0530614780889778
   181   1      6.4651303118019428      11.389057020540008      16.228855328667578
   182   1      7.8320692284641495      4.5436189134539973      3.9693898813152373
   183   1      11.883882096450066      5.9367148111001029      16.214817786186927
   184   1      10.556882183184371      4.5880691844898251      1.2206406583548102
   185   1       9.199278266341139      11.374019786212216      8.0205033543720674
   186   1      2.3541034666014298      15.485803944223903      9.4085156194264528
   187   1      9.2111100622535105      5.9512721544048759      13.539222863619671
   188   1      5.1004433786727077       4.616087324978821      12.128815359687792
   189   1      2.3928181638433728        4.59049735519352      3.9687097112293657
   190   1      13.276295147133396      15.470822194253742      14.833280643009061
   191   1      6.4419724063594686      11.362672748371779      10.753734843600569
   192   1     0.99707373985394554      8.6618548315074122       2.580601321958909
   193   1      1.0217831388142997      5.9364354424923818      5.3093955226916023
   194   1      9.2113728828949206      14.082464368726392      16.198606619660836
   195   1      9.1693984796421546      8.6338225765765628       5.337929083660697
   196   1      3.7230069675581774      14.085757414022282      16.231528311931697
   197   1       5.089196115335028      1.8689534755532833      9.3882764832183057
   198   1       9.204710866340065      3.2123440277738098      10.779777448934965
   199   1      2.3991947279793635      7.2571909320001282      6.6805575776973569
   200   1      9.1941221147205852     0.52716533834990997      2.5938533227446783
   201   1      2.3574478592633739      4.5824837591549681      14.849959046230992
   202   1      9.1813548720067502      14.095497352310986      5.3175015926595393
   203   1      7.8408737199513894      9.9781637851264122      9.3819775485125092
   204   1      10.605959557623692      1.8580976446245927      3.9327212914371614
   205   1      3.7826073884566256       5.932271682145597      8.0671778667620515
   206   1      3.7547308790910563       5.926873151489076      13.514817533540281
   207   1      6.4653795047063909     0.49578421915592585      5.3125118941118785
   208   1      6.4712705807131101     0.48196545052400452      10.787874271509963
   209   1      1.0394309365038765      14.095131350232577      2.6396030958408119
   210   1      15.944358798209578        10.0215856487265      12.123259136646425
   211   1      5.1097141334460048      10.017027170712709      12.137193497690077
   212   1      15.995911553727069      9.9820223815062263       6.668818742419262
   213   1      6.4753929711441174      14.097823801692357      2.5767303146043616
   214   1      2.3886342052435907      1.8426833356821106      1.2447745287809653
   215   1      13.229517940011306      12.731905991892518       12.11452765089291
   216   1      10.569106263239291       4.590586908893556       12.15524148847669


Velocities

     1                       0                       0                       0
     2                       0                       0                       0
     3                       0                       0                       0
     4                       0                       0                       0
     5                       0                       0                       0
     6                       0                       0                       0
     7                       0                       0                       0
     8                       0                       0                       0
     9                       0                       0                       0
    10                       0                       0                       0
    11                       0                       0                       0
    12                       0                       0                       0
    13                       0                       0                       0
    14                       0                       0                       0
    15                       0                       0                       0
    16                       0                       0                       0
    17                       0                       0                       0
    18                       0                       0                       0
    19                       0                       0                       0
    20                       0                       0                       0
    21                       0                       0                       0
    22                       0                       0                       0
    23                       0                       0                       0
    24                       0                       0                       0
    25                       0                       0                       0
    26                       0                       0                       0
    27                       0                       0                       0
    28                       0                       0                       0
    29                       0                       0                       0
    30                       0                       0                       0
    31                       0                       0                       0
    32                       0                       0                       0
    33                       0                       0                       0
    34                       0                       0                       0
    35                       0                       0                       0
    36                       0                       0                       0
    37                       0                       0                       0
    38                       0                       0                       0
    39                       0                       0                       0
    40                       0                       0                       0
    41                       0                       0                       0
    42                       0                       0                       0
    43                       0                       0                       0
    44                       0                       0                       0
    45                       0                       0                       0
    46                       0                       0                       0
    47                       0                       0                       0
    48                       0                       0                       0
    49                       0                       0                       0
    50                       0                       0                       0
    51                       0                       0                       0
    52                       0                       0                       0
    53                       0                       0                       0
    54                       0                       0                       0
    55                       0                       0                       0
    56                       0                       0                       0
    57                       0                       0                       0
    58                       0                       0                       0
    59                       0                       0                       0
    60                       0                       0                       0
    61                       0                       0                       0
    62                       0                       0                       0
    63                       0                       0                       0
    64                       0                       0                       0
    65                       0                       0                       0
    66                       0                       0                       0
    67                       0                       0                       0
    68                       0                       0                       0
    69                       0                       0                       0
    70                       0                       0                       0
    71                       0                       0                       0
    72                       0                       0                       0
    73                       0                       0                       0
    74                       0                       0                       0
    75                       0                       0                       0
    76                       0                       0                       0
    77                       0                       0                       0
    78                       0                       0                       0
    79                       0                       0                       0
    80                       0                       0                       0
    81                       0                       0                       0
    82                       0                       0                       0
    83                       0                       0                       0
    84                       0                       0                       0
    85                       0                       0                       0
    86                       0                       0                       0
    87                       0                       0                       0
    88                       0                       0                       0
    89                       0                       0                       0
    90                       0                       0                       0
    91                       0                       0                       0
    92                       0                       0                       0
    93                       0                       0                       0
    94                       0                       0                       0
    95                       0                       0                       0
    96                       0                       0                       0
    97                       0                       0                       0
    98                       0                       0                       0
    99                       0                       0                       0
   100                       0                       0                       0
   101                       0                       0                       0
   102                       0                       0                       0
   103                       0                       0                       0
   104                       0                       0                       0
   105                       0                       0                       0
   106                       0                       0                       0
   107                       0                       0                       0
   108                       0                       0                       0
   109                       0                       0                       0
   110                       0                       0                       0
   111                       0                       0                       0
   112                       0                       0                       0
   113                       0                       0                       0
   114                       0                       0                       0
   115                       0                       0                       0
   116                       0                       0                       0
   117                       0                       0                       0
   118                       0                       0                       0
   119                       0                       0                       0
   120                       0                       0                       0
   121                       0                       0                       0
   122                       0                       0                       0
   123                       0                       0                       0
   124                       0                       0                       0
   125                       0                       0                       0
   126                       0                       0                       0
   127                       0                       0                       0
   128                       0                       0                       0
   129                       0                       0                       0
   130                       0                       0                       0
   131                       0                       0                       0
   132                       0                       0                       0
   133                       0                       0                       0
   134                       0                       0                       0
   135                       0                       0                       0
   136                       0                       0                       0
   137                       0                       0                       0
   138                       0                       0                       0
   139                       0                       0                       0
   140                       0                       0                       0
   141                       0                       0                       0
   142                       0                       0                       0
   143                       0                       0                       0
   144                       0                       0                       0
   145                       0                       0                       0
   146                       0                       0                       0
   147                       0                       0                       0
   148                       0                       0                       0
   149                       0                       0                       0
   150                       0                       0                       0
   151                       0                       0                       0
   152                       0                       0                       0
   153                       0                       0                       0
   154                       0                       0                       0
   155                       0                       0                       0
   156                       0                       0                       0
   157                       0                       0                       0
   158                       0                       0                       0
   159                       0                       0                       0
   160                       0                       0                       0
   161                       0                       0                       0
   162                       0                       0                       0
   163                       0                       0                       0
   164                       0                       0                       0
   165                       0                       0                       0
   166                       0                       0                       0
   167                       0                       0                       0
   168                       0                       0                       0
   169                       0                       0                       0
   170                       0                       0                       0
   171                       0                       0                       0
   172                       0                       0                       0
   173                       0                       0                       0
   174                       0                       0                       0
   175                       0                       0                       0
   176                       0                       0                       0
   177                       0                       0                       0
   178                       0                       0                       0
   179                       0                       0                       0
   180                       0                       0                       0
   181                       0                       0                       0
   182                       0                       0                       0
   183                       0                       0                       0
   184                       0                       0                       0
   185                       0                       0                       0
   186                       0                       0                       0
   187                       0                       0                       0
   188                       0                       0                       0
   189                       0                       0                       0
   190                       0                       0                       0
   191                       0                       0                       0
   192                       0                       0                       0
   193                       0                       0                       0
   194                       0                       0                       0
   195                       0                       0                       0
   196                       0                       0                       0
   197                       0                       0                       0
   198                       0                       0                       0
   199                       0                       0                       0
   200                       0                       0                       0
   201                       0                       0                       0
   202                       0                       0                       0
   203                       0                       0                       0
   204                       0                       0                       0
   205                       0                       0                       0
   206                       0                       0                       0
   207                       0                       0                       0
   208                       0                       0                       0
   209                       0                       0                       0
   210                       0                       0                       0
   211                       0                       0                       0
   212                       0                       0                       0
   213                       0                       0                       0
   214                       0                       0                       0
   215                       0                       0                       0
   216                       0                       0                       0
