(written by ASE)

8 atoms
1 atom types

0.0       5.443702220916748  xlo xhi
0.0       5.443702220916748  ylo yhi
0.0       5.443702220916748  zlo zhi

Atoms # atomic

     1   1       2.721851110458374       2.721851110458374       2.721851110458374
     2   1       4.082776665687561       4.082776665687561       4.082776665687561
     3   1       1.360925555229187       1.360925555229187       4.082776665687561
     4   1       4.082776665687561       1.360925555229187       1.360925555229187
     5   1       1.360925555229187       4.082776665687561       1.360925555229187
     6   1      5.4397401185143224      2.7612858887387119      5.4193961779255346
     7   1      5.3992404299002885    0.018037296480261089      2.7051965552898452
     8   1      2.7109476226906963    0.052484355840849428     0.03538051374115736

Velocities

     1                       0                       0                       0
     2                       0                       0                       0
     3                       0                       0                       0
     4                       0                       0                       0
     5                       0                       0                       0
     6                       0                       0                       0
     7                       0                       0                       0
     8                       0                       0                       0
