(written by ASE)

64 atoms
1 atom types

0.0      10.887404441833496  xlo xhi
0.0      10.887404441833496  ylo yhi
0.0      10.887404441833496  zlo zhi

Atoms # atomic

     1   1       5.443702220916748       5.443702220916748       5.443702220916748
     2   1       4.082776665687561       4.082776665687561       4.082776665687561
     3   1      6.8046277761459351       4.082776665687561      6.8046277761459351
     4   1      6.8046277761459351      6.8046277761459351       4.082776665687561
     5   1       4.082776665687561      6.8046277761459351      6.8046277761459351
     6   1      5.1991099684313724       7.142441214981659      3.0943935400760836
     7   1      2.4447797417351467       6.667561940599569      3.3836020312679977
     8   1      5.6341083183695559     0.83103110512513467      7.0696042034923039
     9   1      3.3058217202863034      9.8923336663476107       5.661435825415424
    10   1      7.1975323166689122      10.241619064280883      2.6228188297688035
    11   1       7.962259936958958       7.052761617995202      6.4359890443419658
    12   1      3.3248460416407397      9.7031196714438579      9.6951721048035324
    13   1      4.3582458018611874       7.599889964340548     0.67795267818087268
    14   1      9.0060401394084124      3.8570948456086853      2.5821705339235592
    15   1      8.5606175437997081      9.7233464783853378      6.2259479731130227
    16   1     0.33381061545618707      6.3346759022292645      7.0878160521241398
    17   1      1.5205624930128749      1.5073510505823151      7.5161222096087954
    18   1      7.5275078597030642      6.3946126379577777      5.9185685165013524
    19   1     0.14182970316346655      9.3803609887515904      4.9834922323927913
    20   1      9.5408399260221586      2.7521445971996457      10.786145810670234
    21   1      7.9156686497450437      2.1494515852937894      1.7389802423740122
    22   1      3.2957910566495343      8.0080335599312775     0.45895157243149853
    23   1      3.6942047722352243      5.4235549091098676      2.2536310948311922
    24   1      8.6941226462558916      5.7549856998120958      6.8423357254208099
    25   1      3.9952411660457301      7.2809470481090557      1.6142050035766005
    26   1      2.3512021251588493     0.31294081049614952      9.5521710651669878
    27   1      10.439555460034853      7.4712661876187099      5.6713788821691651
    28   1     0.74784999203973257      10.230295712414545      5.5254186767058968
    29   1      6.0012830418171461      4.4056284712517879      2.7505829233921872
    30   1       1.624762281921349      3.0440685772954907      6.0685735642010172
    31   1      5.6519184732192116      3.5719509893193333      1.0768118909902569
    32   1      2.0307791393090895      7.6696049260947348      10.773070321143337
    33   1      5.2553461245267954      2.8757874359164362      9.1245190390756079
    34   1      5.0268070221814583      9.7030774903520296      8.3587914024392944
    35   1      10.733445403479834      2.0841523349141511      3.0689638576925518
    36   1      10.352844762973234     0.18542057630989817      1.3962953741370256
    37   1      6.2004394445347657      3.5724776040273127    0.059577223038161264
    38   1      9.8537898825146613      3.4266429684297179      3.8563728999985472
    39   1      6.7275356659009162     0.85797898234454806      7.7830071691254261
    40   1      4.5296123278725133      5.0224117524129497      1.4146902238134089
    41   1      10.050610101684867      4.1740448674862591      1.9559188955266933
    42   1     0.18896575512246905       6.646876333166972      9.4208353687105273
    43   1       4.662479197962341      6.2102741283295018      8.5251789372651956
    44   1      2.5866263173353445      10.130558196316599      4.7694040476378916
    45   1      4.8451058042022623       5.679016255549584      1.1495199256795985
    46   1     0.96334475397213737      8.4219669970803466      7.3502882204956563
    47   1      6.6662140924806863      5.5348510177785784      4.1997827963100747
    48   1      8.2354740070694561      7.8898135872739203      9.2302767703872632
    49   1      7.8190272257872948      7.5544875349763174      2.0196806451091902
    50   1      8.2319152207988964      1.0752582478137427      3.7178281304786935
    51   1     0.23266571100589317      2.4261702551953448      9.8177211553622215
    52   1      2.5527127195053936      10.070157468577975      1.9027776959266873
    53   1      6.3018194274545181      10.072110128659688      8.9787613028531155
    54   1      2.4332688462451415     0.46318732466716028      6.3156853257482908
    55   1      1.1106750337449824      7.4918862521240044      7.8503015851485429
    56   1      2.6414808804384222       5.649155287234521      0.8911101209210841
    57   1      5.3343782405259788      5.3830613854246394       2.679061961967875
    58   1      4.7068316426099841        8.68557545917173      5.0850604078760853
    59   1      7.0676781499454364      1.6312816941333494      4.9209620084567121
    60   1      2.2101957644608774      6.0391370025637343      9.6436936513964042
    61   1      1.8771236425816227      3.7377135950463014    0.038332533624499732
    62   1      7.0475824288585613      6.5420290644989336      6.4586325033752701
    63   1      6.6308507629715905      4.3112382197179215      5.3956466008765176
    64   1      5.8330518688084112      10.635596951355922      0.6507309483345125

Velocities

     1                       0                       0                       0
     2                       0                       0                       0
     3                       0                       0                       0
     4                       0                       0                       0
     5                       0                       0                       0
     6                       0                       0                       0
     7                       0                       0                       0
     8                       0                       0                       0
     9                       0                       0                       0
    10                       0                       0                       0
    11                       0                       0                       0
    12                       0                       0                       0
    13                       0                       0                       0
    14                       0                       0                       0
    15                       0                       0                       0
    16                       0                       0                       0
    17                       0                       0                       0
    18                       0                       0                       0
    19                       0                       0                       0
    20                       0                       0                       0
    21                       0                       0                       0
    22                       0                       0                       0
    23                       0                       0                       0
    24                       0                       0                       0
    25                       0                       0                       0
    26                       0                       0                       0
    27                       0                       0                       0
    28                       0                       0                       0
    29                       0                       0                       0
    30                       0                       0                       0
    31                       0                       0                       0
    32                       0                       0                       0
    33                       0                       0                       0
    34                       0                       0                       0
    35                       0                       0                       0
    36                       0                       0                       0
    37                       0                       0                       0
    38                       0                       0                       0
    39                       0                       0                       0
    40                       0                       0                       0
    41                       0                       0                       0
    42                       0                       0                       0
    43                       0                       0                       0
    44                       0                       0                       0
    45                       0                       0                       0
    46                       0                       0                       0
    47                       0                       0                       0
    48                       0                       0                       0
    49                       0                       0                       0
    50                       0                       0                       0
    51                       0                       0                       0
    52                       0                       0                       0
    53                       0                       0                       0
    54                       0                       0                       0
    55                       0                       0                       0
    56                       0                       0                       0
    57                       0                       0                       0
    58                       0                       0                       0
    59                       0                       0                       0
    60                       0                       0                       0
    61                       0                       0                       0
    62                       0                       0                       0
    63                       0                       0                       0
    64                       0                       0                       0
