(written by ASE)

64 atoms
1 atom types

0.0      10.887404441833496  xlo xhi
0.0      10.887404441833496  ylo yhi
0.0      10.887404441833496  zlo zhi

Atoms # atomic

     1   1       5.443702220916748       5.443702220916748       5.443702220916748
     2   1       4.082776665687561       4.082776665687561       4.082776665687561
     3   1      6.8046277761459351       4.082776665687561      6.8046277761459351
     4   1      6.8046277761459351      6.8046277761459351       4.082776665687561
     5   1       4.082776665687561      6.8046277761459351      6.8046277761459351
     6   1      3.5888578198639891      6.3231442406632823      9.2899078554349899
     7   1      3.8294990019248019      3.4621740488963155      7.2207085553390016
     8   1      7.3633474865256971     0.89293802231196651       4.291673980388083
     9   1      8.6670138319476564      2.7795457589212447      3.3409426707523551
    10   1       4.010001952426137      1.7211012998976827      10.402318641108707
    11   1      5.0577903320090911      2.7959188364193039      7.6283868610398713
    12   1      3.2299905002170135      5.4395223991865009    0.022900383455249251
    13   1      1.9959573501250816       4.934118290997958      3.5983657624320244
    14   1      8.8607853315884881      1.7632656815242171     0.42572142996539242
    15   1      5.0769168613937268      4.8683222771445571      5.4679109229268192
    16   1      4.4536769529534013       2.328106679503108      7.3445996135577047
    17   1      2.8915339619658766      9.0803586806307521      3.1090878101193766
    18   1       5.595929887685827      4.7703067230030172      10.016935962668526
    19   1      10.251275938550066      9.0773106100412519      4.9972432683288162
    20   1      1.8642958858517318       6.560786022625166      9.0564095545703935
    21   1      4.9450840769935667      3.4001139818991533      6.4141178237590566
    22   1      6.3304000373976237      5.0454685861461712      8.2575840375261009
    23   1      8.3393056848342439       10.45614106534174      4.1120399603784108
    24   1      1.1446572569666387      7.1829117013013501      3.2465501479289287
    25   1      10.168523125781689       7.935624199819074      9.5410683528579057
    26   1       1.034601596867617      6.9759615306936098      4.6809960483350892
    27   1      6.5568378724300374      3.0426412340420086     0.10227991043009776
    28   1      5.1036298223786503      2.5246089181349163      5.8695579814361167
    29   1      8.7656676184555522      1.0861676571577732      1.6384187348706973
    30   1      10.597030454627372      10.437009668908047      1.0076744857241806
    31   1      3.4140798169335653     0.44199813989212089      8.2051464509847847
    32   1     0.81875932763253445      3.2637483524771369      2.8836314966468137
    33   1      8.9465446827944106      8.3761109587439933       3.503657205889823
    34   1       2.868675054894311      3.5467925638032511      7.6198915891456522
    35   1      8.2288106924403337     0.64965601999150735      6.6020248537560065
    36   1      6.9491129412749615      8.3973455693102323      1.7904692410540974
    37   1      7.5823484705988449      7.5180151672220745     0.65776156293247823
    38   1      1.2538482858006645       5.588573505270972      6.3175893153394327
    39   1      7.9809195541040481      9.8897735985435702     0.28235927556818119
    40   1      4.2077887675390855      8.7139776106494082      4.0283536476008805
    41   1     0.57318522911737091      1.5898157340465104      1.3065366064859063
    42   1    0.086293428722456156      2.5987150937833974      3.0401171824009907
    43   1      9.5995826123819938      8.3937562828655814     0.96377767798576741
    44   1       2.242774979674337      5.0738240139529012      4.3236151254701554
    45   1      4.6181624450077834      1.5362820880575327      1.9214089219522776
    46   1      3.5159821964521143       6.001409585092631      6.2734412867521883
    47   1      1.0311233602589525    0.085765394458501731    0.036168861616947101
    48   1       5.491653037167282      1.3256543751822392      2.4615219037867035
    49   1      3.6208349811090841      10.608151337252934      2.7420730503507968
    50   1      4.5253163459047698      7.4643355097613835      9.8597160014465999
    51   1      8.2285653931678553     0.69261287888076595     0.60736229653628016
    52   1      8.8375643160670734      2.8075673071626568      3.3911323295691602
    53   1      6.9665785090513737     0.64999967421368154      9.4508786891302634
    54   1      3.3037149369844485     0.13968301005934336      7.7080364433294335
    55   1     0.19444666074190842      2.4249695541929555      9.7396134542139521
    56   1      8.9666806381534911      2.2274304718770139      8.2326881081891656
    57   1       7.161999613852629      6.2315165261742322      5.8502805735307106
    58   1      7.2694582165747761      1.4801010918514237      7.5389214142119272
    59   1      6.4608953567168896      7.1215271807133149      4.3439373265731547
    60   1       8.084762912786573      5.5022963000453728      9.0564997572129187
    61   1      9.7939900730996214      6.3598106414399354      6.0999238495275563
    62   1        10.6288200722488      8.9726080549651783      7.1273916503571968
    63   1     0.34767537810517979      2.2653673346925416     0.02696734541564183
    64   1      7.7476496800751988      3.1512568965599996     0.51587568591114419

Velocities

     1                       0                       0                       0
     2                       0                       0                       0
     3                       0                       0                       0
     4                       0                       0                       0
     5                       0                       0                       0
     6                       0                       0                       0
     7                       0                       0                       0
     8                       0                       0                       0
     9                       0                       0                       0
    10                       0                       0                       0
    11                       0                       0                       0
    12                       0                       0                       0
    13                       0                       0                       0
    14                       0                       0                       0
    15                       0                       0                       0
    16                       0                       0                       0
    17                       0                       0                       0
    18                       0                       0                       0
    19                       0                       0                       0
    20                       0                       0                       0
    21                       0                       0                       0
    22                       0                       0                       0
    23                       0                       0                       0
    24                       0                       0                       0
    25                       0                       0                       0
    26                       0                       0                       0
    27                       0                       0                       0
    28                       0                       0                       0
    29                       0                       0                       0
    30                       0                       0                       0
    31                       0                       0                       0
    32                       0                       0                       0
    33                       0                       0                       0
    34                       0                       0                       0
    35                       0                       0                       0
    36                       0                       0                       0
    37                       0                       0                       0
    38                       0                       0                       0
    39                       0                       0                       0
    40                       0                       0                       0
    41                       0                       0                       0
    42                       0                       0                       0
    43                       0                       0                       0
    44                       0                       0                       0
    45                       0                       0                       0
    46                       0                       0                       0
    47                       0                       0                       0
    48                       0                       0                       0
    49                       0                       0                       0
    50                       0                       0                       0
    51                       0                       0                       0
    52                       0                       0                       0
    53                       0                       0                       0
    54                       0                       0                       0
    55                       0                       0                       0
    56                       0                       0                       0
    57                       0                       0                       0
    58                       0                       0                       0
    59                       0                       0                       0
    60                       0                       0                       0
    61                       0                       0                       0
    62                       0                       0                       0
    63                       0                       0                       0
    64                       0                       0                       0
