(written by ASE)

64 atoms
1 atom types

0.0      10.887404441833496  xlo xhi
0.0      10.887404441833496  ylo yhi
0.0      10.887404441833496  zlo zhi

Atoms # atomic

     1   1       5.443702220916748       5.443702220916748       5.443702220916748
     2   1       4.082776665687561       4.082776665687561       4.082776665687561
     3   1      6.8046277761459351       4.082776665687561      6.8046277761459351
     4   1      6.8046277761459351      6.8046277761459351       4.082776665687561
     5   1       4.082776665687561      6.8046277761459351      6.8046277761459351
     6   1       2.048736603510207       7.043860758679557      10.155628690479716
     7   1      4.9330439710360849       10.32405065181149       7.035739276152924
     8   1       6.145762366487304      10.687845696393822     0.70537647168058726
     9   1      8.1616960327623929      4.2992597630484966      2.9359149599679881
    10   1      1.8706092596536479     0.57418589440351298      1.6975270988496902
    11   1      8.8854229828554594      7.7635733667103182      10.757824127736967
    12   1      7.1467547183260081      3.9116914551117361      7.3009447792749143
    13   1      3.0996188039437982      5.0634409759643972       7.076930734672942
    14   1      1.1397486757575734      8.0742293207472358      7.8649883923832817
    15   1      1.2053417336652927      3.0770548400450934      2.6645510174390665
    16   1      9.6012114514664404       8.675782307528948      3.1400594390292724
    17   1      4.2435716366769043      8.9750921968039279       5.913548966573785
    18   1      1.5146946164346531      3.1950992744664575      9.2035099473927744
    19   1      5.1181810011796642       10.47033857191127      7.1877988674945641
    20   1      5.0431693921715919      8.2559720708783857      6.8365698946378188
    21   1      6.7922090137718101      10.457552509568302      9.6074016889272116
    22   1      3.1583332614191022      10.211395338576096      7.4518836514536702
    23   1      5.8649342848318611      10.232204244584807      6.7754858332115759
    24   1      2.3644821929811144      5.5743182430526304      2.1536172925817709
    25   1      9.9063319483757368     0.78297735078704278      10.638573638559251
    26   1      10.790655293856616      8.4346972505941267      6.5856540475475072
    27   1      8.0811340410095909      4.9001141660555447      3.6228353382715568
    28   1      3.6915113472870189      2.4820592284580272      2.1353540154648982
    29   1      6.3479564567564353      5.3497344292410389     0.86794329187917185
    30   1     0.50433270845610423      9.2995089208749846      7.4221991947844117
    31   1      2.9499560720278168      6.0438431145320237      5.8490962582601469
    32   1      3.2177521431279388      1.7583626163040833      8.6583796869203411
    33   1      6.6948252025978832      8.2694817011811779      3.3668515952330438
    34   1      7.4939531256235909      1.1463470963992677     0.44472693206347458
    35   1      2.0374886909042544      10.679358860717969      7.4047167545712682
    36   1      3.2300184046316076      2.4364400531757866      2.0319310075859391
    37   1      7.9976875115156076      8.9661783586907973      7.8543016505336141
    38   1      10.717136246559392        6.28525329034386      4.4582273193518631
    39   1      1.0219024924678024     0.88097351784983857      4.7705711660017869
    40   1      7.4903255517263574      6.4880567351549416      7.4419801800322603
    41   1      10.092453095838664      8.0851185318376793      4.4002039828426689
    42   1     0.55151712671511177      6.6315347455990832      7.9965181218621524
    43   1     0.47246813827919709      0.8696723921741949      5.0979139599659788
    44   1      6.9882349305358957      6.0867951469309673      4.5145679547670454
    45   1      4.2211176680868903    0.025029509554181928      8.4344156106886885
    46   1      7.3245584034202693      8.4004033739978468     0.51738353826777939
    47   1      6.5069966943257214      8.8999151081279138      2.1284505930822917
    48   1      1.4512242408557086      2.6742946874164346      6.2896907412041969
    49   1      2.7235383541315059      10.228410542079757      9.1607233946617725
    50   1       2.054918242517644      7.7689634613061003      7.8640058974136196
    51   1      3.1981161959419921      2.5151042202662524       5.092787334959155
    52   1       4.832229863686706      8.7702251231926311       6.010172220215054
    53   1      4.4224142745098902      8.4624238556626779      5.8152702673132239
    54   1      1.2058561807506294      3.6277406747812506      1.9819141290106614
    55   1      2.1219918567485365      3.3152709337957162      2.3879768988945074
    56   1      6.7728115519896619      6.5548709356710901      7.0136500117722562
    57   1      6.7196309292922933      5.2279420425757621      8.6859596315773047
    58   1      6.9555880633405422      4.9657164713564725      1.4156503303574084
    59   1      6.7845768319103854      10.514245843805156       9.355102950964806
    60   1      6.9872336163098794      2.6056508009247494      4.3062533880736282
    61   1      6.5455826592504991      1.3033074816714816      1.9130846457149318
    62   1      2.8135618892513321      7.5874653615075545      5.3148983633797968
    63   1       10.28030950852542      10.578925681074793      4.2031790231421269
    64   1      5.7444715759689871      2.2262641646879615      9.4636387938782605

Velocities

     1                       0                       0                       0
     2                       0                       0                       0
     3                       0                       0                       0
     4                       0                       0                       0
     5                       0                       0                       0
     6                       0                       0                       0
     7                       0                       0                       0
     8                       0                       0                       0
     9                       0                       0                       0
    10                       0                       0                       0
    11                       0                       0                       0
    12                       0                       0                       0
    13                       0                       0                       0
    14                       0                       0                       0
    15                       0                       0                       0
    16                       0                       0                       0
    17                       0                       0                       0
    18                       0                       0                       0
    19                       0                       0                       0
    20                       0                       0                       0
    21                       0                       0                       0
    22                       0                       0                       0
    23                       0                       0                       0
    24                       0                       0                       0
    25                       0                       0                       0
    26                       0                       0                       0
    27                       0                       0                       0
    28                       0                       0                       0
    29                       0                       0                       0
    30                       0                       0                       0
    31                       0                       0                       0
    32                       0                       0                       0
    33                       0                       0                       0
    34                       0                       0                       0
    35                       0                       0                       0
    36                       0                       0                       0
    37                       0                       0                       0
    38                       0                       0                       0
    39                       0                       0                       0
    40                       0                       0                       0
    41                       0                       0                       0
    42                       0                       0                       0
    43                       0                       0                       0
    44                       0                       0                       0
    45                       0                       0                       0
    46                       0                       0                       0
    47                       0                       0                       0
    48                       0                       0                       0
    49                       0                       0                       0
    50                       0                       0                       0
    51                       0                       0                       0
    52                       0                       0                       0
    53                       0                       0                       0
    54                       0                       0                       0
    55                       0                       0                       0
    56                       0                       0                       0
    57                       0                       0                       0
    58                       0                       0                       0
    59                       0                       0                       0
    60                       0                       0                       0
    61                       0                       0                       0
    62                       0                       0                       0
    63                       0                       0                       0
    64                       0                       0                       0
