(written by ASE)

64 atoms
1 atom types

0.0      10.887404441833496  xlo xhi
0.0      10.887404441833496  ylo yhi
0.0      10.887404441833496  zlo zhi

Atoms # atomic

     1   1      8.2181336846887802     0.90114029785294747      3.5760165976317069
     2   1       2.707182149070178      3.5763793550214302     0.88378707779227028
     3   1      6.8142327352251755      7.5703112848707974      4.9671616604564974
     4   1      5.4825185594968957      8.9942495508325919       8.994694723586349
     5   1      6.7287550239246912       2.220040831293602      4.9646814122569936
     6   1       1.342640295274073      10.360839053284508      7.7220048741233427
     7   1      8.2304914467147228      3.4838015925564321      6.3157936987072958
     8   1      2.6928063462701886      6.3909175743136188      3.6132719113442704
     9   1      9.5532405180798037      7.6375979136154228       7.745732062746697
    10   1      2.6609237680117701       3.524843145965491      6.3291988496903286
    11   1      6.7985342307264318      2.1924848974119868      10.355738385872655
    12   1      4.0710324763127517      4.9917928223247259       10.44813379623298
    13   1      10.825822643523679     0.71327626012266876      6.3277601499890466
    14   1       8.190132578053408      3.5019089618685086     0.83150020753675591
    15   1      5.4251509767306629      8.9968206506144952      3.6307949102995565
    16   1      5.4778014155507435     0.78833686409124937     0.88156015949618904
    17   1      10.872431452114199      8.9325301772694274      3.5964760495181167
    18   1      8.1385866348993545       6.266508662075239      9.0219047725149721
    19   1      5.4520326620828996     0.76777074271300449      6.3235225726099884
    20   1      6.8661174249936039      10.398841621262306      2.2997906747937407
    21   1      9.5603055264911063      2.2359612732293499      2.1976819323951702
    22   1      1.3715170651523039      2.1261053243766384      5.0242193744327608
    23   1      5.4284102772492417      3.5750201504547476      3.5655219419848265
    24   1       5.372561862728702      3.5925522345682737       9.143717925256226
    25   1      1.3234035272282938      2.1994465621483101      10.404639250099137
    26   1      4.0984144943080594       2.240235515711305      2.1538583737450665
    27   1      6.7394242443977532       4.931423568170004      2.2156189549902479
    28   1      2.7313123293554611      9.0272053134081034     0.82616892311708057
    29   1       2.696732270274623      8.9687916395645289      6.3977444217910602
    30   1      9.5438834540325388      7.6237125471254217      2.2344873685398881
    31   1      10.844568569672049      6.3472036865022687      6.2930516008131008
    32   1      6.8639350401963952      10.333115692915328      7.6172783082719207
    33   1      8.1326702500655301      6.1844443745134754      3.6174127966820606
    34   1      8.1452454069493569     0.84335374328038171      9.0329653037322259
    35   1      4.0406341857817836      10.379882842835173      4.9961403950124748
    36   1      9.4699432447569052      10.392879810637282      10.444491945658513
    37   1      1.3482478658452237      10.377028156328208      2.2576975143184086
    38   1      5.3977485171293154      6.1670716051390855      6.3029135400825567
    39   1      6.7632143801889129      7.6293297706772023      10.398939611183323
    40   1      9.5940971236246924      4.9141877251090875      4.8852216448806587
    41   1      10.866062756188001     0.86041972632920505     0.87972495753172097
    42   1       5.493264354875123      6.3129967678491425     0.89540813082593473
    43   1      9.4909461837880258      10.324571101590664       4.912293794085997
    44   1      4.1211617837212486      2.2076554893230025      7.6946261008274064
    45   1      4.0508218928681288      7.6483709644683699      2.1732303646371491
    46   1      1.3606561640638759      7.7070675760971312      4.9838218938489263
    47   1       6.806105412239674      4.8600979376478506      7.6764908271007357
    48   1      1.3582990522055169      7.6025856605783133      10.356014185319225
    49   1      8.2019835180375367      8.9675917497369824      6.3335266297119119
    50   1      2.7223786985761649      6.2978193620694469      9.0453645979101225
    51   1      9.5646845727627579      2.1639824847237321      7.6751371385229845
    52   1       8.135505468376266      8.9668260006853302     0.88753989708524017
    53   1       3.959554340009305      4.9155076688133761      4.9013802477502679
    54   1      1.3935226162891894      4.8755615259121043      2.3140516152359822
    55   1      4.0362911556731547      7.5877612780902268      7.6842664246743766
    56   1    0.049391837939803729      3.6221062543228015      8.9895064492914685
    57   1    0.028199220881210518      6.2398424247612638     0.92282584051432792
    58   1      2.7437521822755002     0.81061959367193737      9.1086797146241452
    59   1      9.5222172984499025      4.9482025575594264      10.380694666617899
    60   1      4.0944348705290281       10.41383083447846      10.449092929367168
    61   1      1.3848277953836288       4.930229194331389      7.6776433443174597
    62   1      10.849751652447935      9.0234511962353849      9.0407285714482555
    63   1      2.7377303447121051     0.85880759744652124      3.5958290564634581
    64   1    0.043099458356789189      3.5082714928659016      3.6087286832844256

Velocities

     1                       0                       0                       0
     2                       0                       0                       0
     3                       0                       0                       0
     4                       0                       0                       0
     5                       0                       0                       0
     6                       0                       0                       0
     7                       0                       0                       0
     8                       0                       0                       0
     9                       0                       0                       0
    10                       0                       0                       0
    11                       0                       0                       0
    12                       0                       0                       0
    13                       0                       0                       0
    14                       0                       0                       0
    15                       0                       0                       0
    16                       0                       0                       0
    17                       0                       0                       0
    18                       0                       0                       0
    19                       0                       0                       0
    20                       0                       0                       0
    21                       0                       0                       0
    22                       0                       0                       0
    23                       0                       0                       0
    24                       0                       0                       0
    25                       0                       0                       0
    26                       0                       0                       0
    27                       0                       0                       0
    28                       0                       0                       0
    29                       0                       0                       0
    30                       0                       0                       0
    31                       0                       0                       0
    32                       0                       0                       0
    33                       0                       0                       0
    34                       0                       0                       0
    35                       0                       0                       0
    36                       0                       0                       0
    37                       0                       0                       0
    38                       0                       0                       0
    39                       0                       0                       0
    40                       0                       0                       0
    41                       0                       0                       0
    42                       0                       0                       0
    43                       0                       0                       0
    44                       0                       0                       0
    45                       0                       0                       0
    46                       0                       0                       0
    47                       0                       0                       0
    48                       0                       0                       0
    49                       0                       0                       0
    50                       0                       0                       0
    51                       0                       0                       0
    52                       0                       0                       0
    53                       0                       0                       0
    54                       0                       0                       0
    55                       0                       0                       0
    56                       0                       0                       0
    57                       0                       0                       0
    58                       0                       0                       0
    59                       0                       0                       0
    60                       0                       0                       0
    61                       0                       0                       0
    62                       0                       0                       0
    63                       0                       0                       0
    64                       0                       0                       0
