(written by ASE)

64 atoms
1 atom types

0.0      10.887404441833496  xlo xhi
0.0      10.887404441833496  ylo yhi
0.0      10.887404441833496  zlo zhi

Atoms # atomic

     1   1      9.9635411898126449      10.799741101036432     0.65678142036986031
     2   1      10.075916809962223      2.6399732308754977      8.9179115087214882
     3   1      8.6361392195489657      6.7084685145147773       10.23839772674495
     4   1     0.50391158703643768      9.4940740739820626      4.8325738018200752
     5   1      7.3601436703663694      5.3194088199759904      3.4509266229952686
     6   1      5.8454888014990161      3.9352849621209884      10.283771602754712
     7   1       9.979784803805785       10.83720245315908       6.166756869300059
     8   1     0.46368757619274703      1.2857890252953155      2.0608639918807796
     9   1      8.6327575938640848      6.7182000168695026      4.8221394975815031
    10   1      4.5780943014101467      10.749716272947694     0.75761572597282623
    11   1      5.9694304770279132      6.6005134727888048      2.1791968800762618
    12   1      7.2741299347297286      5.3429465181560545      8.9075323643722299
    13   1      8.6890732450941073      9.5051709458322762      2.1351815596933079
    14   1      4.4681470142701301      5.3277610006279303      6.1927540496036499
    15   1     0.45211219230273514      6.7619800965480295       2.106639561672722
    16   1      3.2582261986169385      3.9949595261402919       2.075949734903233
    17   1      1.7804809207441252      2.7483882087373672       6.180180839539446
    18   1       10.01389762617714      5.4176498807238431      6.1474288440844589
    19   1      1.8644026364610511      10.753168633078872       8.969432792160319
    20   1      7.2355971828746419      2.5915543667406382      6.1997587066066444
    21   1     0.57745290108309888      4.0573927335651661      10.187226870838231
    22   1       3.187087138308641      3.9990358419605911       7.535718895932348
    23   1      10.054211069047255      5.3964581001893066     0.64745931795832234
    24   1      10.001520395954969      2.6424789499650672      3.4533338654589159
    25   1      8.6844488995499773      3.9504214846886043      7.3945991329913454
    26   1        3.27052166241495       6.767327361112109      10.265027623425965
    27   1      4.5596037331023069      5.3414305946097329     0.73873903843978894
    28   1       7.304044765054357      10.754624854156759      8.9549516988657274
    29   1      1.8819906916387339      5.4486581747366358      8.8162174389025836
    30   1      7.2671999058122765      10.789751969551617      3.4138312729617155
    31   1       8.538523087900046      1.3011318296254686      4.8144654590981872
    32   1      4.5650366577297916      8.1104362720928975      8.8319860289077496
    33   1     0.46015563980948571        9.40612909327956      10.252847670925576
    34   1      8.6590558822693424        1.25938609533533      10.203622985701827
    35   1      7.2631771275316055      8.0664277655786236      0.7457595944697033
    36   1      1.8395967475316723      8.0664946063856746     0.75301384997184329
    37   1     0.49747446851224453      6.7934556272703048       7.595316236106612
    38   1      3.1860115204670194      1.2890578165595556      10.304166485123631
    39   1      4.5933385479968933      7.9968620599955216       3.439843378882415
    40   1      3.2335992548578929      9.3972405638215264       2.125033762409231
    41   1     0.53217701499435321      1.2357412409585251      7.5662469744381724
    42   1      4.5125465070586586      2.5619687111672391       8.833337770665878
    43   1     0.54716464641956364      4.0817772982811675      4.7215132583257287
    44   1       10.04400519164443      8.1712458319523193       3.536814788766236
    45   1      5.9274570459593861      4.0023538715377924      4.8054039871636576
    46   1       5.902829128790529      1.2005443645271825      7.5676967061173173
    47   1      1.8035528423294238      8.0823164094605318      6.1722176983421377
    48   1      3.1441156377134689       1.374153545626541      4.8194788440969489
    49   1      7.3325734598075201      2.6678513634046936      0.6442357902503133
    50   1      8.6500505436339381      9.4799927276500284       7.524314426581725
    51   1      4.5463371307824332      2.6239233254348306      3.4480729098981158
    52   1      5.8578861488572898      9.5176799108489263       4.747589609293982
    53   1      5.9391133039812303      6.7006903211816393      7.5158697719976999
    54   1      1.8932121599448095      5.3174542130746545      3.3537550151602318
    55   1      1.8086085706549824        2.64994905909289     0.75620095592940828
    56   1      3.1931193589100246      6.7340322029823483      4.7256457074451532
    57   1      3.2018433821099279       9.439341836045287      7.5661457398177845
    58   1      7.1703073421231807      8.1519275408348335      6.1096144686702019
    59   1      8.7155707580407693      3.9917501939920328       2.022992834227523
    60   1      9.9869997173280467      8.0354966954108704      8.8950947827417508
    61   1      5.9355298579954479      9.4465113237763489      10.197774739554802
    62   1      6.0326664230772735      1.2699234187789443      1.9937606886506387
    63   1      1.8771341878545797      10.778804353872488      3.4151982648068895
    64   1      4.4574476180929139      10.879881281870951      6.1928234861701981

Velocities

     1                       0                       0                       0
     2                       0                       0                       0
     3                       0                       0                       0
     4                       0                       0                       0
     5                       0                       0                       0
     6                       0                       0                       0
     7                       0                       0                       0
     8                       0                       0                       0
     9                       0                       0                       0
    10                       0                       0                       0
    11                       0                       0                       0
    12                       0                       0                       0
    13                       0                       0                       0
    14                       0                       0                       0
    15                       0                       0                       0
    16                       0                       0                       0
    17                       0                       0                       0
    18                       0                       0                       0
    19                       0                       0                       0
    20                       0                       0                       0
    21                       0                       0                       0
    22                       0                       0                       0
    23                       0                       0                       0
    24                       0                       0                       0
    25                       0                       0                       0
    26                       0                       0                       0
    27                       0                       0                       0
    28                       0                       0                       0
    29                       0                       0                       0
    30                       0                       0                       0
    31                       0                       0                       0
    32                       0                       0                       0
    33                       0                       0                       0
    34                       0                       0                       0
    35                       0                       0                       0
    36                       0                       0                       0
    37                       0                       0                       0
    38                       0                       0                       0
    39                       0                       0                       0
    40                       0                       0                       0
    41                       0                       0                       0
    42                       0                       0                       0
    43                       0                       0                       0
    44                       0                       0                       0
    45                       0                       0                       0
    46                       0                       0                       0
    47                       0                       0                       0
    48                       0                       0                       0
    49                       0                       0                       0
    50                       0                       0                       0
    51                       0                       0                       0
    52                       0                       0                       0
    53                       0                       0                       0
    54                       0                       0                       0
    55                       0                       0                       0
    56                       0                       0                       0
    57                       0                       0                       0
    58                       0                       0                       0
    59                       0                       0                       0
    60                       0                       0                       0
    61                       0                       0                       0
    62                       0                       0                       0
    63                       0                       0                       0
    64                       0                       0                       0
