(written by ASE)

64 atoms
1 atom types

0.0      10.887404441833496  xlo xhi
0.0      10.887404441833496  ylo yhi
0.0      10.887404441833496  zlo zhi

Atoms # atomic

     1   1      5.7555982990534176      5.7604179754997062      9.9378269472942407
     2   1      4.3044249999778401      4.3803058639475125      8.6807071122348702
     3   1      2.9926803265308877      5.7659326665513504      7.2152568114551627
     4   1      4.4397928843431487      4.4117703626919251      3.1390698057209931
     5   1      1.6221428361188117      4.3584898032539172      5.8061260555447234
     6   1      2.9962417085609445      2.9747121548218445      10.014982004707065
     7   1      1.6457541889746068      9.8265155885384843     0.47551446484278515
     8   1      5.6537251218292113     0.26740096811353986      4.5210424278927519
     9   1      5.7543536323745457      2.9999481286529033      1.8229569557452834
    10   1     0.21586960582728665      8.4831938252789314      7.2653043524395002
    11   1      4.3459279496375132      9.9030859511245808      8.6526683670867897
    12   1      7.1046164565294134      4.4062835760548751      5.9240987821099793
    13   1      9.7820443878938477      7.0140666311715449      5.8807755561029467
    14   1      9.7959128819471175      9.8158593468629078      8.6592375854341412
    15   1      8.4095456389467245      8.3859144934247638      10.015987861512201
    16   1      9.7673738041559659      9.7311610123514356      3.2151768252368527
    17   1      8.3694126013616597     0.26664262103232872      7.2078452691509938
    18   1     0.21870555419538107      8.4828265253100881      1.7364938292457026
    19   1      9.6820083594537323      1.6029426520584451     0.40562493826241663
    20   1      7.1342230404137581      9.8151195554062269     0.52914451896183579
    21   1      7.1462433537050742       4.330970534475199     0.42223098517534297
    22   1      9.7950647175314316      1.6119431236447923      5.8600425760595272
    23   1      5.6725872082150772      8.5491403931831655      7.2982276680212976
    24   1      5.7601240057366567     0.28240567476919232      9.9630927723595164
    25   1       8.384146781207221      8.3324846778156711      4.5080058747583109
    26   1      1.5893043694255766      7.0664789090577642      3.0827953621729876
    27   1      9.8443964778344366      7.0631362197653402     0.40937451285601512
    28   1      2.9854096041794378      8.4383027605356347      4.5491645618146777
    29   1      8.4029446225455331      5.7229313147219614      7.2788516212550007
    30   1      8.4303668748130463      5.7138786034757345      1.8395991810562009
    31   1      3.0605263414471437      3.1205626894463592      4.5399074345080521
    32   1     0.30905258584253659      5.6835834943847772      9.9614859972307954
    33   1      8.4176236425017805      3.0560772096690698      4.5434555132706862
    34   1      7.1344274564741568      9.7664867033478231      5.8232509298871378
    35   1       9.825212517270927      4.3803814654428663      8.6363682953245871
    36   1      6.9921396017594475      7.0745179762203634      3.1328003975955596
    37   1      1.5856524602830575      7.0970595516934054      8.6311644464727237
    38   1     0.25721240929360967      2.9874310518878247       7.196708811968449
    39   1       5.678790424473334      5.7892828211077472      4.5666969703981408
    40   1      5.6704839940825309      8.4755908457118494      1.7426018135774086
    41   1      1.5991875614759152       4.341247795264195       0.474746444501573
    42   1      4.3761393454846882      9.8021589282370769      3.1373397320161587
    43   1     0.25818614357496905     0.30372953484751619      10.027363128568481
    44   1     0.26618974211756452      5.7531589340659934      4.4320825052268731
    45   1      7.0319358395497602      1.6792605770334461      3.2498350815725416
    46   1     0.23839481584787414      2.9341894288422736      1.7750515652859491
    47   1     0.25085296076061958     0.32432165437947447      4.4295655919244723
    48   1      3.0181635464540477     0.35348209210025061      1.8291121504528434
    49   1      7.0731571493039951      1.6848985666612037      8.5483149416630795
    50   1      4.4124407175820579      1.6020183994424997     0.44818663332697994
    51   1      2.9274131986750263     0.34960191835695298      7.2597565654542677
    52   1      1.6739175305785494      1.7006355208474986      3.2080138269045335
    53   1      4.3598895665627424      7.1603610406700682     0.28358262862805717
    54   1      5.6128133563950087      3.0354276183994955      7.2571802741533702
    55   1      4.4209638938908711      7.1595011953366452      5.9457201608412902
    56   1      1.5704761901481419       1.653373716508483      8.6150441310556971
    57   1      3.0384675772405672      5.7389737573540742      1.6732890323103078
    58   1      8.4828751958006592       2.990172822856664      9.8902006009808474
    59   1      2.9429669895818051      8.5729435077718108      9.9808639908167152
    60   1      4.3613766122846584      1.6750367896267164      5.8687805514667275
    61   1       1.566704876068755      9.8808870159051594      5.8965733484024554
    62   1      7.0621057032449812      7.2028075489069465      8.6063704006960506
    63   1      8.4429958937064384     0.29316992437509448      1.9180876476757049
    64   1       9.852290831405071      4.3643896401209474      3.1885650988723171

Velocities

     1                       0                       0                       0
     2                       0                       0                       0
     3                       0                       0                       0
     4                       0                       0                       0
     5                       0                       0                       0
     6                       0                       0                       0
     7                       0                       0                       0
     8                       0                       0                       0
     9                       0                       0                       0
    10                       0                       0                       0
    11                       0                       0                       0
    12                       0                       0                       0
    13                       0                       0                       0
    14                       0                       0                       0
    15                       0                       0                       0
    16                       0                       0                       0
    17                       0                       0                       0
    18                       0                       0                       0
    19                       0                       0                       0
    20                       0                       0                       0
    21                       0                       0                       0
    22                       0                       0                       0
    23                       0                       0                       0
    24                       0                       0                       0
    25                       0                       0                       0
    26                       0                       0                       0
    27                       0                       0                       0
    28                       0                       0                       0
    29                       0                       0                       0
    30                       0                       0                       0
    31                       0                       0                       0
    32                       0                       0                       0
    33                       0                       0                       0
    34                       0                       0                       0
    35                       0                       0                       0
    36                       0                       0                       0
    37                       0                       0                       0
    38                       0                       0                       0
    39                       0                       0                       0
    40                       0                       0                       0
    41                       0                       0                       0
    42                       0                       0                       0
    43                       0                       0                       0
    44                       0                       0                       0
    45                       0                       0                       0
    46                       0                       0                       0
    47                       0                       0                       0
    48                       0                       0                       0
    49                       0                       0                       0
    50                       0                       0                       0
    51                       0                       0                       0
    52                       0                       0                       0
    53                       0                       0                       0
    54                       0                       0                       0
    55                       0                       0                       0
    56                       0                       0                       0
    57                       0                       0                       0
    58                       0                       0                       0
    59                       0                       0                       0
    60                       0                       0                       0
    61                       0                       0                       0
    62                       0                       0                       0
    63                       0                       0                       0
    64                       0                       0                       0
