(written by ASE)

64 atoms
1 atom types

0.0      10.887404441833496  xlo xhi
0.0      10.887404441833496  ylo yhi
0.0      10.887404441833496  zlo zhi

Atoms # atomic

     1   1       6.760692599837455      5.5233174093929733       7.900617787240833
     2   1      1.2789815648966183        8.29991243870586      10.636160231166798
     3   1      5.3264449505628875      4.2124079215642212      3.8738018026720624
     4   1      10.821794673724014      1.4311092138075736      6.5918741362424953
     5   1      2.6182121678362478       6.941128385061802      3.8270304346430351
     6   1      10.796586604307549      9.5813746573894036      9.2525808338663182
     7   1      10.836507438553724      4.0935477697208853      9.2432198761798077
     8   1      3.9668137059129549      8.2695122013552691      7.8847369306374162
     9   1      1.3458154769614481      5.5567280788203561       7.976380219683449
    10   1      2.6376253664103473      1.5001435998686077      3.8212818007667124
    11   1      9.4534647145292752       2.827423569435922      2.3998065860977533
    12   1      9.4696460302944843      5.5214302922385627      5.2993173169982981
    13   1      6.6614443844047173      2.8697850665492695      10.647852829821602
    14   1      8.0456526044433758      1.4822630350425925      9.3356068503217671
    15   1      10.697192377403098      9.6867417268967415      3.7756921522487517
    16   1      9.5025550691990475      5.4781914284151867      10.581773878183014
    17   1      5.4061834376152262      1.4538240562270488      6.5327862138695423
    18   1      4.0581299292623498      2.8669024756277111      7.9816035367315408
    19   1      9.3988084025577905      8.2951076878766798      7.8514274958304213
    20   1      2.6183529877889669      1.4616319385594352      9.3263296058790388
    21   1      10.837140803871023      1.4933683431111717      1.0926320717154283
    22   1      2.6331755856923991      6.9138216440919109      9.2893776715577019
    23   1      4.0404583230758533       2.853314648070068      2.5275309321538373
    24   1      8.1596960000698573      4.1507647984362848       6.577914790606826
    25   1      10.833956455907924      6.8976286474089648      1.0567680850933243
    26   1      10.884422563111173      6.9445580322973797      6.6085149014386957
    27   1      1.3444819055197996       2.845667865061472      5.2774120270719891
    28   1      3.9634859422376394    0.080188369690027184      10.662432561977084
    29   1      6.7568755354969312    0.060672592987206286       7.892613762831445
    30   1      2.6888685791130484      4.2497080121281101      6.5931369732378471
    31   1      8.0351929915497067      6.9205887891009183      3.9027818351077883
    32   1      4.0358716160444317      5.5748004053792215      10.690153326586767
    33   1      1.2161696199376166      8.3525907819405347      5.1504634886356087
    34   1      6.6707131926290799    0.089325012183275376      2.4545519650669831
    35   1      6.7561402866193703      2.8919135917923313      5.1827806943748271
    36   1      8.0540109500241215      9.6588152483469116      1.0154382401451159
    37   1      2.5729565611185734      9.6321989794032561      6.5358887954084821
    38   1      9.3992490327324276      2.8455361302669928      7.9058359127699305
    39   1      2.7063873599591517      4.2305341101326519      1.1218895259474095
    40   1      8.0857596844334694      9.6407533048260348      6.4893890087168415
    41   1      5.3607128695641961      6.9741185414506504      1.0533723449661778
    42   1      6.6787425256935649      5.6187323369883302      2.4798646760381757
    43   1      4.0341863191909226      8.2568591716865285      2.5044174784165847
    44   1      6.6778735952019019      8.2991771898282991      10.573503139485297
    45   1      8.1167108717373253      6.8937778381949784      9.3076420843193546
    46   1      5.2800889040534003      9.6361594594559961      9.1487024324305821
    47   1      4.0127745480390047     0.10502751171812008      5.1614059127957432
    48   1      5.2963493904832717      1.5092908941015111      1.0935265542146411
    49   1      8.0866746896562063       1.530904323319362      3.7747813651351976
    50   1      8.0467233552359403       4.267792993014524      1.1452656380987776
    51   1      5.4084206578318117      4.2392389896062639      9.1913157182151508
    52   1      3.9727492344730706      5.6317098365942115      5.2080082319875203
    53   1      1.2347861636985513       5.503984192658379      2.5008142397646367
    54   1      9.5229733134034404      0.1790911412460936       10.64530768763467
    55   1      9.4656913907006128     0.15933893242579522      5.1741643951940546
    56   1      1.2948636382622993    0.060074812896294905      2.3898083694546983
    57   1      5.4025899330613925        6.91087805282217      6.5596691971015275
    58   1      10.764601006844089       4.110578872251466       3.935023439351653
    59   1      1.3714414636569501      2.8477071586164016      10.651289615395797
    60   1      2.7088181264932416      9.5621446220948201      1.1059926080821043
    61   1       6.727742677720812      8.3564039526418128      5.1465662802206111
    62   1      9.3710746591506222      8.2182511428060252      2.3476452857079124
    63   1       1.303810491191534     0.13977555496922722      7.9961813220674003
    64   1      5.3914573695180934      9.6618328187623206      3.8018032215002791

Velocities

     1                       0                       0                       0
     2                       0                       0                       0
     3                       0                       0                       0
     4                       0                       0                       0
     5                       0                       0                       0
     6                       0                       0                       0
     7                       0                       0                       0
     8                       0                       0                       0
     9                       0                       0                       0
    10                       0                       0                       0
    11                       0                       0                       0
    12                       0                       0                       0
    13                       0                       0                       0
    14                       0                       0                       0
    15                       0                       0                       0
    16                       0                       0                       0
    17                       0                       0                       0
    18                       0                       0                       0
    19                       0                       0                       0
    20                       0                       0                       0
    21                       0                       0                       0
    22                       0                       0                       0
    23                       0                       0                       0
    24                       0                       0                       0
    25                       0                       0                       0
    26                       0                       0                       0
    27                       0                       0                       0
    28                       0                       0                       0
    29                       0                       0                       0
    30                       0                       0                       0
    31                       0                       0                       0
    32                       0                       0                       0
    33                       0                       0                       0
    34                       0                       0                       0
    35                       0                       0                       0
    36                       0                       0                       0
    37                       0                       0                       0
    38                       0                       0                       0
    39                       0                       0                       0
    40                       0                       0                       0
    41                       0                       0                       0
    42                       0                       0                       0
    43                       0                       0                       0
    44                       0                       0                       0
    45                       0                       0                       0
    46                       0                       0                       0
    47                       0                       0                       0
    48                       0                       0                       0
    49                       0                       0                       0
    50                       0                       0                       0
    51                       0                       0                       0
    52                       0                       0                       0
    53                       0                       0                       0
    54                       0                       0                       0
    55                       0                       0                       0
    56                       0                       0                       0
    57                       0                       0                       0
    58                       0                       0                       0
    59                       0                       0                       0
    60                       0                       0                       0
    61                       0                       0                       0
    62                       0                       0                       0
    63                       0                       0                       0
    64                       0                       0                       0
