(written by ASE)

64 atoms
1 atom types

0.0      10.887404441833496  xlo xhi
0.0      10.887404441833496  ylo yhi
0.0      10.887404441833496  zlo zhi

Atoms # atomic

     1   1      9.7621543807471198      4.8065221105670446      1.7969175943498641
     2   1      2.8937724800622107      8.9544273554473079     0.44721719827228767
     3   1      8.4088655499584775     0.78861850399668754       8.613517824471387
     4   1      5.5361969190778382      6.2357268480785706      5.7639027826245979
     5   1     0.20051631706228967      3.4800831670767991      3.2669966210178529
     6   1      4.2583145772107684      7.5223007661518295      4.4388373203782692
     7   1        4.33323208993707        10.3207222391963      1.7401668289341359
     8   1      9.7898284216858542      4.8644977499954791      7.2300643215065179
     9   1      8.3810974127379723      6.2032869927031129      8.5851039920759717
    10   1      9.7570420324175302      2.1342495197988711      10.006655457180159
    11   1      1.5791940484192395      2.1369779875002877       7.184566497980768
    12   1      2.9831798467714066     0.81322597955950471      8.5832512687348981
    13   1       5.707512503309033      3.5155243693708087      8.5818151647931131
    14   1      5.6320297639522323      6.2494344050430186     0.43738308229994161
    15   1      9.7818750145866602      2.0405232959913633      4.5316078179859289
    16   1      9.8154466211028648      10.261363708895772      7.2254464653611308
    17   1      6.9680496557463698      4.8334849134035665      4.5397844604018758
    18   1      4.3898920037703988      2.1343259324690678       9.994448898144924
    19   1      8.3774049448533106      3.4525593557189609      5.8248285027215161
    20   1      9.8142850187279009      10.301725173316584      1.8181340345996233
    21   1      1.5826720416754512      10.262187862536109      4.4580358820889501
    22   1      4.2255262411228216      7.5969178197163387      9.9148668056022871
    23   1      6.9281924176078746      7.5660931756879677      7.1972980493742966
    24   1      7.0270116837837122      10.230236009946111       4.559811393862077
    25   1      3.0375188271443676     0.74884092322776041      3.1607963127119376
    26   1      2.9557942596067903      6.1304298640776551      8.6752904111042426
    27   1       7.097277595491164      10.248061090412875       9.938056023069862
    28   1      2.9654673573728303      6.0677675808771596      3.1798813099446193
    29   1      1.6229303246562523      2.1427387889992531      1.8729942759266009
    30   1      2.9107120820705177      8.9508912820723481      5.8274521666332362
    31   1      7.0965079528002661      4.8440324576502007      9.9512697367899818
    32   1      1.5807013735122268      7.5094874483341414      1.7925378991383383
    33   1     0.17644981400217041      6.1814196657594493     0.36294383826098553
    34   1      8.4652999571854934     0.67191753735005477      3.1974085270090882
    35   1       9.725059679653441      7.5195765165595958      4.4867563385749634
    36   1      1.5645262226758234      4.8333028857688305      4.5064328445030526
    37   1       4.337367783755866      2.1037259838721667      4.5278498071739648
    38   1     0.25701077150704776      8.8631630472878555      8.5980295764919106
    39   1      4.3294585045681231      4.8503872013691023      7.2287391862832351
    40   1     0.21747092580518945     0.77987160566621583     0.50616754539189301
    41   1      6.9831887740734828      2.1212668286739955      7.1967308759241746
    42   1      5.6636169123328841      8.9107764148037631      8.5788650841246294
    43   1     0.23135868526097703     0.78880588538538632      5.8625929097654534
    44   1     0.22503539484660706      3.4767570257511693      8.5599218802544783
    45   1     0.22967095488293943      8.9183203408422855      3.1424111971336686
    46   1      8.5183631217656171        8.97147305912506     0.49730039039096852
    47   1      1.6380402406890227      7.4731773155484689      7.2497233060580015
    48   1      4.2664685067311154      10.253661441527925      7.2577253836477666
    49   1       5.740232051770306     0.75811719426067725     0.41537497596230111
    50   1      6.9725643304517462      7.5545024605934259       1.872641577104929
    51   1      1.5776536273926638      10.349964767811173      9.9845266074671599
    52   1      1.5632444041891489      4.7802484818770097      9.9629798568213914
    53   1      4.2621747960529319      4.7573198137689587      1.7575086114295289
    54   1      9.7198201391084922       7.592858700802708      9.9531776200203694
    55   1      2.9057230323170415      3.4224485455522995      0.4620046723050244
    56   1      7.1075087815490861      2.0253063048793365      1.8797494155479342
    57   1      8.3460312976912974      6.1578852122787566      3.1775989884067712
    58   1      5.6456490650937781     0.64326067697172107       5.855228740072107
    59   1      5.7212375816500867      3.4866218852500594      3.1332880759110822
    60   1     0.25082065572250301      6.2396438491597337      5.8382109408089491
    61   1      5.5695349072393014      8.9374796416905724      3.1976126185995497
    62   1      8.4756265374049349      8.8868480548193816       5.860007533306316
    63   1      8.3564798786071037       3.443771736411378     0.49684033257884508
    64   1      2.9227736030438507      3.4684788242448974      5.8499625929923127

Velocities

     1                       0                       0                       0
     2                       0                       0                       0
     3                       0                       0                       0
     4                       0                       0                       0
     5                       0                       0                       0
     6                       0                       0                       0
     7                       0                       0                       0
     8                       0                       0                       0
     9                       0                       0                       0
    10                       0                       0                       0
    11                       0                       0                       0
    12                       0                       0                       0
    13                       0                       0                       0
    14                       0                       0                       0
    15                       0                       0                       0
    16                       0                       0                       0
    17                       0                       0                       0
    18                       0                       0                       0
    19                       0                       0                       0
    20                       0                       0                       0
    21                       0                       0                       0
    22                       0                       0                       0
    23                       0                       0                       0
    24                       0                       0                       0
    25                       0                       0                       0
    26                       0                       0                       0
    27                       0                       0                       0
    28                       0                       0                       0
    29                       0                       0                       0
    30                       0                       0                       0
    31                       0                       0                       0
    32                       0                       0                       0
    33                       0                       0                       0
    34                       0                       0                       0
    35                       0                       0                       0
    36                       0                       0                       0
    37                       0                       0                       0
    38                       0                       0                       0
    39                       0                       0                       0
    40                       0                       0                       0
    41                       0                       0                       0
    42                       0                       0                       0
    43                       0                       0                       0
    44                       0                       0                       0
    45                       0                       0                       0
    46                       0                       0                       0
    47                       0                       0                       0
    48                       0                       0                       0
    49                       0                       0                       0
    50                       0                       0                       0
    51                       0                       0                       0
    52                       0                       0                       0
    53                       0                       0                       0
    54                       0                       0                       0
    55                       0                       0                       0
    56                       0                       0                       0
    57                       0                       0                       0
    58                       0                       0                       0
    59                       0                       0                       0
    60                       0                       0                       0
    61                       0                       0                       0
    62                       0                       0                       0
    63                       0                       0                       0
    64                       0                       0                       0
