(written by ASE)

64 atoms
1 atom types

0.0      10.887404441833496  xlo xhi
0.0      10.887404441833496  ylo yhi
0.0      10.887404441833496  zlo zhi

Atoms # atomic

     1   1      5.5309132506214382      4.0718582523027749      8.5461390462646136
     2   1      9.5884584850570604      8.1167699252658849      1.7764196927759031
     3   1      9.6782607316797566      5.5096753953558277      9.9124800047446797
     4   1      4.2512953190606027    0.032482160678433791      9.9927013030634839
     5   1       5.554226415605001      1.3801586729881734      5.8944993365642517
     6   1      5.6153812114775405      9.5736704432019337      8.6179481369931068
     7   1      8.2647152378045803      1.4473236255063711      8.6164906180354706
     8   1      1.5052230144995775       2.781517562729249      4.5799836898541173
     9   1      4.1684458142509584      5.4958789336286031      4.5329053732645548
    10   1      2.8549772320279772      9.6414119787984305     0.43489387061842422
    11   1      2.7258158086202968      1.3738487061205973      3.1751635170585928
    12   1       8.278947787127322      9.5490853560647793     0.49650223490434442
    13   1     0.14424232980013318      6.8575124822606313      5.8356982456157311
    14   1      8.2754461075656991      9.5416647286023704      5.8084693774307539
    15   1      2.8315761356914493       6.891266440881509      3.1901906932573922
    16   1      9.5730403225840064    0.025215093683619516      4.3975374888992462
    17   1       9.552969261212354      2.7244903489270769      7.2536351156201704
    18   1      6.7478903139976296      5.4310076590960534      1.7826100924716428
    19   1       9.501442786254529     0.16831034367339726      10.041474975074607
    20   1      9.6528482462028933      8.2054579421244398      7.2833805726376113
    21   1    0.096714744023857158      4.0762262665965636      8.6485852373978105
    22   1      5.5878148945579369      9.6489669368148157      3.1548504011138334
    23   1    0.056448638275665264       9.635463146970892      8.7060060332337343
    24   1      2.8729041960550035       9.597397631825288      5.9595146757488919
    25   1      9.6160702277678638      5.4994176027630601       4.464928596963631
    26   1      8.2978540014246391       6.863565793407929      8.6784935783236961
    27   1      6.9361691865425428       2.830865546529111      9.9975339583072582
    28   1      1.4135018526686309      5.3867515820197411      7.2634652568357865
    29   1      1.3697973744854579    0.042148457250400728      1.7327557733348726
    30   1      4.1721775429980141      2.6991000896409076      7.2174093450181545
    31   1      1.5384673930841757      8.2533016832957173      4.5194109930488082
    32   1      1.4342682531155759      5.4768338461981898      1.8165710629124163
    33   1      9.5680454323716617      2.8333792151321404      1.8564119153190859
    34   1      4.1631112040144274      10.847521895039904      4.5806034274340561
    35   1      5.3726536877209128       4.111215157798199      3.2091582323728289
    36   1      4.2282663897419752      8.2656964348944939      7.3043056388838181
    37   1      4.1332249270442674      8.3399234755945599      1.8779690490028429
    38   1      5.5111763932850408      6.8055966433782373      6.0266170055692214
    39   1      4.1235930369602443      5.5131848621959421      9.9305789378383906
    40   1      5.5808193227131824      1.4674393014943803      0.5001680151366763
    41   1      8.2938857340934078      4.1213629550822759      5.8360318007111118
    42   1      2.7482613409919452      4.1030946486813775       5.880725587732627
    43   1     0.10674113885301573      6.7717115989027548     0.40953463876999407
    44   1     0.10066164703766489      9.5397302388371372      3.1574928842819077
    45   1      8.2458297895832402      4.2322638593675492     0.40328056184909045
    46   1      2.8380262735718702      4.1237951817310829     0.48702604983140674
    47   1      8.2303039030910554       1.477796381887913      3.1742757673105757
    48   1       6.931780406172777    0.086663091238029288      1.8142481826324257
    49   1      6.8320792307077909      8.1977498342977242       4.532149682780954
    50   1      1.5314742547639497      2.7868288111303059      9.9736185771203623
    51   1      4.1283348406216192       2.761986743802936       1.790052134949903
    52   1      2.8019085514589221      1.3234808321908176      8.5856387185323797
    53   1      6.9484120862107375      5.4296912845610734      7.3013659412533229
    54   1    0.083742800965649344      4.0558336555172048      3.2210513534487859
    55   1      2.7606496031919789      6.8740974386276434      8.6267866980808208
    56   1      6.8352162060600676      8.1451668852245689      10.025912099009588
    57   1      10.871219881368916      1.4856049131601736     0.40814473123550954
    58   1      1.4200530629344712      8.2217677479847566      10.082189462787028
    59   1      6.9181688923097227      2.8047048333772011      4.5551818567989528
    60   1      5.3651357192773617      6.8080360083656615     0.41188286826382381
    61   1      8.1554116990198509      6.8448607504716392       3.147527763572441
    62   1      6.9936581210652662    0.043856183088314626      7.2784109910803636
    63   1     0.01109451690824792      1.3388822844621089      5.8747812984842085
    64   1      1.3398896013819623    0.045854664408963242      7.2754109420415602

Velocities

     1                       0                       0                       0
     2                       0                       0                       0
     3                       0                       0                       0
     4                       0                       0                       0
     5                       0                       0                       0
     6                       0                       0                       0
     7                       0                       0                       0
     8                       0                       0                       0
     9                       0                       0                       0
    10                       0                       0                       0
    11                       0                       0                       0
    12                       0                       0                       0
    13                       0                       0                       0
    14                       0                       0                       0
    15                       0                       0                       0
    16                       0                       0                       0
    17                       0                       0                       0
    18                       0                       0                       0
    19                       0                       0                       0
    20                       0                       0                       0
    21                       0                       0                       0
    22                       0                       0                       0
    23                       0                       0                       0
    24                       0                       0                       0
    25                       0                       0                       0
    26                       0                       0                       0
    27                       0                       0                       0
    28                       0                       0                       0
    29                       0                       0                       0
    30                       0                       0                       0
    31                       0                       0                       0
    32                       0                       0                       0
    33                       0                       0                       0
    34                       0                       0                       0
    35                       0                       0                       0
    36                       0                       0                       0
    37                       0                       0                       0
    38                       0                       0                       0
    39                       0                       0                       0
    40                       0                       0                       0
    41                       0                       0                       0
    42                       0                       0                       0
    43                       0                       0                       0
    44                       0                       0                       0
    45                       0                       0                       0
    46                       0                       0                       0
    47                       0                       0                       0
    48                       0                       0                       0
    49                       0                       0                       0
    50                       0                       0                       0
    51                       0                       0                       0
    52                       0                       0                       0
    53                       0                       0                       0
    54                       0                       0                       0
    55                       0                       0                       0
    56                       0                       0                       0
    57                       0                       0                       0
    58                       0                       0                       0
    59                       0                       0                       0
    60                       0                       0                       0
    61                       0                       0                       0
    62                       0                       0                       0
    63                       0                       0                       0
    64                       0                       0                       0
