(written by ASE)

64 atoms
1 atom types

0.0      10.887404441833496  xlo xhi
0.0      10.887404441833496  ylo yhi
0.0      10.887404441833496  zlo zhi

Atoms # atomic

     1   1      10.499303354259951      9.4463588229058928      2.5638415516444155
     2   1      3.6730681515900017      10.771678345113003      1.1772868461378394
     3   1      7.7337162920345008      1.2988654882320247      8.0790593802315129
     4   1      5.1139291471233719      4.0281654550373389      8.0231103800304595
     5   1      7.7381199980213751      9.5142035399424003      5.2256142952467144
     6   1      7.7800674714949309      9.4324507435202918       10.81897632785001
     7   1     0.90434086931290381      8.0886552541525134      6.7422698457464776
     8   1       9.142420045507663      5.3824387276152663      1.2258225194500696
     9   1      10.501122981667436      1.3410782158791932      10.722760608449789
    10   1       2.424075152811227      3.9967765577882801      5.2984422215778295
    11   1     0.99778050504843208      2.6997138245270094      6.6663192207403199
    12   1      2.2859033614841167      3.9849616339671741      10.641208983388708
    13   1      6.3676258243459074      10.823507874992117      3.8608739469665636
    14   1      6.4071955821200959      8.0581038138112149      1.2510880200454082
    15   1      9.1708436120011925       2.734355208425967      9.3280499454857591
    16   1      0.8915608096637726      8.0747861111593693      1.2582630237654016
    17   1      4.9991855453725407      6.7097170748328949      10.717744952161468
    18   1      10.557753368736485      3.9874542120242893      2.5985390688424985
    19   1     0.92455356181211812      10.780645396295824      9.4137917753150759
    20   1      7.7584000180325461      6.7717771418300572      7.9566446602268002
    21   1      9.0840044248444656      8.0963484363621205      9.4175225306523203
    22   1      7.7937237622093107      4.0802503427569832      5.2550106226117919
    23   1      2.3747326850002963      9.3888277072913411      5.3890527228139433
    24   1      6.3214939865629844      5.4820273120120646      9.2804164608337487
    25   1      4.9937000566152392      6.7814333671593658      5.3535463020625684
    26   1      3.7155646281971997      2.6191846042378586      9.3229369482162951
    27   1      3.6702361779786372      5.3877201247821063       1.184607536859609
    28   1      2.3140146256631482      9.4496963206793225       10.74507765072633
    29   1      6.4038541907074205      2.7265491106782349      1.2389862647998697
    30   1      6.3790166659591705      8.1840507135516418      6.6060288127803233
    31   1      5.1563707883111931      9.4559228987730535      8.0317029929058208
    32   1      5.0358373450020224      4.0167836985823158      2.5726888734204323
    33   1     0.95631259814197023      5.3728642687101171      4.0139705442273055
    34   1      7.7315605137721377      6.7647264100959887       2.608906045569114
    35   1       10.47218156115423      6.7575426456876926      5.3106585147111787
    36   1      3.6990958320676839      5.3888739398785788      6.6768190679061945
    37   1      3.7447435607043928      2.6568889843434249       3.882628033902165
    38   1      4.9653709108734176      9.4021588791287058      2.5548178804575628
    39   1      6.3968092994322205      10.800550977999535      9.3985228690131066
    40   1      9.1763836117079336      10.883360897476848      1.1748409106341882
    41   1      6.4440151327070794      2.6146196366922254      6.6091729264712171
    42   1      10.479210228932573      1.3736541863932814      5.3602443349749649
    43   1      2.2682319175325887      1.3164365087380077      8.0183912892646845
    44   1     0.94796812365103733      10.747364514843298      3.9789904137139729
    45   1      7.7727883129251154      1.2835320935300487       2.519817795043096
    46   1      9.1534688958071797      10.870609228947217      6.7263643294278381
    47   1      2.3093633491142356      6.7535042928500388      2.6401112928337511
    48   1       1.044814288139122      2.5636220477319398      1.2075200625882871
    49   1      2.2906962691605912      1.2450618021378617      2.6732529766832442
    50   1      5.0289984921369069      1.3321070277046729      10.754332831213333
    51   1      5.0442768080670533      1.3015009141789662      5.2783419579118345
    52   1      10.396269872540529      6.7444996031545088      10.775510984010509
    53   1     0.96921352284268636      5.4656065374332456      9.4647679492595103
    54   1      3.6359500886608487      8.1212605891959129      3.9484626596780856
    55   1      7.6844325532821927      4.0840917423427925      10.669600751828398
    56   1       9.141889861630375      2.6908102072168987      3.9368206783334756
    57   1      9.1394550392220708      5.4016317733370158        6.68498338046453
    58   1       10.46021381199273       9.508444198558152       8.041468889073883
    59   1      9.1118595200081245      8.1521566166104549      3.9532219847160661
    60   1      2.2976709126944002      6.6984462870963739      8.0559052055171492
    61   1      3.5784241645652912      8.1287065253134188      9.3278922530963087
    62   1      6.3406467980125285      5.3928980160389983      3.9291680548660111
    63   1       3.710300103467091      10.817031455046788      6.7504795840960128
    64   1      10.559471112583708      4.1134763887901329      8.0574665548546704

Velocities

     1                       0                       0                       0
     2                       0                       0                       0
     3                       0                       0                       0
     4                       0                       0                       0
     5                       0                       0                       0
     6                       0                       0                       0
     7                       0                       0                       0
     8                       0                       0                       0
     9                       0                       0                       0
    10                       0                       0                       0
    11                       0                       0                       0
    12                       0                       0                       0
    13                       0                       0                       0
    14                       0                       0                       0
    15                       0                       0                       0
    16                       0                       0                       0
    17                       0                       0                       0
    18                       0                       0                       0
    19                       0                       0                       0
    20                       0                       0                       0
    21                       0                       0                       0
    22                       0                       0                       0
    23                       0                       0                       0
    24                       0                       0                       0
    25                       0                       0                       0
    26                       0                       0                       0
    27                       0                       0                       0
    28                       0                       0                       0
    29                       0                       0                       0
    30                       0                       0                       0
    31                       0                       0                       0
    32                       0                       0                       0
    33                       0                       0                       0
    34                       0                       0                       0
    35                       0                       0                       0
    36                       0                       0                       0
    37                       0                       0                       0
    38                       0                       0                       0
    39                       0                       0                       0
    40                       0                       0                       0
    41                       0                       0                       0
    42                       0                       0                       0
    43                       0                       0                       0
    44                       0                       0                       0
    45                       0                       0                       0
    46                       0                       0                       0
    47                       0                       0                       0
    48                       0                       0                       0
    49                       0                       0                       0
    50                       0                       0                       0
    51                       0                       0                       0
    52                       0                       0                       0
    53                       0                       0                       0
    54                       0                       0                       0
    55                       0                       0                       0
    56                       0                       0                       0
    57                       0                       0                       0
    58                       0                       0                       0
    59                       0                       0                       0
    60                       0                       0                       0
    61                       0                       0                       0
    62                       0                       0                       0
    63                       0                       0                       0
    64                       0                       0                       0
