(written by ASE)

216 atoms
1 atom types

0.0      16.331106185913086  xlo xhi
0.0      16.331106185913086  ylo yhi
0.0      16.331106185913086  zlo zhi

Atoms # atomic

     1   1       8.165553092956543       8.165553092956543       8.165553092956543
     2   1      9.5264782839793725      9.5264782839793725      9.5264782839793725
     3   1       6.804627415228822      9.5264782839793725       6.804627415228822
     4   1       6.804627415228822       6.804627415228822      9.5264782839793725
     5   1      9.5264782839793725       6.804627415228822       6.804627415228822
     6   1       1.769747322432778      5.6151216338119525       9.133644164902762
     7   1      12.590184341356121     0.21632896275455771       3.668036813645017
     8   1      8.3927449894893016      6.9106589960715041      2.1754073321626493
     9   1      4.7139442104638647      8.2973031336758822      14.500582806916441
    10   1      3.0264191089340216      6.9560466607283615      12.970318382993923
    11   1      9.7445999481541321      2.8865457202230971        8.90037819132408
    12   1     0.32478565718583496      1.6080576303127998      5.0466629748668197
    13   1      3.3303935691498623      9.7432702703905534      15.958778890734948
    14   1      7.2669235697154591      10.974673555687332      14.426901526801998
    15   1      1.6599790647856025      5.7689671031956209      14.381392672627157
    16   1      4.4358731579834512      8.3504970580875124      3.5616428810106129
    17   1      3.1891968298389486      4.2760013086332265      10.550811026367796
    18   1      14.002563000098576      9.7387672767343929      4.9097781975421526
    19   1      3.2599430361051986      6.9698189490431446      2.3220030888349754
    20   1      11.219896895040392       1.602470988215714      15.774030580970361
    21   1      9.8816132155701553       8.349747532554602      14.384531919177334
    22   1      7.1222072239816612     0.21502415256902907      3.6810328076578571
    23   1      12.621189389764254      13.523307613667612      1.1352155542371349
    24   1       7.162989686955143      13.965320341800975      11.649823767308021
    25   1      1.7933349882944469      13.684839126697852      11.638440713305613
    26   1      6.0548692373802737      4.2650037249048864      7.5572196756605763
    27   1      8.6091816813296873      12.614529320028964      7.7917306403517159
    28   1      3.2542814414548218      9.7798704782313735      5.0534797635771724
    29   1      11.362901499670784       9.686149610914299       12.99312342739006
    30   1      4.4586962104605732      5.5261378652038502       11.71391112060121
    31   1      4.7488643130192258      2.7352875740426441      9.1175975046299982
    32   1      4.5561247956410966      13.787138654432511      3.6706662368213472
    33   1      15.389043118154518      5.6674375425993162      11.559151619431304
    34   1      1.7039992103735671      13.866505621089459      6.4155998151086351
    35   1      3.1839973614830512       1.596289471064992      13.116946992246426
    36   1      5.8391859647119304      12.531034122482311      5.0400773709799296
    37   1      7.2718490232174418      2.9721563805806568      0.7362591743303426
    38   1      10.120115160371597      5.7347137863416151      11.739852491318175
    39   1     0.52190265919622902      6.9118348750893688      10.376824735164064
    40   1      15.347225433876815      5.6781202282628556     0.83508448087324894
    41   1      15.470280005004611      3.0416444547023787      3.5916068676558268
    42   1      11.357177850146741      6.9540166146259139      5.1759040518704751
    43   1       14.09856456653722      15.195170065084085      15.666689763969543
    44   1      8.6200244929025303      15.123192252089893      10.413716965939784
    45   1      14.033775384790488      7.0624909673190359      2.3055631710098794
    46   1     0.35496355063086327      4.3654635081496735      7.5589387173373552
    47   1      8.5999021658683432      9.7099290385032191      15.689730373533166
    48   1      3.0429135377069656      1.7467506379856133       2.261514674861985
    49   1      12.747618772609712      5.7716240251983209      3.5709328606271242
    50   1      3.1208853647924286      1.4159626318872398      7.7323687048501029
    51   1       12.59132907126093      5.5658466571866825      8.9864938080065713
    52   1      14.137830943773679      9.6990706523738481      15.765566782907172
    53   1      11.017213510024021      12.189443214612197      15.640047538208819
    54   1      6.0241323633673574      15.165581327910218      2.4714283043940384
    55   1      8.5654269115838133      9.7433364622557974      10.493597892962157
    56   1      1.8649955913756031      5.7029280632875157      3.6480979743549256
    57   1      10.024159344192753     0.26494675089055164      11.719548136654566
    58   1      9.9314819721630556      2.7955766823625652      14.298754075689544
    59   1     0.52055460832299616      4.4005422764996638      13.191438149300325
    60   1      7.3921123417924832      13.608284340903992     0.89894308286743296
    61   1      1.8277081562279847      13.846619832632541     0.95268576704422969
    62   1      15.323111153322543      3.0862524181230526       8.965913978374374
    63   1      7.2620278052118579      5.7724704050046398      14.466016052112309
    64   1      12.693884605768517      11.115351710936352      9.0112262037730488
    65   1      3.0212485995191685      9.8578668839138572      10.353071589639285
    66   1      4.4676072903190516      11.090866561254757      6.3328375951285807
    67   1      14.046995263053418      15.318809655491464      4.9108309402224677
    68   1      7.2917168035933742      13.793775362333008      6.3080638294463256
    69   1      12.800942160522482      8.4010725101828712      6.1790471233976518
    70   1      1.8328857228637645      10.954577510717286      9.1289844522715384
    71   1      13.970323668085598      1.4921051786379991      7.6810748763348897
    72   1     0.39701299769408749      7.0533136598849069      15.727793616277836
    73   1       5.845806124646117      4.4837970418299165      2.3114659279339946
    74   1      15.437451760072918     0.19122434421277745     0.82102199476690885
    75   1      12.646904929411562      2.9531189187496238     0.90514193887991468
    76   1      12.689226839956859     0.22513794105251606      9.1955199311689739
    77   1      8.5457572200987215      15.220659773661737      5.0350901059567263
    78   1       7.213092548600855      8.3324179181878435     0.84701215764924598
    79   1      7.2459709241363726     0.30589402430791779      14.313003821502889
    80   1      13.891489156579951      12.407890971064262      13.043582070311459
    81   1      9.8338538379770171        13.6142104596629      3.7115287627494808
    82   1      5.8970834051950192      1.5107920912709289       4.857626795008116
    83   1      3.6265695568891942      12.362056024612116      7.6556455191637838
    84   1      6.0259638338740729      7.1609265449200734      15.626788723554569
    85   1      5.8427282029122694      12.406927295379091      10.129139642469795
    86   1      1.6184830924411813      2.9439890650424161      6.1753437858782263
    87   1      15.486375335766525       8.282258112069826      8.8629398776600965
    88   1      15.452606776984453      13.875343208509321      3.6199987975014949
    89   1      4.5820189559835853     0.35525596901348777      6.2470933342783042
    90   1      8.7296829985966724      7.0182835620240667      13.049631812112807
    91   1      3.1301682871880132       12.41870944739253      2.1239957210636931
    92   1      4.8914707930483701     0.16939471725731892      0.9264431259994268
    93   1      8.6443256681351386      4.3262803574496616      16.009088601959547
    94   1      8.5971444959531027      9.5851281702247206      4.9388412934331996
    95   1      3.1787643104896404       15.21948000100474      4.8232994990106022
    96   1      4.5092205585423244      11.065020584696526     0.80263763006215783
    97   1      5.9410713065839218      1.5298108149636391      15.755583492172718
    98   1      11.205396009503033      4.4754481061211209      13.056794161296125
    99   1      12.548953623177567      13.861071074270967      6.2384966657797349
   100   1      7.1213292083573947      2.8603223040215084      11.401897268987568
   101   1      11.266982673063694      15.199201928405273      13.213294119158036
   102   1      5.9222012712355649      9.6220671246700249      13.091802844141739
   103   1      14.109686746717784      12.483840295973096      7.6605145148983524
   104   1       9.904917619184971      10.930359075316233     0.99245630971017107
   105   1      14.008017015112728      1.6523715023027847      12.926517862988248
   106   1     0.32631597904093468      9.6026281313035042      13.023531775601214
   107   1      15.398079281170112      11.007887270893093      11.530023305084796
   108   1      12.676292170760348      13.761834867123412      11.676498115591585
   109   1      1.7828989403346753       8.397163296494341      11.689249783748892
   110   1      11.119837183216418      12.209117773146204      4.9306203611108685
   111   1      3.0165489770868419      15.099232743691118      15.636988111260848
   112   1      1.7823646600400309        11.1219397483477       3.539583225155809
   113   1      11.107388245501625       15.20462187407702      2.3787560427657013
   114   1      12.605233256601309      8.3821455303622088     0.86157412465048822
   115   1      10.017886691551098      11.011572600331533      6.2409613393502923
   116   1      5.9560506230296255      9.8065574808421161      2.3181963265261061
   117   1      15.386237751159911      5.7531453005827302      6.4303494068455507
   118   1      15.226438907543411      13.776982096756683      9.1069678697996324
   119   1     0.44036784811442686       15.29377355587269      7.4812061057060646
   120   1      4.5617360163352032      5.9091974899444608      6.1664901371969449
   121   1      4.7784433160952631       13.90507211669194      8.9919312750544123
   122   1     0.52768593006948095      15.147059286559283      2.1488853225101252
   123   1     0.32750694591043583      1.7253080022570089      15.822302945519141
   124   1      5.8273921317810959      7.0638848901282927      5.2782060131295907
   125   1      4.4307213867069208     0.54825286202205348     0.72579392407708099
   126   1      4.5097486333496022       13.81116435469653      14.454975638353517
   127   1      8.7694107720702732      1.5429533071488208       12.97682173375415
   128   1      8.5217461209814473      4.4262310473779394      4.8745417368073163
   129   1      4.5165693156990869      3.0025330929738629      14.585491395468011
   130   1       8.654274889527187      12.379596868901785       13.04241787221099
   131   1      7.1595715585021367      8.4378304104085373       11.51209407029171
   132   1      11.302742828261785       4.405453615559793      7.5630688950466265
   133   1      14.104834298949527      9.7865480693427571      10.352975222070768
   134   1      8.5795520609449341      12.189023674995724      2.2142687709293796
   135   1      3.2140601492212397      4.4383280974561785      4.9131092058195804
   136   1       9.764512992084974      11.264842144950876      11.738810942850364
   137   1      12.854243160010242      14.110735109054076     0.74552932072252531
   138   1     0.45637575451020496      9.6931786029573459      7.6511478792614298
   139   1      1.9250232174925657      2.9867052065498285      11.607429824438782
   140   1      11.258725237874501      9.8900701997648639      7.7503539107057122
   141   1       12.65735351002229      8.4909445152179615      11.673077553614121
   142   1      1.9111468960072244      8.3745587745135026      6.4173115562120415
   143   1      1.8774743397650013     0.22076996237516333      3.5956922685150801
   144   1      4.7233492957872159      11.096863738927823      11.506022913475135
   145   1      3.2337349511076923      7.1906676207249802      7.6331281173585239
   146   1      11.584710440103549      1.6499440616564272       10.45549668723595
   147   1      12.817757814523816      2.9475726731585326      6.3710950331249592
   148   1      7.3353610913288776      11.120073721793688      3.6100220772830767
   149   1     0.34603577071079528      15.185949927619504      13.040683255977683
   150   1       12.66778651607649      5.6295465933862374       14.33056121375887
   151   1      11.396824830608352      7.1118423566122715      15.642324343691257
   152   1      15.329567780413186      11.136611954006867     0.97929477519610941
   153   1      14.130657887082748      4.5537258272308918      15.762377892458062
   154   1       15.49112654891735      8.4228875968296961      14.489358418708662
   155   1      12.685058699266051      2.9394045483169293      11.675743723009759
   156   1      9.9289209310239812      13.836888655031885      14.334787759036658
   157   1      13.988037779316642      1.5559631722510687      2.1663816333022226
   158   1       4.492955367773277      5.5845035157925622     0.87853390413781796
   159   1      5.8323268326760171      15.478787606508035      12.909666192824943
   160   1      8.5527823185026364      4.2452415594904096      10.158692363481691
   161   1     0.58844647291493146      12.211077247039384      10.342186921445773
   162   1      11.243890472781572      15.259365466863187      7.4962754625566959
   163   1      14.055270219618706      12.293820972233561      2.2418043435184529
   164   1      15.349431180445094     0.40033396768312812      11.761269453363752
   165   1     0.54918684870884249      9.6355381426569693      2.0635075504431484
   166   1      1.9182611830825067      8.4000708715161636     0.94975908885541571
   167   1      5.9122306348282905      12.582568383213925      15.654643817904912
   168   1      7.2210268117420924      3.0229827290475839      6.3982726342663341
   169   1      4.6804486931259248     0.24761414024680484      11.726423329951899
   170   1      13.955302981724117      6.9394125476515569      12.999336702034952
   171   1      8.5644515549812468      1.5685281890824854      7.7755034125642055
   172   1      11.175521089852964      9.8057096409211226      2.1880271032943597
   173   1      4.3257191867097617        2.93067160244874      3.6372965326978601
   174   1      11.429028146459359      4.3212283606758888      2.0837347623814537
   175   1      5.8031332998740481      6.9434040144667506      10.227034490936376
   176   1       7.130125425861479      0.3013559878995693      9.0867550156556263
   177   1      3.2677916391855319      4.2761599744278556       15.65414348527645
   178   1      5.8598757896496068      15.269082043317098      7.6542365085028905
   179   1      5.7970563025987758      4.3990008821082824      12.991238906050171
   180   1      9.9199704280692913      0.2804370466342192      6.4909534132302724
   181   1      14.019863412171844      4.2548603082611294      4.8381031149904743
   182   1     0.57340023454664646      12.369724546882594      15.847970788087082
   183   1      11.178186285838819      6.9591226356426432      10.483235945822116
   184   1      9.8431557418633702     0.17525549588454226     0.73309699181215393
   185   1       15.25392605299578      8.4106459953986814      3.6375172533661555
   186   1      11.187484296086041      12.390215796224538      10.199794591568889
   187   1      9.7098803680140691      5.7287146618489828     0.71281021936275124
   188   1     0.59735743109718697      12.649979930916061      4.9385614381205869
   189   1      9.7669776656555314       8.475578268383515      3.6665676949300234
   190   1      8.4594848844411672      1.7230506649702306      2.3769289526030093
   191   1      14.132505418850883      7.1518032617289009      7.6396499629046275
   192   1      14.038225814318366      15.157813517841873      10.293513512066397
   193   1      4.6268834128820799       8.395296296530546      8.9493066340666019
   194   1      8.5877705597428076      15.273236556270945      15.762075162015549
   195   1      3.1295197529200891      12.449928645952923      13.081086575840686
   196   1      13.907264235523257       4.462077836046717      10.156181939651333
   197   1      3.2842741436886342      15.107221517780204      10.324210962983102
   198   1     0.32922641345399484      4.2838104886173483      2.1589876125905505
   199   1      9.9742944812389851      13.773866212041298      8.9511054953455869
   200   1      15.408906518186427      2.9306312059427455      14.419016907559694
   201   1      12.581140391062263     0.20005397704956884       14.55872359984528
   202   1      12.648261862649065      11.081639609921695      3.7927751403449577
   203   1      1.8900818215982014      3.0289584917054242      0.8704195601867255
   204   1      7.2115969044692747      11.075328020888719      9.0884506954976132
   205   1      7.3559783972377204      5.4792273009414885      3.5820854598634071
   206   1     0.32057711998903216      6.9495613180491205      4.9896041269117859
   207   1     0.48342279706443492      1.5956686789758834      10.255668313113119
   208   1      1.9233787633404091     0.27453836586357028      14.528482678116802
   209   1      1.8131410788253817       11.16122948741895      14.446656878347994
   210   1      9.9699530736068027      2.9191590849451927      3.5385282923034822
   211   1      12.767273862948059      11.036546401724195       14.45345517227247
   212   1      1.7404577870909606     0.39599195166983137      8.9405245310043711
   213   1       15.34590646362085     0.26924508513983625      6.3148499557485138
   214   1      15.483907741966618      13.886659097236702       14.42807643241008
   215   1      11.333073303690298      1.6730956399353119      4.9973140190980416
   216   1      15.376173667413468      11.178300174783431      6.2208492331188268

Velocities

     1                       0                       0                       0
     2                       0                       0                       0
     3                       0                       0                       0
     4                       0                       0                       0
     5                       0                       0                       0
     6                       0                       0                       0
     7                       0                       0                       0
     8                       0                       0                       0
     9                       0                       0                       0
    10                       0                       0                       0
    11                       0                       0                       0
    12                       0                       0                       0
    13                       0                       0                       0
    14                       0                       0                       0
    15                       0                       0                       0
    16                       0                       0                       0
    17                       0                       0                       0
    18                       0                       0                       0
    19                       0                       0                       0
    20                       0                       0                       0
    21                       0                       0                       0
    22                       0                       0                       0
    23                       0                       0                       0
    24                       0                       0                       0
    25                       0                       0                       0
    26                       0                       0                       0
    27                       0                       0                       0
    28                       0                       0                       0
    29                       0                       0                       0
    30                       0                       0                       0
    31                       0                       0                       0
    32                       0                       0                       0
    33                       0                       0                       0
    34                       0                       0                       0
    35                       0                       0                       0
    36                       0                       0                       0
    37                       0                       0                       0
    38                       0                       0                       0
    39                       0                       0                       0
    40                       0                       0                       0
    41                       0                       0                       0
    42                       0                       0                       0
    43                       0                       0                       0
    44                       0                       0                       0
    45                       0                       0                       0
    46                       0                       0                       0
    47                       0                       0                       0
    48                       0                       0                       0
    49                       0                       0                       0
    50                       0                       0                       0
    51                       0                       0                       0
    52                       0                       0                       0
    53                       0                       0                       0
    54                       0                       0                       0
    55                       0                       0                       0
    56                       0                       0                       0
    57                       0                       0                       0
    58                       0                       0                       0
    59                       0                       0                       0
    60                       0                       0                       0
    61                       0                       0                       0
    62                       0                       0                       0
    63                       0                       0                       0
    64                       0                       0                       0
    65                       0                       0                       0
    66                       0                       0                       0
    67                       0                       0                       0
    68                       0                       0                       0
    69                       0                       0                       0
    70                       0                       0                       0
    71                       0                       0                       0
    72                       0                       0                       0
    73                       0                       0                       0
    74                       0                       0                       0
    75                       0                       0                       0
    76                       0                       0                       0
    77                       0                       0                       0
    78                       0                       0                       0
    79                       0                       0                       0
    80                       0                       0                       0
    81                       0                       0                       0
    82                       0                       0                       0
    83                       0                       0                       0
    84                       0                       0                       0
    85                       0                       0                       0
    86                       0                       0                       0
    87                       0                       0                       0
    88                       0                       0                       0
    89                       0                       0                       0
    90                       0                       0                       0
    91                       0                       0                       0
    92                       0                       0                       0
    93                       0                       0                       0
    94                       0                       0                       0
    95                       0                       0                       0
    96                       0                       0                       0
    97                       0                       0                       0
    98                       0                       0                       0
    99                       0                       0                       0
   100                       0                       0                       0
   101                       0                       0                       0
   102                       0                       0                       0
   103                       0                       0                       0
   104                       0                       0                       0
   105                       0                       0                       0
   106                       0                       0                       0
   107                       0                       0                       0
   108                       0                       0                       0
   109                       0                       0                       0
   110                       0                       0                       0
   111                       0                       0                       0
   112                       0                       0                       0
   113                       0                       0                       0
   114                       0                       0                       0
   115                       0                       0                       0
   116                       0                       0                       0
   117                       0                       0                       0
   118                       0                       0                       0
   119                       0                       0                       0
   120                       0                       0                       0
   121                       0                       0                       0
   122                       0                       0                       0
   123                       0                       0                       0
   124                       0                       0                       0
   125                       0                       0                       0
   126                       0                       0                       0
   127                       0                       0                       0
   128                       0                       0                       0
   129                       0                       0                       0
   130                       0                       0                       0
   131                       0                       0                       0
   132                       0                       0                       0
   133                       0                       0                       0
   134                       0                       0                       0
   135                       0                       0                       0
   136                       0                       0                       0
   137                       0                       0                       0
   138                       0                       0                       0
   139                       0                       0                       0
   140                       0                       0                       0
   141                       0                       0                       0
   142                       0                       0                       0
   143                       0                       0                       0
   144                       0                       0                       0
   145                       0                       0                       0
   146                       0                       0                       0
   147                       0                       0                       0
   148                       0                       0                       0
   149                       0                       0                       0
   150                       0                       0                       0
   151                       0                       0                       0
   152                       0                       0                       0
   153                       0                       0                       0
   154                       0                       0                       0
   155                       0                       0                       0
   156                       0                       0                       0
   157                       0                       0                       0
   158                       0                       0                       0
   159                       0                       0                       0
   160                       0                       0                       0
   161                       0                       0                       0
   162                       0                       0                       0
   163                       0                       0                       0
   164                       0                       0                       0
   165                       0                       0                       0
   166                       0                       0                       0
   167                       0                       0                       0
   168                       0                       0                       0
   169                       0                       0                       0
   170                       0                       0                       0
   171                       0                       0                       0
   172                       0                       0                       0
   173                       0                       0                       0
   174                       0                       0                       0
   175                       0                       0                       0
   176                       0                       0                       0
   177                       0                       0                       0
   178                       0                       0                       0
   179                       0                       0                       0
   180                       0                       0                       0
   181                       0                       0                       0
   182                       0                       0                       0
   183                       0                       0                       0
   184                       0                       0                       0
   185                       0                       0                       0
   186                       0                       0                       0
   187                       0                       0                       0
   188                       0                       0                       0
   189                       0                       0                       0
   190                       0                       0                       0
   191                       0                       0                       0
   192                       0                       0                       0
   193                       0                       0                       0
   194                       0                       0                       0
   195                       0                       0                       0
   196                       0                       0                       0
   197                       0                       0                       0
   198                       0                       0                       0
   199                       0                       0                       0
   200                       0                       0                       0
   201                       0                       0                       0
   202                       0                       0                       0
   203                       0                       0                       0
   204                       0                       0                       0
   205                       0                       0                       0
   206                       0                       0                       0
   207                       0                       0                       0
   208                       0                       0                       0
   209                       0                       0                       0
   210                       0                       0                       0
   211                       0                       0                       0
   212                       0                       0                       0
   213                       0                       0                       0
   214                       0                       0                       0
   215                       0                       0                       0
   216                       0                       0                       0
