(written by ASE)

8 atoms
1 atom types

0.0       5.443702220916748  xlo xhi
0.0       5.443702220916748  ylo yhi
0.0       5.443702220916748  zlo zhi

Atoms # atomic

     1   1       2.721851110458374       2.721851110458374       2.721851110458374
     2   1       1.360925555229187       1.360925555229187       1.360925555229187
     3   1       4.082776665687561       1.360925555229187       4.082776665687561
     4   1       1.360925555229187       4.082776665687561       4.082776665687561
     5   1       4.082776665687561       4.082776665687561       1.360925555229187
     6   1      5.0596430553501648      3.6113296343005459      1.3365403415733113
     7   1      3.5287572268172198      3.1608654248085486      1.9942965507518267
     8   1      3.5585925620072487      1.1067351575332509      3.8112167433166064

Velocities

     1                       0                       0                       0
     2                       0                       0                       0
     3                       0                       0                       0
     4                       0                       0                       0
     5                       0                       0                       0
     6                       0                       0                       0
     7                       0                       0                       0
     8                       0                       0                       0
