(written by ASE)

64 atoms
2 atom types

0.0      11.085848808288574  xlo xhi
0.0      11.085848808288574  ylo yhi
0.0      11.085848808288574  zlo zhi

Atoms # atomic

     1   1      5.5429244041442871      5.5429244041442871      5.5429244041442871
     2   2      4.1571933031082153      4.1571933031082153      4.1571933031082153
     3   2      6.9286555051803589      4.1571933031082153      6.9286555051803589
     4   2      6.9286555051803589      6.9286555051803589      4.1571933031082153
     5   2      4.1571933031082153      6.9286555051803589      6.9286555051803589
     6   2      4.3401408222555915      1.2084784115883451      6.9142950324922481
     7   1      9.8804314048319952      3.8744929307256371      1.3835012565532523
     8   1      7.9563514042362726      1.9820400987151032      10.892089801812119
     9   2      10.445436349517081       8.032866365625182      5.8324577792447485
    10   2       6.898975785319692      1.6201564182435391      9.7372535341307298
    11   2      9.7938615355658953      2.9004672582200897      10.879566925155189
    12   2      10.857818404561783      8.1478644600079519    0.084562259672771312
    13   1     0.93971082975393472      3.0859584040923949     0.43716713535090435
    14   2      1.9881439438564286      9.7286807290575439      9.3998171162843391
    15   1     0.55212723556905985      6.4633142100396412      7.6088263793405986
    16   1      9.9186647674915207       6.823837203841947      4.3983122009686326
    17   2      9.0098549222025781      1.4234437784483589      5.3240317621992972
    18   2      10.826497336789771      10.052011069926721      3.3626999699272631
    19   1      9.6460926482430409      6.8390051351241254      10.242738472450981
    20   1      6.3705939114825583     0.10546102219047171       2.039507098654596
    21   2      2.3591040998703505       7.036356737652909      2.3145319890169702
    22   2      2.4965656659093582      1.4761271478708693       1.600256561546658
    23   2      5.2985829403564821      7.3875496861620604      8.9713493230939889
    24   2      4.7727040560073419      9.0807573195178293      4.0584279677689494
    25   1      1.4025096545138638      5.3434385207162904      3.2884114665847619
    26   1       1.624033309762396      1.8455881863027201      6.4646489615617497
    27   1      9.6302480904466847      9.3345517314617155      6.9502262791601765
    28   1      4.4053232806841436      10.330754763044752      5.2552233389303638
    29   1      9.6589981096184374      9.3746986784816499      2.1185151380102951
    30   1      5.4402493040741717      2.2261022227969818      9.0088419647355522
    31   1      2.8755827323178096      5.8274240480093908      5.6802723180734915
    32   1      5.8910071172996936      8.2823836257855987      10.736252275461311
    33   1      10.966658801204687      2.9314206085554417      5.5244780720319397
    34   2      7.0019802782778129      7.2520638166830054    0.095048845271890059
    35   1      1.3634455411854418     0.34140371069822706      3.3631555695185966
    36   1     0.79217131155093767      9.3793524680708629      4.8648369317410811
    37   1      3.8994319699945379      2.5321825521631069      3.1576894045802817
    38   2     0.41451038903119297      2.5538863057190753       6.906811173215317
    39   2      9.7776746999039688      5.6930608234986835      9.1973511688144072
    40   1      7.5163228127138382      10.774919762749562      7.9853452468296382
    41   1      2.6873380006630754      8.3113853975959273      8.4464516793440225
    42   1      2.1740982881529902      4.8038493594700071      9.0538263948710096
    43   1      6.5405718747507535      8.5501671587564942      4.4342827633373361
    44   2      9.8213005908664286      10.528484324915439      8.0224619114335383
    45   1      5.2774799901774827      4.3031566416517819     0.51044693492089621
    46   2      6.9345812733240564      9.8127343934740452      6.4640311434067144
    47   2      4.8347567864237817      9.7753276516829146      1.0313596102728795
    48   1      3.2827615691145695     0.12358098649368099     0.39663529092422323
    49   2      1.3137053979843927      4.7482979261951641      10.892153896315904
    50   1      4.0121798186800106      8.6872084762964619      2.4846143536418452
    51   2       8.139572481368873     0.21635628366894366       1.953685053663321
    52   1       5.829763167013482      6.1299520881760827      7.7939313062699966
    53   1       7.267232408733264      6.5521967675866222       1.932349513120073
    54   2      5.9532356120254803      2.2652946903249926      3.5288491125544397
    55   2      6.3770350787288521      5.0194939959165197      1.5529090595642003
    56   1      10.541161160535069      2.0044948151942776      8.3079150436384452
    57   1     0.60047431446491828      9.5910394341007077      9.6599773679133705
    58   2       10.73897860456043      4.7252090375509681      3.5622826558790166
    59   1      6.8886393902403142      2.0159361796958564      5.8688125782521183
    60   1     0.79452273736052348       7.062936794449115     0.68610903170544191
    61   2       2.045830649182605      10.774343572983582      5.2105431924958623
    62   1      8.3078595391197041      4.0771247309837122      8.3122741306638659
    63   2      4.6467117719213036       3.450590384201746       9.717073676959842
    64   1      8.7269001541091029     0.25423229469106801       3.876096614856408

Velocities

     1                       0                       0                       0
     2                       0                       0                       0
     3                       0                       0                       0
     4                       0                       0                       0
     5                       0                       0                       0
     6                       0                       0                       0
     7                       0                       0                       0
     8                       0                       0                       0
     9                       0                       0                       0
    10                       0                       0                       0
    11                       0                       0                       0
    12                       0                       0                       0
    13                       0                       0                       0
    14                       0                       0                       0
    15                       0                       0                       0
    16                       0                       0                       0
    17                       0                       0                       0
    18                       0                       0                       0
    19                       0                       0                       0
    20                       0                       0                       0
    21                       0                       0                       0
    22                       0                       0                       0
    23                       0                       0                       0
    24                       0                       0                       0
    25                       0                       0                       0
    26                       0                       0                       0
    27                       0                       0                       0
    28                       0                       0                       0
    29                       0                       0                       0
    30                       0                       0                       0
    31                       0                       0                       0
    32                       0                       0                       0
    33                       0                       0                       0
    34                       0                       0                       0
    35                       0                       0                       0
    36                       0                       0                       0
    37                       0                       0                       0
    38                       0                       0                       0
    39                       0                       0                       0
    40                       0                       0                       0
    41                       0                       0                       0
    42                       0                       0                       0
    43                       0                       0                       0
    44                       0                       0                       0
    45                       0                       0                       0
    46                       0                       0                       0
    47                       0                       0                       0
    48                       0                       0                       0
    49                       0                       0                       0
    50                       0                       0                       0
    51                       0                       0                       0
    52                       0                       0                       0
    53                       0                       0                       0
    54                       0                       0                       0
    55                       0                       0                       0
    56                       0                       0                       0
    57                       0                       0                       0
    58                       0                       0                       0
    59                       0                       0                       0
    60                       0                       0                       0
    61                       0                       0                       0
    62                       0                       0                       0
    63                       0                       0                       0
    64                       0                       0                       0
