(written by ASE)

216 atoms
1 atom types

0.0      16.331106185913086  xlo xhi
0.0      16.331106185913086  ylo yhi
0.0      16.331106185913086  zlo zhi

Atoms # atomic

     1   1      10.852985651894869      2.2625467325844113      13.504363112470855
     2   1      12.200851577268963      11.798714580896217      6.7360604301142644
     3   1      14.932769936700197      14.516178778459675      12.139033242179949
     4   1      10.817924404920973      7.6772542429366126      2.6154391713876066
     5   1       6.730885297002942      9.0691197506170056      3.9640417246149866
     6   1       2.664883277962673      4.9817268082428541       2.638460556108015
     7   1      9.4542347301144218       0.911998576553259      9.4523599428723628
     8   1      8.1205358107221173      7.7252886087934485      10.814566141169621
     9   1      1.2923311937867936      14.506798028380899      3.9605323389948239
    10   1      2.6490242424255825      7.7194277084900023      10.797642438682374
    11   1      16.287781663291298      2.2798636926239908      13.519162834811596
    12   1      6.7251051897114849     0.91863741378765695      12.181750357097144
    13   1      1.3218443700262554      14.516435758642388      9.4243549434154374
    14   1      2.6741231269753598      15.876754515370408      2.6135563535148378
    15   1      1.3063823640044063       9.073444610282877       9.427166150868743
    16   1      6.7465352927891331     0.93386647068081174      6.7077161973479633
    17   1      2.6529772595543477      4.9835363770294521      13.514685149809793
    18   1      9.5041034867073222      3.6366331539307453      12.163564142121345
    19   1      8.1293120733256501      2.2642506864095537      10.812594986359045
    20   1      9.4725757172457179      11.818163308360567      3.9852688717528792
    21   1      4.0320414551785007      9.0793230319624172      12.168790379246275
    22   1      13.580456502027573      10.419760867282434      2.6500285579691933
    23   1      5.3774597416532401      2.2558272848523586      2.6292382284714222
    24   1      6.7679138051482823      14.572424342541012      9.4288472295639849
    25   1      4.0457857579620224      3.6612149145333035      12.155002029670072
    26   1      9.4682021870906965      9.0741999762744854      1.2368305315418979
    27   1      14.902785995154431     0.91268513464083156      9.4037283901136561
    28   1      1.3183537225444155     0.95286292762473579       1.264945891332971
    29   1      12.161844127034783      9.0746068615637796      9.4182964409260421
    30   1      5.3801517064081281      7.7141985511357234      13.512283747875131
    31   1      10.837191104755902      13.176969386285805      13.531200993597963
    32   1      8.1114723922325993      15.857177297814701      13.537722839144067
    33   1      6.7502206222275731      11.801960902522524      1.2540079289538397
    34   1       3.988382809648698      3.6337270390235972      6.7003285037998808
    35   1       1.328029294111218     0.88159193180922557       6.718912843376927
    36   1      10.812813030150437      2.2813405986172484      8.0910195925770836
    37   1      5.3707033043494334      2.2897107059888242      13.550302213769783
    38   1       16.28059011181449      10.448893075268074       10.78375966835722
    39   1      9.4840609792753412      6.3249875319335729       4.027175379673281
    40   1      4.0102609245789722     0.92637955017297458      4.0051561203244717
    41   1      10.826320064299352      15.869081126051015      5.3697994933659174
    42   1      6.7737562106658515      6.3256027269164292      6.6875184310555937
    43   1      10.855615805128537      13.174138710636839      2.6305365137694992
    44   1      2.6529356462861244      7.7311222536229707      5.3263323662109201
    45   1      14.942045558522409      14.513448364018359      1.2399076015421855
    46   1      5.3859950853354803      15.878341173316699      16.223337068607748
    47   1      13.551356416564772      2.2440300449872836       5.356246708957201
    48   1      1.2924316983468884      9.0857105469584667      3.9576534795615999
    49   1      4.0554765390566843      14.530294193722966      12.142587161297683
    50   1      5.3840404784912153      13.165122015816905      2.6361693928312775
    51   1      8.1398312261456454      13.167000696698096      16.243901323683417
    52   1      2.6262992609840978      2.2610917283112713      5.3546147874560006
    53   1      14.898401757491797     0.90723696008537758      4.0066607684965447
    54   1      4.0127740252862338      14.491860081850973      6.7064312964344026
    55   1      4.0455640638839441      6.3396485433802354      9.4183684732499842
    56   1      1.3034189395962841      6.3432890959686574      12.156034817449836
    57   1      10.824306079458324      13.157284120244185      8.0404285659251968
    58   1      8.1050157651419568      15.852444579449752       2.631563217738119
    59   1       12.16237852900565       14.50241865776718      9.4284033547029367
    60   1      9.4604226961049562     0.89117241340785114      3.9972028756924658
    61   1      8.0920752554867477      15.888190133501098      8.0440511104326333
    62   1      8.1044263655183499      4.9727276347990141      8.0951560974499444
    63   1      12.208471429050292      3.6588490420557207      3.9544166486806773
    64   1      6.7669248208087538      14.520146396735186      14.876654809529782
    65   1      4.0480922524428422     0.90159641542155811      9.4287518354052509
    66   1       16.26358756313482      13.162445138913654      2.6102745024314515
    67   1      9.4743161739377229      6.3158764163646879      14.872850724097816
    68   1      9.5039058845213731      9.0964229216203876      12.153538994766222
    69   1      4.0113360556842963     0.92571823990164859      14.854108692135924
    70   1      1.3054600582350133       11.80867840343501      6.7019190553853036
    71   1      1.3169671003085313      3.6060933953988865      3.9896251238842524
    72   1      16.265947108448813       10.43870828870854      16.214426475454161
    73   1      16.229125936587252      2.2875631206550793       2.615236215447851
    74   1      6.7680695507135624      3.6272808760881219      14.915353688862751
    75   1       14.88666535573816      11.804935642819373      4.0083571783958689
    76   1      4.0308882079380908      14.477433175457122      1.2630832717131995
    77   1      16.286718699808262      4.9649875669094854       10.79599640273932
    78   1       2.675904223525805      2.2535787082536274      10.824099716584328
    79   1      12.208012953042498      14.542194128320148      4.0179535387415797
    80   1      9.4732541838644693      9.0976211890632612      6.6851306568578934
    81   1      16.296362270528448      15.902484656164461      16.240891540634379
    82   1      10.855759869776421      4.9715313141757065      16.218800979018965
    83   1      1.3243852129123326     0.91854944187851828      12.135058810035957
    84   1      5.3993288525430216      10.467814214630039      5.3458696739655238
    85   1      16.241498948338972      10.444997489316506      5.3379266501362395
    86   1      4.0113552805275106      3.6244261085470271      1.2681168953773181
    87   1      14.943759733150273      11.816189233320642      14.853330937719306
    88   1      12.185687799669381      6.3516609068073535      1.2629323931968344
    89   1      13.566660365173107      15.919920372197566      13.494806175221356
    90   1      1.2866378416422464      11.794790766060942      1.2693038469314644
    91   1      13.566296309914264      13.133753885559713      16.230226863051826
    92   1      5.3834939088980605       4.994366534275116      16.234603313436196
    93   1      14.947452849866977       6.379865455269794      9.4486843475317528
    94   1      13.526316423306866      13.152205841406271      5.3419614336867767
    95   1      9.4701392725588676      3.6176565302111499      1.2678788966853745
    96   1      16.290360225806467       13.17553068662653      8.0526292841453255
    97   1      16.258880153424229      15.877312279176067       10.78301014282431
    98   1      16.283943508516927      4.9914837812027599      5.3419186036563246
    99   1      10.814701445129458       10.43295641030079      5.3769910448427254
   100   1       12.18646263385665      9.0610774389898552      14.905555345987068
   101   1      6.7634585085714889      14.514926973478737      3.9762421994826695
   102   1      13.593876902705802      5.0082867808769151      8.0776970195820468
   103   1      8.0821094861283882      7.6890539163261451      5.3665468445760212
   104   1       12.18528188778987      3.6612171047053153      9.4206842151237424
   105   1      14.910757247867423     0.92733391762709516      14.896214505709395
   106   1      6.7892874504585166      6.3472406529827481      1.2813267961899726
   107   1      5.3879973892591124      2.3009341207868204      8.0408476188367786
   108   1      14.885149756706028      6.3484729897680268      3.9897407162959837
   109   1       13.54834176646682      10.475058330235129      13.511675366760755
   110   1       10.82587813625787      2.2859238985805064      2.6355135579899809
   111   1      2.6418799013232501      13.166800174282798      5.3420174047492992
   112   1      8.0969393841724013      2.2633220534765712      16.253983902215737
   113   1      9.4796446190898678     0.91598694062476937      14.882829147783355
   114   1      8.0932676824709233      4.9495025640815129      13.504584076491597
   115   1       12.18692987055249     0.91305868064505802      1.2560015938656477
   116   1      6.7734495865842064      6.3521398244205898      12.166569058121468
   117   1      2.6671659239038092      10.441401713578102      2.6165980157342688
   118   1      6.7621604666258577      9.0818451367101716      9.4265928125065557
   119   1      6.7745656009004165      11.818387192610658      6.7302491737097512
   120   1      6.7613101931804067      3.6127198824966626       9.443545717287293
   121   1      12.201297398949578     0.92317167823309632      12.156426128182602
   122   1      2.6586639195066368      4.9789282551167275      8.1007386025554524
   123   1      5.4095788575580173       13.14449740933469      8.0970055760376454
   124   1      13.555308460283754      5.0090966578163716      2.6419550972289869
   125   1      10.832306534464806      4.9661337569289685      5.3538131844996997
   126   1      13.559664469062682      2.2686281102037071      10.792241961206287
   127   1      1.2947325957214559      3.6577374080835341      14.862389489159909
   128   1      5.3824275384807834      10.445081202557844      10.822511111818471
   129   1      16.292024756535398       13.18431570991811      13.485638601885057
   130   1      12.208276747093691      3.6021435418519161      14.896305032819214
   131   1      13.579019749187864      13.130011124944076      10.780042216395941
   132   1       13.57098911847811      10.412830189627471      8.0910804306885211
   133   1      14.891344536565043      3.6281936911121306      1.2596374010813776
   134   1      1.3037149778465391      6.3642553692847059      1.2966186988522423
   135   1      5.3784774415813672      4.9775518536835648      5.3233955888956075
   136   1      9.4412095338080917      14.526453118719246      6.7149870817220858
   137   1        14.9352949616773      11.802695826908689      9.4131179008804793
   138   1      9.4606748092387534      11.798760331156018      9.4136581433100446
   139   1      5.3967293617175187      15.879285380806209      10.811631310673874
   140   1      8.1142242216891418      10.446236639970266      2.6452208870509537
   141   1      9.4831576549967167      14.524607533770677      1.2488216016300129
   142   1      14.911964275998344      9.1007283130905989      12.137278184341199
   143   1       14.90428115258112       6.352539895841403       14.85550553517453
   144   1      16.283526889129803      2.2559144050279372      8.0611724151058297
   145   1      10.804152603311081      4.9767590114153109      10.762363147917085
   146   1      14.874397472243004      9.0798739818995955      1.2480853388053958
   147   1      8.1444768243350154      10.440553873657109        13.5137399689105
   148   1      4.0361694427157602      11.824019341615099      3.9483510889703552
   149   1      10.859733328510629      7.6967759761346883      13.502934146909411
   150   1      2.6766381745021874      10.448689632623427      8.0414404253946259
   151   1      5.4142989215957869      7.7003751588073328       8.066249233829069
   152   1      5.3993478340337901      10.411570597368268      16.227889706162841
   153   1      14.913365012676081      14.520985475968132      6.7064205889267896
   154   1      2.6817726677550695      10.461260246561096      13.532017684405901
   155   1      4.0241500220677153      9.1029817567382452      1.2563099214144131
   156   1      1.3123398752288153      3.6156680973769255      9.3966789564651663
   157   1      8.1057901126243337      10.454116392163655       8.040752711382936
   158   1       9.459911655968881      6.3433178115572559      9.4204778522497463
   159   1      13.586748622864889      15.872165861653343      2.6098150530138753
   160   1      12.217217515950551      14.519874815405728      14.870327645940279
   161   1      10.859430598068116      15.871319968551916      16.233965730028331
   162   1      12.201561193000771       6.309748315075808      12.151796591254652
   163   1       12.18507747173544      11.793024027304796      1.2376346896988792
   164   1      2.6820581201739344      15.909143752489967      8.0668361999282183
   165   1      1.3074436240203227      14.521814821103249      14.873691750150329
   166   1      5.3848119057442432      13.155296417467298       13.50892256389443
   167   1      13.534413245881865      7.7116457839798045      10.771916191527453
   168   1      13.572323663290604      7.7201733403837807      16.236566680968508
   169   1      12.193665866250853      6.3423940456731884      6.7237711316038826
   170   1       2.641611240223142        13.1429565016482      16.263417216422795
   171   1      9.4694685932183802      11.806478497325429      14.841874877983173
   172   1      16.256637417284196      4.9896357627297334      16.250089289673951
   173   1      6.7607762779144309     0.86504068024019887      1.2676036650692311
   174   1      12.197335621132765      9.0882034494127311      4.0013189389598836
   175   1      10.816219964390939      10.445829754680972      10.808081285195271
   176   1       10.79384224688954      7.7238430952656927      8.0437415661216392
   177   1      8.1389025932126629      13.162767337551827      10.800706732679259
   178   1      6.7641617971397068       9.086273177813041      14.883433635258598
   179   1      4.0489619940839532      11.822355784295951      14.871308843001543
   180   1      16.233326199800899      7.7294173263880452      2.6183530735730187
   181   1      5.3988504216346769      15.891308938445832      5.3361112408909435
   182   1      6.7443168918936749      3.5935016097984374      3.9781250173554383
   183   1      4.0283785141650696      11.802554682490154      9.4372224473369215
   184   1       3.991630834742125      6.3376053562457173      3.9800392276937089
   185   1      13.534236085301359      7.7228755259413902      5.3814244396994013
   186   1      16.267307935325448      15.864927586506951      5.3357374515342713
   187   1      1.2944669765269197       6.373546565663446       6.696286419675971
   188   1       12.15759324651242     0.89890560659078744      6.7467728047761852
   189   1      5.3765934069463697      7.6592885052766633      2.6054247315400971
   190   1      6.7412754730266897      11.832359516635847      12.176291475034077
   191   1      9.4825580345703884      3.6533049866366412      6.7146108588409561
   192   1      8.1451134343330978      4.9866099184192763      2.6264309146572486
   193   1      2.6343561737579932      7.7158285258173578      16.262666717480101
   194   1      14.910138159245435      3.6136358611024662      12.167757591466511
   195   1      8.1248562900439651      13.143284540745071      5.3533459478038594
   196   1      2.6654863053232418      13.188917991372136      10.784029302867111
   197   1      5.3702297404900037      5.0012504882604958      10.779553564684875
   198   1      14.920411526095222      9.0564391413738576      6.7086166013972388
   199   1      10.829191623159204      10.422353057534565      16.229877408939728
   200   1      13.572582590292882      15.886730018826597      8.0672713141012196
   201   1      13.537581694725532      2.2666591455651428      16.244105739737847
   202   1      2.6586554021710356      15.835367078216791      13.508707440332387
   203   1      1.3213440373977932      11.795921868228788      12.173090903667571
   204   1      16.249273572275797      7.7038677531087387      13.485661963719849
   205   1      8.1088305580815359      2.2440023028084681      5.3450174537005068
   206   1      14.933820245856054      3.6214158387930979      6.7003572193884793
   207   1       4.061328191967192      9.0494374048047348      6.6935954283308661
   208   1      10.859284586600666      15.907130741058722      10.793876316231945
   209   1      4.0087275608183006      6.3300589969030057      14.871657323703857
   210   1      13.538824739018423      4.9850743644865929      13.521731663228934
   211   1      8.1090714770028285      7.7110943473377347       16.22808730834879
   212   1      16.286180404198262      7.6928648156265922      8.0459302780187159
   213   1      9.4970306912240403      14.536575607052669      12.162297735993661
   214   1      1.2698771852936517      9.0851284479082324      14.835736555891572
   215   1      2.6284205642537017      2.2709757312478587      16.234418365577426
   216   1      12.176704200782069      11.826362338962781      12.118506950085816


Velocities

     1                       0                       0                       0
     2                       0                       0                       0
     3                       0                       0                       0
     4                       0                       0                       0
     5                       0                       0                       0
     6                       0                       0                       0
     7                       0                       0                       0
     8                       0                       0                       0
     9                       0                       0                       0
    10                       0                       0                       0
    11                       0                       0                       0
    12                       0                       0                       0
    13                       0                       0                       0
    14                       0                       0                       0
    15                       0                       0                       0
    16                       0                       0                       0
    17                       0                       0                       0
    18                       0                       0                       0
    19                       0                       0                       0
    20                       0                       0                       0
    21                       0                       0                       0
    22                       0                       0                       0
    23                       0                       0                       0
    24                       0                       0                       0
    25                       0                       0                       0
    26                       0                       0                       0
    27                       0                       0                       0
    28                       0                       0                       0
    29                       0                       0                       0
    30                       0                       0                       0
    31                       0                       0                       0
    32                       0                       0                       0
    33                       0                       0                       0
    34                       0                       0                       0
    35                       0                       0                       0
    36                       0                       0                       0
    37                       0                       0                       0
    38                       0                       0                       0
    39                       0                       0                       0
    40                       0                       0                       0
    41                       0                       0                       0
    42                       0                       0                       0
    43                       0                       0                       0
    44                       0                       0                       0
    45                       0                       0                       0
    46                       0                       0                       0
    47                       0                       0                       0
    48                       0                       0                       0
    49                       0                       0                       0
    50                       0                       0                       0
    51                       0                       0                       0
    52                       0                       0                       0
    53                       0                       0                       0
    54                       0                       0                       0
    55                       0                       0                       0
    56                       0                       0                       0
    57                       0                       0                       0
    58                       0                       0                       0
    59                       0                       0                       0
    60                       0                       0                       0
    61                       0                       0                       0
    62                       0                       0                       0
    63                       0                       0                       0
    64                       0                       0                       0
    65                       0                       0                       0
    66                       0                       0                       0
    67                       0                       0                       0
    68                       0                       0                       0
    69                       0                       0                       0
    70                       0                       0                       0
    71                       0                       0                       0
    72                       0                       0                       0
    73                       0                       0                       0
    74                       0                       0                       0
    75                       0                       0                       0
    76                       0                       0                       0
    77                       0                       0                       0
    78                       0                       0                       0
    79                       0                       0                       0
    80                       0                       0                       0
    81                       0                       0                       0
    82                       0                       0                       0
    83                       0                       0                       0
    84                       0                       0                       0
    85                       0                       0                       0
    86                       0                       0                       0
    87                       0                       0                       0
    88                       0                       0                       0
    89                       0                       0                       0
    90                       0                       0                       0
    91                       0                       0                       0
    92                       0                       0                       0
    93                       0                       0                       0
    94                       0                       0                       0
    95                       0                       0                       0
    96                       0                       0                       0
    97                       0                       0                       0
    98                       0                       0                       0
    99                       0                       0                       0
   100                       0                       0                       0
   101                       0                       0                       0
   102                       0                       0                       0
   103                       0                       0                       0
   104                       0                       0                       0
   105                       0                       0                       0
   106                       0                       0                       0
   107                       0                       0                       0
   108                       0                       0                       0
   109                       0                       0                       0
   110                       0                       0                       0
   111                       0                       0                       0
   112                       0                       0                       0
   113                       0                       0                       0
   114                       0                       0                       0
   115                       0                       0                       0
   116                       0                       0                       0
   117                       0                       0                       0
   118                       0                       0                       0
   119                       0                       0                       0
   120                       0                       0                       0
   121                       0                       0                       0
   122                       0                       0                       0
   123                       0                       0                       0
   124                       0                       0                       0
   125                       0                       0                       0
   126                       0                       0                       0
   127                       0                       0                       0
   128                       0                       0                       0
   129                       0                       0                       0
   130                       0                       0                       0
   131                       0                       0                       0
   132                       0                       0                       0
   133                       0                       0                       0
   134                       0                       0                       0
   135                       0                       0                       0
   136                       0                       0                       0
   137                       0                       0                       0
   138                       0                       0                       0
   139                       0                       0                       0
   140                       0                       0                       0
   141                       0                       0                       0
   142                       0                       0                       0
   143                       0                       0                       0
   144                       0                       0                       0
   145                       0                       0                       0
   146                       0                       0                       0
   147                       0                       0                       0
   148                       0                       0                       0
   149                       0                       0                       0
   150                       0                       0                       0
   151                       0                       0                       0
   152                       0                       0                       0
   153                       0                       0                       0
   154                       0                       0                       0
   155                       0                       0                       0
   156                       0                       0                       0
   157                       0                       0                       0
   158                       0                       0                       0
   159                       0                       0                       0
   160                       0                       0                       0
   161                       0                       0                       0
   162                       0                       0                       0
   163                       0                       0                       0
   164                       0                       0                       0
   165                       0                       0                       0
   166                       0                       0                       0
   167                       0                       0                       0
   168                       0                       0                       0
   169                       0                       0                       0
   170                       0                       0                       0
   171                       0                       0                       0
   172                       0                       0                       0
   173                       0                       0                       0
   174                       0                       0                       0
   175                       0                       0                       0
   176                       0                       0                       0
   177                       0                       0                       0
   178                       0                       0                       0
   179                       0                       0                       0
   180                       0                       0                       0
   181                       0                       0                       0
   182                       0                       0                       0
   183                       0                       0                       0
   184                       0                       0                       0
   185                       0                       0                       0
   186                       0                       0                       0
   187                       0                       0                       0
   188                       0                       0                       0
   189                       0                       0                       0
   190                       0                       0                       0
   191                       0                       0                       0
   192                       0                       0                       0
   193                       0                       0                       0
   194                       0                       0                       0
   195                       0                       0                       0
   196                       0                       0                       0
   197                       0                       0                       0
   198                       0                       0                       0
   199                       0                       0                       0
   200                       0                       0                       0
   201                       0                       0                       0
   202                       0                       0                       0
   203                       0                       0                       0
   204                       0                       0                       0
   205                       0                       0                       0
   206                       0                       0                       0
   207                       0                       0                       0
   208                       0                       0                       0
   209                       0                       0                       0
   210                       0                       0                       0
   211                       0                       0                       0
   212                       0                       0                       0
   213                       0                       0                       0
   214                       0                       0                       0
   215                       0                       0                       0
   216                       0                       0                       0
