(written by ASE)

216 atoms
1 atom types

0.0      16.331106185913086  xlo xhi
0.0      16.331106185913086  ylo yhi
0.0      16.331106185913086  zlo zhi

Atoms # atomic

     1   1    0.063442716466779014      6.5256068015050914      7.2658197230215364
     2   1       4.091003805964192      5.1629416404951485      14.085806084511432
     3   1      4.1026895904091134      5.1389568234420153       8.636056552028549
     4   1      10.901448804761117       3.826671459161048      9.9911218161577153
     5   1      13.688834000447287      1.0732588732827111      15.431385470305258
     6   1      8.1681959005173894      3.8141242070581711      1.8751414415438177
     7   1      1.3907825892968049       16.04109918267352      0.4842213885342197
     8   1      9.5391803082377464      16.090379999757488      8.6245800506869728
     9   1      9.5804674841837141      7.8844664169683938     0.46535883627356966
    10   1   0.0039099998310013762      1.1240683087546586      12.691359580791413
    11   1      8.1882899986678694        14.6778543561378      1.8246927760726948
    12   1      8.2168099319000021      3.8027776559226254      7.2896984384083225
    13   1      6.8287874460428952        7.88676853110519      14.079796252511187
    14   1      5.4901703737219805      11.928585940734365      12.715724027659917
    15   1    0.028939967158261304      9.2305967526993982      9.9788354378766826
    16   1      8.1763754629239429      6.5173522865452469      9.9782290035818733
    17   1      4.1168273940974132       13.34267098682642      0.4555148039761967
    18   1      6.8144846493963769      16.031268717274997      5.8883733344567304
    19   1    0.035730409163979626      6.5132517978343571      1.8463557674409259
    20   1   0.0062535608818099497      3.8306471080672679      10.001831270590287
    21   1      13.653606300400497       6.526680472495741      15.445871754695872
    22   1    0.024116742596594465      11.991203445255223      7.2605126928846175
    23   1      14.991194965285672       7.866552756731835      11.367144592914883
    24   1      2.7469293116948847      9.2355299934796449      1.8156579514955524
    25   1    0.036494684136531674      9.2516876224676707      15.426500900014162
    26   1      8.1990422831308933      1.1137129321306531      15.461934962934947
    27   1      12.292149627636149      2.4317759701786201      14.108579979794513
    28   1      4.1353187730401828      13.322778384501021      11.339923188333273
    29   1      5.4727127559687574      11.979005647264444      7.2966461507344889
    30   1      14.991999975176213      2.4239655734322696     0.43807920961931401
    31   1      4.1179302673815528      7.8414300236423742      11.353958783994358
    32   1      6.8280301332317208      7.8807343638603697       3.197267370349806
    33   1    0.043062222906706804      14.673971424513411      15.447985027334767
    34   1      10.927907056072854      14.701929700300752      15.452242721725611
    35   1      12.282749409361713      7.8829727196563795      14.083274245665848
    36   1      14.991004176968204      16.079700721028189        8.61778273017228
    37   1      13.680230031375345      11.979948881344171      15.421113076865254
    38   1      6.8176136751438321      7.8400580025532349      8.6265823546106049
    39   1    0.033581470182255213       6.485591385440614      12.713965076182035
    40   1   0.0053707670893068937      1.1115110792015059      7.2552864557596877
    41   1      9.5518229544993574       2.468449427105611      5.9230242892070919
    42   1    0.020101664890590065      11.946090768862064      1.8147981873047172
    43   1      2.7502956060769463       9.235712021109066      12.710616546528513
    44   1      13.657943814393548      9.2182169270791974      1.8306579528991449
    45   1      1.3587905033687093      7.8762936684303213      14.094204664119161
    46   1      1.3637172953091437      5.1746610075775834     0.50329161168826175
    47   1      2.7498675491248719      3.7920942402017488      7.3008069908519246
    48   1      2.7349782730840957      11.958839516790022      9.9999224140058232
    49   1      13.597497987098563      1.0623038762323773      4.5614035968943085
    50   1      1.3658926228217041      5.1547100006652045       11.33361549293943
    51   1      6.8396536194505302       5.170323493584533      0.4617684142889722
    52   1      9.5611297254346255       5.154800041070132      14.077241051830811
    53   1      15.022566989181996      16.051784301861517      14.041369927917458
    54   1      12.277055935540943      7.8761851332395167      8.6393311025385628
    55   1      5.4850385573460017      14.727394100224046      15.486295516164319
    56   1      10.923349551468846      3.8281228131475018       15.46262997752001
    57   1      9.5257891098530081      7.8682031730189124      5.9090777605411517
    58   1      4.0997620604867393      2.4408298979227538      11.360388155611076
    59   1      12.308280974560034      10.635223175930037      5.9074409719910363
    60   1      12.252777148733344      5.1533871367701067      5.8891832113961868
    61   1      12.320922647411862      5.1678680674069142     0.50282881617455644
    62   1      1.3873773585234233      13.358594997466525      3.1891398853666431
    63   1      10.926301903340686      6.4969822267212862      1.8191550478172047
    64   1      12.257856400981041      2.4537981497567785      8.6295288660237475
    65   1      6.8452765210620328      13.302737823888606      3.2204591017822395
    66   1      14.965692602380841      10.622957239254447      3.2052943507728742
    67   1      5.4529715188646151      1.0790436042706375        7.28952565817184
    68   1      8.1791272923804854       9.222984688196334      12.718902210601414
    69   1      5.4581500589101779      9.2221173800796805      15.470791045140686
    70   1      10.925040364261918      11.953856632110842      1.8422137871380357
    71   1      14.980231450899737      2.4763690891001033      11.344616970306902
    72   1      10.903563050809794      11.949102498730667      7.2672774041715797
    73   1      10.924395966985571      6.5168013366080686      7.2542045107858826
    74   1   0.0063633299455621017      14.710947368530469      4.5453700776536152
    75   1       5.446462814350582      9.2287287793258201      9.9895945362081875
    76   1      4.1079537905155803      2.4112547884858486     0.47399340691556446
    77   1      12.268638861147338      2.4398511343859468      3.1969836213980614
    78   1      14.943852207079658      16.059790597326696      3.1980706767732272
    79   1    0.021350370930227403       9.232099697404351      4.5622674980767215
    80   1      2.7363695190164492      6.5115940809739072      9.9796735436998461
    81   1      1.4046832460267211      2.4169835484112525        14.0630867001762
    82   1      14.980850539521725      5.1681026591646173      3.1805578180148188
    83   1      5.4532406666696147      11.944686138545194      1.8437503144805021
    84   1      9.5768590541181311      16.063085589442153      14.085255134574254
    85   1      2.7671728282470553      14.672621305144389      7.2669917084002691
    86   1      1.3848971103963379      7.9120139138273089      8.6343355635322041
    87   1      10.913259185658262      1.1175822360180803      1.8318423492526108
    88   1      1.3776172219817227      10.629412892935306     0.46029470229656511
    89   1    0.019983427922202202      1.0769894662760606        1.83627842098619
    90   1      1.3920329341630691      7.8994574143314935      3.1866511199039564
    91   1      5.4658648181453486      3.7999705854608976       15.45273234684646
    92   1      10.901877105065637       3.799823113878773      4.5291272753095768
    93   1       4.083768451047149      10.623864457172203      3.2090556061743882
    94   1      1.3763784363566316      10.607813903260308       5.906731356259229
    95   1      16.326763804871121      11.958334317112644      12.701994082670694
    96   1      1.3761655029666002       10.58856083116234      11.360801854768852
    97   1      2.7658760030636529      11.967755950402307       4.535013484267381
    98   1      8.1959458666111686      6.5142787451554227      4.5667101403263359
    99   1      1.3654217358391776      2.4120868104978683      3.2095805173998713
   100   1      6.8154215563125149      10.593710168914413     0.45629739502267341
   101   1      5.4699959692644029      6.5000328929812099      1.8120531717166557
   102   1      15.023374919301887      7.8989595152274887     0.47389609635632013
   103   1      6.8298835054585538      13.336034278925922       8.619544601879511
   104   1      5.4694309048853711      1.0985816420825785      12.720201712661719
   105   1      8.1808833236290184      11.947411685937595      9.9398299344620682
   106   1      13.646935523157595      3.8420630146498524      12.703875683781234
   107   1      1.3835287395938849      16.064047318307757       5.923144992020184
   108   1    0.027029905218714401      14.688222143736539      9.9876662114280634
   109   1       2.755526953603237      3.8006037885247395       12.69122233001201
   110   1       1.394684989116854      13.323342962175161      8.6512982024107714
   111   1      8.1821195540534291      14.655698576066925      12.699938241208997
   112   1      8.1764251068228759      3.8179905907162492      12.656668229535057
   113   1      8.1842036243988332      1.1007390831903763      4.5747032947594448
   114   1      9.5504027496259596      10.594595971816943      3.2044990749801627
   115   1      14.990320843300537      10.598101220445528      14.090643931132945
   116   1      5.4634984589628743      9.2311905326670285      4.5527300290228823
   117   1      10.940414398374628      9.2404554469816276      9.9703122618167299
   118   1      9.5530786531194281      2.4604862050233294     0.50278352220059119
   119   1      13.640858525882322      11.967712146962072       4.553149081934464
   120   1      13.659803027079079      6.5464908216944764      4.5654894844584533
   121   1      9.5333417963593092      10.588544283196029      8.6219985679424553
   122   1      13.630994964551178      9.2471554265180202      12.729132747420749
   123   1      5.4839614794211116      14.701534495928854      9.9792520572638068
   124   1      9.5519378168537514      5.1464141157895824      3.1716795907365167
   125   1      5.4648807008547351      14.713679729791352      4.5753963625249412
   126   1      15.000255463545841      2.4210640822215908      5.8909426495789603
   127   1      2.7138088004758458      1.0892561330089876      4.5665699693175839
   128   1    0.058498874645614318      3.7867796661390116      15.453609389060944
   129   1      6.8228842024138885      16.088558750053494      11.329812380917247
   130   1      13.627376800387765      1.0737949787206986      9.9836693908590632
   131   1      10.917980223105815      1.1045626368180024      12.725374412248584
   132   1      2.7711774360943195      9.2223899348189207      7.2229648706200464
   133   1      6.8471892712856288      2.4423691021421234      3.1602656309734982
   134   1      12.261403506230295      16.058387913829392     0.47083466175067201
   135   1      1.3581622890300054      13.318529450798223      14.076393211909817
   136   1      6.8226851401132649      10.599376387261259      11.335157374035703
   137   1    0.020554887907698882      3.7730652957063171       4.564073659929079
   138   1      12.297798324606902      13.305682388482182      8.6495392509328894
   139   1      13.617017773477073      6.5090972848805109      9.9899001868800497
   140   1       6.838429556648407      2.4530824502138273        8.61959619259801
   141   1      2.7518267796656062      6.5416159855012097      4.5437921803953714
   142   1      4.0858583618512512      2.4645518943344769      5.9460425103457055
   143   1      13.645995209307216      11.947868215125823       9.979619032751998
   144   1      2.7260949354044328       11.96052254230483      15.453148966233584
   145   1      5.4412886546490427      6.4880395110448603      7.2901744357922098
   146   1      5.4612401482663131       1.096571915909351      1.8391954867533968
   147   1      12.228753395288891      5.1704441963976251      11.356576282900846
   148   1      1.3656844348043649      16.086850415884328       11.37005022111714
   149   1      9.5464701741026374      10.617388361885901      14.102561387106221
   150   1      12.237748675093599      7.9019293884754234      3.1890235628975745
   151   1      10.903191208272688      14.691055739614853      9.9992624421729488
   152   1       5.464781413056869      3.8167638510372228      4.5319418896971229
   153   1      8.1925233578141388      11.959703904677326      15.486737444205801
   154   1      4.1131109155459171      13.341865003526095      5.9245306408462852
   155   1      6.8160075490018812       5.173971833451219      5.9042068179870171
   156   1      2.7205406591826318      1.1033618141744483      9.9589720378447737
   157   1      13.636432431599019       9.228384192262638       7.262336376113069
   158   1      9.5545485018917589      13.281054147562486      11.311443164902244
   159   1      10.938972778486004      6.5437190373373824      12.722877616155188
   160   1      6.8241832177693027       16.06435296897962     0.51455043426711455
   161   1      14.989752371987265      10.599877693299504      8.6244272253510417
   162   1      1.3487290964991701      2.4130290711678128      8.6499665778276267
   163   1      8.1507071336511103      1.1064913266267951      9.9915257812176606
   164   1      5.4670309630653833      3.7924529417067845      9.9821469779584504
   165   1      2.7298688451331259      14.724163353154267      12.731135051344381
   166   1      14.978572760629504      13.345063628073035      5.9108766218201367
   167   1      6.8067543156046781      13.303443545981281      14.112683875439643
   168   1      13.620121003865279      14.683542962909655      12.730056513304817
   169   1      10.907068299438379      11.931518824410546      12.674564368395522
   170   1      2.7322619730846327      1.0688823012221178      15.429557406732783
   171   1      4.0773013598013392      10.584490031449832      8.6173369084916658
   172   1      4.1445661659786879      16.068922154501024      14.067950828861854
   173   1       2.739180483117309      6.5542746930242402      15.439169828339914
   174   1      13.631029033893583      14.693794914744217      1.8198372863988652
   175   1      12.249703120638628      13.307197014104531      14.101677531023256
   176   1      5.4632541331073412      6.5130663632706955      12.745703102156767
   177   1      14.963106252587409      13.312674390953475     0.49123507979224001
   178   1      8.1834268433919988      6.5178900954503547      15.451080470444708
   179   1      14.990386061755999      5.1692303543982234      8.6253996617242592
   180   1      9.5454081840293838      5.1623537009862162      8.6363641495199772
   181   1      10.891696212145234      9.2227539900777629      4.5054563829114613
   182   1      6.8103262428033986      10.595906181384862      5.9109647154054983
   183   1      12.258201961454006      16.032211951354725      11.336134677457835
   184   1      9.5397604604684147      13.327923828613962      5.9234676773632486
   185   1      9.5545884116928619      2.4285822126805954      11.350931479569226
   186   1      9.5732973477221321       13.29551122965961     0.48478666584664154
   187   1      10.915973052133268      9.2469227815798831      15.453061359353114
   188   1      9.5527019435334068      7.8887280049983701      11.349494726729517
   189   1      8.1804939597158182      11.954034766101131        4.56135541311005
   190   1      4.0992310654501125      7.8671942337788323      5.8827080895196673
   191   1      10.888516082384172      1.0867526447233331      7.2581142111793042
   192   1       6.802940496074882      5.1621843276839741      11.378407917513982
   193   1      15.016753785957917      7.8839680311594975      5.9264579922166263
   194   1       4.087453780485589        7.86663549656339     0.50139769086015562
   195   1       12.31592905522507      13.341403607288953      3.1664090634664603
   196   1      10.909419084064325      14.705508928072845      4.5288805159295862
   197   1      6.8453062100604143      2.4549971472569894      14.051197473086631
   198   1      4.1064644735475895      16.061963247962353      8.6510353817693613
   199   1      15.006186449353663       13.33795092278865      11.362929728554491
   200   1      12.303241632113441      10.595496375866219      11.295658351861107
   201   1      8.1714237273578192      14.741147407048061      7.2646749931167278
   202   1      4.1158277022502716      10.585937491797154      14.087632201264341
   203   1       12.26401029762917       16.05030277217179      5.9220937094545434
   204   1      2.7505409053422625      14.702773646582614      1.8640359310057875
   205   1      13.609832062458963      3.8023225868490726      7.2504422819745855
   206   1      13.646047773435498      14.684080285109872       7.274123881880314
   207   1      4.0935711742668559      16.036753881402205      3.1914561139452928
   208   1      9.5459649744252602      16.061799715118809      3.1933503693830119
   209   1      13.631727942117777      3.7641566493722962      1.8300108787458953
   210   1      4.0942277391654898      5.1568894651693427      3.2128231887394918
   211   1      8.1825760832416563       9.254015045258825      7.2567368363363585
   212   1      8.1844771525478563      9.2476197429845115       1.831218880286599
   213   1      15.018511764026016       5.159375553755126      14.090930113609147
   214   1      2.7481132213434591      3.7842045105580837      1.8193378055039631
   215   1       1.368596390170211      5.1486987085502847      5.9036948044411588
   216   1      12.270306312105618      10.609742228040432     0.50099001467541271


Velocities

     1                       0                       0                       0
     2                       0                       0                       0
     3                       0                       0                       0
     4                       0                       0                       0
     5                       0                       0                       0
     6                       0                       0                       0
     7                       0                       0                       0
     8                       0                       0                       0
     9                       0                       0                       0
    10                       0                       0                       0
    11                       0                       0                       0
    12                       0                       0                       0
    13                       0                       0                       0
    14                       0                       0                       0
    15                       0                       0                       0
    16                       0                       0                       0
    17                       0                       0                       0
    18                       0                       0                       0
    19                       0                       0                       0
    20                       0                       0                       0
    21                       0                       0                       0
    22                       0                       0                       0
    23                       0                       0                       0
    24                       0                       0                       0
    25                       0                       0                       0
    26                       0                       0                       0
    27                       0                       0                       0
    28                       0                       0                       0
    29                       0                       0                       0
    30                       0                       0                       0
    31                       0                       0                       0
    32                       0                       0                       0
    33                       0                       0                       0
    34                       0                       0                       0
    35                       0                       0                       0
    36                       0                       0                       0
    37                       0                       0                       0
    38                       0                       0                       0
    39                       0                       0                       0
    40                       0                       0                       0
    41                       0                       0                       0
    42                       0                       0                       0
    43                       0                       0                       0
    44                       0                       0                       0
    45                       0                       0                       0
    46                       0                       0                       0
    47                       0                       0                       0
    48                       0                       0                       0
    49                       0                       0                       0
    50                       0                       0                       0
    51                       0                       0                       0
    52                       0                       0                       0
    53                       0                       0                       0
    54                       0                       0                       0
    55                       0                       0                       0
    56                       0                       0                       0
    57                       0                       0                       0
    58                       0                       0                       0
    59                       0                       0                       0
    60                       0                       0                       0
    61                       0                       0                       0
    62                       0                       0                       0
    63                       0                       0                       0
    64                       0                       0                       0
    65                       0                       0                       0
    66                       0                       0                       0
    67                       0                       0                       0
    68                       0                       0                       0
    69                       0                       0                       0
    70                       0                       0                       0
    71                       0                       0                       0
    72                       0                       0                       0
    73                       0                       0                       0
    74                       0                       0                       0
    75                       0                       0                       0
    76                       0                       0                       0
    77                       0                       0                       0
    78                       0                       0                       0
    79                       0                       0                       0
    80                       0                       0                       0
    81                       0                       0                       0
    82                       0                       0                       0
    83                       0                       0                       0
    84                       0                       0                       0
    85                       0                       0                       0
    86                       0                       0                       0
    87                       0                       0                       0
    88                       0                       0                       0
    89                       0                       0                       0
    90                       0                       0                       0
    91                       0                       0                       0
    92                       0                       0                       0
    93                       0                       0                       0
    94                       0                       0                       0
    95                       0                       0                       0
    96                       0                       0                       0
    97                       0                       0                       0
    98                       0                       0                       0
    99                       0                       0                       0
   100                       0                       0                       0
   101                       0                       0                       0
   102                       0                       0                       0
   103                       0                       0                       0
   104                       0                       0                       0
   105                       0                       0                       0
   106                       0                       0                       0
   107                       0                       0                       0
   108                       0                       0                       0
   109                       0                       0                       0
   110                       0                       0                       0
   111                       0                       0                       0
   112                       0                       0                       0
   113                       0                       0                       0
   114                       0                       0                       0
   115                       0                       0                       0
   116                       0                       0                       0
   117                       0                       0                       0
   118                       0                       0                       0
   119                       0                       0                       0
   120                       0                       0                       0
   121                       0                       0                       0
   122                       0                       0                       0
   123                       0                       0                       0
   124                       0                       0                       0
   125                       0                       0                       0
   126                       0                       0                       0
   127                       0                       0                       0
   128                       0                       0                       0
   129                       0                       0                       0
   130                       0                       0                       0
   131                       0                       0                       0
   132                       0                       0                       0
   133                       0                       0                       0
   134                       0                       0                       0
   135                       0                       0                       0
   136                       0                       0                       0
   137                       0                       0                       0
   138                       0                       0                       0
   139                       0                       0                       0
   140                       0                       0                       0
   141                       0                       0                       0
   142                       0                       0                       0
   143                       0                       0                       0
   144                       0                       0                       0
   145                       0                       0                       0
   146                       0                       0                       0
   147                       0                       0                       0
   148                       0                       0                       0
   149                       0                       0                       0
   150                       0                       0                       0
   151                       0                       0                       0
   152                       0                       0                       0
   153                       0                       0                       0
   154                       0                       0                       0
   155                       0                       0                       0
   156                       0                       0                       0
   157                       0                       0                       0
   158                       0                       0                       0
   159                       0                       0                       0
   160                       0                       0                       0
   161                       0                       0                       0
   162                       0                       0                       0
   163                       0                       0                       0
   164                       0                       0                       0
   165                       0                       0                       0
   166                       0                       0                       0
   167                       0                       0                       0
   168                       0                       0                       0
   169                       0                       0                       0
   170                       0                       0                       0
   171                       0                       0                       0
   172                       0                       0                       0
   173                       0                       0                       0
   174                       0                       0                       0
   175                       0                       0                       0
   176                       0                       0                       0
   177                       0                       0                       0
   178                       0                       0                       0
   179                       0                       0                       0
   180                       0                       0                       0
   181                       0                       0                       0
   182                       0                       0                       0
   183                       0                       0                       0
   184                       0                       0                       0
   185                       0                       0                       0
   186                       0                       0                       0
   187                       0                       0                       0
   188                       0                       0                       0
   189                       0                       0                       0
   190                       0                       0                       0
   191                       0                       0                       0
   192                       0                       0                       0
   193                       0                       0                       0
   194                       0                       0                       0
   195                       0                       0                       0
   196                       0                       0                       0
   197                       0                       0                       0
   198                       0                       0                       0
   199                       0                       0                       0
   200                       0                       0                       0
   201                       0                       0                       0
   202                       0                       0                       0
   203                       0                       0                       0
   204                       0                       0                       0
   205                       0                       0                       0
   206                       0                       0                       0
   207                       0                       0                       0
   208                       0                       0                       0
   209                       0                       0                       0
   210                       0                       0                       0
   211                       0                       0                       0
   212                       0                       0                       0
   213                       0                       0                       0
   214                       0                       0                       0
   215                       0                       0                       0
   216                       0                       0                       0
