(written by ASE)

216 atoms
1 atom types

0.0      16.331106185913086  xlo xhi
0.0      16.331106185913086  ylo yhi
0.0      16.331106185913086  zlo zhi

Atoms # atomic

     1   1      8.6996513599715399      4.1061174529599498      15.706484702718171
     2   1     0.53924115592725741       12.26128183000742      4.7678886338181883
     3   1      8.6974592411402227      6.8444768649252978      12.956281813923056
     4   1      11.416583102383697      4.1021741699290146       12.98533420230649
     5   1     0.55743278549497433      15.008113800724004      7.4951506875524387
     6   1      4.6348575858244203      10.924094209952841      14.300486745103285
     7   1      12.772037730426064      8.1932232394481161      14.331290297686337
     8   1      3.2886861235300842      12.273730767722213      2.0831772419282402
     9   1     0.56564927663517039      6.8231192808764831      10.224249565547211
    10   1      4.6112227095882758    0.026083304129757012      3.4327828939370022
    11   1      8.6774031059712797      12.262705928519949      2.0755902427270883
    12   1      15.536835925507489      5.4496828539127478      3.4314011387500329
    13   1      11.441829458515599      4.1243980886846998       2.110680205289583
    14   1      12.783724488280768   0.0081219135429889677      6.1819473978461019
    15   1      8.6975361405130798      9.5733869014221682      15.720794799938062
    16   1     0.53918913934197832      1.3782406909477345      4.7872297995015174
    17   1      12.776682841910542      2.7676269239108251      14.335700817413112
    18   1       14.14555884404092      1.3742511709521068      2.0847514888997978
    19   1      7.3085460853316704       10.90645894491422     0.71339353517521431
    20   1      3.2777328299468707      1.3763710141070362       12.94949325409641
    21   1      3.2667756427245251      14.958731749022604      4.8153652358693648
    22   1     0.52770551994136383      9.5466979519918596      2.0590398428916217
    23   1      11.429767937894439      6.8389493574725293      10.209263921937918
    24   1      7.3294758557808564      10.888884031282146      11.567690370047785
    25   1       4.644395541583151      5.4640143661478646      3.4252297207258096
    26   1      7.3436842316784237      2.7772532166073631      14.297378647666164
    27   1      1.9075673032064628      13.634412606299293      14.292518412619643
    28   1      5.9817262528758306       6.841091345700022       4.804814447231422
    29   1      10.067500414780852      13.613923303776915      11.587550849850345
    30   1      1.8949904837814273      10.923393354909081     0.72871914215122047
    31   1      7.3476216742506608      13.628467992754508      8.9022296167313471
    32   1     0.52971415102858543      1.3932451943715733      10.216116726810242
    33   1      15.516742800766792      13.627736962007475      11.583348639817132
    34   1      3.2768090640628031      1.3884422688260258      7.4988107083365207
    35   1      5.9576606428107084      12.256857682543682      10.208756775440975
    36   1      1.9052975549449513    0.055846325382173934      0.7160547158457149
    37   1      4.6127641039796572      2.7748948880555986     0.73503985690091156
    38   1      14.127896323528375      4.0734322992663579      4.7890598098935584
    39   1      15.501023206181117      8.1567451945350626      11.613312139757454
    40   1      4.6328372738198027       10.91785854688294      3.4503108405470471
    41   1      12.773598106308214      10.929088775549417     0.72173912478788083
    42   1      7.3607972623684645      5.4810738592998405      6.1622460705430626
    43   1     0.54517725213644042      9.5544239054395348      7.4783768901717735
    44   1      14.150323684928708      4.1175842202036961      15.671510089214962
    45   1     0.52614544824977116      14.989863340702527      12.926096376552209
    46   1      15.484003136125352    0.032619851585727666        8.88578288503777
    47   1      3.2553777442229261       6.857520556017505      7.5087526291551967
    48   1     0.54313686355504842      1.3978959029623041      15.663530075813924
    49   1      10.060442220444315    0.047261763667780787      3.4486115104183739
    50   1      4.5799952370447272      5.4408915034575784      14.299406260244155
    51   1       3.283798146304747      9.5453682742282808      4.7510131151151995
    52   1      11.412864677012635      12.282675430218205      4.7760321800627707
    53   1      8.7257942265135853      4.1319755971404675      4.8052150053571268
    54   1      15.514431925941949      13.631316189779568      6.1617106951624123
    55   1      8.6806416403193225      12.269099283974697      7.5222874054829276
    56   1      5.9805338258916549       15.00187716424432      12.929075983897974
    57   1      11.434939664071521      14.956117170345465      12.960681626142218
    58   1      10.043195345909112      10.923393354909081      8.8608499668559944
    59   1      5.9711749775329963       15.01188868386248         2.0273555978074
    60   1       1.899871160433392      2.7499164629664676      14.312266950297158
    61   1       15.52565047369103      16.313803827020251      14.336796876828771
    62   1      11.384005023766235      12.256722378583845      10.187487771682413
    63   1      5.9586647150018734      4.1172751625975934      2.0538600860838301
    64   1      10.060793621375979      5.4838232552319255      14.298956544924408
    65   1      14.139574320695033      12.251966298384104      2.0449803986908535
    66   1      12.797531332642848      5.4586372505065697     0.70415526795342487
    67   1      3.2381612887434414      6.8320439884719235      12.943669343364718
    68   1      12.774734075524975      5.4559905493065912      11.611060642929374
    69   1     0.52130188284578338      4.1030828479614456      2.0907513434497673
    70   1       14.15530754301767      6.8433131535297207      7.5473239918065929
    71   1      8.6901878700612087       9.556703631151322      4.8030082853790645
    72   1      4.6281926490402157      13.624722311909522      11.576106471031608
    73   1      12.792907636173595      13.652449889578293      3.4202229875069463
    74   1      5.9693804965980348      1.3649843098179417      4.7806855655304048
    75   1      8.7166558554707763      6.8194110763081426      2.0788986192270613
    76   1      10.061650221985019      10.914053488041191      14.306865499411288
    77   1      12.810973148336302       8.202096843029949      3.4275617672134331
    78   1      3.2599440095149816      6.8032656149424042      2.0835505445800209
    79   1      15.525688436672567      10.915066807625294      3.4149052498624144
    80   1      14.139931562085394      1.3613550731182471      7.5049757991971546
    81   1       15.50168609824334      8.2199501518599618      0.7114108211234651
    82   1      1.9274816855757564       5.445646610247536      6.1627035731410729
    83   1      7.3435323797522756      10.920770988953677       6.124733777735571
    84   1      3.2578864645861643      4.0935643603983749      15.693515964179255
    85   1      11.397158710163922      14.993786182128019      2.0846091277190339
    86   1      7.3274214744338337      16.323498015049154      6.1703536006256741
    87   1     0.55078360578163199       6.843883571662559      15.704478505155407
    88   1      3.2316710790152854      15.000197058958861      15.651370240804681
    89   1       11.42310786815915      1.3606377917843986      10.231099450190186
    90   1      8.6977541843044719      1.3797481376729337      12.969222323578265
    91   1      15.518258399798924       13.62658055118527     0.69765763597567343
    92   1      15.520847669821705      2.7258206771980724      6.1458713711734276
    93   1      4.5879022447120406      8.1869651879532057      6.1542645970273497
    94   1      10.061069096344568      8.1761992757532198      6.1819396105678379
    95   1      10.055259786759621      13.625372549644567     0.69979268865846223
    96   1     0.54223323508586674      9.5390138551648533      12.964145018150134
    97   1      7.3163041613021846      2.7373305178247165      8.8794888173808886
    98   1      5.9788483668523895      4.1153054679016918      12.986539283617844
    99   1      1.8634509117262041      10.845657823048441      11.573655425198012
   100   1      3.2305343797411865      4.0716721310262471      10.231868443918756
   101   1      14.106685724356794      6.8350046143269196      12.962000596398184
   102   1      1.9321980993268397      13.608538400857356      3.4218147558545979
   103   1      5.9782618874581317       12.29199096184152      4.7650477373665012
   104   1      1.9020180157097997      8.2048330979299635      14.316066168680209
   105   1      3.2530590821198189      12.262238691824109      12.935070241341691
   106   1      1.9194526366568994      10.926139343906925      6.1346080465743285
   107   1      10.077992798831815      8.1780507011604868      11.584771764919878
   108   1      4.6366471997104668      10.912067732083869      8.8644768917074543
   109   1      7.3330623841263218       8.163825290591717      3.4804188918401451
   110   1      10.047091905270463       8.183924255791112      0.7079425620666342
   111   1      7.3404583516575599    0.064237912409469189     0.70013526806396698
   112   1      15.506461646638741      2.7499018618197226      11.595002301739214
   113   1      7.3408871386669716      13.645167810991666      3.4184983487239151
   114   1     0.55625903581100999      6.8051321282013078      4.7876838951652871
   115   1      11.409156959149186      1.3969127590814736      4.7914578048939802
   116   1      10.075704312431981   0.0051201354585828085      8.8610290742560665
   117   1       1.900037735182508    0.064965049517370588      11.593958806451838
   118   1       12.79878119080422      16.330487097291098     0.69757282764832951
   119   1      10.071596523147718      10.873301687475873      3.4502181232652163
   120   1      12.783078144184856      13.607210669913343      14.320946845332173
   121   1       4.577739846577515      5.4295284043557217      8.8658990434004181
   122   1      1.8946117056996172      2.7424134203590995      3.4296037375857225
   123   1      5.9882466383072597      4.0784385457803296      7.4983230300352375
   124   1      15.524815288097216      10.909968087181937      8.8495019556057741
   125   1     0.56016125311672482      4.0918584597536665      12.943345197906979
   126   1      14.148709771508493      12.260706544825666      12.977623823415342
   127   1      11.432795242319571      1.3932993402907528      15.651148303374157
   128   1      7.3428047559394827      5.4711095500561555      11.625285080088361
   129   1      12.767795610591747      2.7572759276308432      8.8785669983163871
   130   1     0.54501615281735383       12.25026477808342      10.212596877034912
   131   1      8.7014034975809409      6.7976402798064441      7.5211840454938965
   132   1      4.6298396583930526      8.1482799363571985      11.586359396275952
   133   1      15.540730538049274      5.4513629591982067      8.8467306579535716
   134   1      8.7039937410135053      4.1071405066418833      10.204612969994741
   135   1      12.779861998261822      2.7179367880131053      3.3897759462569184
   136   1      7.3605621839058699    0.042852711660443799      11.606039795268657
   137   1      4.6027336028707282      8.1823288371567742     0.71542066104831292
   138   1      1.9038516763885269      2.7338038541809055      8.8736483586828854
   139   1      5.9779795986210615      12.274947529950964      15.706873093221589
   140   1      10.074553742068474      5.4468925747697767      8.8847559377167045
   141   1      5.9780243754710796       6.810097978209285      10.208465725915858
   142   1      7.3280142809916811      13.620874423037321       14.33024680239896
   143   1      11.429519718399774      14.980901156830441      7.5362091121994013
   144   1      12.790531542893291    0.037062566080599435       11.60215102318557
   145   1       8.703448631535025      15.024403813442518      4.8076392824216896
   146   1      10.053383052697995      13.633710777845749      6.1310434199489805
   147   1      10.063173608295415      2.7671577403954188     0.72648401077511693
   148   1      7.3117675850085107      8.2017279207221918       8.847433459816898
   149   1      5.9328260390170158      14.943759733150273      7.5139671853627306
   150   1      5.9747152689137693      9.5321659173414446       2.082802479161785
   151   1      14.144005282027251      6.8231971536591232      2.0634437921023618
   152   1      8.6893838335804503      1.4031427033688999      2.0918057895972026
   153   1      12.806389361668153      10.898425393975117      11.568483699020931
   154   1      4.6109929848794877      13.644370588379388     0.68959445687629994
   155   1       1.880217286857274      8.2080949941127983      8.8629243031035685
   156   1      14.157119058623834      14.989431146758875      10.210249012638315
   157   1      14.135904565813121      9.5658497894723951      15.715570509632698
   158   1      14.169839577668085      4.1062912066062154      10.216092391565667
   159   1      8.6880872517494936      1.3959584524654645      7.5226753092814533
   160   1      7.3290154329534971      8.2103017140908605      14.330995354522088
   161   1      5.9750510952889044      9.5449604155292036      12.945239453344698
   162   1      10.039970439298031     0.03444184275420481      14.298379312923089
   163   1      8.7027915799314997       15.02122855073037      10.239755009980627
   164   1      12.769904016181727      8.2219748442086029      8.8663312373440704
   165   1      3.2572092147296416      12.280614721707593      7.5185568124895781
   166   1      3.2387326802860628      4.0816006674604068      4.8086939719215707
   167   1      4.6159564013630074      13.591389840710235       6.160124523921013
   168   1      11.411349077980503      6.8169420223935617      15.662483660297198
   169   1       3.285717710396824      9.5596832384970867      10.233745177980381
   170   1      12.775615984788374      10.875882196810608      6.1526360824603898
   171   1      8.6952447338838965      14.985214335578917      15.650772567197919
   172   1      7.3083504299652873      2.7756008535007197      3.4460670172456105
   173   1      14.142741796128917      15.003780180370086      4.7644048002048294
   174   1       7.340616044042406      5.4734773693533043     0.71605124807336296
   175   1      15.531057765035598      10.924090316313709      14.349342182112082
   176   1      11.453646653281226      6.8403223519714516      4.7903359501190721
   177   1       11.40997559677669      9.5527496406127739       2.032101578880642
   178   1      10.064527621303569      5.4819187789914849      3.4625777506324198
   179   1      10.055075812310633       2.758762324369485      11.582228245156898
   180   1       1.906570774941116      8.2242185537584191      3.4280740241117371
   181   1      1.9247547997449033      5.4702753378721241      11.592104460815222
   182   1     0.58223094725991587       12.24595354615451      15.680657220945818
   183   1      8.7388359707862264       9.543872143391809      10.222182043168118
   184   1      14.169106600101486      9.5362931748213668      10.202690485673315
   185   1      14.146285981148822      9.5877378818529451      4.7666061664290851
   186   1     0.55705473747050149      15.013355612405462      2.0561544129423623
   187   1      14.169846391536566      14.993545749911618      15.672812511504617
   188   1      15.516373878459035      8.1961045324057977      6.1295604301445792
   189   1      8.6726664939671991      12.267448380982728      12.958089435890088
   190   1       12.78525955550856       13.61044725744182      8.8769939681070582
   191   1      14.148914187562923      12.257620835813555      7.5377461262467591
   192   1      5.9590399644732202       9.567600953672013      7.4967509732356916
   193   1      5.9747829208936878      6.8125665454189743      15.700629642873423
   194   1      4.6185408043368739    0.039001366423036643      14.294610270243311
   195   1      11.427909698618691      4.0871812257463489       7.546669373727525
   196   1      0.5170497855611913      4.0828651267685245      7.5143278336873323
   197   1      11.413476951766143       9.554811322533169      7.5323865319815582
   198   1      3.2745196042531859      1.3613955913004645      2.0673710138718775
   199   1       14.14849464794645      1.4011062084266399      12.958644279466398
   200   1      4.6320434581417658    0.034053813477074257      8.8738732163427585
   201   1      12.788889400589369      5.4493441073082636      6.1400571945395654
   202   1      1.9171882421491944    0.013456758103980726      6.1817269205302523
   203   1      11.422762307686185      12.298139991440735      15.685060926804113
   204   1      15.490450029118165      2.7548027367246846     0.72038158316926371
   205   1      15.523174119203077    0.048891456973149783      3.4196430786287237
   206   1      11.457208359677225      9.5352759615981313      12.940374351249261
   207   1      4.6129325038721163      2.7166114905935501      6.1724337773319462
   208   1      3.2912223427196921      14.997014008968449      10.237007074163216
   209   1      1.8908673632930828      5.4831214267783821     0.73852198704715022
   210   1      4.6254203779782301      2.7514220845483237      11.587873048488518
   211   1      15.511324801914611      5.4686443897807067      14.315181339187461
   212   1      3.2878589685669795      9.5807118100392472      15.706910082793343
   213   1       5.981639132700252      1.3984056046599278       15.65936680217203
   214   1      1.9078335307821135      13.624943275930264      8.8551623334939222
   215   1      10.053360664272986      2.7533136631091395      6.1694405422492196
   216   1       5.967054533921555      1.3688066466833391       10.20913153820743


Velocities

     1                       0                       0                       0
     2                       0                       0                       0
     3                       0                       0                       0
     4                       0                       0                       0
     5                       0                       0                       0
     6                       0                       0                       0
     7                       0                       0                       0
     8                       0                       0                       0
     9                       0                       0                       0
    10                       0                       0                       0
    11                       0                       0                       0
    12                       0                       0                       0
    13                       0                       0                       0
    14                       0                       0                       0
    15                       0                       0                       0
    16                       0                       0                       0
    17                       0                       0                       0
    18                       0                       0                       0
    19                       0                       0                       0
    20                       0                       0                       0
    21                       0                       0                       0
    22                       0                       0                       0
    23                       0                       0                       0
    24                       0                       0                       0
    25                       0                       0                       0
    26                       0                       0                       0
    27                       0                       0                       0
    28                       0                       0                       0
    29                       0                       0                       0
    30                       0                       0                       0
    31                       0                       0                       0
    32                       0                       0                       0
    33                       0                       0                       0
    34                       0                       0                       0
    35                       0                       0                       0
    36                       0                       0                       0
    37                       0                       0                       0
    38                       0                       0                       0
    39                       0                       0                       0
    40                       0                       0                       0
    41                       0                       0                       0
    42                       0                       0                       0
    43                       0                       0                       0
    44                       0                       0                       0
    45                       0                       0                       0
    46                       0                       0                       0
    47                       0                       0                       0
    48                       0                       0                       0
    49                       0                       0                       0
    50                       0                       0                       0
    51                       0                       0                       0
    52                       0                       0                       0
    53                       0                       0                       0
    54                       0                       0                       0
    55                       0                       0                       0
    56                       0                       0                       0
    57                       0                       0                       0
    58                       0                       0                       0
    59                       0                       0                       0
    60                       0                       0                       0
    61                       0                       0                       0
    62                       0                       0                       0
    63                       0                       0                       0
    64                       0                       0                       0
    65                       0                       0                       0
    66                       0                       0                       0
    67                       0                       0                       0
    68                       0                       0                       0
    69                       0                       0                       0
    70                       0                       0                       0
    71                       0                       0                       0
    72                       0                       0                       0
    73                       0                       0                       0
    74                       0                       0                       0
    75                       0                       0                       0
    76                       0                       0                       0
    77                       0                       0                       0
    78                       0                       0                       0
    79                       0                       0                       0
    80                       0                       0                       0
    81                       0                       0                       0
    82                       0                       0                       0
    83                       0                       0                       0
    84                       0                       0                       0
    85                       0                       0                       0
    86                       0                       0                       0
    87                       0                       0                       0
    88                       0                       0                       0
    89                       0                       0                       0
    90                       0                       0                       0
    91                       0                       0                       0
    92                       0                       0                       0
    93                       0                       0                       0
    94                       0                       0                       0
    95                       0                       0                       0
    96                       0                       0                       0
    97                       0                       0                       0
    98                       0                       0                       0
    99                       0                       0                       0
   100                       0                       0                       0
   101                       0                       0                       0
   102                       0                       0                       0
   103                       0                       0                       0
   104                       0                       0                       0
   105                       0                       0                       0
   106                       0                       0                       0
   107                       0                       0                       0
   108                       0                       0                       0
   109                       0                       0                       0
   110                       0                       0                       0
   111                       0                       0                       0
   112                       0                       0                       0
   113                       0                       0                       0
   114                       0                       0                       0
   115                       0                       0                       0
   116                       0                       0                       0
   117                       0                       0                       0
   118                       0                       0                       0
   119                       0                       0                       0
   120                       0                       0                       0
   121                       0                       0                       0
   122                       0                       0                       0
   123                       0                       0                       0
   124                       0                       0                       0
   125                       0                       0                       0
   126                       0                       0                       0
   127                       0                       0                       0
   128                       0                       0                       0
   129                       0                       0                       0
   130                       0                       0                       0
   131                       0                       0                       0
   132                       0                       0                       0
   133                       0                       0                       0
   134                       0                       0                       0
   135                       0                       0                       0
   136                       0                       0                       0
   137                       0                       0                       0
   138                       0                       0                       0
   139                       0                       0                       0
   140                       0                       0                       0
   141                       0                       0                       0
   142                       0                       0                       0
   143                       0                       0                       0
   144                       0                       0                       0
   145                       0                       0                       0
   146                       0                       0                       0
   147                       0                       0                       0
   148                       0                       0                       0
   149                       0                       0                       0
   150                       0                       0                       0
   151                       0                       0                       0
   152                       0                       0                       0
   153                       0                       0                       0
   154                       0                       0                       0
   155                       0                       0                       0
   156                       0                       0                       0
   157                       0                       0                       0
   158                       0                       0                       0
   159                       0                       0                       0
   160                       0                       0                       0
   161                       0                       0                       0
   162                       0                       0                       0
   163                       0                       0                       0
   164                       0                       0                       0
   165                       0                       0                       0
   166                       0                       0                       0
   167                       0                       0                       0
   168                       0                       0                       0
   169                       0                       0                       0
   170                       0                       0                       0
   171                       0                       0                       0
   172                       0                       0                       0
   173                       0                       0                       0
   174                       0                       0                       0
   175                       0                       0                       0
   176                       0                       0                       0
   177                       0                       0                       0
   178                       0                       0                       0
   179                       0                       0                       0
   180                       0                       0                       0
   181                       0                       0                       0
   182                       0                       0                       0
   183                       0                       0                       0
   184                       0                       0                       0
   185                       0                       0                       0
   186                       0                       0                       0
   187                       0                       0                       0
   188                       0                       0                       0
   189                       0                       0                       0
   190                       0                       0                       0
   191                       0                       0                       0
   192                       0                       0                       0
   193                       0                       0                       0
   194                       0                       0                       0
   195                       0                       0                       0
   196                       0                       0                       0
   197                       0                       0                       0
   198                       0                       0                       0
   199                       0                       0                       0
   200                       0                       0                       0
   201                       0                       0                       0
   202                       0                       0                       0
   203                       0                       0                       0
   204                       0                       0                       0
   205                       0                       0                       0
   206                       0                       0                       0
   207                       0                       0                       0
   208                       0                       0                       0
   209                       0                       0                       0
   210                       0                       0                       0
   211                       0                       0                       0
   212                       0                       0                       0
   213                       0                       0                       0
   214                       0                       0                       0
   215                       0                       0                       0
   216                       0                       0                       0
