(written by ASE)

216 atoms
1 atom types

0.0      16.331106185913086  xlo xhi
0.0      16.331106185913086  ylo yhi
0.0      16.331106185913086  zlo zhi

Atoms # atomic

     1   1      5.4224653429702698      4.9591840977832362      9.6508333305772567
     2   1      4.1326555238738933      14.487103028241449      5.5775183271897504
     3   1       2.723256715829649      7.7191989571909971      9.7014467456541524
     4   1      12.260921668387709     0.84377903789312114      5.5769376882541906
     5   1      8.1667747222342086      4.9772082400301656      6.9272230236439327
     6   1      1.3764398828491835      6.3357943273444448     0.14280745873027811
     7   1      4.0804661583583197      6.3320520534336993      8.2918208897780232
     8   1       2.748300359374241      13.142203082476158      15.107358768559607
     9   1      9.5478709107803752       14.48565946153326      5.5972989873901042
    10   1      13.645625313589676      13.147674618866404      15.081135109005572
    11   1      13.628569227371941      7.6691642342300952      15.059143835188024
    12   1      14.996988700314091      14.492741017704589      11.036370214553472
    13   1      2.7405705122874338      15.825357505418197      1.4878320313668496
    14   1      2.7407471861630484      15.840364564042716      6.9276386696212739
    15   1      8.1748803054972541      13.134687385541611      15.094411445035917
    16   1      14.967796140921905      3.5784604818315131      11.042285625804766
    17   1      8.1847107708957765      7.6575081387835553      9.6300714733156383
    18   1      1.3659281522787836      11.768985672713598      10.996800133464717
    19   1      1.3762201355906711      9.0357658644024923      2.8347194365565827
    20   1      9.5396251565085777      3.5830608164659736      11.022727876444719
    21   1      12.266322145863796      3.5694265089879309      2.8568121883440085
    22   1       2.736482677903723      7.6771982718740901      15.086477181894679
    23   1      12.262785748122155      9.0321019499792783      8.3219557098401538
    24   1      12.257392084514549      14.492741017704589      2.8707888927132217
    25   1      9.5334478980256563      11.762509577427295      13.746725600471677
    26   1      4.0562786287178767      11.765696521056839      13.745710334068008
    27   1      10.885035169000162        15.8399245828208       9.653227918643438
    28   1      2.7113051905139685      15.846297496670104      12.369373145950931
    29   1   0.0075210155163204506      7.6512111508973248      12.399389210019535
    30   1      6.8053049084377903      11.732841994061005      11.033202739119588
    31   1      12.263850658424758       9.046118077444703      13.755243909482715
    32   1      4.0971732771688494     0.85284969611790018      8.3191435289770652
    33   1      14.994110327585759      6.3063131519515991      2.8650331206663395
    34   1       14.97284229723698      11.749162182482792      13.745905016024608
    35   1      8.1890901415094959      15.840968078108176      12.357342774442827
    36   1      13.624603555915996      7.6699215470412696      9.6620041812469708
    37   1      6.7936945632510515      9.0408013132099541      13.751356110809411
    38   1      6.8333790199893087      11.755908885688768     0.13188893412775116
    39   1      6.8057760387727626      9.0649973601859983      2.8418550169708681
    40   1      9.5448533404530735       14.44086801036849     0.10124655691142515
    41   1      13.613255544665776      2.2240770912553387      15.094340386121758
    42   1      4.0878270831373698      6.3383641291715662      2.8261673015555857
    43   1      10.927141955983416      13.094264597482947      12.381939866249468
    44   1      2.7301993177544546       2.241892923808706       15.07038671818168
    45   1      10.904156830777424      10.424219084088577      9.6814032648123884
    46   1      9.5418601053703469      9.0658111307645868      10.972015173569957
    47   1        4.11385800755437     0.85942635680240897      13.743587327331284
    48   1    0.044907317348002351      4.9906038187589274      15.077565615331309
    49   1       12.24946366183201       14.49801008485997      8.2943352072475136
    50   1      16.305719658772432       7.673326047757314      6.9195583950125865
    51   1      10.917385469728401      4.9549658264886034      4.1814024256918856
    52   1      4.0778649640656965      9.0586351538443068      11.016477612228073
    53   1      4.1344310233180863       9.077080295822384      5.5817667741876562
    54   1      1.3836131828925602      3.5764391964171125      8.2983349480458628
    55   1      2.7376953031408959      2.2215880824402063      4.1924150972718621
    56   1      6.8310769058525125     0.85863126352403185     0.13484061678036596
    57   1      13.636724454533919      13.128755426324005      4.2024524122492721
    58   1      16.326216748573074      15.865871793996462      4.2175709262939449
    59   1      4.0906738200477548      11.802725029202179      2.8592817289634809
    60   1      4.0672358159402222      14.455789408932105      11.018037988110223
    61   1      1.3637231357678417      6.3344140322721501      11.040917011649867
    62   1      5.4152942330989049      10.410011194895901      9.6358467135581805
    63   1      10.912333472954629      4.9474705711594993      9.6199100485908957
    64   1      8.1700307779583454      2.2632536714393154      15.089687487359015
    65   1      1.3959033331365021     0.85718179551903262      5.5613139745321405
    66   1      5.4432028649873132      7.6965340838036127      1.4945019568761921
    67   1      2.7280787445421879      13.171756776897837      4.2342449491718526
    68   1      15.015795950731444     0.88878682938216258      2.8204351346959413
    69   1      5.4534888861642798      2.2216547610103419      6.9321231684915574
    70   1      2.7659434116911257      10.396524602352429      1.4784082079051757
    71   1      6.8092627926154705      3.6059322960797999      13.749290535249884
    72   1      5.4557914870059676      5.0013444223045553       15.07436699078437
    73   1      8.1725119994952138      10.414303932038933      1.4830207101619237
    74   1      9.5112619422515081     0.85317481498542236      13.741740768972932
    75   1      15.009026859100459      11.775473448917296      8.2928254486740798
    76   1       5.486505972593875      15.852778459005322      4.1783877755939329
    77   1      5.4716429786172398      2.2373178978286035      12.372468589060873
    78   1      15.009395781408216      11.734693419468272      2.8717442944152367
    79   1      1.3682286846246825      3.6087021336173279      13.765365424406355
    80   1       14.94742462098327      6.3126227941650086      13.760622971943576
    81   1      2.7278229811217045      4.9566503121180858      12.379128658796162
    82   1      13.636829582790483      4.9848319854506258      6.9127620479076768
    83   1      9.5211031151576435      6.3103231135526698      8.3067374212927234
    84   1      15.002108835772674      6.2938875760715973      8.3122663888601664
    85   1      4.1006030865392518     0.85990545692997955      2.8537045776117793
    86   1      13.604505564126384      4.9550446726810264      1.4977028932713665
    87   1      10.909738362473149      2.2092445163344223      6.9502246968162353
    88   1      9.5232280687139337      6.3284874268083513       2.862652403689566
    89   1      14.978476393060987      3.6139286140947036      5.5887797049692836
    90   1      1.3475517573666309      14.473798463327398      13.758076531951247
    91   1      13.648188301548316      10.447563397504496      6.9836968523193832
    92   1      8.1590862450631789      2.2281345065833307          9.671473511616
    93   1      4.1008055557741159       3.595150809323286      11.046126700808486
    94   1       8.218401456895208      15.860074165328911      1.4759720065707711
    95   1      13.642072367881724      15.842919764723092      12.372971841918684
    96   1      10.900028599887719      15.854261935514614      15.085854199633559
    97   1      4.0890190234166539      3.6029410078166393    0.076791978380827075
    98   1      5.4563847802687064      2.2444911978719801      1.4653198616391734
    99   1      2.7312345390586756      4.9617850487234136      6.9103265766306095
   100   1      1.3719245998945127      6.3130929510901979      5.5866382034466824
   101   1      8.1709136606315269      15.858670508421824      6.9421001320624214
   102   1      14.933144699466652       14.48426456531422     0.15551158190349668
   103   1      2.7287270354576663      4.9691488937318127      1.4773340502096346
   104   1      6.8121401919340201      6.3241586735033479      11.024975479633667
   105   1      9.5326691701992559      3.6011586945039653      5.5673826978242573
   106   1      12.310854670026288      11.751304657415176      11.020293378577435
   107   1       13.65025290369806      10.398216388555284      1.4796187646465597
   108   1      14.988000234377864      9.0564936523217057      5.5707711372788822
   109   1      4.0795638074894782       6.342556118402058       13.71922288046278
   110   1      9.5490312152417118      9.0618016558684076      5.5952742950414631
   111   1      9.5497437512028682      11.743765598645837      8.3017535632037607
   112   1      13.612237358032758      2.2244245985478699      4.2278365058654686
   113   1      2.7468093389391299      13.142370508958834      9.6499416872160282
   114   1      8.1283133548882915      4.9525478765876301      12.379094589453757
   115   1      6.7795299907937192      0.8760914364779353      11.028261711061077
   116   1      8.1388548961332958      4.9815783632509465      1.5078745387988306
   117   1      4.0975052099048526      3.5724496764214848      5.5733248778445841
   118   1      8.1737346021826625      10.421809894875651      12.406630405395276
   119   1      9.5531292704281441     0.88279512713912567      2.8368499872191251
   120   1       1.376912716651276      9.0167619852089729      8.2715243223926791
   121   1       1.318533438325602       11.74193364143423     0.14227223544490641
   122   1      1.3842959081791122      11.773226819138131      5.5894284825896534
   123   1      10.887864871239344      13.117019024570368      1.4732658056978067
   124   1      12.256004002163991      14.510957408383661      13.717217656309799
   125   1       1.367456892342986      3.6175655163964393      2.8523598119965641
   126   1      12.296196092104083      11.743311016277175      5.5889505383862002
   127   1       2.724672783711469      10.388299289686074        6.93864793426701
   128   1      9.5195836224863797      11.742611134643198      2.8604310825647588
   129   1    0.034091860111014505      4.9509271492989342      9.6603912412365389
   130   1      8.1434756723731994      2.2232144068351545      4.1950379499321571
   131   1      12.259855784675324      9.0522953359276244      2.8675228595388091
   132   1    0.012924272533623715      13.148145749201376      1.4863699698727828
   133   1      10.886906062603089      4.9655506844689512      15.077295007411635
   134   1      8.1385219899875096      13.106621061268356      9.6544952981809047
   135   1      10.892975272600097      10.408875225679139      15.119162335588271
   136   1      1.3552919469323825      9.0514144000740089      13.735251045949667
   137   1      1.3863821686965281      14.515349433324559      8.2935029418830482
   138   1      6.8121625803590291      9.0444457594375081      8.2861906875931481
   139   1    0.039524954419595915      4.9343689621852036      4.2318513345154543
   140   1      13.643283289651777      2.2171459268954834      9.6716808478997791
   141   1      13.648514393825621      7.6946086792528376      4.2307275329209801
   142   1      12.275419633695719      3.5813884984587787      8.2596915530705246
   143   1      6.8110032493074755     0.83895719169491656       5.579470500509558
   144   1      9.5448465265845925      6.3162769744903926      13.696898700499446
   145   1      9.5431839426752276      3.6185428198185718     0.12498605948971431
   146   1      16.320552477045794      10.372601110115625      4.2049832776850735
   147   1  0.00036405525884219969      2.2278385900092985       12.37952386316806
   148   1      13.614904500838179       13.10543155451353      9.6258001511878319
   149   1       1.357938648132361      14.500968277190509      2.8559840599711208
   150   1      5.4643292642126653      4.9461369997567886      4.2183369997931663
   151   1      6.8190577285569134      14.448730241185785      13.730076399543236
   152   1      12.257576058963537      11.781763622935046     0.11432662919427194
   153   1      2.7191917565758388      10.411719529065067      12.387237162288557
   154   1      13.638621630200987      15.889096378009071      1.5076719478877436
   155   1      13.610550438878818      4.9730989906312288      12.372761585405556
   156   1       10.90942395111324      2.2084494838941566      12.383785451198037
   157   1      13.633168588596618      15.807353318071819      6.9395512585456345
   158   1      13.629186369174363      10.416098899678786      12.383051500221654
   159   1    0.010031396569881723      2.2337513243836895      6.9616082375235351
   160   1      6.8342896448413057      14.477987045623649      2.8160238849118286
   161   1      12.250984127913057      3.5986728492706277      13.749406371014061
   162   1      14.984662412231955      3.6180641455577813     0.14385521268545531
   163   1      14.970469124186025     0.87186397862847542      13.758761812438479
   164   1      12.258820076666211      6.2935201138785146      5.5849157548356629
   165   1      4.0999012580857084      14.469139724105958     0.15249367696658211
   166   1      16.326782299656998      10.393917810953553      9.6565618471502148
   167   1      5.4240661153584142      13.079685839162948      12.371326779385413
   168   1       5.442741468750171      15.837451148562195      9.6566601615382979
   169   1      10.920092522334926      13.146994205428086      6.9325178861585641
   170   1      5.4127546069750565      10.443756391843181      4.1662050654547897
   171   1      5.4464409126304645      10.426711986542841      15.103536188341764
   172   1      12.212247285598551     0.84409058986179275      11.034818599359369
   173   1    0.010472862621955237      13.101372435718417      6.9272064756776217
   174   1      2.7355202189807812      2.2410655254931555      9.6658656978561339
   175   1      10.897011029560417      7.6769855818365045      1.5096237561788826
   176   1   0.0097003935162689459      7.6983733415885922      1.5062422522689616
   177   1      6.8066496740530056      11.796977044433561       5.561248269371788
   178   1      6.7966216064685341      6.3357539308384503      5.5704416380673365
   179   1      6.8111074041542565      6.3345615038542746     0.15454627879884519
   180   1       8.180126984227627      13.119607321183366      4.2340716822304785
   181   1        9.50190650082709     0.87202550381434207      8.3428003069333272
   182   1       5.441983669234105      13.126825154724315      1.4760083877614107
   183   1      12.227612559023214     0.87070215321435285     0.13596476819398085
   184   1      1.3653887615827784     0.87222134169505949      11.015395180549376
   185   1      6.8431243120318186      14.468986898770027      8.3070119228515296
   186   1      10.852863975671994      7.6622569184099234       6.957734066587193
   187   1      16.317324650205364      13.107812514842749      12.374131172970237
   188   1      5.4477637765255622      13.146290430154977      6.9531390857065389
   189   1      10.899797901769148      2.2418668850970107      1.4624225074200723
   190   1      4.0539244371576899      11.767985980866456      8.2826980932917422
   191   1   0.0084203567998367701      2.2612988212426046      1.4634271879923517
   192   1      8.1488002238862123       7.700719745870515      4.2121456268683914
   193   1      2.7465737737716438      7.7094011010202053      4.2210649807100253
   194   1      9.5708355943809238      14.481196377678202      11.016526282717223
   195   1      5.4325941584672819      7.6805487483471779       6.940449715775344
   196   1      5.4638878228760746      15.840280850801378      15.081729862382986
   197   1      14.963919049756214     0.86867654829404017      8.2771370032014602
   198   1    0.022365124012331705      15.825628113337871      9.6440145950473379
   199   1       14.96618222750169      9.0070853185561646      11.048254574594125
   200   1   0.0029104952511715965      10.377914954121024      15.124133539350055
   201   1      1.3836979912199041     0.85837477004621121     0.13712276080708286
   202   1      14.963679590949596      9.0321739823032203     0.13226915711470788
   203   1      9.5107596628034798      9.0328076720719537     0.12798756855559645
   204   1    0.024284326878122098      15.795236313093028      15.141935257461569
   205   1      8.1990967940787414      7.7062628278798115      15.085355813824663
   206   1      10.907359348963496       10.41656710978441      4.2146560506987498
   207   1      10.880927379715899      15.834835596475273      4.2119718732221259
   208   1      8.1772622392362564      10.451494999618035      6.9024502313714606
   209   1      6.8153120477119273      3.5932387891570272      2.8569411651402561
   210   1      5.4632833354008312      7.6863741191935446      12.345475935778268
   211   1      12.227522031913395      6.3331758550281734     0.12903427305335136
   212   1      4.0737649620596983      9.0501674621419852     0.13613941920239014
   213   1      12.248446448608775      6.2775289379633818      11.003321979010821
   214   1      14.988505434055241      14.484256778035956      5.5928787335654988
   215   1      10.899632422106038      7.6974539560485482      12.337383980252184
   216   1      6.8251089304729362      3.6082616656905202      8.2808554285725222


Velocities

     1                       0                       0                       0
     2                       0                       0                       0
     3                       0                       0                       0
     4                       0                       0                       0
     5                       0                       0                       0
     6                       0                       0                       0
     7                       0                       0                       0
     8                       0                       0                       0
     9                       0                       0                       0
    10                       0                       0                       0
    11                       0                       0                       0
    12                       0                       0                       0
    13                       0                       0                       0
    14                       0                       0                       0
    15                       0                       0                       0
    16                       0                       0                       0
    17                       0                       0                       0
    18                       0                       0                       0
    19                       0                       0                       0
    20                       0                       0                       0
    21                       0                       0                       0
    22                       0                       0                       0
    23                       0                       0                       0
    24                       0                       0                       0
    25                       0                       0                       0
    26                       0                       0                       0
    27                       0                       0                       0
    28                       0                       0                       0
    29                       0                       0                       0
    30                       0                       0                       0
    31                       0                       0                       0
    32                       0                       0                       0
    33                       0                       0                       0
    34                       0                       0                       0
    35                       0                       0                       0
    36                       0                       0                       0
    37                       0                       0                       0
    38                       0                       0                       0
    39                       0                       0                       0
    40                       0                       0                       0
    41                       0                       0                       0
    42                       0                       0                       0
    43                       0                       0                       0
    44                       0                       0                       0
    45                       0                       0                       0
    46                       0                       0                       0
    47                       0                       0                       0
    48                       0                       0                       0
    49                       0                       0                       0
    50                       0                       0                       0
    51                       0                       0                       0
    52                       0                       0                       0
    53                       0                       0                       0
    54                       0                       0                       0
    55                       0                       0                       0
    56                       0                       0                       0
    57                       0                       0                       0
    58                       0                       0                       0
    59                       0                       0                       0
    60                       0                       0                       0
    61                       0                       0                       0
    62                       0                       0                       0
    63                       0                       0                       0
    64                       0                       0                       0
    65                       0                       0                       0
    66                       0                       0                       0
    67                       0                       0                       0
    68                       0                       0                       0
    69                       0                       0                       0
    70                       0                       0                       0
    71                       0                       0                       0
    72                       0                       0                       0
    73                       0                       0                       0
    74                       0                       0                       0
    75                       0                       0                       0
    76                       0                       0                       0
    77                       0                       0                       0
    78                       0                       0                       0
    79                       0                       0                       0
    80                       0                       0                       0
    81                       0                       0                       0
    82                       0                       0                       0
    83                       0                       0                       0
    84                       0                       0                       0
    85                       0                       0                       0
    86                       0                       0                       0
    87                       0                       0                       0
    88                       0                       0                       0
    89                       0                       0                       0
    90                       0                       0                       0
    91                       0                       0                       0
    92                       0                       0                       0
    93                       0                       0                       0
    94                       0                       0                       0
    95                       0                       0                       0
    96                       0                       0                       0
    97                       0                       0                       0
    98                       0                       0                       0
    99                       0                       0                       0
   100                       0                       0                       0
   101                       0                       0                       0
   102                       0                       0                       0
   103                       0                       0                       0
   104                       0                       0                       0
   105                       0                       0                       0
   106                       0                       0                       0
   107                       0                       0                       0
   108                       0                       0                       0
   109                       0                       0                       0
   110                       0                       0                       0
   111                       0                       0                       0
   112                       0                       0                       0
   113                       0                       0                       0
   114                       0                       0                       0
   115                       0                       0                       0
   116                       0                       0                       0
   117                       0                       0                       0
   118                       0                       0                       0
   119                       0                       0                       0
   120                       0                       0                       0
   121                       0                       0                       0
   122                       0                       0                       0
   123                       0                       0                       0
   124                       0                       0                       0
   125                       0                       0                       0
   126                       0                       0                       0
   127                       0                       0                       0
   128                       0                       0                       0
   129                       0                       0                       0
   130                       0                       0                       0
   131                       0                       0                       0
   132                       0                       0                       0
   133                       0                       0                       0
   134                       0                       0                       0
   135                       0                       0                       0
   136                       0                       0                       0
   137                       0                       0                       0
   138                       0                       0                       0
   139                       0                       0                       0
   140                       0                       0                       0
   141                       0                       0                       0
   142                       0                       0                       0
   143                       0                       0                       0
   144                       0                       0                       0
   145                       0                       0                       0
   146                       0                       0                       0
   147                       0                       0                       0
   148                       0                       0                       0
   149                       0                       0                       0
   150                       0                       0                       0
   151                       0                       0                       0
   152                       0                       0                       0
   153                       0                       0                       0
   154                       0                       0                       0
   155                       0                       0                       0
   156                       0                       0                       0
   157                       0                       0                       0
   158                       0                       0                       0
   159                       0                       0                       0
   160                       0                       0                       0
   161                       0                       0                       0
   162                       0                       0                       0
   163                       0                       0                       0
   164                       0                       0                       0
   165                       0                       0                       0
   166                       0                       0                       0
   167                       0                       0                       0
   168                       0                       0                       0
   169                       0                       0                       0
   170                       0                       0                       0
   171                       0                       0                       0
   172                       0                       0                       0
   173                       0                       0                       0
   174                       0                       0                       0
   175                       0                       0                       0
   176                       0                       0                       0
   177                       0                       0                       0
   178                       0                       0                       0
   179                       0                       0                       0
   180                       0                       0                       0
   181                       0                       0                       0
   182                       0                       0                       0
   183                       0                       0                       0
   184                       0                       0                       0
   185                       0                       0                       0
   186                       0                       0                       0
   187                       0                       0                       0
   188                       0                       0                       0
   189                       0                       0                       0
   190                       0                       0                       0
   191                       0                       0                       0
   192                       0                       0                       0
   193                       0                       0                       0
   194                       0                       0                       0
   195                       0                       0                       0
   196                       0                       0                       0
   197                       0                       0                       0
   198                       0                       0                       0
   199                       0                       0                       0
   200                       0                       0                       0
   201                       0                       0                       0
   202                       0                       0                       0
   203                       0                       0                       0
   204                       0                       0                       0
   205                       0                       0                       0
   206                       0                       0                       0
   207                       0                       0                       0
   208                       0                       0                       0
   209                       0                       0                       0
   210                       0                       0                       0
   211                       0                       0                       0
   212                       0                       0                       0
   213                       0                       0                       0
   214                       0                       0                       0
   215                       0                       0                       0
   216                       0                       0                       0
