(written by ASE)

216 atoms
1 atom types

0.0      16.331106185913086  xlo xhi
0.0      16.331106185913086  ylo yhi
0.0      16.331106185913086  zlo zhi

Atoms # atomic

     1   1       8.165553092956543       8.165553092956543       8.165553092956543
     2   1      9.5264782839793725      9.5264782839793725      9.5264782839793725
     3   1       6.804627415228822      9.5264782839793725       6.804627415228822
     4   1       6.804627415228822       6.804627415228822      9.5264782839793725
     5   1      9.5264782839793725       6.804627415228822       6.804627415228822
     6   1      16.158693898328465      7.6799111649393126      1.6655279872535971
     7   1      9.3356393492025518      11.701053350777556      11.139134058754621
     8   1      12.134255746964982      0.8514555907943091      13.981170373297573
     9   1      6.7467192672381202      11.649200785046901      13.963582805338319
    10   1      9.2901090800124848      11.640719465607617     0.16788176468303462
    11   1      9.3231456346377399      9.0682378413536071      3.0270778640046672
    12   1      13.636558001461026      7.4149991526103918      10.088392708953393
    13   1      16.095228553886614      5.0394227529008617      15.261287951184613
    14   1      5.2396838076722361      7.3938795672535207      7.2000527511477799
    15   1      9.2472225917930473       3.570941864667617      13.860357564900028
    16   1      13.423505855436133      7.5742412058310151      4.3432444564429034
    17   1      3.7569200776930245      11.756287542094356       0.299564731384514
    18   1      11.994336851346702      11.720387215887513      8.4440573127903917
    19   1      14.662483242254439      6.1665246932442415      5.6725776329584505
    20   1       2.676337634231686      15.780416149146845      12.403091087424286
    21   1      11.788805269305271      9.3490334678166391      11.381487786067396
    22   1      6.4470458181484673      9.1248659554796632       11.10801609481166
    23   1       6.397132284705549      3.4738610301320705      5.8080650805396203
    24   1      2.6415285003915869      4.8265107778847209      7.1329833569843686
    25   1      12.014779430199496      9.0727749043521726     0.35490827920662227
    26   1      7.8908485782106368      10.507332705000294      1.6679408267532096
    27   1      1.3831954684194301     0.90895654930515946      13.843218738850737
    28   1      10.801658727447034       15.85147701012545      4.3952912174252674
    29   1      6.4630934518310141      14.469238038494041     0.38045365465623959
    30   1      6.5998215101806181       6.531288107703574      13.792863277366337
    31   1      1.2071934889075493     0.81854235502093786      3.0904198287565237
    32   1      11.957759031930891     0.88345607238178303      8.3069681194112945
    33   1      7.9222755997597005      15.850419887101111      7.1284711159352696
    34   1      3.8982209718507193      3.5149172646070213        8.39714674852803
    35   1      5.2324839822122726      15.835430349852686      4.4968485202003876
    36   1      9.4505970977553488     0.84298224114762377     0.42849672036301101
    37   1       16.08764277144769      15.887603167401949      9.8193510056200921
    38   1      11.873380951711056      3.5397625759083269     0.28320219963716653
    39   1      5.1811015734068064      2.1906188068415986      1.5080400184619407
    40   1      13.532023524864599      13.035301273287473      4.4531463145827956
    41   1      14.644855764494082     0.85025482898886651     0.39855712980048352
    42   1      7.9751911289733926      7.7729837413409086      4.3414285604927159
    43   1      15.870769018614737      7.7275036027546662      12.695949207918261
    44   1      7.9631004060587429      15.837175673593606       1.741262796981502
    45   1      10.729090054714561      13.136330501255316       1.581915250475646
    46   1       2.495793481319879      15.812859897214253      1.6989444150466682
    47   1      14.735545433746893      8.9879714440571661      13.752643931952321
    48   1      10.720504580428496      7.6475920133241289      1.5234247600822641
    49   1      13.492185756085519      13.003149548154965      9.7622527345688468
    50   1      13.436045320260746      2.0876507899384649       15.34945259546032
    51   1      9.0768972947831799     0.99726848264865708      5.5397719293294472
    52   1      3.9783114253288829       9.073573100374233      8.5500227017678299
    53   1      14.704797365521472      3.5813077054467897      13.886678565432362
    54   1      16.224485692151688      12.920311402211837      12.490957868306396
    55   1      16.136934296039271      4.7780447047891244      9.8132837424426498
    56   1      13.331844723219888      4.8317671907129238      12.614973194890013
    57   1      3.6666243960498832      14.478352074292275      8.4876738583470797
    58   1      7.6168074422318455       12.92859122582604      15.381478750730821
    59   1      10.618477607433078       2.246098297423714      12.474569541199799
    60   1      9.2249782314319191      14.529674131691195      13.855877933078659
    61   1      12.007246211888855      11.814465324594948      2.8321133752150445
    62   1      3.8366369851669617      6.3876795023028308      5.7796892119553718
    63   1      1.1893547812242815       9.024263080996775      5.8261179383751482
    64   1      13.217986927721881      2.2445498458114059      4.4896482080355327
    65   1      7.8819301977787859      13.098134874780158      4.2892844585320518
    66   1      13.452067645288935      16.096519295258872      1.6702956266945108
    67   1      14.751391571604358      3.5432807222165366      2.9691646056126046
    68   1      14.926119601062737       9.015150992018107      8.5552761943666837
    69   1      13.384936439604303      2.2456872751428421      10.009542622891217
    70   1      16.307388083140495      15.937835979253691       4.424686732757209
    71   1       6.586851798231919      8.8194576626534626     0.10828563287144277
    72   1      14.858585403727943      14.455332879743878      8.3354481428423242
    73   1      14.668174769255643      14.276641125649121      3.0465779388350711
    74   1       5.298847167578117      2.2328068735417332      6.9890973297954702
    75   1      14.799967640005434      14.466267191836323      14.017801730251449
    76   1      13.393540408676245      13.138270506952836      15.296109739351891
    77   1      10.910052773833058      4.9484537150403298       15.37382872324622
    78   1      10.641108411478058      4.8826064368594757      9.7768188385616668
    79   1      2.6414890772953754      4.9184483584793384      1.6049726513580254
    80   1      11.880031287348515      11.676157422167535      13.964548427843056
    81   1      2.4236735504973694      7.6753599874988936      9.6436524866080617
    82   1      3.8342801167298717      3.6943436997354979      13.937677450783326
    83   1      14.819376457668682      11.633007139896904        11.1601100661685
    84   1      10.602868008152882      10.286559472576641      15.344835712859549
    85   1      16.213565007796205      2.3392755153769826      12.597208466350253
    86   1      13.485430292191495       7.718085863104136      9.5236388476423599
    87   1      1.1846032030447873      3.6046415547075412     0.31057323555385707
    88   1      13.440976614221427       15.82733742091682      12.628622346867246
    89   1      6.6728058288904322     0.79945707443431502      14.027607860405396
    90   1      3.6654796661450746      6.2485154859712679     0.34453833185492755
    91   1      9.2086551227807831      14.339214826729744      8.4722355791886912
    92   1      10.407398563038328      7.7733813792372644      12.556039072988028
    93   1      11.890657028539749      6.3195773203596559      2.9285899656277934
    94   1      1.3006206298226033      14.254878603130578      11.162949502505512
    95   1      9.2918222812305657      3.7145670180346713       2.832132356705813
    96   1      6.5527425460257973       6.312518152613336      2.8977525870547822
    97   1      2.5971568321957363      7.5413355748215736      4.2178215793130676
    98   1      13.326644768159099      4.8851811057355121      1.7126875010679612
    99   1      14.845881432650003      8.9384063913165619      2.9682873200456754
   100   1      9.3926441729146291      11.633527914130809      5.6966588175801007
   101   1      2.6234598246470853       13.17925495245629      9.7774106717097311
   102   1      3.9862787844027423      8.9251378425644816      2.9127258196893422
   103   1      9.1157752815162212      8.9578093685211115      13.978322176272513
   104   1      16.018913226899372      2.0954086225565334      7.1039251281422366
   105   1      1.2251291725404485     0.91028853891697281      8.5437773046000984
   106   1      10.551815585263853      15.708998046777879      15.415346597310759
   107   1      1.1810630333402372      14.485017011076479      5.6932825457477634
   108   1      6.5691328199519603     0.87465778638190983      8.3230439819775484
   109   1      2.4044506541026749      15.691782321355731      7.1430737227949521
   110   1      6.6947065755981612     0.65162338387045793      3.1289726966220428
   111   1      7.9956137529256353      5.0710780390440391      1.5613990575080123
   112   1      3.7953208502799498     0.77493609110508288      11.099988384331255
   113   1      5.1846788543593334      4.9791701474478032      4.4410151951621515
   114   1       7.873080929441528      4.8436724790639119      12.520678989210751
   115   1      16.225074605070404      2.1826940344457455        1.52366835588046
   116   1      1.2118027059062797      3.6751869952060474      11.266639059410295
   117   1      5.4128568150022716      7.7705025198040403      12.538792198452825
   118   1      2.4969335875282184      10.466175965965249      12.523248791037872
   119   1      1.1593557518268796       11.86145376163995        8.31693583558922
   120   1      4.0424601034384011      11.636466638265688      11.258125617448172
   121   1      5.2398604815478507      4.7670860574521043      15.143225025424044
   122   1      2.5742831624098983      2.1982907360463173      9.6993363932446073
   123   1      4.0424092427772393      11.980083211894225      5.8987386885310116
   124   1      7.9428272005081908      10.428962509961138      7.1770608120733073
   125   1        11.9963411020899      14.522053306500084       5.814717362996646
   126   1      5.1486636657980966       13.09670493580893      12.502104383731535
   127   1      12.108633654656842     0.76631003779868934      3.1728783448842819
   128   1      5.1881544139895368      15.692154163892837      15.220486506720363
   129   1      2.6470078240600969      12.939581995685899      15.225509301200645
   130   1      5.2250797406978791      7.5418149791397013      1.7210267026789268
   131   1      3.9037664873844733      9.1157081162411941      13.942274865188438
   132   1      11.990438345165785      14.497787174019663     0.36137807774839104
   133   1      1.0091614208630233      14.383401790419271     0.30189404015712284
   134   1      5.1891244168382968      13.051945607166999       6.966881198318049
   135   1      14.868726386847243     0.86971389893216156      5.7607559049711199
   136   1       16.27337519850289      13.110101974652366      7.1301035241413615
   137   1       13.23436941436978      10.198851357489161      1.7285372892121131
   138   1      14.744800613963662     0.90350423775812772      11.299722337705134
   139   1      16.031960811630711       10.32515419706283      15.262629309865588
   140   1       2.496791713052346      2.0958600413433999      15.250851051491281
   141   1      1.1181258853818861      6.2048809323335945      14.075765362599782
   142   1      2.5344220317960264      13.129587691688471      4.3705617418881388
   143   1      13.340844870073511      10.333840905966326      6.8172987770790314
   144   1       3.888107000852898     0.78157109553846027     0.35485601926889743
   145   1      16.201916212923038      15.797633821388558       15.27187572939431
   146   1      6.7121077355839702      11.696230105302789      3.0046950361019071
   147   1      7.8204350347377272      4.9591860446028022      7.1085527182506212
   148   1      7.8995581622440341      10.298883813839211      12.599203956405404
   149   1      16.268266743961703      4.9162036755197391        4.51484443356361
   150   1      12.143096254614193      14.429228949593153      11.359596773457497
   151   1      5.2828224090254707      2.2381759585523184      12.562086867969811
   152   1      12.100514443656834      3.5003589478924653      11.105899901943417
   153   1      16.097123782734116      10.107650648100275      9.8609282576813939
   154   1      1.3044050037064636      11.668397399377454      13.878840669859642
   155   1      2.4070803206314508      10.354352596913714      7.2214921016183666
   156   1      5.1865589953551989      13.151873908670268      1.5463464919761378
   157   1      3.9167950906250439      14.338902362189401      13.702308912073363
   158   1       8.018011425327586       7.704308707740438      9.8535731733610419
   159   1      3.8198098936006772      0.8445871505273459      5.8605527961536836
   160   1      5.2174399340159994      4.9274421781693718      9.8048608275903462
   161   1      6.5924046143390456      3.6482992268275609        11.3448174927222
   162   1      3.8882895151872106      6.0532991274002939       11.31346299020197
   163   1       2.490353094042689      4.7913551101618737      12.640554403987267
   164   1       6.522134162104237       3.509975749843619    0.083354425761551276
   165   1      9.2641550549683416      6.3577938751451484      11.069416503276557
   166   1      1.1090117279074292      3.6496500762539199      5.6839728545831463
   167   1      16.120896396454555      7.5799361397664597       6.987886894730309
   168   1      13.217771804159838      15.827592454279966      7.1334943971204439
   169   1      14.869789350330279      11.659662019984808     0.21543015570570745
   170   1      1.1537245762322215      8.8667137873887896      0.3370365364288439
   171   1      10.591873344653891      15.931501028385924      9.7012394093703733
   172   1      10.484904370190179      2.2751421684715467       1.627043258072888
   173   1      16.126568455260099      13.073000460773301      1.5628311866512519
   174   1       1.196873033359509      11.621263924274785      2.9796944659402129
   175   1      1.0565796183272198      9.1834379689423713      11.015711538728851
   176   1      11.837196389847577      14.526076409133225      11.094083680587573
   177   1       11.97690210872338      6.1827407268192474      14.203075681298856
   178   1      6.6062688898783222       14.32827759440795      5.8271779816288358
   179   1      16.147852060165405      10.216436978628849      4.4547358927584355
   180   1      10.536521370753348       7.624196109189711      7.0878263904460823
   181   1      10.574438602030568      2.3191996686599339       6.956049094252819
   182   1      10.534443140866642      10.235400948021265      4.3755441398624271
   183   1      9.2480684848944748      3.3894956042394142      8.4959614692395462
   184   1      10.670152039173445      13.114832746197749      7.0759668523548953
   185   1      2.5395037175681807      7.7443791214576549       15.38706806970481
   186   1      14.718753141580351      6.2432381448327305      11.326217578588626
   187   1       6.664348357990832      14.430862331209028      11.087560861631687
   188   1      7.9261220285172271      13.064640817556892      9.8440220765702406
   189   1      9.1959501782930602      6.3548016134722047     0.22739825940675473
   190   1      12.012070430773406      3.4520994810233105      5.4065277045932021
   191   1      9.1906957122844233      14.378756678934792      3.0092800395322854
   192   1      13.401839700486107      5.0278659452521879      7.0235579829332551
   193   1      13.437042091878538       10.39282661858681      12.622246512788593
   194   1      10.376741021922726      12.890488073280267      12.740186788916503
   195   1       5.326086093535821      10.250464464413199       4.310728189346662
   196   1      3.6893479173766934      3.3943444017209856       3.016315115386476
   197   1      5.1172191228729389      10.110799628748282      15.367357495008832
   198   1        14.8179095291257      3.6918644250181956      8.2994543692963134
   199   1      8.0229247112072812      2.2041749981845555        9.82092695605877
   200   1      1.2213971194324245      6.4395018923302132      3.1552759324258375
   201   1      9.2417169860603963     0.84201254248942092      11.238384867048921
   202   1      2.5712801932293416      10.442020802200091      1.5699598315208334
   203   1      14.663919995094147      11.688838031410683      5.4470809295627873
   204   1      11.905479139305498      6.1399759148226849       8.373520146275041
   205   1      11.982356123737532      9.0381672663371546      5.7258022197782452
   206   1      2.4881935844391023      2.0647449976297878       4.312425816008215
   207   1      7.7966891897863206      2.0858477916679021       4.404611129392606
   208   1      8.0423461831977079       2.277874773084875      15.179376491354901
   209   1      1.2883870590222983      6.3815251189498099      8.4887144334051072
   210   1       3.782481331889727      14.320593497580944      3.0943263655681505
   211   1      13.552454422799997       7.650632458781331      15.194925739228552
   212   1      7.9646637021702418      15.852377414174725       12.43921237765187
   213   1      14.788665379015015      6.3669633953010134     0.16052491605745089
   214   1      5.2453232572500497      15.853147381313079      9.8710916292257025
   215   1      6.4264674486309445      11.536080834164409      8.5214531246367642
   216   1      10.556270881840646      4.8183102871678329      4.2298144745445256

Velocities

     1                       0                       0                       0
     2                       0                       0                       0
     3                       0                       0                       0
     4                       0                       0                       0
     5                       0                       0                       0
     6                       0                       0                       0
     7                       0                       0                       0
     8                       0                       0                       0
     9                       0                       0                       0
    10                       0                       0                       0
    11                       0                       0                       0
    12                       0                       0                       0
    13                       0                       0                       0
    14                       0                       0                       0
    15                       0                       0                       0
    16                       0                       0                       0
    17                       0                       0                       0
    18                       0                       0                       0
    19                       0                       0                       0
    20                       0                       0                       0
    21                       0                       0                       0
    22                       0                       0                       0
    23                       0                       0                       0
    24                       0                       0                       0
    25                       0                       0                       0
    26                       0                       0                       0
    27                       0                       0                       0
    28                       0                       0                       0
    29                       0                       0                       0
    30                       0                       0                       0
    31                       0                       0                       0
    32                       0                       0                       0
    33                       0                       0                       0
    34                       0                       0                       0
    35                       0                       0                       0
    36                       0                       0                       0
    37                       0                       0                       0
    38                       0                       0                       0
    39                       0                       0                       0
    40                       0                       0                       0
    41                       0                       0                       0
    42                       0                       0                       0
    43                       0                       0                       0
    44                       0                       0                       0
    45                       0                       0                       0
    46                       0                       0                       0
    47                       0                       0                       0
    48                       0                       0                       0
    49                       0                       0                       0
    50                       0                       0                       0
    51                       0                       0                       0
    52                       0                       0                       0
    53                       0                       0                       0
    54                       0                       0                       0
    55                       0                       0                       0
    56                       0                       0                       0
    57                       0                       0                       0
    58                       0                       0                       0
    59                       0                       0                       0
    60                       0                       0                       0
    61                       0                       0                       0
    62                       0                       0                       0
    63                       0                       0                       0
    64                       0                       0                       0
    65                       0                       0                       0
    66                       0                       0                       0
    67                       0                       0                       0
    68                       0                       0                       0
    69                       0                       0                       0
    70                       0                       0                       0
    71                       0                       0                       0
    72                       0                       0                       0
    73                       0                       0                       0
    74                       0                       0                       0
    75                       0                       0                       0
    76                       0                       0                       0
    77                       0                       0                       0
    78                       0                       0                       0
    79                       0                       0                       0
    80                       0                       0                       0
    81                       0                       0                       0
    82                       0                       0                       0
    83                       0                       0                       0
    84                       0                       0                       0
    85                       0                       0                       0
    86                       0                       0                       0
    87                       0                       0                       0
    88                       0                       0                       0
    89                       0                       0                       0
    90                       0                       0                       0
    91                       0                       0                       0
    92                       0                       0                       0
    93                       0                       0                       0
    94                       0                       0                       0
    95                       0                       0                       0
    96                       0                       0                       0
    97                       0                       0                       0
    98                       0                       0                       0
    99                       0                       0                       0
   100                       0                       0                       0
   101                       0                       0                       0
   102                       0                       0                       0
   103                       0                       0                       0
   104                       0                       0                       0
   105                       0                       0                       0
   106                       0                       0                       0
   107                       0                       0                       0
   108                       0                       0                       0
   109                       0                       0                       0
   110                       0                       0                       0
   111                       0                       0                       0
   112                       0                       0                       0
   113                       0                       0                       0
   114                       0                       0                       0
   115                       0                       0                       0
   116                       0                       0                       0
   117                       0                       0                       0
   118                       0                       0                       0
   119                       0                       0                       0
   120                       0                       0                       0
   121                       0                       0                       0
   122                       0                       0                       0
   123                       0                       0                       0
   124                       0                       0                       0
   125                       0                       0                       0
   126                       0                       0                       0
   127                       0                       0                       0
   128                       0                       0                       0
   129                       0                       0                       0
   130                       0                       0                       0
   131                       0                       0                       0
   132                       0                       0                       0
   133                       0                       0                       0
   134                       0                       0                       0
   135                       0                       0                       0
   136                       0                       0                       0
   137                       0                       0                       0
   138                       0                       0                       0
   139                       0                       0                       0
   140                       0                       0                       0
   141                       0                       0                       0
   142                       0                       0                       0
   143                       0                       0                       0
   144                       0                       0                       0
   145                       0                       0                       0
   146                       0                       0                       0
   147                       0                       0                       0
   148                       0                       0                       0
   149                       0                       0                       0
   150                       0                       0                       0
   151                       0                       0                       0
   152                       0                       0                       0
   153                       0                       0                       0
   154                       0                       0                       0
   155                       0                       0                       0
   156                       0                       0                       0
   157                       0                       0                       0
   158                       0                       0                       0
   159                       0                       0                       0
   160                       0                       0                       0
   161                       0                       0                       0
   162                       0                       0                       0
   163                       0                       0                       0
   164                       0                       0                       0
   165                       0                       0                       0
   166                       0                       0                       0
   167                       0                       0                       0
   168                       0                       0                       0
   169                       0                       0                       0
   170                       0                       0                       0
   171                       0                       0                       0
   172                       0                       0                       0
   173                       0                       0                       0
   174                       0                       0                       0
   175                       0                       0                       0
   176                       0                       0                       0
   177                       0                       0                       0
   178                       0                       0                       0
   179                       0                       0                       0
   180                       0                       0                       0
   181                       0                       0                       0
   182                       0                       0                       0
   183                       0                       0                       0
   184                       0                       0                       0
   185                       0                       0                       0
   186                       0                       0                       0
   187                       0                       0                       0
   188                       0                       0                       0
   189                       0                       0                       0
   190                       0                       0                       0
   191                       0                       0                       0
   192                       0                       0                       0
   193                       0                       0                       0
   194                       0                       0                       0
   195                       0                       0                       0
   196                       0                       0                       0
   197                       0                       0                       0
   198                       0                       0                       0
   199                       0                       0                       0
   200                       0                       0                       0
   201                       0                       0                       0
   202                       0                       0                       0
   203                       0                       0                       0
   204                       0                       0                       0
   205                       0                       0                       0
   206                       0                       0                       0
   207                       0                       0                       0
   208                       0                       0                       0
   209                       0                       0                       0
   210                       0                       0                       0
   211                       0                       0                       0
   212                       0                       0                       0
   213                       0                       0                       0
   214                       0                       0                       0
   215                       0                       0                       0
   216                       0                       0                       0
