(written by ASE)

216 atoms
1 atom types

0.0      16.331106185913086  xlo xhi
0.0      16.331106185913086  ylo yhi
0.0      16.331106185913086  zlo zhi

Atoms # atomic

     1   1       8.165553092956543       8.165553092956543       8.165553092956543
     2   1      9.5264782839793725      9.5264782839793725      9.5264782839793725
     3   1       6.804627415228822      9.5264782839793725       6.804627415228822
     4   1       6.804627415228822       6.804627415228822      9.5264782839793725
     5   1      9.5264782839793725       6.804627415228822       6.804627415228822
     6   1      14.788537862333442      2.7151625701315538      16.181618672127911
     7   1      13.515278929777423      12.126815975993509      3.6795909444167876
     8   1      6.8249453976293921      10.644344999006535      10.683118830892795
     9   1      1.3325547978686103      8.1724399671712717      13.235899614548657
    10   1      13.639895823606935      14.837596741986886      6.5150428718350781
    11   1      5.5737955214746648      4.1215849344118283      3.6740824184547876
    12   1      10.800199586182316      12.120873309268291      1.0380662159881098
    13   1      1.5935515126978572      10.854733895865138      16.099087150266428
    14   1      4.1698602191899568      10.674132311776134      7.8382270187514109
    15   1       1.309949180801766      8.0661582200143584      2.2638824941591338
    16   1      13.407652903710186      9.3538051225729077      11.807917196984704
    17   1      2.7485612331960851      4.0001547408594149      6.4921998644574046
    18   1      11.955746993909429      16.180454474027442      10.606347948127109
    19   1      5.2944196131801391      6.8242109599481182      11.977371292238786
    20   1      16.150498761365384      12.415236321286784      1.2259088737766319
    21   1      8.1103563779163892      9.3941023407695639     0.96499648056983744
    22   1      14.956091861691107      10.731961613574413      7.8288204733133853
    23   1      4.2540713596320074      2.7174498397691593      16.004821173470873
    24   1      5.5606812581731901      12.064904193565326      6.4835248364713038
    25   1      14.979018582310118      7.8941533044239236      15.915098100132582
    26   1      5.5507111084708072      4.1666338524642015      14.485975819712735
    27   1      3.9536904849825589      16.275339539444985      13.294485255748327
    28   1      16.145010677008827      14.807789961021626      14.735374113625085
    29   1      11.000108753317136      9.4555624610584346      3.6925385112929234
    30   1      1.2566114350946975      13.498544068788078      7.8009405570135755
    31   1      16.282167035662951      6.7143660462805315      1.0261462048141539
    32   1      4.0539660504259132      13.566007207208713      5.1451613373988607
    33   1      2.6375961682207105      14.907121562327916      1.1104891206055783
    34   1      1.3295420945902237      5.3819014104930716      5.1908137695166943
    35   1      2.6608986250159603      9.4512181331969032      1.0965318844320251
    36   1      10.718470153982025        12.2721626045618      6.4505252714178027
    37   1      16.148878034076688      1.3309087619255564       6.592223073414516
    38   1      12.247711524222609      16.255951163387181      15.835859623566989
    39   1      1.3374162496773607      16.236461552711944      5.1918704058361413
    40   1      9.4950371479884552      5.3893830380852137      7.9031398235405845
    41   1      16.216103660510271      6.5902261232446904      11.969183942553968
    42   1      1.1509664196120895      10.689028401685391      16.064373410585063
    43   1      12.306917227454051      13.555209172485888       13.36907180696096
    44   1      6.5926645147511067       13.57437269088382      13.256677046366804
    45   1      6.7984525902703581      5.3650083704139888       4.953276473810206
    46   1      6.6541236616301944      13.466088639803274      7.8350410485316502
    47   1       10.86447675438319      4.0826373488793024      9.1602367467645536
    48   1      5.4669190209403382      1.3157601938538335      6.6045381672841472
    49   1      10.579821558130561      6.9520595742571913      12.011955568419012
    50   1      10.784946254882698      3.8901655191914983      3.8640559919345208
    51   1      14.827088783379395      16.037265894948064      13.405092835980895
    52   1      14.748663103982608      16.248250518593863      2.3891836950660945
    53   1      13.569651653436267       3.995363861259932      11.835660349210002
    54   1      6.9721536724076714      8.2737621914837973       13.18193766981824
    55   1      13.591872651962603      1.2721940222534158      14.652461015128665
    56   1      4.0107741548870592      5.3288038536499585      2.5554912431966272
    57   1       9.443533062960114       13.67772058095477      10.569213338315421
    58   1      12.153762879016313      5.4940864012789916      5.1650948229351457
    59   1      5.3956260017284876      14.930365614536186      14.749178037757815
    60   1      5.3664762723667536      14.827207539372921      9.0131963851738419
    61   1      12.148433460454385      2.7597162659568255      13.162671943393093
    62   1      6.6701313855116382      10.858624614767791      5.1875937299545285
    63   1      5.3315746645972695      14.838292729981731      3.7549221541134159
    64   1      10.794282228111456      14.942364836931233      14.583586432522679
    65   1      3.8914462831134813       5.509419552180816      13.207737896116669
    66   1      14.951439936338147      5.2926455738506206      2.4473580706324469
    67   1      5.4769081521334897      9.3099306234237247      14.531309460126636
    68   1      16.167406889296103      4.0326240409336265      14.613147914222623
    69   1      5.5009226581850044       1.184277232443705      1.0596156834403985
    70   1      9.5376150653066816      8.0847980439490357      5.2847040101360108
    71   1       8.169306561079793      12.085238723932207      9.0832624213542204
    72   1      14.673336761334895      8.2271952408748348      10.597658318994263
    73   1      16.221762091578853      12.183742926922946      6.6954911438832596
    74   1       11.99049188270385      10.769110824532845      10.724532550110553
    75   1      1.3212340420923141      13.519169648680077       2.422948360209034
    76   1      5.5917520117416757      6.7232659319265053      1.1296895068990409
    77   1      14.949706293514623      5.3322137081198093      7.7330987621873533
    78   1      9.6793922002007093      2.5952589264713311       5.204971041400654
    79   1      2.8132652415868051      9.4761948548189139      6.5572358055841278
    80   1       13.54190558098162      14.801846320886625      1.0213289214743071
    81   1      6.6848142986784183      5.3784370450753727      10.431040739847845
    82   1      16.235201960452741      6.7464948962831386      6.6930493454426028
    83   1      8.1714665573882712      14.863614038666924      6.4278740257673803
    84   1      12.266443822086671      13.601181369717438      2.3652519288461349
    85   1      12.103849345573394      16.160330200173689      5.0931286908583502
    86   1      15.005764962917624      13.777447386632957      5.1454207511060304
    87   1      9.4847637811386676      13.457984029950012      16.091110057094738
    88   1      4.0329318817775004      5.4534737983126433      7.8579117980881392
    89   1      13.517472995428307      6.5710037135548873      14.667074816200852
    90   1      1.3608914867090931      5.3081300899737016      10.538325099081248
    91   1      8.2212019568409005      3.9851333244405964      6.6836515606926241
    92   1      1.2840642678522158    0.030528077614462745      10.594787733544194
    93   1      16.151210323916757      9.3890844133381961      14.663546205737475
    94   1       9.562027209254552      5.3465797764022227      13.442619729935132
    95   1       2.694478098947684      3.9826104896355048       11.89335629386801
    96   1      8.1512298547045816      14.763824934762624       11.94889905608602
    97   1      8.1877400221404741       4.076449382888768      1.0242216519969389
    98   1      13.492458310824759      6.7668703098609058      3.7878436030318312
    99   1      1.3127142729666019      16.320263374340243        16.0162947545831
   100   1      9.6382004184134757      10.760884538456708      2.4921767772711405
   101   1       6.827396930167879      10.766667565977514      16.033972849652173
   102   1      8.1362758469132359      6.7048358778000647      3.8010681049912307
   103   1      10.898521761543634      1.3894630106597248      12.026111866893189
   104   1      3.8161659340780147      2.6573967833216159      16.237952816499501
   105   1      2.5315572868046559      1.2813783869084716      14.364620822066058
   106   1      12.089191741060972       2.948914275191953      7.8317801257585984
   107   1      8.1387453875327083      12.124033970833693      3.6974247850511404
   108   1      16.243936366435605      3.9872461103745991      9.3540815709512799
   109   1        14.7958754252777      5.4504377331994647      13.219524915179022
   110   1      1.3028498599018974      10.781962753897801      5.1737922393462554
   111   1      2.4935069417396107      9.5429834202599295      11.986556386951179
   112   1       10.74840834526799      1.2845154432866366      6.3979022518439024
   113   1      9.6453793155631047      5.5998931244618007      2.2659088899748951
   114   1      14.918479307675966      10.892948990535956      13.260835452959782
   115   1      3.9640470783687931      10.881648676365103      13.143800447930062
   116   1      12.150925389498866      8.1502238356938506       12.97830423685366
   117   1      12.337321682026072      5.4068864060982378      10.585545207654604
   118   1      13.387173335285638      4.1455132936975474     0.91421947181128616
   119   1      6.9618340685931912      2.6817512527398435      2.4965705056791592
   120   1      9.3507174667412301      8.3960798914058614      10.624735658927989
   121   1      13.580427299734083      9.4567918776143642      1.2816466829799111
   122   1      9.3622037021806364      16.206405578842237      7.8889148996767062
   123   1      9.5896954089265591      13.424016895572208      5.1926481602527588
   124   1      14.947630983857266      2.6227329308916296      5.1515308443139247
   125   1      8.1962524906928138       1.314182904976704      3.8906755859177906
   126   1      12.282522604882274      8.0278151219570759      2.4595872610887284
   127   1      16.212641241912138      9.5141091658667847      9.1046112447149881
   128   1      13.443829678295401      4.1252877852263623      6.7140248661515898
   129   1      13.515269195679593      14.778360863052171      11.818372591463913
   130   1      2.6610672682608651      6.7558016672184067        9.29408156533691
   131   1      8.0841794420319388       1.381437612027554      9.2107060971935653
   132   1       16.17440667904566      14.858358599248504      9.1997669180522053
   133   1      9.4843802576841654      10.616915284731363      13.199190384812141
   134   1      6.7636692517895085      2.8615174078825873      13.326299207686134
   135   1      4.2383668528979683       2.688106645213054      10.634188441330707
   136   1      1.3783606637034893      5.4269152857932568      15.963449310873784
   137   1      13.303519471944355         9.5329300440211      6.3950141450177398
   138   1      2.7519265541683637      12.187181010276504       3.720927034204351
   139   1      1.2847652445721991      2.6555290533004836      13.268565300046589
   140   1      13.428275563372836      1.1745217195984736       3.662601293416742
   141   1      13.546481580371506      12.205899680403604      14.626467080283419
   142   1      6.7257500736927227      13.493430747197976      2.5454573351534577
   143   1    0.027016015117396819      1.4099430657891645      1.0044482923699576
   144   1      12.090540887020211      8.2236627367723258      7.9046315740330328
   145   1      1.2778045128901852      2.5856915250666646      2.4790157903000818
   146   1      14.786958991665415      2.7899790894054206      10.536498008918556
   147   1      10.863223975992469       9.520152093799652      14.596192089212536
   148   1      9.4278786868298994      2.6044671396660704       10.54890801024203
   149   1       5.358942567351221      12.270617803236178       1.082516121995269
   150   1       6.873923484270847      5.5287266485217401      15.956095199963215
   151   1      6.8677729945569581       8.096296933715621      2.3874629499221953
   152   1      3.9342748534508303      2.6862479192324145      5.0476874886634278
   153   1      8.1238765530973751      12.258153290964856      14.730373707569811
   154   1      14.851015195845548      8.0313135567171798      5.1372163667500104
   155   1      5.3447220238313662      9.4567052441436772      9.3324981558328091
   156   1      4.1144843967497309      7.8608933522534699      5.1849791512773891
   157   1      10.822919943927332      4.3040369704983164      14.763520257500545
   158   1       9.505662889179689      10.892939256438126      7.9839951337557409
   159   1      6.8852676018819352      16.214517975973763      5.1423345553890272
   160   1      9.6087109690374746   0.0027917392576455313      2.4153491933855946
   161   1      2.5708304779095954       6.761870877215415      14.616768025205602
   162   1      8.2609258366753693      1.3808050173448265      14.849636847592819
   163   1      16.284472070029096      1.3813935652348732       11.81308697634222
   164   1      10.762637649475892      1.1645656843379442      1.1316516576691242
   165   1      14.866498251853955      13.484349807332364      16.013764862557082
   166   1      2.5793431898143808      14.860948842681069      6.3465251967922427
   167   1      2.6382152568426989      1.2053528926841182      9.1273062938056455
   168   1      5.4663437357585849      4.0280202993649254      9.4565611794957931
   169   1      4.3026138453955696      13.491298979773205      10.592751360278157
   170   1      8.1650795290971132      6.7304453157810258      14.533709888651515
   171   1      4.0729302631707753      13.760149894789038      16.054991687096503
   172   1      5.4435863884418154      9.3120088533104308      3.7204963003753733
   173   1      6.9138177108173409      16.308659356317094      15.974200621927025
   174   1      6.9063560381257503      16.242431474911086      10.350227286253357
   175   1      14.726694218590069      10.654637834051982      2.3529424320827559
   176   1      16.114386231825847      4.0517396188997452      3.8446006939541348
   177   1      10.698019787850967      14.848190360655281      9.2987198629529075
   178   1      15.114501649547265    0.010364867369389685      7.7918800587534065
   179   1      13.578996387353072      1.2031230542237097       9.177441764679088
   180   1      8.0428508961701937      3.9213392108445362      11.901428781198433
   181   1      2.8450679993121071      6.6646866178904247      3.8254293882779393
   182   1      4.0169226977813821      8.0418205419148876      10.605487453878936
   183   1      10.829656913035478      6.6824270111856094     0.93229435304315444
   184   1      7.9933384075578715       14.86160784110416     0.94356041535726831
   185   1      4.0152272612918409       16.27954856334668      2.4410438047225682
   186   1    0.011918429383058537      9.5216900812567928      3.8657506983667247
   187   1      4.0988991327141093       8.028876625325438      15.775761303564536
   188   1      2.6181145881761836      12.097730491677453        9.24299312628591
   189   1       6.794651425067741      2.6005895617954877      7.9415457065288706
   190   1      12.100126053153417      10.767359660333227      15.973719757494223
   191   1      12.243070306377263      2.7601606275227653      2.4229189145630983
   192   1      9.4943177981588178      8.1840946025031371      16.050918940564429
   193   1       16.13669386382287      12.230797555833192      11.918998827781593
   194   1      12.091007150306268      13.616457089442065      7.9319362051510893
   195   1      9.4713628486560992      2.5834015785521558      15.944316941588909
   196   1      2.5848908955201466      14.938179174864331      11.917158109881939
   197   1      9.6220963269635149      16.197435607691887      13.296042711401128
   198   1      2.6030666463407783       1.259962276596454      3.7579497018909933
   199   1      1.3589270240907751      13.566063664976127      13.204556792945823
   200   1      2.6272315442037666      4.1141938339295052      1.0285067235379302
   201   1      1.4318956465678383      2.6521379369689555      7.8685993508005936
   202   1      12.271651564425724      10.812620295013403      5.1613311340091741
   203   1      10.668545913031494      12.068210866598179      11.949731321450486
   204   1      16.118096869918645      14.836961105398586      3.8872350690397752
   205   1      5.2242552626116776      6.6887507678408724      6.4692697369041525
   206   1      1.4858910522595465      10.817956527443812      10.778836161674803
   207   1      10.989808130993424      14.934637910073775      3.8190384663476493
   208   1      13.523804052656942      12.151739160077454      9.1876343385168866
   209   1        5.46376955358744       12.41193256848328       11.93637029876902
   210   1      4.1259166079461806      10.864475780973407       2.523201780579825
   211   1      2.7287815464055143      12.129145345604229      14.467742881067352
   212   1      5.3801916162092311      1.3112586603123475      11.936950450999689
   213   1      13.516736124222575      6.7328068079145851       9.308700233458012
   214   1      4.2033752047235566      16.179645570497769      7.8364218303088364
   215   1      15.064100437803063       13.50792676568642      10.660735272932698
   216   1      1.1928133061832824      8.0046562431048187      7.8525239749392313

Velocities

     1                       0                       0                       0
     2                       0                       0                       0
     3                       0                       0                       0
     4                       0                       0                       0
     5                       0                       0                       0
     6                       0                       0                       0
     7                       0                       0                       0
     8                       0                       0                       0
     9                       0                       0                       0
    10                       0                       0                       0
    11                       0                       0                       0
    12                       0                       0                       0
    13                       0                       0                       0
    14                       0                       0                       0
    15                       0                       0                       0
    16                       0                       0                       0
    17                       0                       0                       0
    18                       0                       0                       0
    19                       0                       0                       0
    20                       0                       0                       0
    21                       0                       0                       0
    22                       0                       0                       0
    23                       0                       0                       0
    24                       0                       0                       0
    25                       0                       0                       0
    26                       0                       0                       0
    27                       0                       0                       0
    28                       0                       0                       0
    29                       0                       0                       0
    30                       0                       0                       0
    31                       0                       0                       0
    32                       0                       0                       0
    33                       0                       0                       0
    34                       0                       0                       0
    35                       0                       0                       0
    36                       0                       0                       0
    37                       0                       0                       0
    38                       0                       0                       0
    39                       0                       0                       0
    40                       0                       0                       0
    41                       0                       0                       0
    42                       0                       0                       0
    43                       0                       0                       0
    44                       0                       0                       0
    45                       0                       0                       0
    46                       0                       0                       0
    47                       0                       0                       0
    48                       0                       0                       0
    49                       0                       0                       0
    50                       0                       0                       0
    51                       0                       0                       0
    52                       0                       0                       0
    53                       0                       0                       0
    54                       0                       0                       0
    55                       0                       0                       0
    56                       0                       0                       0
    57                       0                       0                       0
    58                       0                       0                       0
    59                       0                       0                       0
    60                       0                       0                       0
    61                       0                       0                       0
    62                       0                       0                       0
    63                       0                       0                       0
    64                       0                       0                       0
    65                       0                       0                       0
    66                       0                       0                       0
    67                       0                       0                       0
    68                       0                       0                       0
    69                       0                       0                       0
    70                       0                       0                       0
    71                       0                       0                       0
    72                       0                       0                       0
    73                       0                       0                       0
    74                       0                       0                       0
    75                       0                       0                       0
    76                       0                       0                       0
    77                       0                       0                       0
    78                       0                       0                       0
    79                       0                       0                       0
    80                       0                       0                       0
    81                       0                       0                       0
    82                       0                       0                       0
    83                       0                       0                       0
    84                       0                       0                       0
    85                       0                       0                       0
    86                       0                       0                       0
    87                       0                       0                       0
    88                       0                       0                       0
    89                       0                       0                       0
    90                       0                       0                       0
    91                       0                       0                       0
    92                       0                       0                       0
    93                       0                       0                       0
    94                       0                       0                       0
    95                       0                       0                       0
    96                       0                       0                       0
    97                       0                       0                       0
    98                       0                       0                       0
    99                       0                       0                       0
   100                       0                       0                       0
   101                       0                       0                       0
   102                       0                       0                       0
   103                       0                       0                       0
   104                       0                       0                       0
   105                       0                       0                       0
   106                       0                       0                       0
   107                       0                       0                       0
   108                       0                       0                       0
   109                       0                       0                       0
   110                       0                       0                       0
   111                       0                       0                       0
   112                       0                       0                       0
   113                       0                       0                       0
   114                       0                       0                       0
   115                       0                       0                       0
   116                       0                       0                       0
   117                       0                       0                       0
   118                       0                       0                       0
   119                       0                       0                       0
   120                       0                       0                       0
   121                       0                       0                       0
   122                       0                       0                       0
   123                       0                       0                       0
   124                       0                       0                       0
   125                       0                       0                       0
   126                       0                       0                       0
   127                       0                       0                       0
   128                       0                       0                       0
   129                       0                       0                       0
   130                       0                       0                       0
   131                       0                       0                       0
   132                       0                       0                       0
   133                       0                       0                       0
   134                       0                       0                       0
   135                       0                       0                       0
   136                       0                       0                       0
   137                       0                       0                       0
   138                       0                       0                       0
   139                       0                       0                       0
   140                       0                       0                       0
   141                       0                       0                       0
   142                       0                       0                       0
   143                       0                       0                       0
   144                       0                       0                       0
   145                       0                       0                       0
   146                       0                       0                       0
   147                       0                       0                       0
   148                       0                       0                       0
   149                       0                       0                       0
   150                       0                       0                       0
   151                       0                       0                       0
   152                       0                       0                       0
   153                       0                       0                       0
   154                       0                       0                       0
   155                       0                       0                       0
   156                       0                       0                       0
   157                       0                       0                       0
   158                       0                       0                       0
   159                       0                       0                       0
   160                       0                       0                       0
   161                       0                       0                       0
   162                       0                       0                       0
   163                       0                       0                       0
   164                       0                       0                       0
   165                       0                       0                       0
   166                       0                       0                       0
   167                       0                       0                       0
   168                       0                       0                       0
   169                       0                       0                       0
   170                       0                       0                       0
   171                       0                       0                       0
   172                       0                       0                       0
   173                       0                       0                       0
   174                       0                       0                       0
   175                       0                       0                       0
   176                       0                       0                       0
   177                       0                       0                       0
   178                       0                       0                       0
   179                       0                       0                       0
   180                       0                       0                       0
   181                       0                       0                       0
   182                       0                       0                       0
   183                       0                       0                       0
   184                       0                       0                       0
   185                       0                       0                       0
   186                       0                       0                       0
   187                       0                       0                       0
   188                       0                       0                       0
   189                       0                       0                       0
   190                       0                       0                       0
   191                       0                       0                       0
   192                       0                       0                       0
   193                       0                       0                       0
   194                       0                       0                       0
   195                       0                       0                       0
   196                       0                       0                       0
   197                       0                       0                       0
   198                       0                       0                       0
   199                       0                       0                       0
   200                       0                       0                       0
   201                       0                       0                       0
   202                       0                       0                       0
   203                       0                       0                       0
   204                       0                       0                       0
   205                       0                       0                       0
   206                       0                       0                       0
   207                       0                       0                       0
   208                       0                       0                       0
   209                       0                       0                       0
   210                       0                       0                       0
   211                       0                       0                       0
   212                       0                       0                       0
   213                       0                       0                       0
   214                       0                       0                       0
   215                       0                       0                       0
   216                       0                       0                       0
