(written by ASE)

216 atoms
1 atom types

0.0      16.331106185913086  xlo xhi
0.0      16.331106185913086  ylo yhi
0.0      16.331106185913086  zlo zhi

Atoms # atomic

     1   1       8.165553092956543       8.165553092956543       8.165553092956543
     2   1      9.5264782839793725      9.5264782839793725      9.5264782839793725
     3   1       6.804627415228822      9.5264782839793725       6.804627415228822
     4   1       6.804627415228822       6.804627415228822      9.5264782839793725
     5   1      9.5264782839793725       6.804627415228822       6.804627415228822
     6   1      3.2960524020629407      14.855756674898544      15.540759740342764
     7   1      12.671810592119414      10.553188093057884     0.62925606968611447
     8   1      11.476426389023004      1.4711350116828186      15.500908343826723
     9   1       10.15495154968562      10.937543812924559      14.058214784212282
    10   1      12.779917482619453      2.8766264311818759      8.6229340147439189
    11   1      15.644417174724708      5.6384970963409273      3.2982722630730734
    12   1       7.509365877318487      13.679022029834641      3.1020467219095735
    13   1      9.9953473880257206      16.184838711690077      3.2338843695093829
    14   1        11.5434680410076      14.957902403887488      1.8545485925557728
    15   1      3.3057935571138728      14.833941588251719       4.510256266551437
    16   1      3.2841945674388739       4.094585953965634      4.6714086364711989
    17   1      8.6717398078537826      3.9630420327678451      4.4766161978607215
    18   1      15.663436628474756      5.3482287325746256      14.023802801563647
    19   1      14.356510371754098      9.3737288740113627      4.6349851025059934
    20   1      15.742936952271975      13.616805570144379       11.30195631315712
    21   1      14.282501052542784      12.165116730725231      7.4037260939134626
    22   1      7.6400013638362907      8.0893521416188037      3.4457136694943813
    23   1      2.0303293646944667      2.6383376631229112      8.5929510466079364
    24   1       15.68969922442011      2.8536439828527875      6.0114434801410539
    25   1      6.2052264928065597      12.188640151541222      9.8370680370804848
    26   1      3.2906144483102082      9.5776465426325785      10.055038822738879
    27   1      8.8627695309480714      1.3708289055075227       7.157416915947465
    28   1      15.583283146713143      5.5058743937511281      8.5857838303757035
    29   1      2.1354556744389583      10.822070157186772      5.8233919042778552
    30   1      11.513144379447567      1.5024516728977346      4.7371653875422339
    31   1      7.4145552777493435      5.4605826099578962     0.54196998857767653
    32   1      3.3428692756336886      12.175213910404295      1.8386111975311508
    33   1      12.953742187799207      16.320996351906842     0.49359188739121862
    34   1      15.686229018543713       10.70078135140534      8.6409528032370417
    35   1     0.55255588080591878      1.4321565203896824      15.467245886710998
    36   1      14.291700748401922       1.414037957393802       2.029547959991163
    37   1      12.960981436355382      13.719826394528241      14.042745355940838
    38   1      8.9156977144889424      12.147042457874477      1.9751467640961664
    39   1       6.144736375366449      4.1312387259347361      1.9018767496150417
    40   1      12.865435425695182      8.1312004883046711      3.3958668146215985
    41   1      6.0905914295968273      6.6594983437470319      4.6975218140148627
    42   1      14.381964064169779       3.952072677923212      9.8354297884156949
    43   1      14.225812587010182      1.3346916756947422       12.82684264802856
    44   1      7.3813590839196763    0.065300586911476444      11.373495118339179
    45   1      11.459715863278234      1.4274464338021886      10.059800743397318
    46   1      11.497003298425852      6.8352489401824528       15.57860104565691
    47   1      8.9543790724458177      9.4669231266358338      15.487301048470158
    48   1      7.4692219711626535      2.7637841454399847      14.120056481136089
    49   1      11.634944225365075      4.3441360998041318      2.0267848146458931
    50   1     0.63256475037664472      1.4289339256268363      9.9569171697928596
    51   1      4.6513539614169304      16.284422426130163      3.2686166039766249
    52   1      4.6565529430679362      5.4088332256642389      14.157393560182641
    53   1      11.557955298807997      15.047752020497569      7.2997172585998555
    54   1      12.901050542835605      8.2813518675618525      8.6547246048469333
    55   1      12.843291326541703      10.848829192121457      5.8539973679700665
    56   1      7.4441722438069178      5.5205057161994091      11.390625183700422
    57   1      3.2080038369038562      12.207236172035664      12.963364343504168
    58   1      10.133763338939048      10.955252083696905      3.2820944358320503
    59   1      4.8807423571250297      5.5794544392481384      8.7921525448305147
    60   1      12.709870914634735      5.4877825995242802     0.62766977676849223
    61   1      4.8319360773102744      13.665812859079324      5.8311577675266335
    62   1      12.918933053959108      13.572898948472357      3.4922360866057716
    63   1      7.3997190525417409      10.942109104806832      5.9099504224116117
    64   1      13.233099114602965      5.4950554307179686      6.2114241928949241
    65   1     0.78096076760451894      15.292363085097122      1.9821141879704385
    66   1       14.32323922537114      9.6072576682314548      9.8966076198674955
    67   1      10.163320926999859    0.050743851987817834      8.6622733977141024
    68   1      8.6563248905301862      4.0552424340038726      15.347923368691227
    69   1       4.553128640329021      8.1114670384787928      6.0141330113714844
    70   1      2.0844942653646399      8.1040121796556832      13.954640089661893
    71   1      8.7415751459155899      1.4454206887977392      1.8834811298596748
    72   1      14.497861153163171      12.301391180115957      2.1437372015202811
    73   1      6.1430090597065146      6.7680685773037794      15.537580583991485
    74   1      8.9699857514966652      15.155602904224679      15.555744410542275
    75   1      11.387930785421077      12.374552659406277      15.391655750012092
    76   1      3.4065421997117653      12.093982864012901      7.3350092036923229
    77   1       15.66335680887255      2.7063271728837037      11.449937962007994
    78   1       3.414151830690372      3.9871748081079943      15.475475093016485
    79   1      14.179835522729718      9.4324546862197849      15.478177278574094
    80   1      11.558967644982317      4.3875024790465886      12.797918749736482
    81   1      3.5201537225346726      4.1786150667782636      10.098114152456219
    82   1      13.060088180001799      8.0098026606275425      14.169705247118031
    83   1      6.0239065322977012      12.140763964774123      4.6781718876434866
    84   1      3.2889849603334653      6.8645461411263113       7.159197282440573
    85   1      7.5812609504811235      10.927442739606363      11.439369651993957
    86   1      11.428550202255906      9.4274562269840771      1.9169682515382362
    87   1      12.998142328231211      2.7177046297798597      14.329226668946376
    88   1      7.6307340159972341      10.792176742750826     0.55645992325497673
    89   1       10.13491585612212       8.131956341001171      11.332664471581438
    90   1      14.410602753395438      1.3909876137323494      7.2942973129281086
    91   1      2.1793077851631324      13.534322718772046      14.118036655836363
    92   1      4.7576853524727767      16.261825691427589      8.6206766774571406
    93   1      6.2640715477133995      14.881990068550408      12.830813186533419
    94   1      2.1244790190209528      13.725316425704364      3.3545419190465395
    95   1      2.1514884636223144      2.7993004614874337      14.099447449210402
    96   1      7.6243474744109676     0.22524702378632355      5.9080016560260447
    97   1       14.12975358939434      4.0689818697384794      4.7948837206252506
    98   1      7.6900774567129702     0.10235654825460294      0.4994891993043602
    99   1      8.8870999084741698      12.274090929341924      7.3782578003510366
   100   1      15.656166230805525      10.837514276803859      14.112985632472373
   101   1     0.80432339329198044       6.605881472784688      4.4718455165142359
   102   1      5.9648254255184838      4.0114285296136813       12.95023304553149
   103   1      14.235258555544419      6.7748318284760671       7.398153809610676
   104   1       8.845622917620517      12.328302066976789      12.686766060025434
   105   1      12.973782748411622      2.8100500690735544      3.2875713259761028
   106   1      4.7618598203271745      5.2517370543102402      3.1134322094364393
   107   1      5.9767477485406744      12.314214880597206      15.555586718157429
   108   1      10.147799908009915      13.599866293100604      11.415959146712794
   109   1     0.53256246972986787      15.003142596962221      12.738515444319091
   110   1      7.4562780545732039      13.664866704770247      14.125908620751488
   111   1       15.65190853641468    0.094091295368089689      3.2935483053961718
   112   1      10.136507381117326      13.647652926167666     0.67329982046131676
   113   1      4.6614190185731559      2.7237392837295715      11.423719169502874
   114   1      7.3785104001897253      5.4142502511066368      5.8702362766749729
   115   1      14.154313691629227      6.7823032352654877      12.737297708680558
   116   1       12.90463366424683      5.4547733003729491      11.482716563040753
   117   1     0.60800915016200463      9.4995459821033137      1.9025861219944034
   118   1      15.652133394074554    0.061868769883396624      14.095268601011981
   119   1      10.395456771820477     0.10418579817025098      14.361612985836587
   120   1      10.337608975236321      5.5652884066761317       3.375369968173402
   121   1      8.8475823915136971      9.3659513298451884      4.8206080209606057
   122   1      4.5571926261730482      13.920055813481667      11.514230704765396
   123   1      3.4880930112168755      9.4590803640141985      4.7642480812297663
   124   1      8.9544725197849857      4.1779088579806967      10.071186717629075
   125   1      8.8533391369703622       1.504124477609821      12.812728206175052
   126   1      4.7503803987562492      10.803356354108587      14.144921260633055
   127   1      3.3101943427428182      1.4132009466566444       7.263136032249804
   128   1      10.185145747744514      5.3322234422176393      14.178986709398941
   129   1     0.71932981389873163       9.647797265464078      7.3332594996073794
   130   1      12.600137456387301      13.516318531425668      8.6661855316319816
   131   1      8.8085875956066957      15.006579706905995      4.5949424309675919
   132   1      15.572328393015255      8.0874729740327211      5.9136926963223573
   133   1      2.0399439764736087      8.1260399563400938      8.5377012807346091
   134   1      0.6981135567827863      1.3788412847838458      4.5478863419426716
   135   1      14.186690274421608      14.894949072991494      4.7696500188205277
   136   1      7.4343490789817679      2.9474003796269415      3.3097765065934652
   137   1      14.266900213950635      6.9048453061425334      2.0180064835465714
   138   1      2.0126695210588252      5.5338151481623754      11.234990587135599
   139   1      13.241327347498668       11.06010681211194     0.50593508846833402
   140   1      11.442229529936412      6.8741030783758106       10.18690275240283
   141   1      2.0986865800007877     0.16376840871157583      5.8240805916993281
   142   1     0.57517950595374856      4.1308805111345919      1.8169954165373952
   143   1      1.9704186694276871      13.544391669567403      8.5039395358210186
   144   1      11.391050563775593      6.9067901788889685      4.6457831372288183
   145   1      6.0424198129605884      14.929756260012027      7.2706171731370546
   146   1      14.276626524502376      14.930492157807976      15.407315966601004
   147   1      6.0506188435628019      4.1318208249849704      7.2990884358800372
   148   1      2.0579019268552941      2.5568445261474437         3.3107107366327
   149   1      3.1590252635575098      6.8993762032767449      1.8755929820069071
   150   1     0.66145281502108588      9.2479458352618167       12.75852485581845
   151   1      12.942097286565172      16.251219418432015      11.219975741232815
   152   1      14.245426794137643       4.089154327376491      15.481906411452769
   153   1      15.559059844263174      2.7529087246394113     0.45921443037082454
   154   1      4.7656833739548006      2.7101198207507196      6.1684530180243655
   155   1      1.8512040782176058    0.071060860978604978       11.40864883924246
   156   1      10.110865820613526      2.6936509439845793      11.260164910943558
   157   1      10.193008951971592       8.073485562155895     0.61369891285797706
   158   1     0.66422350429217403      4.2232395781652485      7.1225226087513533
   159   1      11.645340241847521      12.189457815758942      4.7231507201914837
   160   1        11.7118445716319      4.2571429542022656      7.4509968197955345
   161   1      11.444777916748308      12.352328740650591      9.9453102315403612
   162   1      1.9395177758663351      11.074713799315646     0.59801642952027834
   163   1      10.238666737843232      5.2784459586411003      8.7587334401605403
   164   1     0.84423459367156539      6.8285932507911866      10.077388311356572
   165   1      6.1953862933102073      1.6254050094080981      15.604974610317527
   166   1      7.4333279721194003      2.6120828544558208      8.8819028736427299
   167   1      4.6851843317202224      10.806165614742326      8.6975867578217958
   168   1      4.8371881097944538      8.1114548708565053      11.341458255561065
   169   1      3.3784634644637777      15.169790351811912      9.9811346317841299
   170   1      4.6408241010893221    0.060429020766699537      14.304442682461399
   171   1      15.528555128483504    0.041775010144911473      8.7059347201208084
   172   1      1.9695851873009929      5.4277494979772882     0.67383756852831311
   173   1      10.289297674296222      2.5357680141734704      5.9818260273785882
   174   1      8.9807944937271031      9.4349631632305773      9.9364152129433023
   175   1      6.1503237475208721      14.765282129207776      1.9799255977495847
   176   1      14.428690653983153      15.139070512470198      10.002924409776597
   177   1      6.1701642724228805       1.171037642632669      9.8281632843855959
   178   1      15.510068129884758      8.1497653596860573     0.55838447607219166
   179   1      10.124276487193924      13.870904459898838      5.9784375879239633
   180   1     0.78578316134572646       12.17776521744554      9.8637949494923305
   181   1      12.765884807187717      16.309218093532536      5.9544070206110291
   182   1      8.8937921007322984      6.8655010561234349      12.682811096077103
   183   1      15.928320898624861      8.2377635508888716       11.45569178723531
   184   1      11.656463395437868       15.16328213400277      12.787256018973494
   185   1      15.683453827252379      10.774661207115514      3.3337109496903281
   186   1     0.93491970006601832      6.7961276010036613      15.491957840872033
   187   1      6.1788300530160427      1.5124860676457956       4.612321202528392
   188   1      14.234583009155017      12.045045660582332      12.683482748827373
   189   1      8.8645752060955374      15.121663998730583      10.123970836522062
   190   1      3.3630882135888385      1.3686501710607217      1.9158210881089701
   191   1      15.533650928697512      13.667610746948526      5.9184755452911304
   192   1       10.26119338704143      2.8637603873750663     0.47105754217192342
   193   1     0.60334627394898632      12.138611755743909      15.594945569323272
   194   1      3.3400875138263189      1.1782287074045854      12.868058765060368
   195   1      11.638239217480532       9.481899036147297      12.761690384432768
   196   1      5.0787752769031158      13.440350711730957      11.300478677106526
   197   1      6.0361184447303344      9.5245791614927384      2.0339274522811053
   198   1      7.4321155902346732      8.1429943212355056      14.128987515895119
   199   1      4.7276108838171922      2.4627462191870109     0.46298800548990471
   200   1      1.9582236699900335      16.323182630279462     0.65045444039729716
   201   1      3.5434921954918934       9.398039783341801      15.622183521871193
   202   1      4.7954215295303584      13.647614963186129     0.58094732394669535
   203   1       3.272517056977108      6.8315908662179368      12.757018017474365
   204   1      15.563073212798486      13.579034350334609     0.33219847687394122
   205   1     0.63283444572464731       14.87501266722586      7.2597738748593201
   206   1      6.0960220827761873      9.5192147001786225      12.791211956331608
   207   1      4.8388604278016487      8.0842943043863329     0.47820568565622068
   208   1      8.7510600508411471      6.8933186741971326      1.8897007316681567
   209   1      0.8299083743521436      12.273427063869917      4.6968097647585978
   210   1     0.81544971046412229       4.140180468201379      12.950295343757602
   211   1      12.817056959480055      10.766731811023192      11.549262749445802
   212   1      4.7571022800127594      10.964670796757218      3.3103508183654355
   213   1      2.0190134759670855      10.892200438412829      11.453723552654083
   214   1      2.1175712164958895      8.0699272626941365      3.3552870642354264
   215   1      7.5550767140233006      13.615238380393748      8.5508335521170693
   216   1      11.566755896656105      9.5651207055449277      7.2406103564613886

Velocities

     1                       0                       0                       0
     2                       0                       0                       0
     3                       0                       0                       0
     4                       0                       0                       0
     5                       0                       0                       0
     6                       0                       0                       0
     7                       0                       0                       0
     8                       0                       0                       0
     9                       0                       0                       0
    10                       0                       0                       0
    11                       0                       0                       0
    12                       0                       0                       0
    13                       0                       0                       0
    14                       0                       0                       0
    15                       0                       0                       0
    16                       0                       0                       0
    17                       0                       0                       0
    18                       0                       0                       0
    19                       0                       0                       0
    20                       0                       0                       0
    21                       0                       0                       0
    22                       0                       0                       0
    23                       0                       0                       0
    24                       0                       0                       0
    25                       0                       0                       0
    26                       0                       0                       0
    27                       0                       0                       0
    28                       0                       0                       0
    29                       0                       0                       0
    30                       0                       0                       0
    31                       0                       0                       0
    32                       0                       0                       0
    33                       0                       0                       0
    34                       0                       0                       0
    35                       0                       0                       0
    36                       0                       0                       0
    37                       0                       0                       0
    38                       0                       0                       0
    39                       0                       0                       0
    40                       0                       0                       0
    41                       0                       0                       0
    42                       0                       0                       0
    43                       0                       0                       0
    44                       0                       0                       0
    45                       0                       0                       0
    46                       0                       0                       0
    47                       0                       0                       0
    48                       0                       0                       0
    49                       0                       0                       0
    50                       0                       0                       0
    51                       0                       0                       0
    52                       0                       0                       0
    53                       0                       0                       0
    54                       0                       0                       0
    55                       0                       0                       0
    56                       0                       0                       0
    57                       0                       0                       0
    58                       0                       0                       0
    59                       0                       0                       0
    60                       0                       0                       0
    61                       0                       0                       0
    62                       0                       0                       0
    63                       0                       0                       0
    64                       0                       0                       0
    65                       0                       0                       0
    66                       0                       0                       0
    67                       0                       0                       0
    68                       0                       0                       0
    69                       0                       0                       0
    70                       0                       0                       0
    71                       0                       0                       0
    72                       0                       0                       0
    73                       0                       0                       0
    74                       0                       0                       0
    75                       0                       0                       0
    76                       0                       0                       0
    77                       0                       0                       0
    78                       0                       0                       0
    79                       0                       0                       0
    80                       0                       0                       0
    81                       0                       0                       0
    82                       0                       0                       0
    83                       0                       0                       0
    84                       0                       0                       0
    85                       0                       0                       0
    86                       0                       0                       0
    87                       0                       0                       0
    88                       0                       0                       0
    89                       0                       0                       0
    90                       0                       0                       0
    91                       0                       0                       0
    92                       0                       0                       0
    93                       0                       0                       0
    94                       0                       0                       0
    95                       0                       0                       0
    96                       0                       0                       0
    97                       0                       0                       0
    98                       0                       0                       0
    99                       0                       0                       0
   100                       0                       0                       0
   101                       0                       0                       0
   102                       0                       0                       0
   103                       0                       0                       0
   104                       0                       0                       0
   105                       0                       0                       0
   106                       0                       0                       0
   107                       0                       0                       0
   108                       0                       0                       0
   109                       0                       0                       0
   110                       0                       0                       0
   111                       0                       0                       0
   112                       0                       0                       0
   113                       0                       0                       0
   114                       0                       0                       0
   115                       0                       0                       0
   116                       0                       0                       0
   117                       0                       0                       0
   118                       0                       0                       0
   119                       0                       0                       0
   120                       0                       0                       0
   121                       0                       0                       0
   122                       0                       0                       0
   123                       0                       0                       0
   124                       0                       0                       0
   125                       0                       0                       0
   126                       0                       0                       0
   127                       0                       0                       0
   128                       0                       0                       0
   129                       0                       0                       0
   130                       0                       0                       0
   131                       0                       0                       0
   132                       0                       0                       0
   133                       0                       0                       0
   134                       0                       0                       0
   135                       0                       0                       0
   136                       0                       0                       0
   137                       0                       0                       0
   138                       0                       0                       0
   139                       0                       0                       0
   140                       0                       0                       0
   141                       0                       0                       0
   142                       0                       0                       0
   143                       0                       0                       0
   144                       0                       0                       0
   145                       0                       0                       0
   146                       0                       0                       0
   147                       0                       0                       0
   148                       0                       0                       0
   149                       0                       0                       0
   150                       0                       0                       0
   151                       0                       0                       0
   152                       0                       0                       0
   153                       0                       0                       0
   154                       0                       0                       0
   155                       0                       0                       0
   156                       0                       0                       0
   157                       0                       0                       0
   158                       0                       0                       0
   159                       0                       0                       0
   160                       0                       0                       0
   161                       0                       0                       0
   162                       0                       0                       0
   163                       0                       0                       0
   164                       0                       0                       0
   165                       0                       0                       0
   166                       0                       0                       0
   167                       0                       0                       0
   168                       0                       0                       0
   169                       0                       0                       0
   170                       0                       0                       0
   171                       0                       0                       0
   172                       0                       0                       0
   173                       0                       0                       0
   174                       0                       0                       0
   175                       0                       0                       0
   176                       0                       0                       0
   177                       0                       0                       0
   178                       0                       0                       0
   179                       0                       0                       0
   180                       0                       0                       0
   181                       0                       0                       0
   182                       0                       0                       0
   183                       0                       0                       0
   184                       0                       0                       0
   185                       0                       0                       0
   186                       0                       0                       0
   187                       0                       0                       0
   188                       0                       0                       0
   189                       0                       0                       0
   190                       0                       0                       0
   191                       0                       0                       0
   192                       0                       0                       0
   193                       0                       0                       0
   194                       0                       0                       0
   195                       0                       0                       0
   196                       0                       0                       0
   197                       0                       0                       0
   198                       0                       0                       0
   199                       0                       0                       0
   200                       0                       0                       0
   201                       0                       0                       0
   202                       0                       0                       0
   203                       0                       0                       0
   204                       0                       0                       0
   205                       0                       0                       0
   206                       0                       0                       0
   207                       0                       0                       0
   208                       0                       0                       0
   209                       0                       0                       0
   210                       0                       0                       0
   211                       0                       0                       0
   212                       0                       0                       0
   213                       0                       0                       0
   214                       0                       0                       0
   215                       0                       0                       0
   216                       0                       0                       0
