(written by ASE)

216 atoms
1 atom types

0.0      16.331106185913086  xlo xhi
0.0      16.331106185913086  ylo yhi
0.0      16.331106185913086  zlo zhi

Atoms # atomic

     1   1       8.165553092956543       8.165553092956543       8.165553092956543
     2   1      9.5264782839793725      9.5264782839793725      9.5264782839793725
     3   1       6.804627415228822      9.5264782839793725       6.804627415228822
     4   1       6.804627415228822       6.804627415228822      9.5264782839793725
     5   1      9.5264782839793725       6.804627415228822       6.804627415228822
     6   1      12.793757422914155      14.168592639736062      1.9289974062841111
     7   1      15.417600040958405      3.3772922091423823      15.641526147669197
     8   1       3.009957289388808      7.3829875984866362     0.55466495561512374
     9   1      11.268456415475157      2.0895297141721016      14.222246013565268
    10   1      8.5990806080114908      4.7678808465399243      8.7425728909431655
    11   1      7.1663226420521369       11.71072515038145      4.7683948069053486
    12   1      12.677040722883476      14.220926069899519      7.4023000485813668
    13   1      1.9025974378831307      8.8727693696488359      1.9112860936061935
    14   1      0.2907620650406173      4.7998870469098733      11.346454767977207
    15   1      14.221124645495252        2.12016340674802     0.66731487124864941
    16   1      3.2281178899548877      10.176379219238811       14.17756845134511
    17   1      3.1779198775028874      10.165633748644268      3.1908525998798325
    18   1      2.9812297765204505      5.0063054052636176      3.3666993205313247
    19   1      9.9237209759631924      6.2284033797398024      1.9380233484969835
    20   1      10.157461973515979      8.9739416888547794      4.5994829009003979
    21   1      14.108753246735887      15.535809951596207      3.0893719531251236
    22   1      12.588576268394604     0.68703329406100266       10.16034326647366
    23   1      11.418963089303134      7.6933369193713474      14.213927253559746
    24   1      7.0530620334560012      3.1208150359356068      1.7594420764125971
    25   1      1.5832041667045615      6.3378560092648399      9.9312795029281915
    26   1      2.9675098089815037      10.107161022979426      8.7096648264092664
    27   1      3.1171430908816831      7.5938524927291269      5.9248820417779484
    28   1      2.9762948322730836      4.8972601477327657      14.120766096867897
    29   1      5.7340489474598257      10.300269949370204      5.8893978482533385
    30   1      3.0238120741827004      12.634808366038214      6.2681579219824357
    31   1      7.1201654969618176     0.58097725629752262      10.160115488584438
    32   1      9.9679137801114166      14.242194100248298      4.5220325781061774
    33   1      5.8288439724724412      4.7296287622973523       11.43186368915724
    34   1      9.8418620802617625      11.449638151794829      1.8353528299587794
    35   1     0.56128973924577963      2.0042675345168561      14.084522157007655
    36   1      7.1767269325177381     0.62439254938157518      15.532019493901203
    37   1      14.126112063396135      12.851324877480806      6.1723023670112411
    38   1     0.40257962405251035      1.8998204214484531      3.4035402039409917
    39   1     0.38523114987120621      15.613315758748058      11.506217595431735
    40   1      9.8949693712027056     0.67564780653413692        1.76388423195732
    41   1      15.196759643259725        6.08365637159784      7.4433492258353908
    42   1      12.537164657295648     0.59044707337144331      4.6727743303967486
    43   1      3.0815279737412595      15.478649382318849      8.7423412194148113
    44   1      5.8035323978850784      10.179977915206564     0.53072272523999686
    45   1      4.4419929852891755      14.286692555068385      10.199225146845833
    46   1      5.9267558556102244      12.854554651140802      3.5552629099403816
    47   1      4.5771470400196677      3.4154411119479562      9.9566407214144874
    48   1      11.404174074470006      10.052830155941251     0.50119059792882226
    49   1      14.050249371957989      7.2539981479118865     0.45480746967356822
    50   1      2.9421008934158408      12.964864367979771      11.490405526916675
    51   1      3.1228545727834387      15.692253451690704      13.967427773981171
    52   1      13.899703761738692      15.658053672374763       14.10345984433593
    53   1      11.314604799877429      2.1775690319382477      8.9632555962569995
    54   1     0.35001467445597712      10.115508985278439     0.53063864696999019
    55   1      15.352913067238887      8.9875110212298068      4.7752982290863883
    56   1      15.423681905282592      3.3972171773430659      4.6482171483912111
    57   1      14.074809474192875      4.7422743287883122      3.3830143985517509
    58   1      4.4152159422735053      6.3387788017391244      1.9743146204079238
    59   1      14.018977609269314      10.308366771945202      3.4186716156652892
    60   1     0.35576518400621993      12.928896876497902      8.7646157554792126
    61   1      14.208656239584798      4.7811172727691655      8.7043811581071395
    62   1      5.8905946555815376      15.718998858888426      11.422667886937234
    63   1      15.362518674977537      11.285773375514736      12.793043913543215
    64   1      9.8624769526461478       6.003370506105739      12.811630199939827
    65   1      1.8235078930143374      3.3723704059270858      7.3227520277047802
    66   1     0.41555520687896319       10.02381767735892      11.390073260353461
    67   1      4.6034271573411161      14.184635406369694      15.593231394695408
    68   1      7.0869629759685608      3.4445071280683521       7.323343374147953
    69   1       9.888503983424016     0.68738274817309986       12.84852632435468
    70   1      12.676270755745122      11.464419379349692      10.095383738014903
    71   1      8.5219777925098015       2.035496710527525      6.1490407934268774
    72   1      4.5691816277653743      14.292755924606695      4.4848780133939385
    73   1     0.33508104743196299      15.560659156536644      6.0812924459398232
    74   1      8.4874626284241685      4.8368376822725736      14.190530376015545
    75   1      15.358984224055462     0.57224163355243007      12.894951157135324
    76   1      4.5328048174697528      11.603733787492729      7.2944730133939402
    77   1       1.618071340102972      6.1103857175341432      15.554199609216653
    78   1      1.8788356533465276       8.865723829639478      7.4864868537788425
    79   1      7.2035039755334083      14.214258212885966      7.5478058296491781
    80   1      7.1916901877020223      8.7249123172501868       1.653739629752792
    81   1      10.074189686809632     0.55958097920983363       7.412660535606733
    82   1     0.36024369032252679      12.829994548905916       3.364981008911883
    83   1      5.7024467121498219      12.941893843920525      14.103292417853254
    84   1      4.3748223565083322     0.83268271390991799      12.711122719615673
    85   1      4.5551319176624361      3.4500764921417897      4.6870187224562869
    86   1      3.0770442049283133      4.9289748118727061      8.7677550020293893
    87   1     0.35184711837247562      7.5075655559248275        8.91131737046544
    88   1      7.0741027726204493      8.7917583138683995      12.799108256491309
    89   1      8.5406448719184027      13.084328030418078      0.6445330061729706
    90   1      8.4322848948747833      15.607311767206511      8.8676755162543941
    91   1       7.119158991246195      11.513607722504275      15.450372801532467
    92   1      4.3970243735438999      6.0863858126293735      7.4481792851786395
    93   1      1.7015282096394202      14.218324145549559      7.3423798625692029
    94   1       11.23024813467282      15.587750124207332      6.0496498141238249
    95   1      7.4126727032290205       6.153760857464647      4.7055105881039481
    96   1      4.2702698718309193      8.8822679023113551      4.7111349498301252
    97   1      12.720370112554178      6.0602152039085126      15.583062182692402
    98   1      8.6089957600611342       10.24592642800485      3.3421830217366733
    99   1      8.6425199929876726      15.552751175459548      14.142768078193058
   100   1      14.117965596922204      15.564343512565301      8.9147632410972619
   101   1      15.473544821416795      14.188181538209165      4.6790309217769845
   102   1      1.7588644793826091      14.306851871674326      1.7431086252825168
   103   1      10.046979963145418      14.175241028553955      10.202927997660368
   104   1       11.33869279836756       4.747373049231669     0.52292577371627402
   105   1      3.1831972186414248      15.468186200561377      3.2969289575725327
   106   1      8.6180630721897842      1.9888017565320979     0.33785258843661126
   107   1      6.0122484900315953      4.7570604233920903      6.0679630590763054
   108   1      0.3658403707079998      7.4342862940507644      3.3306313244893602
   109   1      12.681808484000612       8.789154442698873      12.877377216913032
   110   1      1.8487221266234002     0.74438891032362875      10.203441958025792
   111   1      4.3665741687120772      8.8906732957875647      15.394228472068562
   112   1      12.602124185754406      6.0755760969891526      10.108409907731016
   113   1       14.16707704070393      4.8425306693884522      14.025235660764224
   114   1      1.7335254059688765      11.693382881687512      15.686573605606895
   115   1      9.8294180095958836      6.1067626863218152       7.550396559786634
   116   1     0.52894394053778626      1.8790292402171218      8.7456040890074291
   117   1     0.38526235982237367      10.271776298202212      5.9530218584898194
   118   1      7.0970844908922004      3.5718529762245055      12.957623172604031
   119   1      1.7021556939207869      3.2352649079341234      12.812008856345415
   120   1       14.05570630720149      2.0950457840599199       11.49142274013991
   121   1      14.192303928640172      7.4788650551779483      11.491790689037884
   122   1      5.7474669146135966      7.6211726984037114       8.563010908502406
   123   1      12.750964382033885      11.532345860827036      4.4414396018275397
   124   1     0.32102549687032678      4.6070453215045291      6.0724641059128999
   125   1      5.7857715629844506      1.8469048922347611      3.3799973149293407
   126   1      11.321472205896498      7.6155123205155633      3.3400303260015676
   127   1      11.457316408163138      4.7115028987280994      6.0022189623324493
   128   1      1.7581862561163035     0.46757574663529766      4.7088265085297394
   129   1      10.030496241880087      3.3702860922292359      15.579928776600923
   130   1      11.250255599352613      15.691018194676076     0.45856845130358082
   131   1      12.594089661405519      3.4401932192625395      7.1786070735136036
   132   1      4.6245423623539637     0.69588968045729871      7.3916232033765255
   133   1      7.1873667881508254      3.6025557808950168      1.9727327078343251
   134   1       8.373383868905421      7.4277148046057277     0.64538230620863857
   135   1      15.368303649317909      6.0694669771910412      12.945672620698133
   136   1       5.726385778943154      2.1245359634932584      8.7415216083775249
   137   1      12.646844578005016      11.549593708772022      15.615527345775035
   138   1      2.8853496429522352      7.8314846958894577      11.541067612482721
   139   1      14.202033159421262      7.5640028817334155      5.9421250226740199
   140   1      12.734791178489331     0.60452586409164866      4.9339085393578443
   141   1      12.673349552986338      3.4412328209107841        1.96434824266845
   142   1      3.0694496618013432      13.034242203443569     0.61690307367305763
   143   1      1.8919163340104888      6.2317976596531253       4.589540980081722
   144   1      1.4889889288939457      8.5962995762614582       12.76505838228195
   145   1      15.290665458435569      14.252521004636151      15.597442365416669
   146   1      15.457573113697322     0.63754325471180096       1.864360684844641
   147   1     0.28225014403128057      15.625641073420411     0.42315717225552874
   148   1      5.7726704407150464       7.445409934346003      3.3923596191734475
   149   1      12.796635795642487      14.132667978284644      12.777951194857792
   150   1      7.1292853732187496      14.087427785209911       1.674738512296571
   151   1      15.539746420758661      3.4966984404034918      10.265644789979092
   152   1     0.41970092872570675      4.7179439512622139     0.37054994017154641
   153   1      7.2606518904835866     0.66268770700704493      4.6249935377883844
   154   1      13.826177253779747      12.869949126858955      11.488338977947365
   155   1      14.127670492458719      2.1883030649678403      6.1590756748798299
   156   1      14.156169984085409      13.039829575597992     0.41543450406587112
   157   1      15.260717533051775      6.0764979160536541      2.0035581621374945
   158   1      1.8193678595310132     0.85765286501589344      15.376481264904896
   159   1      8.6362230051014421      15.618923572507924      3.2977514888391681
   160   1      12.811038366791763      3.4667490549050228      12.833146449783271
   161   1      8.4517375159782659      10.178563550791864      14.200074658937865
   162   1      11.261676616336558      12.953744134618773      8.9343248840964407
   163   1      15.295027307673195       11.58984615011866      1.8154765322472457
   164   1      8.3785916112444738      12.688204759684709      6.1299643952045244
   165   1      15.366385058635615      8.8295889116749322      15.297452071442649
   166   1      7.1710417326801235      11.512461045779901      10.045337820841496
   167   1      4.4234529358572559     0.62233427439542055      1.9964547042460481
   168   1      11.205999523568494      2.1578713549218946      3.0889619042540346
   169   1     0.28942466083688601      13.007162916690277      14.223541621986442
   170   1      5.8775538847186795      10.142947460241658      11.346190973926014
   171   1      4.5421529583207985      8.7095275756298633      10.282664860034856
   172   1      10.989364256132376      10.207192505919693      6.0593328079402227
   173   1      5.6576893303274574       7.514792636858715      14.131209810429709
   174   1        4.59326135227235      11.489898380419731      1.9707602145852974
   175   1      8.6672845112769892      4.8952466495966291      3.3542418654809296
   176   1       3.202323990820048      2.0829217218602025     0.53775086554948359
   177   1      11.388680310953987      12.892675325062669      3.2929387075195677
   178   1       9.875733820480832      14.308907713136023      15.520690950846642
   179   1      5.8431209737597101      12.894025444431691      8.6922018549022368
   180   1      4.4421633320012006      3.5512721731825252       15.36076459054857
   181   1      14.193642367091797      10.125719080492331      14.026748339567007
   182   1      1.6099859550929239      11.323074438399317      10.161624273748089
   183   1      10.063812165113063      11.432789401860873      12.805984423198424
   184   1      8.7111054728881072      12.939575181817418      11.430462952479502
   185   1      15.467753033207941      14.358432856075524      9.9885228120371039
   186   1      7.2353247413396957      6.1789337211579323      15.559313904216538
   187   1      1.8075423907822312      11.448528464642209      4.6328465212127412
   188   1      5.7439757804268652      4.7709378399634375     0.45002410358084788
   189   1      4.3220976156121083      11.289141373363918      12.962715079178906
   190   1      11.390695269204798      4.6571919865904761      11.423561477118028
   191   1      7.2410206486849233      14.144243767424086      12.816257790048212
   192   1      10.064594786578596      8.8287459388028537      15.441708481053979
   193   1      15.376726564170212      8.8606961681102803      10.018501886533954
   194   1      15.484968758630089     0.65173970633952649      7.6726689961537886
   195   1      11.303264575905473      7.5207299498301268      8.8288101838485318
   196   1      12.798067681433281      6.0105494032553679      4.6677875520784369
   197   1      5.7004882116664248      2.0037770576624467      14.073434046169496
   198   1      11.326307132288662      10.187411845719339      11.583079978717024
   199   1      8.6891356140857852      7.4788791696198018      11.460293095279553
   200   1      3.0036573812732286      1.9942300978632232      6.1010317362243995
   201   1      3.0465292683459211      1.8976660222462272      11.421545545457434
   202   1       9.996043376020566      3.4515981749850653      4.6966622931764732
   203   1      15.346576169551554      11.509793902974479      7.4410242365686941
   204   1      1.8185831695696919      14.185561119073327      12.812088675947621
   205   1      11.335760888101163      15.524293540453527      11.236217083462179
   206   1      10.004948128715455      3.3302499912068697      10.125146715539927
   207   1      12.717930747637979     0.62483587669962048      15.515735321641387
   208   1      12.591625961244745      8.8057948829392672      1.9169046148736726
   209   1       1.891719340205654      3.4261060328829558      1.9272725241486341
   210   1      11.507640720534482      12.697030666187175      14.009018653779435
   211   1      5.8290152925942493      15.717768468922714     0.45580941253083296
   212   1      9.7838750860786377      11.472184269188688      7.2816463926833421
   213   1      4.4993029729682235      6.0770805018087799      12.690836859737942
   214   1      5.7740551161313647      15.463873021812901      5.9645572511232672
   215   1      8.6314591376234375      1.9703162180480263      11.451357193471608
   216   1      12.787167438683241      9.0022182696411619      7.4998731851146658

Velocities

     1                       0                       0                       0
     2                       0                       0                       0
     3                       0                       0                       0
     4                       0                       0                       0
     5                       0                       0                       0
     6                       0                       0                       0
     7                       0                       0                       0
     8                       0                       0                       0
     9                       0                       0                       0
    10                       0                       0                       0
    11                       0                       0                       0
    12                       0                       0                       0
    13                       0                       0                       0
    14                       0                       0                       0
    15                       0                       0                       0
    16                       0                       0                       0
    17                       0                       0                       0
    18                       0                       0                       0
    19                       0                       0                       0
    20                       0                       0                       0
    21                       0                       0                       0
    22                       0                       0                       0
    23                       0                       0                       0
    24                       0                       0                       0
    25                       0                       0                       0
    26                       0                       0                       0
    27                       0                       0                       0
    28                       0                       0                       0
    29                       0                       0                       0
    30                       0                       0                       0
    31                       0                       0                       0
    32                       0                       0                       0
    33                       0                       0                       0
    34                       0                       0                       0
    35                       0                       0                       0
    36                       0                       0                       0
    37                       0                       0                       0
    38                       0                       0                       0
    39                       0                       0                       0
    40                       0                       0                       0
    41                       0                       0                       0
    42                       0                       0                       0
    43                       0                       0                       0
    44                       0                       0                       0
    45                       0                       0                       0
    46                       0                       0                       0
    47                       0                       0                       0
    48                       0                       0                       0
    49                       0                       0                       0
    50                       0                       0                       0
    51                       0                       0                       0
    52                       0                       0                       0
    53                       0                       0                       0
    54                       0                       0                       0
    55                       0                       0                       0
    56                       0                       0                       0
    57                       0                       0                       0
    58                       0                       0                       0
    59                       0                       0                       0
    60                       0                       0                       0
    61                       0                       0                       0
    62                       0                       0                       0
    63                       0                       0                       0
    64                       0                       0                       0
    65                       0                       0                       0
    66                       0                       0                       0
    67                       0                       0                       0
    68                       0                       0                       0
    69                       0                       0                       0
    70                       0                       0                       0
    71                       0                       0                       0
    72                       0                       0                       0
    73                       0                       0                       0
    74                       0                       0                       0
    75                       0                       0                       0
    76                       0                       0                       0
    77                       0                       0                       0
    78                       0                       0                       0
    79                       0                       0                       0
    80                       0                       0                       0
    81                       0                       0                       0
    82                       0                       0                       0
    83                       0                       0                       0
    84                       0                       0                       0
    85                       0                       0                       0
    86                       0                       0                       0
    87                       0                       0                       0
    88                       0                       0                       0
    89                       0                       0                       0
    90                       0                       0                       0
    91                       0                       0                       0
    92                       0                       0                       0
    93                       0                       0                       0
    94                       0                       0                       0
    95                       0                       0                       0
    96                       0                       0                       0
    97                       0                       0                       0
    98                       0                       0                       0
    99                       0                       0                       0
   100                       0                       0                       0
   101                       0                       0                       0
   102                       0                       0                       0
   103                       0                       0                       0
   104                       0                       0                       0
   105                       0                       0                       0
   106                       0                       0                       0
   107                       0                       0                       0
   108                       0                       0                       0
   109                       0                       0                       0
   110                       0                       0                       0
   111                       0                       0                       0
   112                       0                       0                       0
   113                       0                       0                       0
   114                       0                       0                       0
   115                       0                       0                       0
   116                       0                       0                       0
   117                       0                       0                       0
   118                       0                       0                       0
   119                       0                       0                       0
   120                       0                       0                       0
   121                       0                       0                       0
   122                       0                       0                       0
   123                       0                       0                       0
   124                       0                       0                       0
   125                       0                       0                       0
   126                       0                       0                       0
   127                       0                       0                       0
   128                       0                       0                       0
   129                       0                       0                       0
   130                       0                       0                       0
   131                       0                       0                       0
   132                       0                       0                       0
   133                       0                       0                       0
   134                       0                       0                       0
   135                       0                       0                       0
   136                       0                       0                       0
   137                       0                       0                       0
   138                       0                       0                       0
   139                       0                       0                       0
   140                       0                       0                       0
   141                       0                       0                       0
   142                       0                       0                       0
   143                       0                       0                       0
   144                       0                       0                       0
   145                       0                       0                       0
   146                       0                       0                       0
   147                       0                       0                       0
   148                       0                       0                       0
   149                       0                       0                       0
   150                       0                       0                       0
   151                       0                       0                       0
   152                       0                       0                       0
   153                       0                       0                       0
   154                       0                       0                       0
   155                       0                       0                       0
   156                       0                       0                       0
   157                       0                       0                       0
   158                       0                       0                       0
   159                       0                       0                       0
   160                       0                       0                       0
   161                       0                       0                       0
   162                       0                       0                       0
   163                       0                       0                       0
   164                       0                       0                       0
   165                       0                       0                       0
   166                       0                       0                       0
   167                       0                       0                       0
   168                       0                       0                       0
   169                       0                       0                       0
   170                       0                       0                       0
   171                       0                       0                       0
   172                       0                       0                       0
   173                       0                       0                       0
   174                       0                       0                       0
   175                       0                       0                       0
   176                       0                       0                       0
   177                       0                       0                       0
   178                       0                       0                       0
   179                       0                       0                       0
   180                       0                       0                       0
   181                       0                       0                       0
   182                       0                       0                       0
   183                       0                       0                       0
   184                       0                       0                       0
   185                       0                       0                       0
   186                       0                       0                       0
   187                       0                       0                       0
   188                       0                       0                       0
   189                       0                       0                       0
   190                       0                       0                       0
   191                       0                       0                       0
   192                       0                       0                       0
   193                       0                       0                       0
   194                       0                       0                       0
   195                       0                       0                       0
   196                       0                       0                       0
   197                       0                       0                       0
   198                       0                       0                       0
   199                       0                       0                       0
   200                       0                       0                       0
   201                       0                       0                       0
   202                       0                       0                       0
   203                       0                       0                       0
   204                       0                       0                       0
   205                       0                       0                       0
   206                       0                       0                       0
   207                       0                       0                       0
   208                       0                       0                       0
   209                       0                       0                       0
   210                       0                       0                       0
   211                       0                       0                       0
   212                       0                       0                       0
   213                       0                       0                       0
   214                       0                       0                       0
   215                       0                       0                       0
   216                       0                       0                       0
