(written by ASE)

216 atoms
1 atom types

0.0      16.331106185913086  xlo xhi
0.0      16.331106185913086  ylo yhi
0.0      16.331106185913086  zlo zhi

Atoms # atomic

     1   1       8.165553092956543       8.165553092956543       8.165553092956543
     2   1      9.5264782839793725      9.5264782839793725      9.5264782839793725
     3   1       6.804627415228822      9.5264782839793725       6.804627415228822
     4   1       6.804627415228822       6.804627415228822      9.5264782839793725
     5   1      9.5264782839793725       6.804627415228822       6.804627415228822
     6   1      10.144617831429287      10.838539277305358      15.631998412713187
     7   1      12.777459622917377      13.683751827970241      10.176782210888973
     8   1      1.9775181120037786    0.031022569784227016      12.997406430435262
     9   1      6.0169846153307844       9.658700428443467       6.085390987831147
    10   1      3.2209068702824197      4.0585242850872589      3.3688145399897849
    11   1      11.422021542841321      9.7490727661070196      6.0861010902678458
    12   1      10.079010012055051      5.3996617586888078      10.146710662462738
    13   1      8.7108115031336411      6.9724291473762605      6.2002567491594505
    14   1      12.762800071585389      5.5935357851690242      7.4808702793309294
    15   1      14.199315399307125      4.2722239919702929      8.8406556074978653
    16   1      8.7173080400253866      6.9230957661640105     0.45515503780421085
    17   1      3.1148149380331915       6.913199108900244      6.1391738251614925
    18   1      11.504874289931195      4.0409812506255776      6.0155410486225946
    19   1      4.7751580580776363    0.084916375829834578      4.6002280460892848
    20   1      4.4361520398862808      2.8780639140789219      1.9429277520124089
    21   1      11.484839569777478      12.488922468450141      14.180888752114925
    22   1      12.806582096805187      10.959672337521511      12.715564388455505
    23   1      15.528974668099977      8.0858902097255623      1.9083720697445585
    24   1      11.362823626888144      12.347673895068283      3.4142340838170355
    25   1     0.73885367643070765      1.4464170953868631      8.5587230384082886
    26   1      15.442936924200126      2.8108163859252215      1.8983816001129554
    27   1        4.71185673318422      8.3300992560847362       7.439187412308172
    28   1      11.544959304795157      14.998634736257145      6.1570135062545432
    29   1      14.293264044513421      12.382493736415995      6.0367725761045108
    30   1       7.338908683283023      8.2321323752942135      10.157746209172615
    31   1      14.129846063323726      4.1174776318324575      3.2306431582844368
    32   1      12.657239621077679      13.770916780398807      15.657373258936445
    33   1      10.009288562937854      13.584818351265199      2.0182157666499165
    34   1      12.854270415484166      5.4402991836046226      1.8872776713658226
    35   1      11.481312906133667      12.270489313144822      8.8585585602268111
    36   1      8.7145659446666741      9.6157808442914074       14.34819647879749
    37   1      8.7038876393471583      1.5603373107872045      11.374341984850389
    38   1      3.2787278980975429      4.4057855482957962      14.296548329121265
    39   1      11.387206568542524       9.604116474861712     0.59964646504002417
    40   1      0.6139200593930525      6.9406697063863021      8.6747057874625852
    41   1      11.553043473042976      9.5863712145176123      11.457950097931871
    42   1      7.2668228218029185      2.8137448892573786      15.586525574700318
    43   1      10.158038232107515      11.003339500386915      4.7762580111324269
    44   1      14.134788064792019      1.4358587628231021      5.9608806823728742
    45   1      6.1822087583728376      9.7862044556893579     0.65402192641388268
    46   1      15.585748793693483      5.6386528419062074      4.7718718266502265
    47   1      4.7187484744478638       2.867282427322408       7.314142704879032
    48   1       5.921422056704273      1.2608958982545744      3.4273459135940527
    49   1      15.664287388625098      13.711264282076968      1.9943343743862272
    50   1      1.8397917002454847      13.746251549907356      10.237595013672149
    51   1       15.55333911496848      10.886060169501661      4.8414307163336616
    52   1      4.6156809263944183      2.8975698293680239      12.706847503848735
    53   1      11.401071817491584      4.1606541961672292     0.62576469214693731
    54   1     0.45656629947522731        9.51645313662425      6.0268905199874894
    55   1      7.2957700819297884      13.702566865665858      15.626833500404587
    56   1      7.4342152351366053    0.087597929662902807      2.0610599115437935
    57   1       15.58037557169132      8.3446887219123482      7.3493660245817978
    58   1      4.7012670081549572      5.6143287915436986       15.51001361893691
    59   1      10.250876216751408     0.11797896916678496      15.478410896922014
    60   1      12.897232829666677      13.811046572112787      4.6879254536691519
    61   1      14.187581917782836      6.9015104042259736     0.72795197356599317
    62   1      4.6345285733177661      13.572479408855884      7.3764214627954061
    63   1      14.227190935262911      15.053457175235735      8.8191860813240055
    64   1     0.45649095147421193      15.040371627522859      5.9861450465857615
    65   1      2.0521858212570692      10.831059596532782      12.638327242403761
    66   1      10.093428157760854      2.8612536138313942      2.0197880668019081
    67   1      7.3390658889629776      5.4997102763002772      1.8842857747215476
    68   1      8.7739381009710087      4.0716928159841359      3.3146620502943449
    69   1      14.151939545168489      9.5613029923759996      14.229056961816923
    70   1      1.7335751715440324      10.864572148541924      1.9123991876930546
    71   1      2.0526197186678417      5.5117387009888148      7.4898957348389104
    72   1      8.8047611217497206      7.0382092602820876      11.500410232666354
    73   1       1.802835589452755      8.1270109325986368      15.752345931234458
    74   1      15.460186718964678      13.612943080125433      7.3207969341556236
    75   1      4.5694386079480864      13.557907464404366      12.806314409114862
    76   1      1.8894419263421014      8.2516657894096852      4.9289314951373626
    77   1      7.4435774904295045      2.6557709456315592      10.087471863298674
    78   1      1.8475335932783565     0.12858551593386025      7.6264836221797623
    79   1      8.7862624422335784      4.1961919272299042      14.180994853781272
    80   1      1.9550621566910706      2.8023435838215391      4.7703060970142701
    81   1      6.0034138228410825      6.7603484643148022      14.244336575180682
    82   1      10.113263328909056    0.055291622493996329      10.101537634663032
    83   1       7.273274581844646      2.9505238082681444      4.7960303973496252
    84   1      7.4139868064360712      16.285522379184954      7.4705725772365668
    85   1      2.0364207197640383      13.444443899868475      4.6098492283844621
    86   1      4.5429803566363489      5.4690561421189159      10.176358777633368
    87   1       3.368670231989455      9.6244987023079602      14.270254584062855
    88   1      6.0375819663390757      12.312489998461729      8.7273857515087911
    89   1      4.7585638548019347      16.315134478193613      15.528015859463721
    90   1      7.4162597182793775       5.509399110575373      7.5559211470100536
    91   1      6.0542404146604554      9.4459237573871633      11.446742257690403
    92   1      12.807170036314119      5.4986482862270236      12.837075131667461
    93   1      4.5657060681351709      10.792805565470644      15.495475743827797
    94   1      12.783450960131745      8.2023421422952651      10.234360372963238
    95   1     0.67486573261160743      9.5241995316773682     0.85300757101708058
    96   1     0.56539509500558438       15.11864934863263     0.49147514697997252
    97   1       3.389095532818601      1.5466987446413611      5.9885702970601074
    98   1     0.52525909780423774      3.9208452053796634      6.1080607282674464
    99   1      3.3510921547755856      15.250881227194554      8.8704730959707376
   100   1      14.094657299668256      6.8035668852702429      11.430971072386228
   101   1        8.79088905893218      12.376016667719909      6.1544578188692753
   102   1      10.123416966355535      13.720209917982743      12.765592784252817
   103   1      15.339515054985668      10.857729077767431      10.220504858112008
   104   1       6.040779130771341      1.4586395936508865      14.215088531430865
   105   1      1.9777080485876866      5.4800181963901764      1.8979486761119659
   106   1      4.6984178377201147      0.1246927437449461      10.176025871487582
   107   1      14.332007700696408       9.516520301899277      8.9322184253260275
   108   1      10.032558897210265      8.1606232591105368       2.030959160824068
   109   1      7.4156927070807797      11.060549713563205      12.880016130834747
   110   1      4.4867537740457806      10.858942919766832      4.6792986094673097
   111   1      9.9892655237015333      8.2843051928434761      12.926975365586259
   112   1      14.155899376165735      12.190640508645288     0.55599037471090185
   113   1      3.3619429969791383       9.580318552486915      3.4655103909561547
   114   1      3.3107523499009233      6.8232244091330472      0.5715617068190042
   115   1      11.428721522377714      1.4032871330454526      3.2999827874142511
   116   1     0.57469310525280548      6.8961843925982862      14.253737766864901
   117   1      14.099376390296243      1.4763746331922647     0.61067896984432934
   118   1      15.567597621469872      13.812132897430615      12.922129731686482
   119   1      12.803008709491792    0.043928645068362471        12.7624730058983
   120   1        2.12843592978885      13.782916002793854      15.801593652385804
   121   1      5.8876077476624005      6.9756740088878928      3.4633467443609902
   122   1      6.0415310898287089      15.006901905544169      6.0539104287440182
   123   1      14.024537725949813      1.3723406109005225       11.47297662475205
   124   1      3.2786548923638179      12.330977970470258       0.481641883028324
   125   1      3.1909774396845023      4.1263721637246249      8.6867595208054809
   126   1     0.52557375251659266      15.118144148955253      11.531154407252643
   127   1      8.8278114654111732      15.065940182292934      14.278628828426008
   128   1      15.479504036108324      3.0042382635612341      12.849761581369307
   129   1      8.7860784677845913      4.2390949634156527      8.6525208050982201
   130   1      12.825050600618056     0.11050374478587166      7.3759566596240234
   131   1      8.5541918158684211      15.049597605446138       3.286139440185309
   132   1      12.800784468137635      10.861794037021241      7.4818242209182699
   133   1      7.5412129251889155      16.297426207421267      12.847970507368586
   134   1      1.8992815174573394       8.150129901649791      10.011481655178954
   135   1     0.63751715516199425      11.937292117833522      13.891400576289698
   136   1      5.8890985247450658      14.847743565564883     0.57900038270447141
   137   1      8.7042662957527455      15.150253044057308       8.851001006671595
   138   1      11.320088017185071      7.0283272041650662      14.318049004408181
   139   1      8.6940386791627589      12.201792864529125     0.72164287889558665
   140   1      6.1379074190338088      1.5078182027076394      8.7984845754689331
   141   1      12.884341963910401      8.2353271062020212      4.6919427158435951
   142   1     0.38660925477148922      12.558189335198676      14.656538628709654
   143   1      15.686266008115467       8.347907788064731      12.838189685868997
   144   1      11.230468125283778      1.5399673726394667      9.0066920610038324
   145   1      11.436667466436347      6.6958352442415503      8.8106736127716658
   146   1      0.4876032574728093       4.269626447964356      11.553324788470263
   147   1      14.194839661124888       12.25525447663108      11.443519297898888
   148   1      4.6154161589334421      10.737564560285364      10.168312572367086
   149   1      6.1033513717372898      15.218422877980402      11.423110788388499
   150   1      11.480160388950594      14.964116651942163     0.42121086981347489
   151   1      7.5468406938493331      8.2050384873941766      15.599151672995617
   152   1      15.627810803826719     0.13916098963551882        15.5389482247366
   153   1      10.168522828880214    0.054952875889512143      4.6345460946938601
   154   1      15.277777512908642      10.831286401012221       15.58386621917316
   155   1       14.07211507591353      6.9290413531185777      5.9319514303269898
   156   1      15.361399253727086      5.4479005406000738       10.29454922007551
   157   1      8.6543634698174401      9.6693728933042848      3.2834569661758053
   158   1      6.0541347996989998       4.173934912541597     0.56943243375680197
   159   1      14.085534503181975       15.04528345328788      3.3784498367268156
   160   1      5.9097362722593516      4.0232780902545926      6.0511668732706312
   161   1       7.260395397005766      10.900959179640267      1.8915972989541103
   162   1      3.2790043464759151      12.302398659241362       6.183936074032772
   163   1      10.060377001988854       13.66943199665252      7.4621121861076176
   164   1      4.5393724132756574      13.863747951174219      1.8770478646038242
   165   1      11.532237812341123      6.9152554370668327      3.3618867825641701
   166   1      3.3272455619116386      1.4703455763488051     0.66339032635603701
   167   1      10.073431400588674      5.5180113536304702      4.7385627172857312
   168   1     0.46364761229411044      1.4378364881497134      3.2941518194616322
   169   1      10.013106276106782      5.5600285869136883      15.667490880220953
   170   1      1.8684455989990028      5.4174581230465151      12.914192548315896
   171   1      9.9735371684278107      2.7772600304758441      12.808150259965601
   172   1      3.2864777000849017      12.436608506482344      11.421067601253981
   173   1      3.2750849119846634      14.980508872687892       3.382722132264405
   174   1      12.829241129733873      2.7074388068558903      4.5341627241170386
   175   1      6.0071682643741156      4.1856630403120789      11.479183085528462
   176   1      3.4083357072369438      1.5219538162239274      11.415375100842994
   177   1      12.859541429459114    0.055544629187555206      2.0770070406662455
   178   1     0.73230956413581794      1.4741306802900027      14.267970964711935
   179   1      11.436718083745063      1.4062930224553583      14.301548735176539
   180   1       12.82457168300482      2.7593062170857365      10.114213376857265
   181   1     0.59470975648742552      12.399441774147817      3.4082074604980335
   182   1      7.3416371509047735      13.776448668195599      4.6665007043453102
   183   1      3.2827220417896399      15.116027956087009       14.23977128329841
   184   1      3.2962517077160101       7.003415214293625      11.529541467242211
   185   1      10.161709933808993      2.9378473360165742      7.4876904749755226
   186   1      4.6431904602717964      8.1380883359291829      2.0389719051290598
   187   1      1.9899714300625959      2.6914410604247223      10.041130743759368
   188   1      11.550469777576723      14.978680809115417      11.523392437642997
   189   1      7.4107253969581279      13.679354935980427      10.181428295783235
   190   1      3.1994823643110237      9.6921175862938753      8.9463396810480162
   191   1      11.520398229150487      4.0977923657908377       11.47258726083885
   192   1      1.9679095840357803    0.045843684325901357      1.9757047712542715
   193   1      14.296237811400488      9.6724819641511885      3.4077937613402582
   194   1      4.6314355637322819      5.5894090143939934      4.6450462660230869
   195   1      8.7182191515822751      1.4578076933150896       6.058988707581932
   196   1      2.0164384420623804      11.117932220271086      7.3839872903337778
   197   1     0.56518964470325983      6.6982497872082831       3.246406069605456
   198   1       15.48728547391363      5.5496744270519116      15.501994669144551
   199   1      15.395626288516951     0.04021072921648372      10.123535722349061
   200   1      7.3163109751706656      8.1622274384329216      4.6438275569747702
   201   1      5.9500855678793982       12.43587747573531      14.040057771529973
   202   1      12.812752541419627      10.910887959426873      1.9471361675329888
   203   1      12.820852284223974      8.2004527539064611      15.479337583035431
   204   1      15.505434699317675    0.022012688832774074      4.7873174063819874
   205   1      4.6527089478348671       8.209449007120952      12.773566957195158
   206   1      8.8368291336408902       12.40496100761743       11.40362701817196
   207   1      7.4457627953923406      5.4784120702482255      12.878796448376647
   208   1     0.57572790069024649       12.28343274302938       8.796326525980021
   209   1      6.0673352097662701      12.333128232680906      3.3494865153385263
   210   1      14.190505067361187      15.126206902187846      14.279181725182752
   211   1      15.654439401850482      2.7654520831031562       7.429173459165554
   212   1      1.8556198300219648      2.7600187530468929      15.567370816990433
   213   1      14.270847390620702      4.1324584083928357      14.155500278154705
   214   1      0.6082747693565409      4.1847402478377944     0.58207246397962109
   215   1      12.826196303932647      2.7582950876736447      15.583226688945729
   216   1      8.5799686803320583      1.4029643260261651     0.56054337729466397

Velocities

     1                       0                       0                       0
     2                       0                       0                       0
     3                       0                       0                       0
     4                       0                       0                       0
     5                       0                       0                       0
     6                       0                       0                       0
     7                       0                       0                       0
     8                       0                       0                       0
     9                       0                       0                       0
    10                       0                       0                       0
    11                       0                       0                       0
    12                       0                       0                       0
    13                       0                       0                       0
    14                       0                       0                       0
    15                       0                       0                       0
    16                       0                       0                       0
    17                       0                       0                       0
    18                       0                       0                       0
    19                       0                       0                       0
    20                       0                       0                       0
    21                       0                       0                       0
    22                       0                       0                       0
    23                       0                       0                       0
    24                       0                       0                       0
    25                       0                       0                       0
    26                       0                       0                       0
    27                       0                       0                       0
    28                       0                       0                       0
    29                       0                       0                       0
    30                       0                       0                       0
    31                       0                       0                       0
    32                       0                       0                       0
    33                       0                       0                       0
    34                       0                       0                       0
    35                       0                       0                       0
    36                       0                       0                       0
    37                       0                       0                       0
    38                       0                       0                       0
    39                       0                       0                       0
    40                       0                       0                       0
    41                       0                       0                       0
    42                       0                       0                       0
    43                       0                       0                       0
    44                       0                       0                       0
    45                       0                       0                       0
    46                       0                       0                       0
    47                       0                       0                       0
    48                       0                       0                       0
    49                       0                       0                       0
    50                       0                       0                       0
    51                       0                       0                       0
    52                       0                       0                       0
    53                       0                       0                       0
    54                       0                       0                       0
    55                       0                       0                       0
    56                       0                       0                       0
    57                       0                       0                       0
    58                       0                       0                       0
    59                       0                       0                       0
    60                       0                       0                       0
    61                       0                       0                       0
    62                       0                       0                       0
    63                       0                       0                       0
    64                       0                       0                       0
    65                       0                       0                       0
    66                       0                       0                       0
    67                       0                       0                       0
    68                       0                       0                       0
    69                       0                       0                       0
    70                       0                       0                       0
    71                       0                       0                       0
    72                       0                       0                       0
    73                       0                       0                       0
    74                       0                       0                       0
    75                       0                       0                       0
    76                       0                       0                       0
    77                       0                       0                       0
    78                       0                       0                       0
    79                       0                       0                       0
    80                       0                       0                       0
    81                       0                       0                       0
    82                       0                       0                       0
    83                       0                       0                       0
    84                       0                       0                       0
    85                       0                       0                       0
    86                       0                       0                       0
    87                       0                       0                       0
    88                       0                       0                       0
    89                       0                       0                       0
    90                       0                       0                       0
    91                       0                       0                       0
    92                       0                       0                       0
    93                       0                       0                       0
    94                       0                       0                       0
    95                       0                       0                       0
    96                       0                       0                       0
    97                       0                       0                       0
    98                       0                       0                       0
    99                       0                       0                       0
   100                       0                       0                       0
   101                       0                       0                       0
   102                       0                       0                       0
   103                       0                       0                       0
   104                       0                       0                       0
   105                       0                       0                       0
   106                       0                       0                       0
   107                       0                       0                       0
   108                       0                       0                       0
   109                       0                       0                       0
   110                       0                       0                       0
   111                       0                       0                       0
   112                       0                       0                       0
   113                       0                       0                       0
   114                       0                       0                       0
   115                       0                       0                       0
   116                       0                       0                       0
   117                       0                       0                       0
   118                       0                       0                       0
   119                       0                       0                       0
   120                       0                       0                       0
   121                       0                       0                       0
   122                       0                       0                       0
   123                       0                       0                       0
   124                       0                       0                       0
   125                       0                       0                       0
   126                       0                       0                       0
   127                       0                       0                       0
   128                       0                       0                       0
   129                       0                       0                       0
   130                       0                       0                       0
   131                       0                       0                       0
   132                       0                       0                       0
   133                       0                       0                       0
   134                       0                       0                       0
   135                       0                       0                       0
   136                       0                       0                       0
   137                       0                       0                       0
   138                       0                       0                       0
   139                       0                       0                       0
   140                       0                       0                       0
   141                       0                       0                       0
   142                       0                       0                       0
   143                       0                       0                       0
   144                       0                       0                       0
   145                       0                       0                       0
   146                       0                       0                       0
   147                       0                       0                       0
   148                       0                       0                       0
   149                       0                       0                       0
   150                       0                       0                       0
   151                       0                       0                       0
   152                       0                       0                       0
   153                       0                       0                       0
   154                       0                       0                       0
   155                       0                       0                       0
   156                       0                       0                       0
   157                       0                       0                       0
   158                       0                       0                       0
   159                       0                       0                       0
   160                       0                       0                       0
   161                       0                       0                       0
   162                       0                       0                       0
   163                       0                       0                       0
   164                       0                       0                       0
   165                       0                       0                       0
   166                       0                       0                       0
   167                       0                       0                       0
   168                       0                       0                       0
   169                       0                       0                       0
   170                       0                       0                       0
   171                       0                       0                       0
   172                       0                       0                       0
   173                       0                       0                       0
   174                       0                       0                       0
   175                       0                       0                       0
   176                       0                       0                       0
   177                       0                       0                       0
   178                       0                       0                       0
   179                       0                       0                       0
   180                       0                       0                       0
   181                       0                       0                       0
   182                       0                       0                       0
   183                       0                       0                       0
   184                       0                       0                       0
   185                       0                       0                       0
   186                       0                       0                       0
   187                       0                       0                       0
   188                       0                       0                       0
   189                       0                       0                       0
   190                       0                       0                       0
   191                       0                       0                       0
   192                       0                       0                       0
   193                       0                       0                       0
   194                       0                       0                       0
   195                       0                       0                       0
   196                       0                       0                       0
   197                       0                       0                       0
   198                       0                       0                       0
   199                       0                       0                       0
   200                       0                       0                       0
   201                       0                       0                       0
   202                       0                       0                       0
   203                       0                       0                       0
   204                       0                       0                       0
   205                       0                       0                       0
   206                       0                       0                       0
   207                       0                       0                       0
   208                       0                       0                       0
   209                       0                       0                       0
   210                       0                       0                       0
   211                       0                       0                       0
   212                       0                       0                       0
   213                       0                       0                       0
   214                       0                       0                       0
   215                       0                       0                       0
   216                       0                       0                       0
