(written by ASE)

216 atoms
1 atom types

0.0      16.331106185913086  xlo xhi
0.0      16.331106185913086  ylo yhi
0.0      16.331106185913086  zlo zhi

Atoms # atomic

     1   1       8.165553092956543       8.165553092956543       8.165553092956543
     2   1      9.5264782839793725      9.5264782839793725      9.5264782839793725
     3   1       6.804627415228822      9.5264782839793725       6.804627415228822
     4   1       6.804627415228822       6.804627415228822      9.5264782839793725
     5   1      9.5264782839793725       6.804627415228822       6.804627415228822
     6   1      6.9853852315879976      6.4623964904263858      3.5812351864179561
     7   1      12.308765732631969      3.6771832153185358      6.1258600128545027
     8   1      10.983601670217013      2.2935517809925443       4.865820471856523
     9   1      13.708766512573789      7.6958921200517239      12.975830802595056
    10   1      12.402060246464089      3.7610738605895335      11.592122955601099
    11   1      8.3140847183348114       15.72392139216106      15.703119625098338
    12   1      1.3931573441386575      11.845354537238904      3.4968451819282791
    13   1      6.9637789413396263       14.53927195215158      11.697499431659821
    14   1      12.337295399961931      14.478127216632402     0.76608566684370771
    15   1      8.2082809153813514      13.114307104914928      2.2133980558784856
    16   1      10.897665160934594      7.8348030498397065      5.1229490995605715
    17   1      15.119054287102358      14.693799781793132      3.3772367247847512
    18   1      8.3885184442115133      2.2907269458022768      7.7432811152224303
    19   1      9.6955245205343772      1.0036932914070178      11.720650036528923
    20   1      9.6729248656024538      6.3795680785810873     0.80793383101524086
    21   1      4.2019919894219129     0.77567728181672635      11.718411194028022
    22   1      9.8138979640157231     0.85531266622133728      6.3210788049499342
    23   1      16.307800808888487      7.9808680548278517       10.22132933619821
    24   1      15.035598025947024     0.92069897403182921     0.77898632753592523
    25   1      12.308102840569745     0.94480844837529787      8.8332907890796832
    26   1      8.6071754837669232      13.231873591686167      13.133180547197526
    27   1      9.6371209069641282      14.536250488185146      3.5327041382193443
    28   1      2.8830852484445302      13.270705828159407       2.206870369873684
    29   1     0.24561854372495873      13.176944077631447      4.8951507687330036
    30   1      1.4306881317320261      6.5312700996225885      14.361927397196496
    31   1      2.8360133415106361      15.920296108373805      10.407565016111221
    32   1      4.4925178200758182     0.94744456374388619      6.3843484940254029
    33   1      15.001464438496328      11.928359136254926     0.76836168143069727
    34   1      6.8670916077088577       14.72366788757472     0.79579334252543532
    35   1      2.7845810454537911      13.027521782301733      13.143091805608037
    36   1      4.1951270169273016      3.7036606914734875      9.0546285991774766
    37   1      13.627642541258524        5.19574993052629      15.756814855548214
    38   1      5.6318078243121477      15.922238060890891      7.7042692846442264
    39   1      13.788156841065529      13.190364478309675      7.6481692453254482
    40   1      12.373237582789443      14.562688297891441      6.1789230136503193
    41   1      5.6746612165989632      7.8766265745761075      4.9077350104076345
    42   1      5.5871312355017722      4.9571730331715571      2.1923492860833278
    43   1      5.6213670309796839      2.1117935427288899      10.224430619766849
    44   1      1.5488191961774049      14.586493034134719       11.71862145054115
    45   1      1.4571457746626493      9.0638029863822567     0.90576571203648371
    46   1       9.726152859356489      11.935965360299292      11.715034435490793
    47   1      2.8351401929352846      5.1441616455517192      15.764918491991693
    48   1      13.867580265489892      5.0153746642118335      5.0284981749062467
    49   1      13.763313476583789      15.906948713429301      15.848779691616755
    50   1      12.322360373661354      9.1003331087187007      11.666627740391959
    51   1      5.5100118720337719      5.2508463843587947      13.063295565236785
    52   1      8.4192791667641131      15.901484964317319      10.364854715062506
    53   1        8.25853514224832      10.529559543985329      15.725776711207459
    54   1      2.8460676911592486      2.3163006109737125      2.0718533225701492
    55   1      15.264061195656382     0.86236800116663659      11.740158141990037
    56   1      10.810440830509265      4.8820798221668724      7.5959750127609595
    57   1      12.471395251897434      6.3062722687407131      3.5601246051015778
    58   1      8.3438944195294198      2.3567380001791207      12.993720127587039
    59   1      1.3964451573569647      6.3843124778634319      3.5729831049825691
    60   1      5.6821958950242788      10.625698361203376      13.011257078237577
    61   1     0.23728591263002841      2.2439456016886083      15.742066723925973
    62   1      4.1778499666888251      6.5719537615030958      11.611530799854563
    63   1      12.373229795511179       9.248565897293588     0.82975214208197201
    64   1       6.863078725878438       14.52067982529627      6.2082513637072338
    65   1      2.8234909113572257      5.0016033493068335      10.247902449864341
    66   1      6.8964472132396963     0.80334888842297403      14.482604901634204
    67   1      7.0267848363639018      11.881649094407862      8.9783784906456958
    68   1    0.066445978430746955       2.209117243005295      4.9482488122810082
    69   1      13.940191768252816      10.512664070381788      4.8985036787305489
    70   1      14.948128396256379      3.7678339481800265      9.1458877131533427
    71   1      4.3165048897038787      11.866875654131263      6.0459800592419128
    72   1      5.7127468477686421      4.8605543249304901      12.880206919152215
    73   1       11.01935111790749      10.693558650815476      2.1533408624393644
    74   1      12.366137531832237      6.2808356109962347      14.377578853097361
    75   1       0.075957941106366      16.051719083406056      12.980522637749118
    76   1     0.22644237099984821      10.494539180222318      7.4413522756655652
    77   1      13.712691300818847      10.538809857153183      10.428549784213146
    78   1      9.5536636723990114      3.6433080681652257      3.5573705854730235
    79   1      4.1444094470036248      11.900409621155632     0.66179095324445569
    80   1      15.035437413332829     0.83753656095473872      6.3591761170370091
    81   1      11.016825119520604      4.9148871387882309      2.1450036076479648
    82   1      15.063214634900532      14.432347754537886      14.668181583124124
    83   1      15.078673355664364      6.5963264823547547      11.612634646548486
    84   1      12.584345829477684      6.4992823940385165      8.8803629393660231
    85   1      5.6198684666187546      13.224565231035399       5.035456594740026
    86   1      5.6115730684480241      16.015023481406502      13.035092963593911
    87   1      6.9906328837281535      3.6236785298336827      6.1141601139677277
    88   1      11.296807948814831      7.7234634654503225      15.810529554193749
    89   1      1.3723038646812142     0.82189301400836001      14.491270195522475
    90   1      12.402307492548971      1.0738537483363473      3.5006911239809142
    91   1      13.715096596392641      15.941558298263885      4.9912311813640713
    92   1      2.7206710960935538       10.41049108591892       4.981598318151498
    93   1      4.2407259115070701      14.673754354131802      14.473295210469587
    94   1      10.881085072100745      10.409316180310839      12.895475825008361
    95   1      13.696669949200441      4.9361434882196136      10.399124579882823
    96   1      16.308048054973369      7.5774982349649349      15.804243273815132
    97   1      6.7479408965157859      9.2651927097970201     0.84422054006782332
    98   1     0.18631309640981542      4.9789798458352266      13.124634982712564
    99   1      15.068632633752713       9.228479586421372      3.5041664402586719
   100   1      15.128754315589958      6.4860634891853692     0.80734072026683634
   101   1      12.143902237914517      3.5936142819808197     0.88043923211181863
   102   1      8.3555519750906342      7.8201104025750965       13.03973807507839
   103   1      6.9350419377258845     0.96017025402760936      8.7712573304286252
   104   1      12.298021235447209      11.933240786316674      14.436525629326525
   105   1      10.954623260977087      2.2385112982225621       10.34963447969551
   106   1      2.6280915517470476      7.8097158462073253      13.044091163627968
   107   1     0.14799885082688213      15.927354302710341      7.5541144984528046
   108   1      2.7503498736723486      15.884717007395352      4.8486198342860121
   109   1      1.3794833702119575      3.5918088501857994       6.322513610970077
   110   1      15.116450415932832      6.5099256566058443      6.2682878721884663
   111   1      4.2701160730852052      3.4996398414152736      3.4106132427767193
   112   1     0.24201604537524091      5.1095637416345312      2.2701843490942792
   113   1      4.2150536885951055      9.0855684291301486      3.4806617575810037
   114   1      5.5141829329539291      7.8212828746587206      10.436523957155487
   115   1      1.5088627930810219      14.614764747872186      6.2842839151525141
   116   1      1.5458580836175173       9.166561963534491      6.2209105579351558
   117   1     0.10659405960197788      10.260798182669532      13.057131934490826
   118   1      7.0155093441425151      11.709045045095991      14.454640785388165
   119   1      8.2945104210084537      7.7144010203705875      2.2448769114984941
   120   1      15.199835618174006      11.770150844223849      11.704523556653953
   121   1      7.0332755327969494     0.90293643566408122      3.4802804242985133
   122   1      9.5185011908076831      11.974116209924432     0.75946800127209002
   123   1      1.4876391745535926      11.884012533360988      9.0603814509950098
   124   1      10.856511342128897      4.9708679354085916      13.081179049770071
   125   1      9.7323164901024484       6.326173631754159      11.679422238579718
   126   1      0.1695939012341654      10.551320119684306      2.0933853903225668
   127   1      12.394172706992435      11.839681505023577       9.100835388166729
   128   1      8.4093289719622817      15.966886420817559      4.8260230995834377
   129   1      7.0210806550355187      6.4962643370063233      14.322085734778284
   130   1      2.8010224233935617      2.3091757380670401      12.956778252912386
   131   1      6.9232038146499235       11.91069953597173      3.4831780218700601
   132   1      4.1663374491852778      14.580008178160369       8.883828278193505
   133   1     0.10205324745479505       15.93291733962019      2.2895929234050811
   134   1      10.954274780274773      13.203246583377904      10.284675924646535
   135   1      9.6710627326875738        9.33968094662157      14.567741268074997
   136   1      6.9820133400996838      3.6472245824271283      11.633185273887193
   137   1      9.6563506172273037      3.6703223798155022      14.425000457495798
   138   1       5.576776588935104      5.0661136491507364      7.6809799688810472
   139   1      5.5622937114787305      10.587174695631347      7.6579977639044046
   140   1      8.3202269340655448       2.110662683913489      2.0536744081677227
   141   1      5.7218769448282956      15.858346362964085      2.0109222504983393
   142   1      14.984186414848068      8.9303971756220335      8.9326788481533868
   143   1        13.5297272511865      10.620848833664468      15.726215719019592
   144   1      13.732360018894155      2.3718857165172835      13.172885932246118
   145   1      8.2847899509154104      5.0921304591258831      15.867268637035068
   146   1      12.308365661211155      9.0685415452059033      6.3329466170242767
   147   1      13.826194775155841      2.2511388566325365      2.3419319506747911
   148   1      13.772541401326635      15.740503427814474      10.456054451041609
   149   1      2.7322777909936065      2.2604857807213534      7.5629321309721149
   150   1      7.0676237571047977      9.0778220340770304      11.732958803234965
   151   1      15.260101364659135      3.5027795746703418      3.4572303239895064
   152   1      2.9062356099611861      15.894312881036171      15.744961644620616
   153   1      13.863677865669843      2.2135022107252667      7.5235207156779893
   154   1      9.4920653279209546      3.5897440046836095      9.0738641498993502
   155   1      8.3681313497163501      5.0695074423591677      10.203719379813947
   156   1       7.083522945795437      3.6167157296558798     0.73241560496405356
   157   1      10.993802031333075      15.874621774535854      7.5362933121456308
   158   1    0.039944581490854336      7.7758455661029302      4.9491983735243252
   159   1      8.2502825741080414      10.680869280884281      10.347278828020649
   160   1      1.3859300198523243      14.433036928664251     0.88270934540199875
   161   1      13.610828834076756      13.358394475051227      13.043867279377878
   162   1      4.1217659886314664      11.861536501471505      11.817008844357929
   163   1      5.4716507658955038      7.7050874355668384      15.832922846251677
   164   1      5.5620897821291919      13.347221677561947      15.908156714970005
   165   1      14.984660465412389      12.036376473054929      6.0678404094436473
   166   1      13.821427987448487      13.351413180087548      2.0093881566803304
   167   1      9.5501613439997755      14.599366378514901      9.1037478302374666
   168   1      1.5563190752029783      6.3940237005635367      8.8471287825548188
   169   1      10.949317204249951      15.658530643168433      13.171260337908507
   170   1      8.2975484329411984      10.416301368913651       4.656237558298244
   171   1       15.03821455144373      14.570014179918303      9.0020099599475998
   172   1      8.2802334197211849      13.120467815431539      7.5774081945600074
   173   1      1.2745485788422712      9.0946162730631386      11.774412432253826
   174   1      1.6116491473834031      3.6465852955521427      11.752185593268791
   175   1      9.5466823774353315     0.94749743206272541     0.91690462269769313
   176   1      4.2026728895651217      3.5904988839703265      14.654182977034793
   177   1      2.8894384507457289      10.514733539580448      10.255615748984837
   178   1      11.133159269506564      7.8126813391112364      10.374176087144519
   179   1       4.194036797970341      9.2790219425841087      8.9110915393957839
   180   1      5.4695467406495482      2.3452834005576619      15.901391516978151
   181   1      15.280116616617192      3.5890623744830634      14.359549357096625
   182   1      5.5647350232144959      2.2420133832693523      4.7611487444806926
   183   1       8.338768443612139      4.9376225843848829      4.9301906006916738
   184   1      10.939633723728662      15.985957465286106      2.1727873997317033
   185   1      12.326634616018509      14.548638101083611      11.889221249109823
   186   1      5.5456727394339964      10.221085983752459      2.2010226106023083
   187   1      13.922586678917469      7.7672523045386015      2.1811954700848162
   188   1      11.119001024212821      2.4774658785730992      15.567913006239564
   189   1      1.5576801454320588      11.818485506998741      14.504108497150469
   190   1      4.2144068577943017      6.3253335791114296      6.2216396418626232
   191   1      4.0565239279831928      1.0149244326451665     0.73396338735713584
   192   1      1.3205093385088702     0.95554947778770583      3.5956842378843703
   193   1      2.8484143387936172      7.8431393312213231      2.1519625141866356
   194   1      13.695736449218543      7.8015961485024263      7.7800331749893985
   195   1      2.8494899566038328      10.561169079868705      15.691387116983833
   196   1      2.8234967518159237      7.7573765755851696       7.592300877535024
   197   1      15.016295309950124      9.0394969441007333      14.358482499974457
   198   1      4.0661171247471088      14.660483858560156      3.5116079146972652
   199   1      10.993079761274089      13.264131418485022      4.7147506804690806
   200   1      2.9229675507211823      13.235582282959399      7.7775470864036151
   201   1      10.943481612600863      13.256611827911343      15.668752419299722
   202   1      5.6222956639126664      13.210749625985272      10.330605291847633
   203   1      2.8944819301839004       5.053680772697362        5.01986987058973
   204   1      1.4786548456089434      3.7156163537807458     0.98634433052082215
   205   1       4.293365965752173      9.1458078935511367      14.369551142616956
   206   1     0.19200591622088758      13.065114868121213      10.479500972484743
   207   1      9.6287583435183706       11.88494116629397      6.3435859859524726
   208   1     0.19959408655568467       1.975387683017459      10.380820582323281
   209   1      12.358325918323658      11.648325689651983      3.3786252938402015
   210   1      9.6985810272529989      9.0537710251586532      3.7496221811974237
   211   1     0.12447808407350269      4.9634028557827605      7.5656167951536304
   212   1    0.098218993924319875       13.23423313700016      15.861450566762073
   213   1      4.1548813894491445      6.4289253083330209       0.690272740980717
   214   1      12.466094062219213     0.92453950149254638      14.352549567347069
   215   1       1.441873826900931      1.0746385599738915      9.0924270744611704
   216   1      10.958457522112326      10.370669865106152      7.5161763388652503

Velocities

     1                       0                       0                       0
     2                       0                       0                       0
     3                       0                       0                       0
     4                       0                       0                       0
     5                       0                       0                       0
     6                       0                       0                       0
     7                       0                       0                       0
     8                       0                       0                       0
     9                       0                       0                       0
    10                       0                       0                       0
    11                       0                       0                       0
    12                       0                       0                       0
    13                       0                       0                       0
    14                       0                       0                       0
    15                       0                       0                       0
    16                       0                       0                       0
    17                       0                       0                       0
    18                       0                       0                       0
    19                       0                       0                       0
    20                       0                       0                       0
    21                       0                       0                       0
    22                       0                       0                       0
    23                       0                       0                       0
    24                       0                       0                       0
    25                       0                       0                       0
    26                       0                       0                       0
    27                       0                       0                       0
    28                       0                       0                       0
    29                       0                       0                       0
    30                       0                       0                       0
    31                       0                       0                       0
    32                       0                       0                       0
    33                       0                       0                       0
    34                       0                       0                       0
    35                       0                       0                       0
    36                       0                       0                       0
    37                       0                       0                       0
    38                       0                       0                       0
    39                       0                       0                       0
    40                       0                       0                       0
    41                       0                       0                       0
    42                       0                       0                       0
    43                       0                       0                       0
    44                       0                       0                       0
    45                       0                       0                       0
    46                       0                       0                       0
    47                       0                       0                       0
    48                       0                       0                       0
    49                       0                       0                       0
    50                       0                       0                       0
    51                       0                       0                       0
    52                       0                       0                       0
    53                       0                       0                       0
    54                       0                       0                       0
    55                       0                       0                       0
    56                       0                       0                       0
    57                       0                       0                       0
    58                       0                       0                       0
    59                       0                       0                       0
    60                       0                       0                       0
    61                       0                       0                       0
    62                       0                       0                       0
    63                       0                       0                       0
    64                       0                       0                       0
    65                       0                       0                       0
    66                       0                       0                       0
    67                       0                       0                       0
    68                       0                       0                       0
    69                       0                       0                       0
    70                       0                       0                       0
    71                       0                       0                       0
    72                       0                       0                       0
    73                       0                       0                       0
    74                       0                       0                       0
    75                       0                       0                       0
    76                       0                       0                       0
    77                       0                       0                       0
    78                       0                       0                       0
    79                       0                       0                       0
    80                       0                       0                       0
    81                       0                       0                       0
    82                       0                       0                       0
    83                       0                       0                       0
    84                       0                       0                       0
    85                       0                       0                       0
    86                       0                       0                       0
    87                       0                       0                       0
    88                       0                       0                       0
    89                       0                       0                       0
    90                       0                       0                       0
    91                       0                       0                       0
    92                       0                       0                       0
    93                       0                       0                       0
    94                       0                       0                       0
    95                       0                       0                       0
    96                       0                       0                       0
    97                       0                       0                       0
    98                       0                       0                       0
    99                       0                       0                       0
   100                       0                       0                       0
   101                       0                       0                       0
   102                       0                       0                       0
   103                       0                       0                       0
   104                       0                       0                       0
   105                       0                       0                       0
   106                       0                       0                       0
   107                       0                       0                       0
   108                       0                       0                       0
   109                       0                       0                       0
   110                       0                       0                       0
   111                       0                       0                       0
   112                       0                       0                       0
   113                       0                       0                       0
   114                       0                       0                       0
   115                       0                       0                       0
   116                       0                       0                       0
   117                       0                       0                       0
   118                       0                       0                       0
   119                       0                       0                       0
   120                       0                       0                       0
   121                       0                       0                       0
   122                       0                       0                       0
   123                       0                       0                       0
   124                       0                       0                       0
   125                       0                       0                       0
   126                       0                       0                       0
   127                       0                       0                       0
   128                       0                       0                       0
   129                       0                       0                       0
   130                       0                       0                       0
   131                       0                       0                       0
   132                       0                       0                       0
   133                       0                       0                       0
   134                       0                       0                       0
   135                       0                       0                       0
   136                       0                       0                       0
   137                       0                       0                       0
   138                       0                       0                       0
   139                       0                       0                       0
   140                       0                       0                       0
   141                       0                       0                       0
   142                       0                       0                       0
   143                       0                       0                       0
   144                       0                       0                       0
   145                       0                       0                       0
   146                       0                       0                       0
   147                       0                       0                       0
   148                       0                       0                       0
   149                       0                       0                       0
   150                       0                       0                       0
   151                       0                       0                       0
   152                       0                       0                       0
   153                       0                       0                       0
   154                       0                       0                       0
   155                       0                       0                       0
   156                       0                       0                       0
   157                       0                       0                       0
   158                       0                       0                       0
   159                       0                       0                       0
   160                       0                       0                       0
   161                       0                       0                       0
   162                       0                       0                       0
   163                       0                       0                       0
   164                       0                       0                       0
   165                       0                       0                       0
   166                       0                       0                       0
   167                       0                       0                       0
   168                       0                       0                       0
   169                       0                       0                       0
   170                       0                       0                       0
   171                       0                       0                       0
   172                       0                       0                       0
   173                       0                       0                       0
   174                       0                       0                       0
   175                       0                       0                       0
   176                       0                       0                       0
   177                       0                       0                       0
   178                       0                       0                       0
   179                       0                       0                       0
   180                       0                       0                       0
   181                       0                       0                       0
   182                       0                       0                       0
   183                       0                       0                       0
   184                       0                       0                       0
   185                       0                       0                       0
   186                       0                       0                       0
   187                       0                       0                       0
   188                       0                       0                       0
   189                       0                       0                       0
   190                       0                       0                       0
   191                       0                       0                       0
   192                       0                       0                       0
   193                       0                       0                       0
   194                       0                       0                       0
   195                       0                       0                       0
   196                       0                       0                       0
   197                       0                       0                       0
   198                       0                       0                       0
   199                       0                       0                       0
   200                       0                       0                       0
   201                       0                       0                       0
   202                       0                       0                       0
   203                       0                       0                       0
   204                       0                       0                       0
   205                       0                       0                       0
   206                       0                       0                       0
   207                       0                       0                       0
   208                       0                       0                       0
   209                       0                       0                       0
   210                       0                       0                       0
   211                       0                       0                       0
   212                       0                       0                       0
   213                       0                       0                       0
   214                       0                       0                       0
   215                       0                       0                       0
   216                       0                       0                       0
