(written by ASE)

216 atoms
1 atom types

0.0      16.331106185913086  xlo xhi
0.0      16.331106185913086  ylo yhi
0.0      16.331106185913086  zlo zhi

Atoms # atomic

     1   1       8.165553092956543       8.165553092956543       8.165553092956543
     2   1      9.5264782839793725      9.5264782839793725      9.5264782839793725
     3   1       6.804627415228822      9.5264782839793725       6.804627415228822
     4   1       6.804627415228822       6.804627415228822      9.5264782839793725
     5   1      9.5264782839793725       6.804627415228822       6.804627415228822
     6   1      7.1454376484529689       4.418270502172561      12.498459937503981
     7   1      4.4896165722175851      15.583462254113215      15.051233907291362
     8   1       4.551424199798987      1.9127995024663136      6.8788980949668712
     9   1      7.2197608923193002        7.44085096962732      15.053065864502969
    10   1      1.9109711955413928      10.087143824201803      1.4829021975208434
    11   1       15.42480035312326      7.5401762437700199      12.231047722147423
    12   1      15.388318901275966      12.809038009687697      1.5030915681538346
    13   1      9.9056369690146084      10.151094900125372      4.2117484756769272
    14   1      14.113269868129009      11.561406036488734      5.3680561164445635
    15   1       10.00308112875166      10.403915702834752      15.030816637092926
    16   1      7.4454289158367715       7.405297664008117       4.078164530926415
    17   1      10.009580585872754      2.1792145811764101      6.9675606383465833
    18   1      11.290202390027389      3.3633125845438201   0.0025600677292914042
    19   1      6.0300691896338776     0.73361946951317947       8.194699902088928
    20   1      1.6930448217043477      2.1297037960312082      15.067747804259966
    21   1      5.7862232251237629       3.526341688525207      11.069686137786448
    22   1      1.9453505689622972      7.5380284150838293      15.005862303895924
    23   1      14.076428254662005     0.70949308217473117      5.4924150566815797
    24   1      5.8140661518518186      3.3668076123696835      5.5207334940886312
    25   1      7.1006598250251614      15.630881911692086      12.297776909591676
    26   1      12.724211187557898      10.175999589423441      12.343035597452285
    27   1     0.34909261203902986     0.64823999397908239      13.775112176563539
    28   1      3.1707015572570469      3.3589753139032155      8.2283156355350684
    29   1      3.2651060015942335      14.232777334007551      2.7732456885307499
    30   1      3.3771532548958589      3.2437827302402695      2.8019189338037052
    31   1      4.4597825357784018      15.654885223531096      9.6654773073527167
    32   1      15.646523633495121      4.9117337777962007      14.943127990201106
    33   1      1.7585668593414567      12.979046948518089      15.058095472851733
    34   1      12.588465299679342      7.5256427490049305      4.0096345353836114
    35   1      14.072447008649533      3.5334088869022366      8.3331362946076979
    36   1      11.364433646669227      3.2854792249999889      10.994401651759404
    37   1      8.5680103411478967      14.319726189464291      2.7909335176976526
    38   1      3.1955373778129683      14.376120685242427       13.49323411842181
    39   1      4.5652913955676127      1.9835595798219714      12.235807695986296
    40   1      1.9395635261261361      2.0825627770027211      9.4655915020526891
    41   1      3.1948752158080822     0.72350446426746373      10.927084524806219
    42   1      7.2814570644805485      15.810719369101434      1.5043963022917239
    43   1      8.4995650322562142     0.66697399531026491      10.941382941108714
    44   1      5.7468497728111743      14.352550540756852       11.14715008831763
    45   1       8.761724728423701      6.1612463786959211      0.1178849286560304
    46   1      4.5877002621820679       12.87521916742412      6.9791374008958087
    47   1       15.45104542769252      4.3901968773259341      9.6789278837342181
    48   1      7.0820842461361622      13.023323465907652      4.0363120472489697
    49   1      11.404505033796227      6.2092491087348094      13.718972714148549
    50   1      4.3019412192355162      13.006147650286607      1.3046605237745013
    51   1       4.389096437566252      7.5415920682993942      12.500078717973111
    52   1      11.192206306943376      11.506315909819818      8.1414027962402997
    53   1      9.7656548017604337      4.8021580119336136      4.2248710129615574
    54   1      3.0936904856274055      6.1617462246194918      16.282412334928267
    55   1      12.757679936126806      10.311597519014981      1.3432054826855335
    56   1       15.49622624277049      7.4721558282486171      6.9430715950258559
    57   1      7.3620914106749638       10.05105855013619      12.376079939355805
    58   1      5.8037037180068864      11.635830028267605      8.0668692958608403
    59   1     0.51790316175032558      8.7845774698992045     0.14041226228298243
    60   1      12.903093729970124      10.143186919048276      6.8750881690762071
    61   1       14.03617678672515      3.3031101096945861      13.618736815153852
    62   1      3.3608172485650982       5.925996595979484      10.831732222692835
    63   1      9.9805301443088865      12.936650085419501       6.772740944262182
    64   1      0.5484284408116622      11.455987703809342       8.344261395017611
    65   1      15.494192789733802      4.7487353362229783       4.257897346784091
    66   1      12.528426357673652       15.71538945541306      6.6769325996654629
    67   1        8.64148428497856      14.094764374744386      8.2389160680719442
    68   1      11.466641673884283      8.8851998125777527     0.15078099287244839
    69   1     0.61692680053651827      9.0866148446468742      10.875518141551765
    70   1      10.127552011113721      15.568807569830142      9.6920504210188483
    71   1      3.3263213093226796      11.448552799886784      5.3917372296454005
    72   1      1.7909377233513624      10.076468439111636      6.8299949608787074
    73   1      14.039271256425309       11.54726044552217      11.080490012967971
    74   1     0.46808769934304451      8.7940068904671307      5.4945244356813419
    75   1      12.741692653850805      2.1555770280633624      14.976006852441515
    76   1     0.46048357421352293      11.538258351848981      13.608265846118115
    77   1      14.124330723493244     0.89372688403089029     0.12425130240835536
    78   1      11.130899011990437      14.330076455686935     0.11298152136467987
    79   1      14.200542869043488       14.31161573915233      13.774585561870936
    80   1      14.229623486310629      14.272190696121243      8.3463834283445522
    81   1      11.345567991664893      3.6025292554784301      5.4575124755023126
    82   1      15.449431514272305      1.8908824511447193      1.4170871635390512
    83   1       15.52981277392314      10.148354751586226      9.6739401320061233
    84   1      3.1935535686752132      3.3109411913988254      13.570191895865833
    85   1      12.689833274251669      15.779188679410481      1.4797204859688833
    86   1      14.092828262685998      8.6476333145777744      2.8454826718796653
    87   1      2.9877265567646418      6.2364607792185893      5.5423894282359356
    88   1      8.5785621031956225      14.214156978268534      13.785477043932929
    89   1      14.250907091215936      6.1790242482677513      5.5434285431792887
    90   1      5.7979518395991363     0.74538111908306348      2.9053203614127199
    91   1      8.5157518635377301      6.0778027718677663      5.5564211302578883
    92   1      0.6364459785339136      6.2472972636278428      8.0761123084553219
    93   1      4.2583670170043888      10.336598575881567      9.6955819517115742
    94   1      15.391610973162074       2.050516666831669      6.7849771919393902
    95   1     0.64436983835809514      14.248210746117024      16.203018112797395
    96   1     0.46443284979843469      11.683908684269568       2.748393806713409
    97   1      8.3703186014987523      8.9497553759765651      13.680203749311204
    98   1       8.559383010241163      11.533893582382007      5.4149851754928022
    99   1      3.1360615533667442      14.253229646958175      8.3612941194005543
   100   1      1.8361203635726753      12.840875323460295      9.7158785190969184
   101   1      4.5541195714881155      4.8069700631958767      9.6683079830016823
   102   1       8.595878089825419      6.1168627862302287      10.939308604861139
   103   1      3.0417897361124915      8.8016501040832509        2.83999677769512
   104   1     0.52053033391653258      3.4906027049898967      16.326326743878553
   105   1      9.8626687143733989      7.4477509848741192      1.4596454909853946
   106   1      3.0899564856998154       8.971387461584186      13.559037593162429
   107   1      9.9462476251613907      4.6989702477719675      9.6108680451166038
   108   1      12.559537507748132      15.653022117206433      12.400348018655791
   109   1      11.448994727928266      6.1366142441370926      8.2886407600169605
   110   1      5.6097873482011096      0.8427514821909412      13.546296632512735
   111   1      9.9859277015556245      15.690193716589874      15.011757273541775
   112   1     0.67498655710092237      14.214543421952385      11.060429984159896
   113   1       11.14490832558738      8.7218149273206791      10.956498048219146
   114   1      5.8590513115634053      14.358677181931057      5.4224697233142933
   115   1      9.8393574968901021      4.8492973274949804      15.001571513572458
   116   1      11.494214479397556     0.66116425985853766      2.7758247377508098
   117   1      7.1815180554696667      10.116423017064676       1.399483534318378
   118   1      12.657667921382199      12.855201968646497      14.806778588257089
   119   1      15.367487931919754      10.242343306593625      4.0784426827719074
   120   1      7.1881333483549383      12.913638678149368      14.975082113147664
   121   1       15.47739076346943      12.936461243921599      12.456949850717706
   122   1     0.29021543460935106      3.5136795740679361      10.865559186061887
   123   1      12.704094700982409      1.9738679469937495      9.6809467356241612
   124   1      9.8650448076537032      2.1671177744506167      1.3474233889514977
   125   1       6.997074909672051      10.373084894777776      6.8157982658985361
   126   1      5.7544594037897809      5.9932358501500289      2.7518773969743222
   127   1       8.471857896192887     0.77318425768623911      5.5276198815984685
   128   1      15.532449741025289      15.783568050024201      4.1177779287505132
   129   1      7.1368244319880887      4.7976321431475526      1.3529804637264249
   130   1      12.918064772432672       13.21493042100326      9.9071457541782593
   131   1      3.2214896993899913      8.9049347225183055      8.3207370007918371
   132   1      5.8408271336060693      11.694934496881615      13.835904537741271
   133   1      15.461753908715309       15.69795860642887      15.094881601961106
   134   1      7.3095642719646889      2.1220114252210465       4.123742497195849
   135   1      4.5811667357185684      4.7688469557495523       4.042677417172456
   136   1      1.9005397712780905      15.689085002847037        12.4095837306769
   137   1      9.9803510369088144      7.4054188535261005      12.244891556081257
   138   1     0.43651463590747497     0.71157575324357225      2.8383653428988112
   139   1       10.04840795529708      12.864926332378673      12.224950283266708
   140   1      5.7278911571725644      6.2254330197869763      13.683307953109193
   141   1      14.112092042291579      11.566071589578655     0.10162595858387746
   142   1      8.6293585193117224      8.9573362913665733      2.8842124569732448
   143   1      11.416094450672631      6.1113430660557242       2.725438370505799
   144   1      8.4917320037324089     0.65703694154050396     0.16917621718009102
   145   1      14.080548698273446       6.061781906954252      11.019006530844308
   146   1     0.57543764206057801     0.58318738320982533      8.1456609773360356
   147   1      11.444514122697115      11.374817982234276      8.0180080183933455
   148   1      6.0203832755881308      3.3098521892040935     0.19658369512553264
   149   1      12.772334620409879      7.4993368363242325      9.4934787189258714
   150   1      15.572746959221945       10.36226057799081      15.010757581694634
   151   1      12.735578667003779      4.6931974410538828      6.8494592628995861
   152   1      15.491168405538019      2.2443434829374098      12.294338826238118
   153   1      9.9343992812827082      12.924907843207166      1.5388865227516675
   154   1      14.125323601471905      8.9335111135178522       8.342430411215787
   155   1      4.6589553184123815       15.77005614882637      4.1211366792067565
   156   1      12.719598198596259      12.971841769304319      4.2267565077112295
   157   1      4.7822590824446252      10.160350080342141      15.039873241713963
   158   1      13.900346212195473      5.9944428782809496     0.12836160126471441
   159   1      14.002396547025683     0.76896142353324848      10.908134183150764
   160   1      6.0676642222729242      9.0162577589413786      16.253284020581759
   161   1      12.723079111980269      2.0973695565643879      4.1222950368485272
   162   1      4.4216044306793378      12.962535971778834      12.226085279073686
   163   1     0.36933603733403331      6.2191248376882413      13.327569507452949
   164   1      7.3018602202371312      12.876891485431315      9.6273128299906148
   165   1      8.5941522342801591      11.716388448498947      11.051956451998876
   166   1      15.375993586603613      13.008820633550727      6.9278761816083261
   167   1      4.6149021985680179      7.4039548452124677      1.4683369452615835
   168   1      11.475049987589841     0.66295861911727627      13.892668929236947
   169   1      9.8187543054231128      10.216010625143895      9.8376394286231061
   170   1      4.4362776097482879      10.311461241645361      4.2667660833170089
   171   1      1.8467830943356631       4.775515786172889      1.2342492921498263
   172   1      15.480945655996948      15.697555614778707      9.5263751025423744
   173   1      12.644514234984513      7.6233545964323071      15.097184689507685
   174   1      14.074734521639584      3.6093256025833398      2.7002151328562434
   175   1      3.0603670184686109     0.89321334953224607       5.419165483805898
   176   1      4.6277833302264639      4.8218909750546004      14.876908869483145
   177   1      11.163367095302419      14.316478894428201      5.3131124879479898
   178   1      8.6217376941206112      11.562255823229293     0.17948202595280272
   179   1      1.9514486162241269      10.341183335959499      12.002464823034757
   180   1       7.318720164383592      2.1278397162967622      15.072813428770701
   181   1      9.9328281978929454      2.1894054515470884      12.346926316354939
   182   1     0.35390700556858334      6.2161252754419252       2.803844581706926
   183   1      3.1030359496015478      11.787549570685201    0.068076188860063169
   184   1      11.371361404094841      14.171757194940596      10.956495127989797
   185   1     0.37168913380821422      14.216198218583486      5.3842010911054103
   186   1      5.9972511655049061       8.805602147802233      11.061840454935464
   187   1      11.455509759605889      11.641508900941631      13.792446657979212
   188   1      1.9886854340630293      7.5309950426967589       9.558360374601989
   189   1      7.2563109695562957      1.9666394059451875      9.6584142459672648
   190   1      4.6665099517382487      7.5809587067435018      7.0300511128907601
   191   1      1.9901443319753014      7.5109496150354289      4.1422075940744776
   192   1       8.491882882248774      3.2817045852139586       2.934703709122374
   193   1      1.7772839476776596      4.7791037746330289      12.344092720476624
   194   1      5.9667975537388429      14.109468702926392     0.17589742921737539
   195   1      11.322212970741361       8.759929760783848      5.3216084085340185
   196   1      1.8511753626290073      1.8963216216596805      4.2810197227694857
   197   1      1.8520690744860246      4.7311764838523231      6.7550939983061653
   198   1       5.829386648426464      11.590634612042891        2.82665205962752
   199   1      11.339635059037505      0.6965834174420209      8.0952140153320329
   200   1      9.8663559906314049      15.676075381097235      4.0690015812865852
   201   1      11.300130196404211      11.610393857228019      2.7110715721660483
   202   1       4.501260986746729      2.1323531741080899      1.5751422652055282
   203   1      12.844325087731249      4.7898789342259533      1.3143167488218666
   204   1      7.1523225758481317      4.8526439103289363      6.8088048033125688
   205   1      12.739263023032436      4.7812297015991021        12.3442601469593
   206   1      15.489980845602759      7.5198563145498838      1.3755782935150052
   207   1      1.8445681003744454      13.001075211907391      4.1135596574558804
   208   1      3.1369164505086644     0.54089047712832894     0.25483381414062478
   209   1      8.5104448334008111      3.5482842918536051      8.2132764543877101
   210   1      8.4830073318473751      3.3054107637167078      13.842804066283179
   211   1      7.1303244881621026      15.826318260874018      6.7952773275582103
   212   1      1.8320036919241431      15.630006816297168      6.8933571238835611
   213   1      14.227005987404141      14.357683330542613      2.6525625869867895
   214   1      1.9369174333072721      15.752580522992162      1.2719167221414835
   215   1      14.006845029733995      8.7757067865467207      13.583000995200337
   216   1     0.54693407428042207      3.4694371260207788      5.5328801880658034

Velocities

     1                       0                       0                       0
     2                       0                       0                       0
     3                       0                       0                       0
     4                       0                       0                       0
     5                       0                       0                       0
     6                       0                       0                       0
     7                       0                       0                       0
     8                       0                       0                       0
     9                       0                       0                       0
    10                       0                       0                       0
    11                       0                       0                       0
    12                       0                       0                       0
    13                       0                       0                       0
    14                       0                       0                       0
    15                       0                       0                       0
    16                       0                       0                       0
    17                       0                       0                       0
    18                       0                       0                       0
    19                       0                       0                       0
    20                       0                       0                       0
    21                       0                       0                       0
    22                       0                       0                       0
    23                       0                       0                       0
    24                       0                       0                       0
    25                       0                       0                       0
    26                       0                       0                       0
    27                       0                       0                       0
    28                       0                       0                       0
    29                       0                       0                       0
    30                       0                       0                       0
    31                       0                       0                       0
    32                       0                       0                       0
    33                       0                       0                       0
    34                       0                       0                       0
    35                       0                       0                       0
    36                       0                       0                       0
    37                       0                       0                       0
    38                       0                       0                       0
    39                       0                       0                       0
    40                       0                       0                       0
    41                       0                       0                       0
    42                       0                       0                       0
    43                       0                       0                       0
    44                       0                       0                       0
    45                       0                       0                       0
    46                       0                       0                       0
    47                       0                       0                       0
    48                       0                       0                       0
    49                       0                       0                       0
    50                       0                       0                       0
    51                       0                       0                       0
    52                       0                       0                       0
    53                       0                       0                       0
    54                       0                       0                       0
    55                       0                       0                       0
    56                       0                       0                       0
    57                       0                       0                       0
    58                       0                       0                       0
    59                       0                       0                       0
    60                       0                       0                       0
    61                       0                       0                       0
    62                       0                       0                       0
    63                       0                       0                       0
    64                       0                       0                       0
    65                       0                       0                       0
    66                       0                       0                       0
    67                       0                       0                       0
    68                       0                       0                       0
    69                       0                       0                       0
    70                       0                       0                       0
    71                       0                       0                       0
    72                       0                       0                       0
    73                       0                       0                       0
    74                       0                       0                       0
    75                       0                       0                       0
    76                       0                       0                       0
    77                       0                       0                       0
    78                       0                       0                       0
    79                       0                       0                       0
    80                       0                       0                       0
    81                       0                       0                       0
    82                       0                       0                       0
    83                       0                       0                       0
    84                       0                       0                       0
    85                       0                       0                       0
    86                       0                       0                       0
    87                       0                       0                       0
    88                       0                       0                       0
    89                       0                       0                       0
    90                       0                       0                       0
    91                       0                       0                       0
    92                       0                       0                       0
    93                       0                       0                       0
    94                       0                       0                       0
    95                       0                       0                       0
    96                       0                       0                       0
    97                       0                       0                       0
    98                       0                       0                       0
    99                       0                       0                       0
   100                       0                       0                       0
   101                       0                       0                       0
   102                       0                       0                       0
   103                       0                       0                       0
   104                       0                       0                       0
   105                       0                       0                       0
   106                       0                       0                       0
   107                       0                       0                       0
   108                       0                       0                       0
   109                       0                       0                       0
   110                       0                       0                       0
   111                       0                       0                       0
   112                       0                       0                       0
   113                       0                       0                       0
   114                       0                       0                       0
   115                       0                       0                       0
   116                       0                       0                       0
   117                       0                       0                       0
   118                       0                       0                       0
   119                       0                       0                       0
   120                       0                       0                       0
   121                       0                       0                       0
   122                       0                       0                       0
   123                       0                       0                       0
   124                       0                       0                       0
   125                       0                       0                       0
   126                       0                       0                       0
   127                       0                       0                       0
   128                       0                       0                       0
   129                       0                       0                       0
   130                       0                       0                       0
   131                       0                       0                       0
   132                       0                       0                       0
   133                       0                       0                       0
   134                       0                       0                       0
   135                       0                       0                       0
   136                       0                       0                       0
   137                       0                       0                       0
   138                       0                       0                       0
   139                       0                       0                       0
   140                       0                       0                       0
   141                       0                       0                       0
   142                       0                       0                       0
   143                       0                       0                       0
   144                       0                       0                       0
   145                       0                       0                       0
   146                       0                       0                       0
   147                       0                       0                       0
   148                       0                       0                       0
   149                       0                       0                       0
   150                       0                       0                       0
   151                       0                       0                       0
   152                       0                       0                       0
   153                       0                       0                       0
   154                       0                       0                       0
   155                       0                       0                       0
   156                       0                       0                       0
   157                       0                       0                       0
   158                       0                       0                       0
   159                       0                       0                       0
   160                       0                       0                       0
   161                       0                       0                       0
   162                       0                       0                       0
   163                       0                       0                       0
   164                       0                       0                       0
   165                       0                       0                       0
   166                       0                       0                       0
   167                       0                       0                       0
   168                       0                       0                       0
   169                       0                       0                       0
   170                       0                       0                       0
   171                       0                       0                       0
   172                       0                       0                       0
   173                       0                       0                       0
   174                       0                       0                       0
   175                       0                       0                       0
   176                       0                       0                       0
   177                       0                       0                       0
   178                       0                       0                       0
   179                       0                       0                       0
   180                       0                       0                       0
   181                       0                       0                       0
   182                       0                       0                       0
   183                       0                       0                       0
   184                       0                       0                       0
   185                       0                       0                       0
   186                       0                       0                       0
   187                       0                       0                       0
   188                       0                       0                       0
   189                       0                       0                       0
   190                       0                       0                       0
   191                       0                       0                       0
   192                       0                       0                       0
   193                       0                       0                       0
   194                       0                       0                       0
   195                       0                       0                       0
   196                       0                       0                       0
   197                       0                       0                       0
   198                       0                       0                       0
   199                       0                       0                       0
   200                       0                       0                       0
   201                       0                       0                       0
   202                       0                       0                       0
   203                       0                       0                       0
   204                       0                       0                       0
   205                       0                       0                       0
   206                       0                       0                       0
   207                       0                       0                       0
   208                       0                       0                       0
   209                       0                       0                       0
   210                       0                       0                       0
   211                       0                       0                       0
   212                       0                       0                       0
   213                       0                       0                       0
   214                       0                       0                       0
   215                       0                       0                       0
   216                       0                       0                       0
