(written by ASE)

8 atoms
1 atom types

0.0       5.443702220916748  xlo xhi
0.0       5.443702220916748  ylo yhi
0.0       5.443702220916748  zlo zhi

Atoms # atomic

     1   1      1.4698184773084648      2.5718134535300265      5.2969321384903765
     2   1      5.3715920220865883      3.7232626774558639      1.3170323977775666
     3   1      1.4267804603761789      5.1113765421278856      2.6860737573094866
     4   1      4.0957311279279054      2.3830133200310968      2.6365247643835659
     5   1       2.713166997060739      1.0619682836583948      1.2826157904275632
     6   1      2.9911290357614178      4.0519406652113901      4.1142194249461852
     7   1      4.3389343246123815      5.3462914787380384      5.4032048035922742
     8   1     0.16994920076715303      1.1673555514193197       3.899514422840781

Velocities

     1                       0                       0                       0
     2                       0                       0                       0
     3                       0                       0                       0
     4                       0                       0                       0
     5                       0                       0                       0
     6                       0                       0                       0
     7                       0                       0                       0
     8                       0                       0                       0
