(written by ASE)

8 atoms
1 atom types

0.0       5.443702220916748  xlo xhi
0.0       5.443702220916748  ylo yhi
0.0       5.443702220916748  zlo zhi

Atoms # atomic

     1   1      4.3405041101682684      2.0063653722987453       4.782861113810867
     2   1     0.13128849622029204      4.8319595802290678      3.2901222423777483
     3   1      4.3851910833211036      3.4311183822727003        1.83007371711156
     4   1      2.7345735766936627      4.6637952480273839     0.44159758175472064
     5   1      3.1179902917847073     0.57502509533718538      3.2767904216005093
     6   1      1.5422075580495971      3.2168371379052019      4.4006608365141631
     7   1      1.6629866251011833      1.9002443968924609      2.0843439344120327
     8   1     0.37649232383875031     0.73057886287315199     0.53618129848860718

Velocities

     1                       0                       0                       0
     2                       0                       0                       0
     3                       0                       0                       0
     4                       0                       0                       0
     5                       0                       0                       0
     6                       0                       0                       0
     7                       0                       0                       0
     8                       0                       0                       0
