(written by ASE)

8 atoms
1 atom types

0.0       5.443702220916748  xlo xhi
0.0       5.443702220916748  ylo yhi
0.0       5.443702220916748  zlo zhi

Atoms # atomic

     1   1      3.7270326936555023      1.8988282478518101     0.55923452249377803
     2   1      1.0318538232049406      2.0646859232703605      3.3213252183528255
     3   1      5.1461668577279909     0.61243980490636929      1.9009859729337961
     4   1      3.7247630264452027      4.7073481987499122      3.1801921521444001
     5   1      5.0199555149887942      3.2962102718083202      4.6170147948401166
     6   1      1.0079123221881048      4.6789755740365138      0.5166250086722286
     7   1      2.3977719973569123      3.3755850280611241      1.8268974808968892
     8   1      2.3582653489854977     0.60316669745533957      4.5489315923998106

Velocities

     1                       0                       0                       0
     2                       0                       0                       0
     3                       0                       0                       0
     4                       0                       0                       0
     5                       0                       0                       0
     6                       0                       0                       0
     7                       0                       0                       0
     8                       0                       0                       0
