(written by ASE)

8 atoms
1 atom types

0.0       5.443702220916748  xlo xhi
0.0       5.443702220916748  ylo yhi
0.0       5.443702220916748  zlo zhi

Atoms # atomic

     1   1     0.58279574474428486      4.4554057287784872     0.82617784604035194
     2   1      1.4837288279836258    0.045136379225303447       3.244047186833825
     3   1      2.9966729291074046       3.685259460538191      4.3402085180555332
     4   1      4.8473154444741908     0.90824529718400271       5.045258329626904
     5   1      1.8683488398365569      2.4662114677881988     0.76692322723719286
     6   1      3.0412155131382121     0.86984038648414952      1.3075375151245012
     7   1      4.1866096413320975      4.0570212154871399      1.9523860668511048
     8   1      5.2424127528323652      2.1919214553661419      3.0779526483611619

Velocities

     1                       0                       0                       0
     2                       0                       0                       0
     3                       0                       0                       0
     4                       0                       0                       0
     5                       0                       0                       0
     6                       0                       0                       0
     7                       0                       0                       0
     8                       0                       0                       0
