(written by ASE)

8 atoms
1 atom types

0.0       5.443702220916748  xlo xhi
0.0       5.443702220916748  ylo yhi
0.0       5.443702220916748  zlo zhi

Atoms # atomic

     1   1     0.92551082924416761     0.64094797693600825      1.9322882367096383
     2   1      3.6262400013219747      2.4502736667108138      2.1698977339127765
     3   1      3.5858288930007802     0.51107507207366254      3.8603603110560698
     4   1      2.5537354487472612      5.2828056908370797     0.49755866846093255
     5   1      5.4048910738555946      1.4441577723296888      4.8884679666017519
     6   1      1.9463421653319841      2.5865601254681678      5.1394383246415032
     7   1      4.5827218916536481      4.0674837486102433     0.86405898114417568
     8   1      1.0714032204905735      3.9735026536671114      3.3228628813849355

Velocities

     1                       0                       0                       0
     2                       0                       0                       0
     3                       0                       0                       0
     4                       0                       0                       0
     5                       0                       0                       0
     6                       0                       0                       0
     7                       0                       0                       0
     8                       0                       0                       0
