(written by ASE)

8 atoms
1 atom types

0.0       5.443702220916748  xlo xhi
0.0       5.443702220916748  ylo yhi
0.0       5.443702220916748  zlo zhi

Atoms # atomic

     1   1        5.04104184279376      2.2169397098693793      2.4718032204499139
     2   1      5.1492457529615194      5.0089011487003461      5.1304060550013162
     3   1      3.7517965637280213      3.6137472598021816      1.0219293423551008
     4   1     0.97519188143450464      3.5060874857190072       3.891362764609994
     5   1      2.2564768584148851      4.8195904617553254      2.4721633820801401
     6   1      2.3713551151896297      2.1231583261725575      5.1409941579900931
     7   1      1.0327474945293105     0.87434256909694597      1.1791792359287285
     8   1      3.7314058994682853      0.7816859604372226      3.7651647251382201

Velocities

     1                       0                       0                       0
     2                       0                       0                       0
     3                       0                       0                       0
     4                       0                       0                       0
     5                       0                       0                       0
     6                       0                       0                       0
     7                       0                       0                       0
     8                       0                       0                       0
