(written by ASE)

8 atoms
1 atom types

0.0       5.443702220916748  xlo xhi
0.0       5.443702220916748  ylo yhi
0.0       5.443702220916748  zlo zhi

Atoms # atomic

     1   1       2.721851110458374       2.721851110458374       2.721851110458374
     2   1       1.360925555229187       1.360925555229187       1.360925555229187
     3   1       4.082776665687561       1.360925555229187       4.082776665687561
     4   1       4.082776665687561       4.082776665687561       1.360925555229187
     5   1       1.360925555229187       4.082776665687561       4.082776665687561
     6   1      2.7963354558185927    0.091334839812038382      5.4307435405672209
     7   1    0.072958768833267129      5.4405545380565457       2.815843886319243
     8   1    0.016161937558689776       2.777139814337346    0.086666062165891233

Velocities

     1                       0                       0                       0
     2                       0                       0                       0
     3                       0                       0                       0
     4                       0                       0                       0
     5                       0                       0                       0
     6                       0                       0                       0
     7                       0                       0                       0
     8                       0                       0                       0
