(written by ASE)

8 atoms
1 atom types

0.0       5.443702220916748  xlo xhi
0.0       5.443702220916748  ylo yhi
0.0       5.443702220916748  zlo zhi

Atoms # atomic

     1   1       2.721851110458374       2.721851110458374       2.721851110458374
     2   1       1.360925555229187       1.360925555229187       1.360925555229187
     3   1       4.082776665687561       1.360925555229187       4.082776665687561
     4   1       4.082776665687561       4.082776665687561       1.360925555229187
     5   1       1.360925555229187       4.082776665687561       4.082776665687561
     6   1      2.7766242316072294      5.3663161409086797     0.08006856423558073
     7   1    0.035241328812730899      5.3624510550174591      2.7716510808806731
     8   1    0.043597646456369432       2.663492758739082     0.04431543479543798

Velocities

     1                       0                       0                       0
     2                       0                       0                       0
     3                       0                       0                       0
     4                       0                       0                       0
     5                       0                       0                       0
     6                       0                       0                       0
     7                       0                       0                       0
     8                       0                       0                       0
