(written by ASE)

8 atoms
1 atom types

0.0       5.443702220916748  xlo xhi
0.0       5.443702220916748  ylo yhi
0.0       5.443702220916748  zlo zhi

Atoms # atomic

     1   1       2.721851110458374       2.721851110458374       2.721851110458374
     2   1       1.360925555229187       1.360925555229187       1.360925555229187
     3   1       4.082776665687561       1.360925555229187       4.082776665687561
     4   1       4.082776665687561       4.082776665687561       1.360925555229187
     5   1       1.360925555229187       4.082776665687561       4.082776665687561
     6   1    0.019233699523444003      2.7888645355159269      5.4014870597450511
     7   1      5.4386826709891807    0.025891717434334716      2.6811794527776556
     8   1      2.7020391383315285      5.4400217584197605      5.3498385840908611

Velocities

     1                       0                       0                       0
     2                       0                       0                       0
     3                       0                       0                       0
     4                       0                       0                       0
     5                       0                       0                       0
     6                       0                       0                       0
     7                       0                       0                       0
     8                       0                       0                       0
