(written by ASE)

216 atoms
1 atom types

0.0      16.331106185913086  xlo xhi
0.0      16.331106185913086  ylo yhi
0.0      16.331106185913086  zlo zhi

Atoms # atomic

     1   1      14.326582887975746      14.543584157490272      10.143066216235184
     2   1     0.68844133131211294       14.55627450083125      1.9613371211809607
     3   1      4.7758350645817131      5.0596769769606453      14.202073069222365
     4   1      15.636133457471374      15.931923488231746      8.7612428905811157
     5   1      0.6892215800912993      9.1104468363640763      12.846387743061427
     6   1      7.4985994784136096      15.917292165783465     0.60251984904321887
     7   1      8.8516726594218653      11.801524814939739      12.822270542277806
     8   1      4.7832407662107812      10.524938767745425      14.225660735084034
     9   1      4.7973503410153739      2.3410575853372109     0.59818190918338843
    10   1      10.221547379989602      2.3232617076843951      11.461972227155229
    11   1      12.964518807506806      5.0625981797194299      6.0574005895209666
    12   1      4.7842730672856533      10.508727601219334      3.3037406358815247
    13   1      2.0720426507729428      2.3404871672043726      8.7240031525128643
    14   1      15.649727125090976      15.894807373205936      3.3449146529402185
    15   1      6.1083717326931151     0.97841505610472268      10.112885645913252
    16   1      7.5000776011690959      5.0300235080362086      11.463226952365517
    17   1      6.1208732345361909      14.593835464127892      1.9585610781560661
    18   1       10.22012912193577        13.1724975417427      11.469190060696178
    19   1       6.122779170891306     0.95765070448053535      4.6849969503369948
    20   1      2.0660447430425393      2.3249938903932446       14.17723457178954
    21   1      10.204101929858666       7.718036219205203      6.0153512337149095
    22   1     0.67700644323875991      6.4068683293551203      10.114637783522653
    23   1      7.4813939737941837      2.3051759972686909      14.195414946306641
    24   1      12.963447083335723      15.891091868064223       11.45317454953647
    25   1      15.643409695599303      13.178008987934049      6.0382015416659556
    26   1      11.593796247018076      11.868653100395022      4.6939260382764587
    27   1      14.266818447528863      14.543620173652243      15.549233272503784
    28   1      7.4857241872138616      2.2872998133087776      8.7501421254157776
    29   1      11.602781792724954      6.3898210038254319      4.6842303901328819
    30   1      15.671035065240858      13.172910267490693      11.454317332621713
    31   1      4.7897772129036298      10.468654267272768       8.768980524946187
    32   1      11.557255417174019      9.1178827136964173      12.861503823581643
    33   1      10.250851881506833      2.2755658450795977      6.0310231312212181
    34   1      12.931321640267356         5.0654400495809      11.406907409140672
    35   1      10.194291906065587      10.471792540413162      14.247081590768744
    36   1      15.695610742032272      2.3241200117605558     0.63575747362677504
    37   1      7.4716389476538438      13.224307277442904      3.3067472553487676
    38   1      3.4103684302162947      0.9469516533650193      12.817349955824739
    39   1      2.0848940934330074       10.43393955418162      11.477007514663455
    40   1     0.66790451422470198      11.816789827156754      15.562699423441813
    41   1      15.667438316092671      2.2887122309039114      6.0312027253261817
    42   1      10.216710506777872       13.21035636843294      6.0436385220089051
    43   1      7.4820656265444541      13.192249973059347      8.8058484204773322
    44   1      6.1337509592603965     0.95325721942496244      15.566289358721519
    45   1      2.0547398051752168       10.48960204580294     0.59263846214542326
    46   1      2.0332685755342368      15.905119676447043      6.0550498048950203
    47   1      11.591554484287826      3.7005022200800965      12.837806162414495
    48   1       8.834705153494383     0.92911702183521783      7.4057975099316877
    49   1      7.4834814510738283      10.528148099799978     0.61807049619343246
    50   1      6.1435624431681504       6.439991030746171      10.131087435445579
    51   1      12.948625945979757      5.0469764128169459     0.62767239280728404
    52   1      11.579126961588258      11.798039034506814      10.116252670352651
    53   1      7.4907090187126073      5.0204086529046208      0.6213987667558456
    54   1      4.7629388450716306       2.310799385585085       11.47343412735006
    55   1      2.0590454399978739      13.240810466903895      14.205622121291185
    56   1      6.1389114912249738      3.6777779686959491      12.841499279131199
    57   1      6.1427077893786759      14.515836138216059      7.4295472485222263
    58   1      12.936113736629068      13.177229286697866      8.7696862470388623
    59   1      10.233585538775969       2.324413981515022     0.64336728711971602
    60   1      7.4885120328323751      15.910649617424269       11.45265864235148
    61   1        12.9511315027612      7.7733872196959624      8.7740159737536487
    62   1      6.1426951350514969      11.847110568487437      4.6635804749963086
    63   1       2.074705169881895      13.189037720775445      3.2862937256359146
    64   1      12.946523380848475      15.892179166791834      6.0566379229559857
    65   1      15.662473926199368      7.7605411307897043      6.0367448339256953
    66   1      2.0687595829273278      5.0488808890573864      6.0733469885860814
    67   1       15.68499181470952      7.7219853426948362       11.46595639339705
    68   1     0.68802373851520571      3.6910058775895891      7.3620028303847107
    69   1      6.1236041356823989      3.6991618348089048      1.9799225558440128
    70   1      14.325225954738244      11.831415309146337       12.82218098857777
    71   1      7.5204374401903351      7.7784674453534421      3.3311267900689074
    72   1      8.8339692556984346      6.4255767786794991       12.84192465920637
    73   1     0.74434030067259016      6.4093845936441767      15.588788752445794
    74   1      8.8649188197489366      9.1412893253384482      15.606717987238881
    75   1      12.948211273412198      10.474980457452489     0.59364989574807225
    76   1      11.550608001765909      9.1367765975844577      1.9435338212785496
    77   1      6.1547362140672135       3.706361903621314       7.382606995261483
    78   1      6.1452172397992513      11.832426681910874      10.123668106079549
    79   1      14.291183867807149      14.546024495816255      4.6935629564273995
    80   1      3.4590729887087264      11.876434538200328      1.9467661501392257
    81   1       3.421003418800467      9.1244619904197179      4.6695703520960024
    82   1      8.8261673762876853      14.531232560753779      4.6992685978704571
    83   1      14.320443592474362      9.1320886560695271      4.6901652695798361
    84   1      0.6794807292309244     0.97312798086835528       15.56864793062573
    85   1      10.219520740821395      5.0571159358215709      14.218421486527859
    86   1      4.7766989657641261      13.195523550159578      11.476366037616458
    87   1      15.657878458613823      10.496217338688211      3.3333614955782309
    88   1      12.943953579021354      10.447945947549215      11.493956525805061
    89   1      3.4334448125894426      3.6646430204365856      10.133398310270422
    90   1      14.276706344104582     0.93412545852120132      7.4135774876223195
    91   1      12.957120893156002      15.954651633255025     0.60172706761307637
    92   1     0.69651686054810824      6.4020387567167631      4.6663498258289451
    93   1       2.004679651883734      2.3074445287679737      3.3378486713254176
    94   1      7.4991431277774154      7.7651190769991558      14.232170899712742
    95   1       4.759142060213037      7.7601142905998586      6.0156904670242852
    96   1      3.4086053417468349      0.9556191374253018      7.4049788723041843
    97   1      3.4379908796285008      14.589644935012075      15.586252046551294
    98   1      7.5146539259646374      10.456799109525605      11.469052809916775
    99   1      3.4597809009734135      9.1132200808358448      15.567987958792855
   100   1      3.4270736022072583      6.4165668977280461      7.3982024800998261
   101   1      11.597981909084979     0.91715996025139646      4.6826052825001625
   102   1     0.69154389248109283      3.6800547741783873      1.9685870772447487
   103   1      10.243871559952936      7.7602534881988277     0.61209449018314643
   104   1      10.211115347345185      13.186071741166643     0.60537364317453068
   105   1      4.7846088936607885      15.921571275189535      3.3099178943644461
   106   1      11.586235773233511       14.54414776175463      7.4148638486505547
   107   1      8.8653588009708528      9.1363181215766645      10.122934155103167
   108   1      14.312052800144897      9.1183042001324566       15.57856210926559
   109   1      15.680755535333901      2.3389265479697769      11.482810010379922
   110   1      15.669738483409901      13.193680885440358     0.56332088043423312
   111   1      8.8641478792008002      9.1268283496021922      4.6746408436556521
   112   1      4.7842930221862048      5.0313249569160803       3.336725356435835
   113   1      10.247343712648899       10.47038401645716      8.7692404253582481
   114   1       12.94441302843893      2.3410746200084134      3.3577084210706403
   115   1      14.289496948653209      9.1357262884286001      10.141243993121407
   116   1      10.203334882949662      7.7622864545306243      11.479039020880577
   117   1      14.313675474253159      6.3827418811785606      12.836119243260555
   118   1      15.659375562860077      7.7732217400328523     0.58555173473462219
   119   1      2.0420562757027199      7.7839316811703156      14.196187833674344
   120   1      3.4168233538398169      6.3995551016554373      12.841673519482356
   121   1      4.7803473056308121      15.951744058233203      14.154405192148829
   122   1      8.8652702206805998      11.850266363003925      1.9923699117679092
   123   1       12.91153708642787      2.3135991554734403      14.222926427003586
   124   1      11.572673254726965      9.1049130017477182      7.3738857303106897
   125   1      10.212949251376358       15.94134901516054      14.223064651192772
   126   1      11.581726939118653      11.827223806620736      15.578885281313546
   127   1      6.1380310420762498      9.1149128404484827      1.9236969466632274
   128   1      11.595630151049249      6.3993677202722097      15.579562774522515
   129   1      12.947567849545635      13.210546183340625      3.3471858613164045
   130   1      10.241658999516176      5.0591362478261885      3.3168332408153276
   131   1      7.4836162683287739      10.506461503244509      6.0173608382119141
   132   1      6.1568197977077261      6.3519100997118016      15.596227550007484
   133   1     0.65517748550252719      14.567168903122592      7.4608117106375289
   134   1      3.3946544327368713      14.540095456827999      4.7019347672660956
   135   1       4.793748724818272      7.7336419248462676     0.59926160314707033
   136   1       14.31692958315773       11.84598238654894      1.9370729355201064
   137   1      2.0453721961285112      5.0479804850081109      11.448544039198737
   138   1      4.8006424129014817      13.201411705936948      6.0145973278379756
   139   1      15.693179164394337       15.90041129332667      14.183468288039876
   140   1      4.7987895273795402      7.7812358227762957      11.481272996332564
   141   1      12.923926646145901       7.760923194129532      3.3531307182136345
   142   1      6.1198881438357944      9.1204388877865767      7.3929558013694532
   143   1      10.246830725693258      10.523727845975372      3.3037632676589794
   144   1      2.0568866604516245      7.7632506169206863      8.7459817720032333
   145   1      3.3925545444824934     0.97708817689427008      1.9566959033356142
   146   1     0.70786487179832847      14.575898442056541       12.79981592540355
   147   1      2.0396824942706502      15.912698645017485     0.60064804286862028
   148   1      15.640138065318638      10.469578033156836      14.208412887139048
   149   1      15.663046291151772      5.0493593199657312      3.3610898033043384
   150   1      8.8606504178504792      6.4096391403024313      1.9513675798596921
   151   1      6.1333338531683808      11.863740301220218      15.591931892635102
   152   1      3.4200494772131265      6.3886173826287518      1.9366514490840672
   153   1      11.609310452139539      3.6850456894882768      7.3945658211505361
   154   1      6.1608015304250898      6.4096975448894113      4.6724141687770384
   155   1      3.3872200155192047       3.668526682118312      4.7067979225419663
   156   1     0.71767860671620554      9.1288987922106344      7.3992508424361176
   157   1       14.30883860104143      6.4282419746653545      1.9921092812985108
   158   1      12.970143169232983      7.7660438162930063      14.221810899392267
   159   1      11.627740019561088     0.93462603450210935      10.128744438097897
   160   1      11.555869281643027      14.559075000776943      12.814491051292066
   161   1      2.0657261946910523      7.7679804150562859      3.3040513969547476
   162   1      15.709156712572508      5.0504383447101873      14.212784470474503
   163   1     0.65328043151168202     0.96940700029661286      4.7313224953197732
   164   1      7.4900378526672284      15.935232108084165      6.0396563025866499
   165   1      7.4945437665527379      7.7641860637221498      8.7586059234789673
   166   1      10.201163205723788      5.0874561453479146      8.7674503247673101
   167   1      6.1534887894302983      9.1469506766363793      12.845808564240542
   168   1      7.4966804010264241      2.3341892059083591      3.3629380651298106
   169   1      11.581614023583825      14.566920683627927      1.9565262866809263
   170   1      14.286278855910609      3.7153189770920392      15.569306929048821
   171   1      12.983283227893708      2.3372749149204708      8.7468850962818578
   172   1      8.8715204848972462      3.6534222825154927      10.122619743743257
   173   1      8.8351733636000063      11.814300818341621      7.3959889462532828
   174   1      14.305006286725757      3.7319122069579578      10.104134691964077
   175   1      7.5191564329159064      13.193920344246976      14.184897253601321
   176   1     0.68116618827018982       9.135517005325255      1.9423304434343152
   177   1       6.128229292266326      14.554337415363079       12.83040143419521
   178   1       10.20842094906584      15.913402420290595      8.7456537329063622
   179   1      3.4235973125197177      11.850110617438645      7.3654112247398871
   180   1      8.8578596520026167       3.676667794838437      4.6895651624486163
   181   1      8.8655466690589719      14.553998668758595      10.113129971768785
   182   1      11.559885570407687      0.9689334364371831      15.556556234301297
   183   1       15.66356122492698      10.457519432765025      8.7469522615568849
   184   1      8.8447244603908075      14.578180114587894      15.573505245442902
   185   1      14.297548020968406     0.97501098125545838      1.9874533406301964
   186   1      14.291023255192954       3.684393018228775      4.7138867792866677
   187   1      8.8660956721765842      3.6530643110677943      15.565107639244957
   188   1      2.0581063429097242      15.968194683565912      11.457761256433969
   189   1      14.310092352841934      6.4283831190838896      7.4157793405514667
   190   1       2.054167926927704      5.0237873582614156      0.6156268726094325
   191   1      12.922070353689719         10.475386369332      6.0121341143820928
   192   1      10.202693405902664      15.904920127441528       3.339355022964611
   193   1      0.6951125952599071       3.691373096430226      12.827053877951471
   194   1      4.7961807891610988       13.26140587109262     0.57661437281200278
   195   1      2.0323199877007028      10.488909951447226      6.0296214211336974
   196   1      4.7694592305030596      15.894138640685014      8.7543754845620469
   197   1       7.485662375692641       5.042705577394031      6.0227686162613736
   198   1      4.8024023377891467      5.0570010734671769      8.7371286100268435
   199   1      8.8614817098051617      6.4357605918292506      7.4045656598513006
   200   1      15.658493653596679      5.0630571424321147      8.7607104354298144
   201   1      14.295491206096926      11.789684258339321      7.4216674963288369
   202   1      3.4094809238466439      14.592639143504584      10.102057435487154
   203   1      11.594150568179089      6.4433161985649008      10.116476554602741
   204   1      4.7962022041763248      2.3272619351876358      6.0256980930033137
   205   1     0.72987920326011135      11.808344523879441      10.093472934610872
   206   1      11.591495106291063      3.6519400227684287      1.9607294701239226
   207   1      2.0908554982965484      13.184175538909358      8.7567506044325683
   208   1      8.8470898461634988     0.96170319192150089      12.809163579549704
   209   1      3.4082668384947965       3.680799189309937      15.565711153310417
   210   1      14.305413172015051     0.95856345866643267      12.816564414129857
   211   1      3.4054188848221827      11.841541691118891        12.8160981508438
   212   1     0.68175504035079371     0.96497421382105131       10.10446954492943
   213   1      3.4107689883419994      9.0907236073409194      10.121438024266695
   214   1      12.947778106058763       13.18038702803392      14.187432986086037
   215   1      8.8452676230497218     0.95034775842168528      2.0080452162084583
   216   1     0.69598775149293601      11.872151535155126      4.6723616046487564


Velocities

     1                       0                       0                       0
     2                       0                       0                       0
     3                       0                       0                       0
     4                       0                       0                       0
     5                       0                       0                       0
     6                       0                       0                       0
     7                       0                       0                       0
     8                       0                       0                       0
     9                       0                       0                       0
    10                       0                       0                       0
    11                       0                       0                       0
    12                       0                       0                       0
    13                       0                       0                       0
    14                       0                       0                       0
    15                       0                       0                       0
    16                       0                       0                       0
    17                       0                       0                       0
    18                       0                       0                       0
    19                       0                       0                       0
    20                       0                       0                       0
    21                       0                       0                       0
    22                       0                       0                       0
    23                       0                       0                       0
    24                       0                       0                       0
    25                       0                       0                       0
    26                       0                       0                       0
    27                       0                       0                       0
    28                       0                       0                       0
    29                       0                       0                       0
    30                       0                       0                       0
    31                       0                       0                       0
    32                       0                       0                       0
    33                       0                       0                       0
    34                       0                       0                       0
    35                       0                       0                       0
    36                       0                       0                       0
    37                       0                       0                       0
    38                       0                       0                       0
    39                       0                       0                       0
    40                       0                       0                       0
    41                       0                       0                       0
    42                       0                       0                       0
    43                       0                       0                       0
    44                       0                       0                       0
    45                       0                       0                       0
    46                       0                       0                       0
    47                       0                       0                       0
    48                       0                       0                       0
    49                       0                       0                       0
    50                       0                       0                       0
    51                       0                       0                       0
    52                       0                       0                       0
    53                       0                       0                       0
    54                       0                       0                       0
    55                       0                       0                       0
    56                       0                       0                       0
    57                       0                       0                       0
    58                       0                       0                       0
    59                       0                       0                       0
    60                       0                       0                       0
    61                       0                       0                       0
    62                       0                       0                       0
    63                       0                       0                       0
    64                       0                       0                       0
    65                       0                       0                       0
    66                       0                       0                       0
    67                       0                       0                       0
    68                       0                       0                       0
    69                       0                       0                       0
    70                       0                       0                       0
    71                       0                       0                       0
    72                       0                       0                       0
    73                       0                       0                       0
    74                       0                       0                       0
    75                       0                       0                       0
    76                       0                       0                       0
    77                       0                       0                       0
    78                       0                       0                       0
    79                       0                       0                       0
    80                       0                       0                       0
    81                       0                       0                       0
    82                       0                       0                       0
    83                       0                       0                       0
    84                       0                       0                       0
    85                       0                       0                       0
    86                       0                       0                       0
    87                       0                       0                       0
    88                       0                       0                       0
    89                       0                       0                       0
    90                       0                       0                       0
    91                       0                       0                       0
    92                       0                       0                       0
    93                       0                       0                       0
    94                       0                       0                       0
    95                       0                       0                       0
    96                       0                       0                       0
    97                       0                       0                       0
    98                       0                       0                       0
    99                       0                       0                       0
   100                       0                       0                       0
   101                       0                       0                       0
   102                       0                       0                       0
   103                       0                       0                       0
   104                       0                       0                       0
   105                       0                       0                       0
   106                       0                       0                       0
   107                       0                       0                       0
   108                       0                       0                       0
   109                       0                       0                       0
   110                       0                       0                       0
   111                       0                       0                       0
   112                       0                       0                       0
   113                       0                       0                       0
   114                       0                       0                       0
   115                       0                       0                       0
   116                       0                       0                       0
   117                       0                       0                       0
   118                       0                       0                       0
   119                       0                       0                       0
   120                       0                       0                       0
   121                       0                       0                       0
   122                       0                       0                       0
   123                       0                       0                       0
   124                       0                       0                       0
   125                       0                       0                       0
   126                       0                       0                       0
   127                       0                       0                       0
   128                       0                       0                       0
   129                       0                       0                       0
   130                       0                       0                       0
   131                       0                       0                       0
   132                       0                       0                       0
   133                       0                       0                       0
   134                       0                       0                       0
   135                       0                       0                       0
   136                       0                       0                       0
   137                       0                       0                       0
   138                       0                       0                       0
   139                       0                       0                       0
   140                       0                       0                       0
   141                       0                       0                       0
   142                       0                       0                       0
   143                       0                       0                       0
   144                       0                       0                       0
   145                       0                       0                       0
   146                       0                       0                       0
   147                       0                       0                       0
   148                       0                       0                       0
   149                       0                       0                       0
   150                       0                       0                       0
   151                       0                       0                       0
   152                       0                       0                       0
   153                       0                       0                       0
   154                       0                       0                       0
   155                       0                       0                       0
   156                       0                       0                       0
   157                       0                       0                       0
   158                       0                       0                       0
   159                       0                       0                       0
   160                       0                       0                       0
   161                       0                       0                       0
   162                       0                       0                       0
   163                       0                       0                       0
   164                       0                       0                       0
   165                       0                       0                       0
   166                       0                       0                       0
   167                       0                       0                       0
   168                       0                       0                       0
   169                       0                       0                       0
   170                       0                       0                       0
   171                       0                       0                       0
   172                       0                       0                       0
   173                       0                       0                       0
   174                       0                       0                       0
   175                       0                       0                       0
   176                       0                       0                       0
   177                       0                       0                       0
   178                       0                       0                       0
   179                       0                       0                       0
   180                       0                       0                       0
   181                       0                       0                       0
   182                       0                       0                       0
   183                       0                       0                       0
   184                       0                       0                       0
   185                       0                       0                       0
   186                       0                       0                       0
   187                       0                       0                       0
   188                       0                       0                       0
   189                       0                       0                       0
   190                       0                       0                       0
   191                       0                       0                       0
   192                       0                       0                       0
   193                       0                       0                       0
   194                       0                       0                       0
   195                       0                       0                       0
   196                       0                       0                       0
   197                       0                       0                       0
   198                       0                       0                       0
   199                       0                       0                       0
   200                       0                       0                       0
   201                       0                       0                       0
   202                       0                       0                       0
   203                       0                       0                       0
   204                       0                       0                       0
   205                       0                       0                       0
   206                       0                       0                       0
   207                       0                       0                       0
   208                       0                       0                       0
   209                       0                       0                       0
   210                       0                       0                       0
   211                       0                       0                       0
   212                       0                       0                       0
   213                       0                       0                       0
   214                       0                       0                       0
   215                       0                       0                       0
   216                       0                       0                       0
