(written by ASE)

216 atoms
1 atom types

0.0      16.331106185913086  xlo xhi
0.0      16.331106185913086  ylo yhi
0.0      16.331106185913086  zlo zhi

Atoms # atomic

     1   1      8.3271352232954996      15.026080998498628      14.022975403248097
     2   1      4.2859033196507994      13.657209863417165      4.4746776522778759
     3   1      8.3231997275428284      9.5441972622593312      3.1093696837070866
     4   1      4.2582205188320472       5.457395179623461      7.2316126431322232
     5   1      1.5514063977043975      8.1337040982665485      7.2418344192635118
     6   1     0.29917837895782995      6.7534669438538799      14.026040670654766
     7   1      5.5835928909405652      6.8135603968074179      8.6152976149962797
     8   1      2.9674455639358257      12.285967502104313     0.37509357368614715
     9   1      15.258561430382429      8.1563898999642674      9.9911948218914404
    10   1      1.5791904331405817      5.4411918003756341      4.4974452203973669
    11   1      5.6075066490795393       9.542044079819334     0.36851253265761486
    12   1       11.09095514154501       1.398328461934625      14.028530652879681
    13   1      2.9441311828707342      12.275926780192663      5.9118982153873958
    14   1      15.211756967786414       5.421812671710768      7.2803673322284794
    15   1      15.184231859352508      10.919766430057621      7.2800183648212737
    16   1      2.9306392365734553      4.0917776667416774      8.6296018717574725
    17   1      1.5707357607941077      13.654335384327965      7.2190994603717513
    18   1     0.21249637466738314       1.380014730277253       8.597661376547876
    19   1      8.3758251806411863      1.3743809994819145     0.41912686030618218
    20   1      8.3574218952837782        1.43540795241735      5.8998576230765707
    21   1      4.2660408930286735      13.658672898321015      9.9497694217562866
    22   1      9.7037293915952887      5.4497753278421328      12.679186118045209
    23   1      8.3828765611092422      9.5290841019684649      8.6212139996573569
    24   1      15.182789266054101    0.038618428535357019      12.679199745782171
    25   1      8.3376431819029904      6.7939306151234291      5.8834079711536447
    26   1      1.5819304600035053      10.969751022414698      15.348111236779346
    27   1      9.6994424949109543    0.048944876637373902      7.2264998082470129
    28   1      9.7283955954965222     0.04190900608535264        12.6901807815442
    29   1      1.5647449102846309      10.948177341394057      4.4660396138635292
    30   1      5.6320540969872468      15.037507855941271      11.334716419404003
    31   1      6.9703382631623754      13.684526662157509      7.2383754075996194
    32   1      8.3375838039062273       15.01782843035835      3.0921030976237773
    33   1      5.5742880668248631      4.0220827430410679     0.28996167884654511
    34   1      6.9819048049088792      8.1876699366360981      7.2785105530674059
    35   1      15.243253588134962      13.715279597431845       4.528519380900093
    36   1      0.2327607282727211      4.0887844316589508      5.8872592669600863
    37   1      9.6989489761509731      8.1585484361580711       15.37848746246766
    38   1      9.7105014034556234      2.7529160252127838      4.4880157998294408
    39   1       15.18910182849686      5.4083114780205506      12.664788413944848
    40   1      4.3007784812497221    0.054042399330411772      1.7545571410928318
    41   1      2.9343311365279305      12.257611101715725      11.294720958240077
    42   1       4.238616532507308      5.4184544079594161      12.667513961337249
    43   1      9.7252310402919875      5.4314328805961622      7.2962903694588022
    44   1      7.0038586024497818    0.038754702102595129      4.4936421083751839
    45   1      12.476682813838693       13.66864353472829      12.675375218744762
    46   1      8.3300593462836332      12.318513458198936      5.8517132619142558
    47   1      8.3040245282275009       4.081840126267025      3.0402519920077964
    48   1      6.9793632319654648      10.924511802749748       9.941217043402844
    49   1      5.6690645970516016      4.1034430095811558      11.294500967629119
    50   1      2.9438535177301333      4.1163976336782184      3.1551272440814842
    51   1      15.204003758864815    0.075141425207998935      1.7513257856419386
    52   1      11.123352165942833       12.29909880007699      14.011830834642524
    53   1      8.3372265625158661      4.1270803193417578      8.6635193622363431
    54   1      1.5760120068466392    0.050058582907731353      9.9378675403395391
    55   1       9.691533540424075      5.3924663135728679      1.6997747335915676
    56   1      12.464103439212977    0.047984957705584641      4.4572847662752224
    57   1      8.3918202501954511      4.1181011007984694      13.984551998883717
    58   1      4.2683079644132818      2.7272885791508372      4.5145295354988093
    59   1       6.940438034857948      5.4643609000306128      9.9848910201367289
    60   1      2.9668641949429286      9.5612202525444445      14.036753045316686
    61   1      11.087014778743423       4.107454431296901      11.308159853704183
    62   1      11.079710311731787      12.319161749114414      3.0667173005404607
    63   1      13.839567478754702      1.4174702002886619      0.4142878273414965
    64   1      3.0302757584942697      4.0018830299291324      14.122675926862144
    65   1      13.861439023168941      15.051846182044869       3.100660343026135
    66   1      9.7346030296827166      13.666911838724332      15.350491223698782
    67   1      5.5754138152389032      1.4803708453801505      14.088512163708174
    68   1      13.858942227075545      12.313484823259955      11.332287761995417
    69   1      0.2698500897390268      4.0671830084594944      11.339432589802641
    70   1      5.6204909621749835      12.286410403555578      3.1097729187096945
    71   1       13.82557471312407       4.103769101858461      14.036865960851515
    72   1      13.824722979563944      4.0542390918700448      8.5919581686292759
    73   1      13.856318887710358      12.325806244293176      5.9308032934879407
    74   1      12.471072079849478    0.037847495591984526      9.9152357628847767
    75   1      11.082828143266738      12.293448156286672      8.6153910623354477
    76   1     0.20513144978250608      4.1133440471889458       0.395104080271512
    77   1     0.24654951892523158      9.5253598361387048     0.36237603570935661
    78   1       5.667092955536134      1.3641438921465436      3.1400571571735156
    79   1      12.454211648998125      8.1815491359205907      1.7879718654187826
    80   1     0.22945778157419383      15.064774037372899      5.8848315829612829
    81   1      4.3032178461659214      2.7631937724065949      9.9849416374454449
    82   1      15.171683633839848      2.7511799488648023       9.974131921805224
    83   1      1.5962223057899649      8.1453183370924194      1.7165992699571717
    84   1      5.5916765724834931      4.0631764537926642      5.8715124169004866
    85   1       5.631553277653893      12.301941156643352      8.5999780918314173
    86   1     0.19550860964879213      12.300810054475505      14.003148992787942
    87   1      9.6989674709368501      8.1758498216411226      10.001229703344393
    88   1       15.20522538814248      10.943262595399688      1.6835361899153298
    89   1      8.3372976214300252      12.316477084932899     0.40093103290877607
    90   1       5.631560091522374       14.99722523889136     0.37679585446322506
    91   1      12.455979361164054      10.917041856075002      9.9236985875381833
    92   1     0.25043419964532454      6.7871965662446314      3.1060795586405447
    93   1      4.2464894708322163      10.947953457143967      7.2672934654329993
    94   1      12.460026799041771      5.4450757054098062      15.385350001437814
    95   1      9.7251570611484794      10.960754769200207      12.657633852039794
    96   1      5.6149892500814644      12.314786272139827      14.030671180992499
    97   1      8.3537628479094792      9.5494809305614581      13.971629984014385
    98   1      15.201985880384655      13.651124105453846      9.9350281040025266
    99   1      15.173482495118833       8.169189751905833      4.5058841965110901
   100   1      6.9685569232594844      5.4020057294462731      4.4639428891909461
   101   1      8.3483964397757973      6.7798283408922089      11.332939946550027
   102   1      6.9917352703074016      10.912835752402657      4.5135746205016858
   103   1      15.206046945999333      8.1440616650625657      15.326932760130603
   104   1      11.091205307859241      9.5205726068259082       11.30197578135278
   105   1      1.6142645777941027      2.7524777474579878      12.716978752870205
   106   1      8.2610922897482624      6.7400645512566371     0.36745872531034962
   107   1     0.19863322463316813      1.4033882459866618      14.025876164401438
   108   1      12.464304935038058      5.3982697826991171      10.004595754374009
   109   1      2.9506247995331307      15.040710374127343      3.0986412477837462
   110   1      1.5947601226196753      13.637925642206142      12.663683593841142
   111   1      11.110635540537714      15.014355304252604      5.8587042909757656
   112   1      6.9952317582479395        10.9396200959917      15.374774877555296
   113   1      5.6298498105336421       1.376701365052142      8.6113319435403355
   114   1      13.853990491509421      6.8052226553111268      5.8763317687361223
   115   1       15.18179930830479      13.673760749957523      15.359117581195733
   116   1      6.9773069037988762       2.729241482527982      12.703454197345195
   117   1      6.9858865376262429    0.049708505204991926      9.9427686585969468
   118   1        4.26053772082048      10.924695777198735       12.67056365418739
   119   1      15.203463516435249      2.7612189673093326      15.391645042504479
   120   1       4.256896194822275      8.1959010897611506      9.9656252937115823
   121   1       2.950616768902421      1.3978252090768137      5.8699476606743133
   122   1      12.442158889065013      5.4348037986746931      4.5061567512503302
   123   1      9.6606745034833921      11.006215926295681      7.2973659872690178
   124   1      11.408195230283582      9.9050227474415351      5.5473460308509743
   125   1      4.2630963284350969      13.659048634497253      15.351026599079432
   126   1      6.9942237924176425      13.680560990701565      12.667120703784917
   127   1      13.817701774799161      1.4135777779188885      11.319133102187948
   128   1     0.24399048544383461      12.283808479205618       8.615981922073729
   129   1      2.9034728296445849      6.7984384758285046      5.9099898455078232
   130   1      12.511202844973241      8.1151947112427933      7.2991779895800732
   131   1      15.168968793955059      2.7302285200479446      4.5070941448713597
   132   1      1.5594820486166157       2.724552080898377      7.2733704627082716
   133   1      11.084198704241203      1.3884680641852754      8.6095720186526705
   134   1      12.420878204389055      13.681523692976953      7.2237937290502714
   135   1      6.9525380051655361      8.1660582926339202      1.7207042606883078
   136   1      13.844263207547897      4.1076471664339351      3.1242487389451412
   137   1      2.9332214493753099      9.5598584522580268      3.1069157176441422
   138   1      7.0107926870389861     0.02361766475418059      15.369503863580348
   139   1       9.666032150929027       8.119079102981857      4.4372602669242269
   140   1      1.6141623697668877       2.753767028715572      1.7504088336263521
   141   1      11.038940016380593      6.7683245840767086      3.0989179395145641
   142   1      11.082027027015329       1.388708983106568      3.1142897834552628
   143   1     0.22332136067357489      1.4217504047807381      3.1102520796753765
   144   1      6.9554728356612827      5.4365919524460651      15.323074163750789
   145   1     0.20535445187998036      15.016187261464211      11.321426455636697
   146   1      5.6293027542355958      9.5504319519194496      11.321032224674582
   147   1      2.9157280588125616      1.3486626612814803      11.293752415505992
   148   1       12.47450821638347      2.7337931466732925      7.2090718794921713
   149   1        15.1978547292656    0.054975454433619397      7.2398131338491112
   150   1      1.5871858994219252      5.4444507763291199      9.9848880999073799
   151   1     0.22480868519341612      6.7866013261623266        8.62685977639876
   152   1      9.7066564348127713      13.645244710364523      4.4976535300909291
   153   1      1.5964011698375913      8.1978245474923597      12.651742776033075
   154   1      6.9761938097120151      8.1595865776916412      12.686858533954819
   155   1      9.7412884080723643      2.7161089677930761       9.932235391335098
   156   1      1.5842590995568884      10.918805674601799      9.9572461822995137
   157   1      9.7260389704118779        10.9254822923034      1.7398941828266032
   158   1      13.823233662595953      14.996928348907545      14.014166044711942
   159   1      12.480120897192251      10.950926250621251      15.375085395276074
   160   1      12.473953372807159    0.043878647547906713      15.367703055481797
   161   1      1.6010701298617533    0.075360860671190188      15.351557107411168
   162   1       2.983988419845474      1.4276109400555157     0.35716890175141813
   163   1      15.189147578756661      10.942666868612491      12.669830676620791
   164   1      13.814471027729383      1.3591459196157274      5.8758932476288805
   165   1      8.3501884871863012      12.291997775710001       11.33601300123496
   166   1      11.110789339283428      15.030287102170973       11.32623509996472
   167   1       9.717061211983264       13.70427714665459      9.9572744111832208
   168   1      12.439301931351906      8.1684684552566296      12.675424862643695
   169   1      6.9831483359066624      2.7579066971702275      1.7188816725458622
   170   1      11.047240281600239      4.0984795930976361      5.8820276760813499
   171   1      9.7089935917017556      2.7574742598741295      15.379119205416828
   172   1     0.20989551498437287      9.5465461000657115      11.339886198761519
   173   1      8.3213658235116554      1.4028834113379531      11.325196471726258
   174   1     0.26644528483242524      15.065895405442916     0.38180529497804727
   175   1      11.089840587343474      15.033347502528727     0.38314482851567888
   176   1      1.6169845280802519      5.4114195754576713      15.333765123397484
   177   1      1.6223076194785904      13.660479546878264      1.7169793864774334
   178   1       8.322360648309882      15.039939433579207      8.6358083325338839
   179   1      12.469941951091414      2.7727168836661349      1.7984927217058981
   180   1       4.260563029474838    0.037277290392536244      7.2446587677488878
   181   1      1.5580709694599335    0.054308528044131332      4.4638450615077545
   182   1        13.8735521345086      6.7684087840229381       11.32643951601915
   183   1       13.83936890315897      12.342801005694582     0.38480461387191767
   184   1      13.844307010988132      6.8109428979009294     0.38981609246347304
   185   1      5.6528115739048417       15.01272873650521      5.8833193908633916
   186   1      4.2935343656446321      5.4541897412080402      1.7333697820798193
   187   1      11.074968832678792      4.0957730271960031     0.39858964777104688
   188   1     0.25102140909691961       12.36938580027811       3.062842642899227
   189   1      13.877312416500331      9.5430009416360235      3.0852454257025386
   190   1      4.2959601028238694      8.1708036653260478       4.490277030755351
   191   1      2.9138724964137168      9.5246054435568794      8.5803697251626545
   192   1      6.9705144503330985      13.670823972642211      1.7060110050425834
   193   1      13.808077672274635      9.5168833837483362      8.6270505647162281
   194   1      7.0067866190770474      2.7688154572558688      7.2287459513212866
   195   1      9.7281668441975171    0.056909665301025036       1.728211196934808
   196   1      11.095061957419489      6.8176735398454866      8.6446877765744148
   197   1      2.9165050831718418      15.009850363776877      8.5971503364118007
   198   1      4.2758153873646734    0.040641238704925531      12.712996533447949
   199   1      2.9364604704282442      6.8121947028818681     0.40237399123585149
   200   1      2.8801560150550358      14.976258965575312      14.014699473273026
   201   1      5.6541436851928779      6.8134834974345608      13.985818405011401
   202   1      2.9552472792401545      6.7833034138175208      11.347480741888489
   203   1      11.071002187813065      6.8194835953369761      14.048103003386473
   204   1      13.851891820017272      9.5727678128001799      14.000283274386788
   205   1       5.620654981723419      9.5397565668292827      5.8981132727454337
   206   1      15.227371434115526      5.4248662582000406      1.7424954987954493
   207   1      12.461264976285747      13.743281676659421      1.7348365889465782
   208   1      5.5696288408985311      6.7607008386562484       3.049102477107283
   209   1      4.2432840324167955      8.1685852644305896      15.353375436885813
   210   1      4.2645116662595797      10.952141066030435      1.7436851272264988
   211   1      11.149242919351082      9.5434993274449198     0.45229573782381394
   212   1      12.541140062849422      11.028549840356845      4.3783558340206241
   213   1      12.458768180192351      2.7417590456324774      12.694565019206834
   214   1     0.19698136344094408      9.5573587359352814      5.8549819719655716
   215   1      13.842570447935259      15.010434409646678      8.6372071223920557
   216   1       10.83288863351504      9.3314137773345465      6.0971488046000104


Velocities

     1                       0                       0                       0
     2                       0                       0                       0
     3                       0                       0                       0
     4                       0                       0                       0
     5                       0                       0                       0
     6                       0                       0                       0
     7                       0                       0                       0
     8                       0                       0                       0
     9                       0                       0                       0
    10                       0                       0                       0
    11                       0                       0                       0
    12                       0                       0                       0
    13                       0                       0                       0
    14                       0                       0                       0
    15                       0                       0                       0
    16                       0                       0                       0
    17                       0                       0                       0
    18                       0                       0                       0
    19                       0                       0                       0
    20                       0                       0                       0
    21                       0                       0                       0
    22                       0                       0                       0
    23                       0                       0                       0
    24                       0                       0                       0
    25                       0                       0                       0
    26                       0                       0                       0
    27                       0                       0                       0
    28                       0                       0                       0
    29                       0                       0                       0
    30                       0                       0                       0
    31                       0                       0                       0
    32                       0                       0                       0
    33                       0                       0                       0
    34                       0                       0                       0
    35                       0                       0                       0
    36                       0                       0                       0
    37                       0                       0                       0
    38                       0                       0                       0
    39                       0                       0                       0
    40                       0                       0                       0
    41                       0                       0                       0
    42                       0                       0                       0
    43                       0                       0                       0
    44                       0                       0                       0
    45                       0                       0                       0
    46                       0                       0                       0
    47                       0                       0                       0
    48                       0                       0                       0
    49                       0                       0                       0
    50                       0                       0                       0
    51                       0                       0                       0
    52                       0                       0                       0
    53                       0                       0                       0
    54                       0                       0                       0
    55                       0                       0                       0
    56                       0                       0                       0
    57                       0                       0                       0
    58                       0                       0                       0
    59                       0                       0                       0
    60                       0                       0                       0
    61                       0                       0                       0
    62                       0                       0                       0
    63                       0                       0                       0
    64                       0                       0                       0
    65                       0                       0                       0
    66                       0                       0                       0
    67                       0                       0                       0
    68                       0                       0                       0
    69                       0                       0                       0
    70                       0                       0                       0
    71                       0                       0                       0
    72                       0                       0                       0
    73                       0                       0                       0
    74                       0                       0                       0
    75                       0                       0                       0
    76                       0                       0                       0
    77                       0                       0                       0
    78                       0                       0                       0
    79                       0                       0                       0
    80                       0                       0                       0
    81                       0                       0                       0
    82                       0                       0                       0
    83                       0                       0                       0
    84                       0                       0                       0
    85                       0                       0                       0
    86                       0                       0                       0
    87                       0                       0                       0
    88                       0                       0                       0
    89                       0                       0                       0
    90                       0                       0                       0
    91                       0                       0                       0
    92                       0                       0                       0
    93                       0                       0                       0
    94                       0                       0                       0
    95                       0                       0                       0
    96                       0                       0                       0
    97                       0                       0                       0
    98                       0                       0                       0
    99                       0                       0                       0
   100                       0                       0                       0
   101                       0                       0                       0
   102                       0                       0                       0
   103                       0                       0                       0
   104                       0                       0                       0
   105                       0                       0                       0
   106                       0                       0                       0
   107                       0                       0                       0
   108                       0                       0                       0
   109                       0                       0                       0
   110                       0                       0                       0
   111                       0                       0                       0
   112                       0                       0                       0
   113                       0                       0                       0
   114                       0                       0                       0
   115                       0                       0                       0
   116                       0                       0                       0
   117                       0                       0                       0
   118                       0                       0                       0
   119                       0                       0                       0
   120                       0                       0                       0
   121                       0                       0                       0
   122                       0                       0                       0
   123                       0                       0                       0
   124                       0                       0                       0
   125                       0                       0                       0
   126                       0                       0                       0
   127                       0                       0                       0
   128                       0                       0                       0
   129                       0                       0                       0
   130                       0                       0                       0
   131                       0                       0                       0
   132                       0                       0                       0
   133                       0                       0                       0
   134                       0                       0                       0
   135                       0                       0                       0
   136                       0                       0                       0
   137                       0                       0                       0
   138                       0                       0                       0
   139                       0                       0                       0
   140                       0                       0                       0
   141                       0                       0                       0
   142                       0                       0                       0
   143                       0                       0                       0
   144                       0                       0                       0
   145                       0                       0                       0
   146                       0                       0                       0
   147                       0                       0                       0
   148                       0                       0                       0
   149                       0                       0                       0
   150                       0                       0                       0
   151                       0                       0                       0
   152                       0                       0                       0
   153                       0                       0                       0
   154                       0                       0                       0
   155                       0                       0                       0
   156                       0                       0                       0
   157                       0                       0                       0
   158                       0                       0                       0
   159                       0                       0                       0
   160                       0                       0                       0
   161                       0                       0                       0
   162                       0                       0                       0
   163                       0                       0                       0
   164                       0                       0                       0
   165                       0                       0                       0
   166                       0                       0                       0
   167                       0                       0                       0
   168                       0                       0                       0
   169                       0                       0                       0
   170                       0                       0                       0
   171                       0                       0                       0
   172                       0                       0                       0
   173                       0                       0                       0
   174                       0                       0                       0
   175                       0                       0                       0
   176                       0                       0                       0
   177                       0                       0                       0
   178                       0                       0                       0
   179                       0                       0                       0
   180                       0                       0                       0
   181                       0                       0                       0
   182                       0                       0                       0
   183                       0                       0                       0
   184                       0                       0                       0
   185                       0                       0                       0
   186                       0                       0                       0
   187                       0                       0                       0
   188                       0                       0                       0
   189                       0                       0                       0
   190                       0                       0                       0
   191                       0                       0                       0
   192                       0                       0                       0
   193                       0                       0                       0
   194                       0                       0                       0
   195                       0                       0                       0
   196                       0                       0                       0
   197                       0                       0                       0
   198                       0                       0                       0
   199                       0                       0                       0
   200                       0                       0                       0
   201                       0                       0                       0
   202                       0                       0                       0
   203                       0                       0                       0
   204                       0                       0                       0
   205                       0                       0                       0
   206                       0                       0                       0
   207                       0                       0                       0
   208                       0                       0                       0
   209                       0                       0                       0
   210                       0                       0                       0
   211                       0                       0                       0
   212                       0                       0                       0
   213                       0                       0                       0
   214                       0                       0                       0
   215                       0                       0                       0
   216                       0                       0                       0
