(written by ASE)

216 atoms
1 atom types

0.0      16.331106185913086  xlo xhi
0.0      16.331106185913086  ylo yhi
0.0      16.331106185913086  zlo zhi

Atoms # atomic

     1   1       14.38489402761661      8.2200358119208659      8.0333056398380904
     2   1      8.9192253515425364      11.021783668955209      16.196234420019664
     3   1     0.74248990951321758      10.981224603526925      13.502351074449393
     4   1      10.280355932029579      1.5082563587862126      3.9753323046880098
     5   1      15.704994412340398      6.9085393962690205      3.9426899810248699
     6   1      0.7428411887686579      8.2893435618802869       5.326183434514121
     7   1      12.995370057169225        1.50294409657171      6.6796133702078464
     8   1      2.1247917269137417        15.1092316089821      4.0277448243963363
     9   1      14.368824978918838      11.015163509021022      10.748821071015982
    10   1       2.142628001072552      9.6349044528882359      9.3838552559839172
    11   1      6.1409298564100254     0.10606649431388337      8.0691645961291556
    12   1      14.373955821885033     0.14833446426862729      10.760914714159981
    13   1      4.8331659805710956      4.2020270321741009       6.698997852626519
    14   1      2.1110350131554867      9.6661927635432221      3.9591028867284876
    15   1      0.7389176172858285      11.001798592700425      8.0369165034281309
    16   1       13.02374787257304       6.936920131902184      6.6726841526675571
    17   1      11.653527591532338       11.01367711228238      8.0649010612796133
    18   1      12.969683719815407      12.387328662808159      12.129536656336995
    19   1       10.28977075145076      4.1917901681911758      12.136836256299716
    20   1      15.716885586249532      15.058580230923667       6.654283787539498
    21   1      3.4459694329148647      2.8315463640164467      2.6141109537387024
    22   1      11.639176611101561      2.8401851324881306      5.2988622554297535
    23   1      4.8469966734728587      4.2137473726663188      1.2173120836018398
    24   1      11.666427217976661      5.5678207322266076      2.5970456201280285
    25   1      13.013938822189743      9.6463605126243692       14.84579285235975
    26   1       7.591306539441689       12.37931944711363      1.2607001212119684
    27   1      11.634078864067988      13.738125525038868      16.194475468541782
    28   1      15.721480080425295      4.1514189708510116       1.218022916095876
    29   1      6.1826224575306128      2.8801414139082908      5.2968726058333004
    30   1       3.490269312139219    0.088666155642578737      16.218003756406688
    31   1       8.944145615397133      8.2504577878689815      2.6183202209928425
    32   1      7.5989239576985597      6.9187597122856346      6.6688318834513325
    33   1      2.1040532314869154      12.363488883812693      12.118189618496558
    34   1      6.1827343996556579      8.2756175105301963      16.206090194072544
    35   1      10.303892980582532      9.5651820303612567      12.114988073720269
    36   1      6.2083000341963839      13.713605332605084      10.742451077396026
    37   1     0.77937824664980582      8.2446981221829674       10.76166715992224
    38   1      4.8817386420379307      15.058602619348676      1.2695336933164754
    39   1      6.2475542438105549      8.2464687545782454      5.3193087279216797
    40   1      10.307168504502329      9.5993214582706514      1.2618560453292815
    41   1      2.1228522079211132      12.385065485062682      6.6772046676998116
    42   1      7.6060133011481526      9.6160981758806656      3.9688893053343293
    43   1      2.0863026173890091      15.056079541191139      14.852113202080773
    44   1      10.283786228104873      15.084126397268733      1.2451046363736253
    45   1       13.02289808583248      6.9182584062473893       1.248209813581397
    46   1      10.275104386250291      9.6115299637690441      6.6977187921716563
    47   1      4.8690658200730468      12.387859171139894      4.0023271481426264
    48   1      6.1914873004243987     0.14265242801280742      2.5973023569582949
    49   1       7.581354884525183       15.13054246936133      3.9662581786908788
    50   1      11.668228026075212     0.10366905446122843      13.458258531508818
    51   1      15.707608017607754      15.114212546841713      12.108302695330622
    52   1      7.5563625883466443       4.199565765537784      3.9538542611785488
    53   1       4.834894269640813      1.5000475940861691      3.9803825979946623
    54   1      11.650519755302867      13.726139930380782      5.3155893291408347
    55   1      6.1989762285899133      11.001214546830624      13.491930722722373
    56   1      3.5217391637187347      8.2875203653567269      8.0566071232235572
    57   1      4.8880439039073167      9.6327960472982568      6.6738050340326822
    58   1      11.650247200563626     0.14011026189780651       8.045334064526628
    59   1      15.734640580691462      6.9218760837059108      14.817760597428901
    60   1      2.1609740986052088      9.6308404670442087      14.882123425690679
    61   1      13.024485717188554      6.9079631376774842      12.090535046561513
    62   1      13.002455506979686      12.374740527494396       6.667073418678342
    63   1      7.5797375641707276      6.9245330057086107      12.154125960865372
    64   1       11.64953466460247      5.5257256261607495      8.0396688195895649
    65   1      3.4898575598010098      11.024084809682222      5.3378468305340334
    66   1     0.73486184458684534      13.718402296015711      10.742575673848251
    67   1       2.125246309282403       1.499671736233708      6.6701099704964122
    68   1      14.343094838124784      11.015970465731129      16.201713743688174
    69   1      11.652750810525504      10.997911767436904      13.476287054099771
    70   1      2.1223292435151961      6.9314617365440085       12.12782540193848
    71   1      6.2411141646862234      13.690812942536127       5.322526333959388
    72   1       10.29658656675133      4.2061552630638062      6.7130602170566362
    73   1      7.5422603141154241      6.9282115212785698      1.2283670985073769
    74   1      6.1776020965747875      5.5508444656110782      13.471397616759759
    75   1      11.646595940467591      2.8387887761544164      10.789058911215875
    76   1      10.284688578973714      15.091687844463081      12.106452243333138
    77   1      4.8137245536801174      4.1854907467804878      12.125277015126585
    78   1      10.314508987675936      6.9029787928836299      14.864714965131498
    79   1      7.5508701236460638       1.467810573921426      6.6634859169230936
    80   1     0.77555195530716503      5.5489701650739107      13.479736818370725
    81   1     0.76149561385008013      8.2763680094728898      16.204878298892709
    82   1      10.291435282179691      1.4869187296379494      14.834011673756095
    83   1      8.9237731220487149      13.734808144498402      2.5967681983398734
    84   1      13.011719447884502      12.350541560289003      1.2363848315375066
    85   1      14.411413603744677      5.5237062875659149      5.3191919187477197
    86   1     0.77340546505942598       5.562295171593405      2.6044165223573543
    87   1      8.9013029306179305      10.995297188759764       5.325229979631672
    88   1      3.4782425909178016     0.10389327332093146      10.772519705592913
    89   1       10.31659305802134      6.8977671569054451      3.9676345801240416
    90   1     0.74594009965095154      10.987828215494801      2.5910469823402877
    91   1      10.265084105944084       6.914136015816382      9.4146383669615261
    92   1     0.74981542651141098      13.720511675015473      5.3236462419147301
    93   1      10.313980426163766      4.1807974515117508      1.2236757500582058
    94   1      10.274280881573873       1.501390656234264      9.4018059057922301
    95   1      3.4914602790087201    0.099220571752915987      5.3385686138881283
    96   1      14.358066853997116       8.240309017471418      2.6217191246026346
    97   1     0.79333493528035604     0.11689814969804146      13.480517493016691
    98   1      11.663442743581982      8.2641546369255821      16.204274784827248
    99   1      7.5844469207008842      9.6433293145601056      9.3770384672735645
   100   1      8.9115305472079172      2.8395996265036558      13.504342670865412
   101   1      14.368423934088241      2.8336759412692061      2.6009450997187287
   102   1      2.0959498383958817      4.2227032293748152      3.9904746672723661
   103   1      3.4762575650178178      2.8660157778422786      8.0720522162504267
   104   1      8.9260197518278801      11.011739053404426      10.771412938669641
   105   1      6.2173206226554498      5.5646673712345773      8.0522798300332283
   106   1      8.9026160604151983      5.5673890249878468       5.293412620759625
   107   1      13.027791416811624      1.4756491995514835      12.141613751514683
   108   1     0.78550026412754193      2.8252445090813012      5.3267601798105488
   109   1      3.4949570103017038      5.5912614132110434      16.233324252981333
   110   1      15.704376297128192      15.064338923199898      1.2463316194050975
   111   1      11.672117771568082      2.8277632068948151       16.21850408903515
   112   1     0.76774709482895531      2.8347437718011577        10.7438440267955
   113   1      8.9249762565405035      13.723928343353805      13.476147856500802
   114   1      3.4877530478501626      8.2962323829145816      2.6003474261119663
   115   1      3.4735568395748828      8.2730282405074149      13.502101881544945
   116   1      2.1010736241411507      1.4597199568337942      1.2246588939390364
   117   1      13.007026639320657      9.6251012429636376      3.9535233018523286
   118   1       7.596889044547197      12.372577610956569      6.6930702737529373
   119   1      8.9150221680995401      2.8436872175349208      2.5708623570799887
   120   1      7.5499633924331988      4.2201163928764913      14.862176312417432
   121   1      3.4686834634962906        13.7094644473882      13.456844167094118
   122   1      13.012414462469565      4.2282706466286868      14.854685924137243
   123   1       14.33166116681366      13.722342658817297      2.5998356559185538
   124   1      14.390512548884089      5.5459856906792311      16.218340556191606
   125   1      4.8747490730910954      15.066403525349642       12.08420496274266
   126   1      8.9314484581876741      5.5736645978588513      10.782268404569663
   127   1     0.76660260827659243      13.739888370155882      16.193578958131639
   128   1      7.5619431466325864      1.4843525780975142      12.159847663569849
   129   1      14.365183452920633    0.094358549586870843      16.201166687390128
   130   1      3.4867660103302001      11.008242565463888      16.202585918853742
   131   1       7.583073926201962      12.378436564440449      12.126139456194323
   132   1      2.1316386913273675      12.348812784514394      1.2642659645995451
   133   1      15.755229171011706      1.4913136748081968      3.9814484817070479
   134   1      11.657954659225425      8.2813382398248905      5.2920104239672128
   135   1      11.619174986880466     0.13201292219886085      2.5971651061788918
   136   1      4.8379629439817222      9.6187088609186731      12.121138076729267
   137   1      3.4744484829361113      5.5669909003865996      10.784114962928015
   138   1      7.5467871563112681      4.2253401964769637      9.4440041932950862
   139   1      3.5343336261960872       13.70794300789737      8.0585724375754353
   140   1      4.8294261401848075      12.353201889225943      14.838428033941568
   141   1       2.127601230899927      4.2315958144474166      9.4044954370226606
   142   1      3.4927500469711958       2.826296521704279      13.514277291110716
   143   1      7.5717935669316603      15.073180404258892      14.896081148569124
   144   1      14.367576094167248      2.8317743852581145      8.0521542601712213
   145   1       13.03902456570745      15.060762615657154      14.841644179864602
   146   1       7.550236920582222      9.6214937863078376      14.861114322344179
   147   1       11.68426300543058      5.5840338455722645      13.480188480510037
   148   1      8.9472206169016317      8.2588807027212852      8.0570870142465765
   149   1      10.282729105080534       15.08131616322521      6.6545709434254832
   150   1     0.77149478333161881      2.8562444470880735      16.149104838556127
   151   1      3.4742202183419977      5.5852131315243696      5.2996872202208465
   152   1      4.8705979670714896      6.9188010822014121      14.827007990367406
   153   1      8.9438506722328839      5.5396867559734346       16.21023789315791
   154   1      6.1913948264950136      5.5839048687760169      2.5886373064224699
   155   1      13.018499247023101      1.4649971762961087      1.2396867591976672
   156   1      4.7933510869219162      6.8901828345811964      9.4273841946601351
   157   1      10.307713613980809      12.322807168751751        3.97474193165462
   158   1      8.9197062159753386     0.10571091076205885      16.232362524115729
   159   1       14.33700421311255       11.00337356972932       5.309705553707488
   160   1      13.010606840502533      4.1763246335588633      3.9362793475464741
   161   1      2.1442032214538926      4.2077034713236685      14.834019461034359
   162   1      8.9711217207134268      8.2865897856041784       13.48264536680233
   163   1      7.5736581333709978      1.5016399708149351      1.2384603845473094
   164   1      3.4652380795693603      13.703306657100939      2.6216215402718888
   165   1      13.008120751916749      15.064095570754148      9.3840479911209513
   166   1      6.2171916458592023      11.022383289381537      8.0255159280496287
   167   1      8.8884052509931735     0.12588666126285197      10.751980759171602
   168   1      15.714960181698757       12.38500318683657      3.9756119166481767
   169   1      15.747387381799854      1.4319940826321442      14.835989642435152
   170   1      11.657144782285968      13.735839958868382       10.77059819468127
   171   1      2.1278141642899584      15.087355197518946      9.4288657243498619
   172   1      7.5615922324058147      15.065322067080729       9.397963857378727
   173   1       8.909395859553797      2.8411193625273654      8.0276355278521123
   174   1      6.1923380605747411      8.2620637527116969      10.764674022741929
   175   1      4.8598782918361962      6.9074574512952154      3.9304089564976437
   176   1       4.825632275555563      1.4292473635769625      14.831389307800691
   177   1      4.8527670466664858      15.078885558997058      6.6719886513776032
   178   1     0.70788148060275091    0.096677424623368147      2.6104275711198284
   179   1      14.375238775979028      13.720772548837317      8.0223207104369294
   180   1      11.669963615718302      8.2591785661148833      10.732356817946311
   181   1      13.022386072286622      4.1743573723874192      9.3949900904916603
   182   1      15.735946896620248      1.4843777650756493      9.4001890721426662
   183   1      6.1924592500927247      10.993837074085263      2.6073204470924907
   184   1      14.396857233849687     0.13445248483892236      5.3231215740416928
   185   1     0.79095415746547104      5.5380684622091962      8.0440112006315303
   186   1      14.358057119899286       8.264117647353828      13.484602893875945
   187   1      15.690852715012966      9.6330364795146579      1.2511810252677833
   188   1     0.78203772385318615    0.082378392334994999      8.0180615559314106
   189   1      6.1938521994921985     0.10376282880524546      13.488691214964547
   190   1      13.036161767535646      9.6391709079671273      9.3949063772503223
   191   1       4.857528480620033      9.6488281064242756      1.2534332521532008
   192   1      2.1180754427634838      1.4630530336070109      12.136616265688758
   193   1      15.709038929988765      9.6710958286201958      6.6930785477360928
   194   1      14.394485034208515       5.523065297223809      10.774790670616653
   195   1      14.382020521937193      13.712958988509172      13.469098422852312
   196   1      8.9358580045046665     0.13141205459124805      5.3140946584190374
   197   1       6.214038284867172      2.8469732056098849      10.771572577874053
   198   1      15.714081192664707       12.36236556892311      9.3895506766242534
   199   1      8.9267352080183855       13.73609207200218      8.0508236089978595
   200   1      11.681961864703567      11.009617020077485      2.6171229269597518
   201   1      4.8228921270164165       1.483385617154326      9.4124871313410949
   202   1      13.025010385061591      15.091463960212991      3.9635890890658914
   203   1      15.746255306222224      6.8818825693615508      9.3710383693711492
   204   1      15.737767172914459      4.1481731359295964      6.6766610183360058
   205   1      2.1222469903885326      6.9346764223523678      6.6893971119367848
   206   1      10.284976708269483      12.376919991998534      9.3990706243019986
   207   1      6.1910604602345529      13.686628253879007      16.189940352362783
   208   1      15.727376996890712      9.6235223722956107      12.103790940986414
   209   1      15.708414974317861      12.337558220603341      14.854112585775056
   210   1      10.286255768724345      12.352666513845293      14.852054797493793
   211   1      3.4561491090730385      10.990894456311253      10.748129950070052
   212   1      14.362219420131396      2.8802304809034354      13.525793702253395
   213   1      4.8560800468629282      12.373108119288304      9.4268293510838248
   214   1      6.1937709197753179      2.8194230318740665      16.196490426792593
   215   1      15.742364587319571      4.1731975546309741      12.121301609572811
   216   1      2.0946289213203499      6.9081602531585418      1.2469712713087517


Velocities

     1                       0                       0                       0
     2                       0                       0                       0
     3                       0                       0                       0
     4                       0                       0                       0
     5                       0                       0                       0
     6                       0                       0                       0
     7                       0                       0                       0
     8                       0                       0                       0
     9                       0                       0                       0
    10                       0                       0                       0
    11                       0                       0                       0
    12                       0                       0                       0
    13                       0                       0                       0
    14                       0                       0                       0
    15                       0                       0                       0
    16                       0                       0                       0
    17                       0                       0                       0
    18                       0                       0                       0
    19                       0                       0                       0
    20                       0                       0                       0
    21                       0                       0                       0
    22                       0                       0                       0
    23                       0                       0                       0
    24                       0                       0                       0
    25                       0                       0                       0
    26                       0                       0                       0
    27                       0                       0                       0
    28                       0                       0                       0
    29                       0                       0                       0
    30                       0                       0                       0
    31                       0                       0                       0
    32                       0                       0                       0
    33                       0                       0                       0
    34                       0                       0                       0
    35                       0                       0                       0
    36                       0                       0                       0
    37                       0                       0                       0
    38                       0                       0                       0
    39                       0                       0                       0
    40                       0                       0                       0
    41                       0                       0                       0
    42                       0                       0                       0
    43                       0                       0                       0
    44                       0                       0                       0
    45                       0                       0                       0
    46                       0                       0                       0
    47                       0                       0                       0
    48                       0                       0                       0
    49                       0                       0                       0
    50                       0                       0                       0
    51                       0                       0                       0
    52                       0                       0                       0
    53                       0                       0                       0
    54                       0                       0                       0
    55                       0                       0                       0
    56                       0                       0                       0
    57                       0                       0                       0
    58                       0                       0                       0
    59                       0                       0                       0
    60                       0                       0                       0
    61                       0                       0                       0
    62                       0                       0                       0
    63                       0                       0                       0
    64                       0                       0                       0
    65                       0                       0                       0
    66                       0                       0                       0
    67                       0                       0                       0
    68                       0                       0                       0
    69                       0                       0                       0
    70                       0                       0                       0
    71                       0                       0                       0
    72                       0                       0                       0
    73                       0                       0                       0
    74                       0                       0                       0
    75                       0                       0                       0
    76                       0                       0                       0
    77                       0                       0                       0
    78                       0                       0                       0
    79                       0                       0                       0
    80                       0                       0                       0
    81                       0                       0                       0
    82                       0                       0                       0
    83                       0                       0                       0
    84                       0                       0                       0
    85                       0                       0                       0
    86                       0                       0                       0
    87                       0                       0                       0
    88                       0                       0                       0
    89                       0                       0                       0
    90                       0                       0                       0
    91                       0                       0                       0
    92                       0                       0                       0
    93                       0                       0                       0
    94                       0                       0                       0
    95                       0                       0                       0
    96                       0                       0                       0
    97                       0                       0                       0
    98                       0                       0                       0
    99                       0                       0                       0
   100                       0                       0                       0
   101                       0                       0                       0
   102                       0                       0                       0
   103                       0                       0                       0
   104                       0                       0                       0
   105                       0                       0                       0
   106                       0                       0                       0
   107                       0                       0                       0
   108                       0                       0                       0
   109                       0                       0                       0
   110                       0                       0                       0
   111                       0                       0                       0
   112                       0                       0                       0
   113                       0                       0                       0
   114                       0                       0                       0
   115                       0                       0                       0
   116                       0                       0                       0
   117                       0                       0                       0
   118                       0                       0                       0
   119                       0                       0                       0
   120                       0                       0                       0
   121                       0                       0                       0
   122                       0                       0                       0
   123                       0                       0                       0
   124                       0                       0                       0
   125                       0                       0                       0
   126                       0                       0                       0
   127                       0                       0                       0
   128                       0                       0                       0
   129                       0                       0                       0
   130                       0                       0                       0
   131                       0                       0                       0
   132                       0                       0                       0
   133                       0                       0                       0
   134                       0                       0                       0
   135                       0                       0                       0
   136                       0                       0                       0
   137                       0                       0                       0
   138                       0                       0                       0
   139                       0                       0                       0
   140                       0                       0                       0
   141                       0                       0                       0
   142                       0                       0                       0
   143                       0                       0                       0
   144                       0                       0                       0
   145                       0                       0                       0
   146                       0                       0                       0
   147                       0                       0                       0
   148                       0                       0                       0
   149                       0                       0                       0
   150                       0                       0                       0
   151                       0                       0                       0
   152                       0                       0                       0
   153                       0                       0                       0
   154                       0                       0                       0
   155                       0                       0                       0
   156                       0                       0                       0
   157                       0                       0                       0
   158                       0                       0                       0
   159                       0                       0                       0
   160                       0                       0                       0
   161                       0                       0                       0
   162                       0                       0                       0
   163                       0                       0                       0
   164                       0                       0                       0
   165                       0                       0                       0
   166                       0                       0                       0
   167                       0                       0                       0
   168                       0                       0                       0
   169                       0                       0                       0
   170                       0                       0                       0
   171                       0                       0                       0
   172                       0                       0                       0
   173                       0                       0                       0
   174                       0                       0                       0
   175                       0                       0                       0
   176                       0                       0                       0
   177                       0                       0                       0
   178                       0                       0                       0
   179                       0                       0                       0
   180                       0                       0                       0
   181                       0                       0                       0
   182                       0                       0                       0
   183                       0                       0                       0
   184                       0                       0                       0
   185                       0                       0                       0
   186                       0                       0                       0
   187                       0                       0                       0
   188                       0                       0                       0
   189                       0                       0                       0
   190                       0                       0                       0
   191                       0                       0                       0
   192                       0                       0                       0
   193                       0                       0                       0
   194                       0                       0                       0
   195                       0                       0                       0
   196                       0                       0                       0
   197                       0                       0                       0
   198                       0                       0                       0
   199                       0                       0                       0
   200                       0                       0                       0
   201                       0                       0                       0
   202                       0                       0                       0
   203                       0                       0                       0
   204                       0                       0                       0
   205                       0                       0                       0
   206                       0                       0                       0
   207                       0                       0                       0
   208                       0                       0                       0
   209                       0                       0                       0
   210                       0                       0                       0
   211                       0                       0                       0
   212                       0                       0                       0
   213                       0                       0                       0
   214                       0                       0                       0
   215                       0                       0                       0
   216                       0                       0                       0
