(written by ASE)

216 atoms
1 atom types

0.0      16.331106185913086  xlo xhi
0.0      16.331106185913086  ylo yhi
0.0      16.331106185913086  zlo zhi

Atoms # atomic

     1   1      15.224709158359019      3.4781102071873136      7.2548659427334314
     2   1     0.27831355319260354      10.289219801513582     0.44640937677073111
     3   1      13.897715085552022         7.5676799371887      5.8725160023867602
     4   1      5.7233701554354184      2.1489661155221143       8.605062211128029
     5   1      1.6164203154347803      6.2303278108807945      12.712079581432363
     6   1      9.7639192121173437     0.77524593960663424      4.5197990893590827
     7   1      4.3741643314950238      6.1968084450031711      9.9691889469271473
     8   1     0.27323986763210328      15.723720869745762      5.8696824065084456
     9   1      11.180152573600481      2.1060567521727762      8.5972632519466288
    10   1      3.0048532151916447      4.8184548385206085      8.6273309067337323
    11   1      0.2766643840868106      7.5792912557852219      8.6033305151240711
    12   1      7.0633066847171904      11.669827338348682      12.705255978853529
    13   1      9.8262057573119819     0.76411603298591757      9.9479929489023107
    14   1       5.708093462301008      7.5624240110653886      14.026769754582233
    15   1      4.3592093502938951      8.9362123256656787      7.2638222861468194
    16   1      13.900963353997895        15.7459360278134      8.6222467874371205
    17   1      4.3549136929215138      11.678422546732577      15.398256441750618
    18   1      7.0671896163415795      11.653312467970295      1.8161365040801201
    19   1      5.6794090228155483      13.015826263758981      14.040586333042143
    20   1      7.0728757895889771      11.657066909503328      7.2488974806489637
    21   1      3.0128843326062906      4.8177379222154286      3.1486784042691056
    22   1       4.347097699068911      8.9182869845117239      1.8047518682868144
    23   1      4.3831547442508167      6.1885033127346105      15.393295945496448
    24   1      11.164344398724552      4.8820355320217459      11.333224182206663
    25   1      12.481624815306986       8.942222157665924      9.9630700930312059
    26   1     0.27933657645548138      4.8749826914390155      5.8984413118423049
    27   1      15.270378625148055      6.1999968487473893      9.9712885918290795
    28   1      7.0971015255634029       3.471116014544009      9.9677765293320135
    29   1      13.865848569485934      7.5738674164743429      11.298249568703454
    30   1      15.274376419126838      11.637078913019195      4.5124313507115517
    31   1      1.6491708092600561       14.35236169925895      9.9657742254083814
    32   1      4.3561255881013494      14.381763541754481      1.7735689292408381
    33   1       12.53087837691703     0.74244683613031981      7.2320424035514179
    34   1       15.25842223278346       11.64528475748989      15.424254270234997
    35   1      5.7112633712593492      10.299887399325485      5.8778605088003246
    36   1      15.243576760182918      0.7400117298819211      4.5283831035304729
    37   1      15.263821736849764      3.5076826397473155      1.7811266044722771
    38   1      12.531238538536741      14.361675284062699      15.428092425009368
    39   1      8.4556954001559461      10.283977016422341      3.1590841548493813
    40   1      1.6371264449863219      6.2139443508231125      7.2554991457972733
    41   1      13.902753454588833      2.1392731442554407      5.8681896826062143
    42   1      5.7352296935266054      15.738667576963735     0.44523574876298966
    43   1      4.3500700058413031     0.76857248548682833      9.9599785435603962
    44   1      3.0073748332345076      13.018272442543662      0.4436620797534907
    45   1      0.2813389107981692      4.8380417901741453     0.43763950216889924
    46   1      15.253145378349814     0.78407452298600333      9.9670639933708571
    47   1       15.25473690334502      14.374877640949535      1.8185164909995564
    48   1      11.152585608545905      15.734481914896833       11.35584427874403
    49   1      8.4343923270549794      4.8405181446620986      3.1658683343320035
    50   1     0.28686845632767088      13.026143434049004      14.080042525186286
    51   1      4.3649933512244843      3.4434801807472866      12.708450709761337
    52   1      11.150987269682219      15.731299838316204     0.44525080619557045
    53   1      11.175652500173669      10.301430253831541      5.9018497061974813
    54   1      13.863624328131777      2.1216634312236238      11.318782674666068
    55   1       12.52322542920308      8.9205998061561331      15.388247842361807
    56   1     0.28170996243982671      10.290997247777341      5.8892041397065213
    57   1       8.409966555370147      7.5725119433515147      5.8792860674275289
    58   1      4.3571228464240335      14.387315871156716      12.671048412259324
    59   1     0.29535576832093113      15.719187700386328     0.43320726323634062
    60   1      4.3451377384708394      11.633122002251298       4.535882252498709
    61   1      11.158696675163583      10.324056190827605       11.34080120395754
    62   1      13.857915279754479      2.1253979178561053     0.42934045371148244
    63   1      1.6647425672349385      8.9250346611274836      9.9937286075565908
    64   1      1.6544121342366225      14.375392574724742      4.4918510343744629
    65   1      8.4227581333285571      7.5632475157418071      11.336076272870855
    66   1      2.9870040433532097      4.7969171736619387      14.035899364936995
    67   1     0.29079154110560879      2.1103782049044071      3.2014647133341043
    68   1      7.0740667564584783      0.7688661510507373      1.7988167454874144
    69   1     0.30586077628001718      13.022590488341052       3.152081931575367
    70   1       9.777155638346585      3.4909971793044576      1.8114943128249905
    71   1      11.168503778727313      13.031141893284712      8.6003849771207115
    72   1      12.546669030416865      14.368977804254769      9.9673968995166433
    73   1      3.0024554635436687       10.27233016836874      14.056466540242013
    74   1      9.7834146632512784      6.2028177902985249      9.9678174125428995
    75   1      15.248065152692334      3.4589741876157518      12.663139457772445
    76   1      8.4367839948918117      12.986177175178568      5.9328289592463648
    77   1      4.3538955062884952      14.360293042170838      7.2173994001857409
    78   1      15.268504811315779      6.1759789357616341      15.415225894497667
    79   1      2.9782455454782166      15.732141837778499       8.577550730431085
    80   1      12.538317174478721      11.635468893238112      12.671508835086684
    81   1      8.4570581738521469      2.1079011203591165      11.327868481580595
    82   1      8.4040112343177498      7.5854013489931162      0.4500917251417107
    83   1      1.6477571749026936       6.185672637085645      1.7851055386365147
    84   1      13.888582554967911      15.742646876156641      14.054962622127277
    85   1      1.6238101991548746      3.4728888371112987      15.422298689980948
    86   1      1.6749641000137814      14.398344603998112      15.395143477264583
    87   1      9.8276863135919257      11.674589259007121      4.5333328922770306
    88   1      8.4509782563475255      2.1436544616887261     0.42746816083199235
    89   1      15.259638021602427      6.2016711135741502      4.5265988433982329
    90   1      2.9895760353523428      13.033524800433497      5.8941631758460176
    91   1      1.6298645646526921     0.77032352801022341      7.2629063075410158
    92   1      5.7168901665099838      10.301348487409768     0.42501203501609197
    93   1      1.6583232947447186      11.644714339357051      1.8044936713418736
    94   1      8.4386801971490968      13.008886825415971      11.338952698779622
    95   1     0.28110136839206135      2.1578827924868449      8.5855375577006043
    96   1      7.0826089140091995     0.77236458581084122      12.693446571366167
    97   1      11.182988116298361      13.028405638384697      3.1812117060365495
    98   1      15.264603384905513      11.647907123445293      9.9785794311037534
    99   1      5.7239668556323977      10.277505788184953       11.35055963703212
   100   1       3.013079744620228      15.762930789214806      14.084657460967492
   101   1     0.28464454958312757      10.291285377073109      11.339327461546077
   102   1      13.895964894762187      15.714323571700675      3.1523676273466776
   103   1      15.229127465364058      14.367316193755187      12.698731213078077
   104   1      5.7280848657193815      7.5513485545544086      8.5780656642062922
   105   1      7.0802785709886962      0.7583219937669412      7.2602133693763449
   106   1      1.6473923895865141      8.9288689222627227      15.409831257480278
   107   1      13.898212497951135      10.293366527189164      3.1532373689877886
   108   1      12.559092659477301     0.75276662245913428      12.721352283025226
   109   1      3.0128140037494688      7.5362864982771498      11.338696692006693
   110   1      11.174838729595081       2.146142983798967      14.065174664160736
   111   1      4.3657701322313187      6.1951789570264282      4.5452868511171687
   112   1      9.8024000476589208     0.75647336691280032      15.395759645657222
   113   1      15.275313812747868      8.9144459095080038      7.2426520834812322
   114   1      11.149600160741443      2.1063168959372831      3.1786102683914805
   115   1      13.895389609580434      13.019631322600731      0.4563461567689906
   116   1      9.7980226238647674      14.382441034963449      12.702773783906878
   117   1      7.0885739691594267      8.9302443502861024      4.5328418070415069
   118   1       1.638460624770147      11.644479747599348      7.2462201170408207
   119   1      12.513656811036185      8.9231822623104335      4.5394181635354585
   120   1      7.0677274252466873      14.374651809879879      4.5478328044046066
   121   1     0.26419859421514857      7.5344788763101178      3.1537323478624444
   122   1      13.841568809268551      10.291522889060161      8.5942232931943181
   123   1      7.0241819386041584       8.936719472162622      9.9811180838178188
   124   1      13.880267688601521      7.5737301656949398     0.42942270683814598
   125   1      9.7672667683610825      11.649043092662055      15.374107118444158
   126   1       5.698921995325577      4.8271264595724688      11.335756994462031
   127   1      7.1064370120872695      14.398951038292921      9.9689991320194622
   128   1      11.172331225994071      4.8609573165806523      5.8666925783599595
   129   1      11.148174115409347      4.8405731423148382     0.43579108824814838
   130   1        5.70179404089032      13.008934522495338      3.1729778760345937
   131   1      4.3448549629288777      11.664789942721654      9.9972358030047417
   132   1      2.9887895202476784      2.1235396785803573      5.8858721580193105
   133   1      5.7396708756615453      13.027727171765946      8.6016134202668582
   134   1      2.9771161467774903      7.5600196889013773      5.9153416524947602
   135   1      12.524271844719806      6.2064101591026883      1.8022831794009022
   136   1      2.9985202111434432      10.267692844162525      8.5819670906165584
   137   1     0.26607222553309029      2.1132889435080244      14.019517851698879
   138   1      11.159593185573726      7.5996029110222025      3.1539243529421412
   139   1      2.9561265116266497      13.028441654546668      11.334995788011724
   140   1     0.26926221106820591      7.5691969963355064      14.054971382815324
   141   1      5.7185741654345748      4.8681483813525688      5.8887052671927336
   142   1      13.903814471252304       13.02982097620918      5.8704562672859311
   143   1     0.27120869602459408      12.997526159838571      8.6231102019146419
   144   1      3.0058516902765575       2.109746218602794      11.333540540386139
   145   1      11.157038958303133      15.758414167821684      5.8850053366075485
   146   1      15.217289828992989     0.75595782475647866      15.401171804050705
   147   1      2.9990069160349435      10.296204990116394      3.1709741119962871
   148   1      5.6924230249093739      2.1426958964049163      3.1580455266109198
   149   1      8.4498753830633859      4.8098829919715058      8.5960523301765761
   150   1      7.0867371448989047      14.368545610311116      15.395305063288561
   151   1      9.8088109244897623      3.4918990434684076      12.703261462208161
   152   1      12.520406434471511     0.73940511307277745      1.8127928414755132
   153   1      8.4488533027912354      2.1345024629089551      5.8700065519661848
   154   1      9.8069526852140143      6.2299827371127208      15.406838995807334
   155   1      15.259869693130781      8.9205131726854461      1.8167407482029176
   156   1      9.8015444204596633      6.1993782468302925      4.5228078989983374
   157   1      13.869809373892963      4.8616888340325772      3.1737845893922554
   158   1      1.6341734847333669      3.4913488235885666      9.9982062925583932
   159   1       13.89213452726608      4.8404957562370896        8.60672674185696
   160   1      7.0496706737720274      6.2141283252720996       1.809239165710224
   161   1      8.4437808644120196      10.280252750592581      14.038943217328438
   162   1      12.491503951194659      11.649950310579811      1.7852573905626627
   163   1      12.518678632106685      6.1890698372283168      7.2721644079871339
   164   1      9.8254503913203735      3.4797399385165022      7.2316481725893027
   165   1      11.178615559553123      12.978999251438722      14.083874839501959
   166   1      13.902550985353969      13.035132873395014      11.322023155833676
   167   1      3.0072307685866235      7.5366442263724025     0.40928447063781803
   168   1      8.4420725302428536      15.715932618071975      3.1680217601244465
   169   1      9.8359856054017882      8.9215079974836726      1.7686502896073364
   170   1      13.877040835170874       10.27262219130364       14.07115821409684
   171   1      9.7828520323967041      11.670011312797669      9.9271230431547792
   172   1      9.7832754656523093      14.379146042847992      1.8110391220752149
   173   1      9.7885046230065882      8.9547372872459619      12.631506560054277
   174   1      7.0859895661855603      6.1624353987458562       12.69345727887378
   175   1      15.260908321369243      14.372890911582431      7.2319698845225844
   176   1      11.142563381420132      7.5800057385659443      14.074598244269964
   177   1      8.4160747017584754      10.295811732564061      8.6271284374988682
   178   1      12.510373499838124      6.2259917570024186      12.664037915002154
   179   1       1.646995116718827      8.9342002876442166      4.4955402574520349
   180   1      9.7994768980805702      8.9215206518108516      7.2402428942683059
   181   1      7.0861136759328929      8.9218847070696938      15.387372746966889
   182   1      5.7116191525350359      4.8204104187746566     0.48282895625869315
   183   1      12.510021125496678      14.397288454383556      4.5256487954500244
   184   1      1.6342764228179192     0.76095318124850309      1.8334777993642746
   185   1      8.4294123626051487      4.8405298255794946      14.049900891255675
   186   1      1.6250750234916609      11.632258587773777      12.706543799996439
   187   1      12.508023688621961      3.5118702486337838       15.42525785572127
   188   1      11.141482896561001      10.298955846163153     0.42385744933723046
   189   1      4.3694335599496412      8.9083728058718634      12.684298466225528
   190   1      3.0060052456698259      15.753917014624221      3.1993463302938494
   191   1      5.7055830384706496      2.1201668136822605      14.054682280109773
   192   1      4.3719104011424861      3.4793688260367333       7.246786641534527
   193   1      3.0052075363526569      2.1217782935780178     0.43524692176039537
   194   1      12.503060272138441       11.66914205786145      7.2086966300208246
   195   1      4.3479684141198049      3.4634915390662115      1.7775664798671755
   196   1     0.27370400158426023      4.8367198996888305      11.311510330177271
   197   1       8.459208436062795      15.717745107087921      8.5961224156809521
   198   1       7.050780360924648      6.1863068135592698      7.2820746929878624
   199   1      8.4636919615232955      15.729765744498195       14.05258555543719
   200   1      12.522555723272376      3.4826392395551693      4.5026982262913293
   201   1       12.51564062017394      3.4799222094983691      9.9902924710225989
   202   1      5.7448391949043867      15.739679923138056      5.9038038263368549
   203   1      1.6388750539852595      3.4791196331322851      4.5284935855408435
   204   1      7.0749199501332782       3.483850161325222      4.5261335535219587
   205   1       13.86899755013394      4.8308736005321293      14.017353961751269
   206   1      5.6896371261104264      7.5733996930736112       3.165383819612515
   207   1      7.0625615395283035      3.4677156508195424       15.39738426658505
   208   1      8.4307021305676244      13.008749574636568     0.44094389377257315
   209   1      1.6479770438374288     0.77519088111578327      12.694835627126508
   210   1      5.7351182381064518      15.759884990003798      11.342907662727953
   211   1      9.8000356352960125      14.336364682885119      7.2109198979651978
   212   1      4.3761096909463504     0.76628685847823164      4.5450692940306681
   213   1      4.3375553629661567      0.7839978061274806      15.436939746527059
   214   1     0.23706517675220518       15.71503902789118      11.328303595753596
   215   1      11.143388832916116      7.5551365787249551      8.6245781038674068
   216   1      15.223907068697827      8.9086696958556786       12.67029109944815


Velocities

     1                       0                       0                       0
     2                       0                       0                       0
     3                       0                       0                       0
     4                       0                       0                       0
     5                       0                       0                       0
     6                       0                       0                       0
     7                       0                       0                       0
     8                       0                       0                       0
     9                       0                       0                       0
    10                       0                       0                       0
    11                       0                       0                       0
    12                       0                       0                       0
    13                       0                       0                       0
    14                       0                       0                       0
    15                       0                       0                       0
    16                       0                       0                       0
    17                       0                       0                       0
    18                       0                       0                       0
    19                       0                       0                       0
    20                       0                       0                       0
    21                       0                       0                       0
    22                       0                       0                       0
    23                       0                       0                       0
    24                       0                       0                       0
    25                       0                       0                       0
    26                       0                       0                       0
    27                       0                       0                       0
    28                       0                       0                       0
    29                       0                       0                       0
    30                       0                       0                       0
    31                       0                       0                       0
    32                       0                       0                       0
    33                       0                       0                       0
    34                       0                       0                       0
    35                       0                       0                       0
    36                       0                       0                       0
    37                       0                       0                       0
    38                       0                       0                       0
    39                       0                       0                       0
    40                       0                       0                       0
    41                       0                       0                       0
    42                       0                       0                       0
    43                       0                       0                       0
    44                       0                       0                       0
    45                       0                       0                       0
    46                       0                       0                       0
    47                       0                       0                       0
    48                       0                       0                       0
    49                       0                       0                       0
    50                       0                       0                       0
    51                       0                       0                       0
    52                       0                       0                       0
    53                       0                       0                       0
    54                       0                       0                       0
    55                       0                       0                       0
    56                       0                       0                       0
    57                       0                       0                       0
    58                       0                       0                       0
    59                       0                       0                       0
    60                       0                       0                       0
    61                       0                       0                       0
    62                       0                       0                       0
    63                       0                       0                       0
    64                       0                       0                       0
    65                       0                       0                       0
    66                       0                       0                       0
    67                       0                       0                       0
    68                       0                       0                       0
    69                       0                       0                       0
    70                       0                       0                       0
    71                       0                       0                       0
    72                       0                       0                       0
    73                       0                       0                       0
    74                       0                       0                       0
    75                       0                       0                       0
    76                       0                       0                       0
    77                       0                       0                       0
    78                       0                       0                       0
    79                       0                       0                       0
    80                       0                       0                       0
    81                       0                       0                       0
    82                       0                       0                       0
    83                       0                       0                       0
    84                       0                       0                       0
    85                       0                       0                       0
    86                       0                       0                       0
    87                       0                       0                       0
    88                       0                       0                       0
    89                       0                       0                       0
    90                       0                       0                       0
    91                       0                       0                       0
    92                       0                       0                       0
    93                       0                       0                       0
    94                       0                       0                       0
    95                       0                       0                       0
    96                       0                       0                       0
    97                       0                       0                       0
    98                       0                       0                       0
    99                       0                       0                       0
   100                       0                       0                       0
   101                       0                       0                       0
   102                       0                       0                       0
   103                       0                       0                       0
   104                       0                       0                       0
   105                       0                       0                       0
   106                       0                       0                       0
   107                       0                       0                       0
   108                       0                       0                       0
   109                       0                       0                       0
   110                       0                       0                       0
   111                       0                       0                       0
   112                       0                       0                       0
   113                       0                       0                       0
   114                       0                       0                       0
   115                       0                       0                       0
   116                       0                       0                       0
   117                       0                       0                       0
   118                       0                       0                       0
   119                       0                       0                       0
   120                       0                       0                       0
   121                       0                       0                       0
   122                       0                       0                       0
   123                       0                       0                       0
   124                       0                       0                       0
   125                       0                       0                       0
   126                       0                       0                       0
   127                       0                       0                       0
   128                       0                       0                       0
   129                       0                       0                       0
   130                       0                       0                       0
   131                       0                       0                       0
   132                       0                       0                       0
   133                       0                       0                       0
   134                       0                       0                       0
   135                       0                       0                       0
   136                       0                       0                       0
   137                       0                       0                       0
   138                       0                       0                       0
   139                       0                       0                       0
   140                       0                       0                       0
   141                       0                       0                       0
   142                       0                       0                       0
   143                       0                       0                       0
   144                       0                       0                       0
   145                       0                       0                       0
   146                       0                       0                       0
   147                       0                       0                       0
   148                       0                       0                       0
   149                       0                       0                       0
   150                       0                       0                       0
   151                       0                       0                       0
   152                       0                       0                       0
   153                       0                       0                       0
   154                       0                       0                       0
   155                       0                       0                       0
   156                       0                       0                       0
   157                       0                       0                       0
   158                       0                       0                       0
   159                       0                       0                       0
   160                       0                       0                       0
   161                       0                       0                       0
   162                       0                       0                       0
   163                       0                       0                       0
   164                       0                       0                       0
   165                       0                       0                       0
   166                       0                       0                       0
   167                       0                       0                       0
   168                       0                       0                       0
   169                       0                       0                       0
   170                       0                       0                       0
   171                       0                       0                       0
   172                       0                       0                       0
   173                       0                       0                       0
   174                       0                       0                       0
   175                       0                       0                       0
   176                       0                       0                       0
   177                       0                       0                       0
   178                       0                       0                       0
   179                       0                       0                       0
   180                       0                       0                       0
   181                       0                       0                       0
   182                       0                       0                       0
   183                       0                       0                       0
   184                       0                       0                       0
   185                       0                       0                       0
   186                       0                       0                       0
   187                       0                       0                       0
   188                       0                       0                       0
   189                       0                       0                       0
   190                       0                       0                       0
   191                       0                       0                       0
   192                       0                       0                       0
   193                       0                       0                       0
   194                       0                       0                       0
   195                       0                       0                       0
   196                       0                       0                       0
   197                       0                       0                       0
   198                       0                       0                       0
   199                       0                       0                       0
   200                       0                       0                       0
   201                       0                       0                       0
   202                       0                       0                       0
   203                       0                       0                       0
   204                       0                       0                       0
   205                       0                       0                       0
   206                       0                       0                       0
   207                       0                       0                       0
   208                       0                       0                       0
   209                       0                       0                       0
   210                       0                       0                       0
   211                       0                       0                       0
   212                       0                       0                       0
   213                       0                       0                       0
   214                       0                       0                       0
   215                       0                       0                       0
   216                       0                       0                       0
