(written by ASE)

216 atoms
1 atom types

0.0      16.331106185913086  xlo xhi
0.0      16.331106185913086  ylo yhi
0.0      16.331106185913086  zlo zhi

Atoms # atomic

     1   1      11.339813193027794      9.2384823453514855      11.123981962072435
     2   1      1.8355709954263943      16.036817153038101      7.0372377973186531
     3   1      12.717763321155303      13.315709482656871       9.755337631470411
     4   1      5.9175834152250104      3.7772380600935946      11.121997179524897
     5   1      15.424699118505828      13.307782033384115      7.0695413743773088
     6   1      12.729751836042738      13.287016282483364      15.194930606277467
     7   1      11.326888257929113      3.7819795391465902      5.6860004671611364
     8   1      8.6089266479665412      1.0538489605334576      11.150482070004841
     9   1      5.9299398790104192      11.924791589400229      13.857830593103358
    10   1      8.6423613271930435        11.9773304090279     0.22831980469975477
    11   1      10.007346610420768      16.034223989376187      9.7975573339884932
    12   1     0.46583084876115777      14.679186954130728     0.24510507006442595
    13   1      14.085348581913422      11.945924315789171      11.138733987333808
    14   1      3.1849853724127968      6.5059872406238242     0.25349099534497554
    15   1      10.003942596409615      2.4352814621596508      7.0302662364528032
    16   1       10.00979960307393       10.60640343248474      15.229107023758615
    17   1      8.6459911722738525       14.68948465622509      8.4142962820849334
    18   1      1.8252607606810756      13.298164744728069      9.7914014905207978
    19   1       15.38733089034622       5.155632793139489       15.24394373567111
    20   1      5.8890561814195053      1.0287786698960559      13.842184004251408
    21   1      3.2160091589592525      11.963423303458171      5.7124149150326389
    22   1      3.1809583761405236      3.8071857421249433      2.9821696036659375
    23   1      4.5619355653407183      13.289686345518135      12.449734937406106
    24   1      1.8210591590289766      5.1594524531279831      7.0430422398546852
    25   1      14.099460103537581      1.0699994106243338      11.128152049582809
    26   1      4.6012793286549254      2.4188293767122673      7.0523684789856134
    27   1      15.451572042385123      16.028768027542469      4.3142115362551294
    28   1      12.720911328393527      7.8758035566045805      9.7308213326757595
    29   1      15.449917245754023      7.9059758529433566      12.502029431178244
    30   1      12.691344006234885      16.056611440975416      1.6087809954577921
    31   1      1.8231209626255946       7.864888226002904      15.247068381074541
    32   1      12.731521495028232      2.4395435368945186      15.204799034657526
    33   1      11.377344954030946       3.787431850693622      11.114317949746805
    34   1      9.9931922587661575      7.8661400309838427      7.0533136598849069
    35   1      3.1639120240206182      1.0454595066424446      11.098866042851455
    36   1      10.024552601745086      7.8874961549179829      12.507512648485886
    37   1      5.9159782624928425      9.2351474434349257      5.6863956715330346
    38   1      14.065631193348963      11.942178634944185      5.7031203117196583
    39   1      12.712462131477082      5.1594169236709035      12.497686076726495
    40   1      11.331649205177769      9.2465830615656159      5.6774612298397642
    41   1      14.082579231080786      3.7932732828014082      8.4118919599209221
    42   1       12.75609814522943      16.030659362750839      12.480603708444619
    43   1      14.076181981986906      1.0717212508542389      5.6886753972448219
    44   1      4.5189181535054672      10.602489351747295       15.20358713947769
    45   1      4.5537117127890383      16.042823091399214      9.7640243403739078
    46   1       7.285910414237776      13.339831550489407      9.7508239303066375
    47   1      14.079123626351134      3.8045468282032289      13.844062685132599
    48   1      8.6271206502206041      14.670213089341246      13.861007802635072
    49   1      1.8535611900071416      7.8379914535839248      4.3067766323325714
    50   1      11.368961948979745      3.7876026841105386     0.27678292714694663
    51   1      12.709391997021498      7.8744845863486148      4.3185548907068778
    52   1      9.9788120760418906      5.1606794361594552      15.248864322124177
    53   1      15.420850256223844      16.024915271621353      15.230101848556842
    54   1      4.5351925916674531       2.451139767639404      1.6014402689317393
    55   1      12.696638382044625      2.3970298646219703      9.7527561487258936
    56   1     0.44523444074359375      3.8069477434329997     0.25244657227639955
    57   1      11.339677889067957      6.5268440053392851      8.3998343329388945
    58   1      3.1559699736011169      9.2240038482391356      8.4199508195143835
    59   1      4.5671311400574837       5.189372636332962      4.3137408926250487
    60   1      7.2797024933466901      10.619608709600925      1.5747870923109559
    61   1      12.701690378818398      10.586717193033337      1.5853505352760777
    62   1      15.451596377629699      13.300915600774829      1.6120168529289316
    63   1      4.5632569691211415      7.8615304489564437      12.450455260645526
    64   1       12.70167480426187      5.1750528050152411      7.0573752122044766
    65   1      3.1899159363161402      3.7873520310914159      8.4292760852355286
    66   1      14.093333462363375      9.2272345953089143      13.854043055637703
    67   1      7.2707636713093962      5.1287175259346327       1.591028312864097
    68   1      7.2919805976445673      5.1435912274188809      12.497318127828521
    69   1      0.4955560762380351       1.065345781804254       8.397217807442189
    70   1        10.0028669785994       13.33245213092448      1.6129531514639552
    71   1      4.5754756954222557      5.1558026531466226      9.7522928056691853
    72   1      14.088278545360254      1.0699520785736354     0.25331780445124075
    73   1      15.429229367635912      13.351867762456209      12.490968575814009
    74   1      4.5411824687671469      10.580466928816691      9.7482443943816861
    75   1      7.2790074787616277      16.055329460291205      7.0603601733040477
    76   1      15.427348739935155        10.5991106463905       9.737090091678283
    77   1      11.347368799763444      9.2387724214668197     0.23708263729018775
    78   1       15.44187104048774      7.8590278124043493      7.0389310436361825
    79   1     0.41220926284517745      3.7789278994768836      5.6630202090040598
    80   1      15.449655398522395      5.1651332726215742      4.3208462973360611
    81   1     0.46531043955592111      6.5127091218803344       2.970332940704651
    82   1      7.2713486905889795      16.025724175151026      1.5825544156744087
    83   1      7.2643026638747301      13.296549857898071      15.201006630142956
    84   1      4.5764053017650212      7.8718792550644139      1.5834823185500539
    85   1     0.45267034849499055      9.2108540554805813       11.12935907771373
    86   1      5.9259844283571965      9.2499384050876188      11.078848844073832
    87   1      14.061588622520162      6.5270756768676392      0.2449457502600989
    88   1      5.9362441674700221      11.951216744779344       2.968423110710404
    89   1      1.8396006685755708      16.051223617826508      12.500278266978626
    90   1      14.049264281257592       9.237532297403277      2.9867852695044803
    91   1      8.6385144117306254      11.968266017128599      5.7072981865082966
    92   1      7.3158043153786139      7.8637790255551749      9.7757354334731872
    93   1      15.443994047224464      2.4127920458856522      1.6058423929991363
    94   1      9.9830746374816499      13.311094546875665      7.0305563125681374
    95   1       5.926922795388009      14.668916507510289      0.2366206783005147
    96   1      15.431387417124824      10.552355827693418      15.187046960444945
    97   1       14.06955890182337      6.5217404178470133      11.107621863849545
    98   1      5.9301876118001928      14.697232024687992      11.104085466107904
    99   1      7.2876250755705314      5.1544140840911723      7.0865400294178471
   100   1      8.6351464138814436      3.7955157755889957      13.858064211451278
   101   1      9.9772789556336647      10.588235712294818      4.3131485727720928
   102   1      14.062252487992168      14.687139712057842      13.841720661194699
   103   1      10.006359572900806      10.631405462761109       9.766349816345496
   104   1      5.9442864790971726      3.7661806116636001       0.224105746444339
   105   1      8.6415602109416341      6.5314706220378866      11.142638333973423
   106   1      11.337821596611775      11.978622123809942      2.9690103201619991
   107   1      4.5589272424063552      2.4352877893232403      12.497120525642572
   108   1      11.356167450791986      11.965482065149217      13.847581561498146
   109   1      9.9562425968132402      2.4172509927491319      1.6082929521278402
   110   1     0.48948114745855165      14.661188607243048      5.6866356170445442
   111   1      4.5634039539983746      16.016680224857168      4.3176627606407578
   112   1       7.296055777701099      2.4326861083257256      15.168552174567935
   113   1     0.48168991471730394      14.691192016984473      11.153366283191872
   114   1      14.060172311285896      14.669717623761699      8.4119270026731101
   115   1      8.6524760282482021      3.7617148509316394      8.4179183398874784
   116   1      4.5287792813121541      5.1718901966302724      15.207765987676112
   117   1     0.44616416876258214      9.2238821720162605      5.6951977294958169
   118   1      1.7964516030671689      10.593424959847994      1.6093125988755332
   119   1      11.375917935289067      14.651127443725954      11.128522918710132
   120   1      7.2708449510262767      2.4148048139644516      9.7838468571949306
   121   1      12.721931461846111      7.9047513034363419      15.233595416268031
   122   1      11.331202410087371      6.4789624648183803      2.9773872414020559
   123   1     0.45402500030331439      3.8042350937202229      11.119214200955298
   124   1      10.009272014971543      2.4137927111425768      12.475877803948151
   125   1      9.9841356541451205      5.1416405142137478      4.3331438698295983
   126   1      4.5265341116476634      16.044719293656499      15.218645788820709
   127   1       11.37113070597627      14.669167647234303      0.2171303223584129
   128   1      7.2589026731035347      7.8833839852896972      4.2942245131807795
   129   1      15.428918849915135      7.8562662488499768      1.6274508734195194
   130   1      1.7990959924189127      10.593037542754359      12.507548664647857
   131   1        12.6845749146039       10.56407081443183      12.477663037490174
   132   1      8.6398616108702981      1.0759234608874522     0.21990467712571515
   133   1      11.370832842582672      1.0488761749807765      13.848322326343009
   134   1      9.9717275996412127      7.8672959551011559      1.6183519254729219
   135   1      1.8160144628285764      7.8735686077428113       9.766337162018317
   136   1      9.9854906405630572      13.319169954435438      12.492012071101385
   137   1      4.5797703793848541      13.314997920105498      7.0622159790553383
   138   1      4.5863545231570697      7.8941771529636071      7.0282498180873176
   139   1     0.45641636394958951      6.5122959094274506      8.4167677695239718
   140   1        14.0359334342794      6.4989801503008948       5.663430987932486
   141   1      12.684676149221332      10.622576636029294      7.0498750898264575
   142   1      7.2875827322449709      7.8929326485560409       15.22258128457338
   143   1      8.6574462586002028       9.270364435974102      8.3877387429753298
   144   1      15.454674299363546      2.4147795053100936      7.0602530982279177
   145   1      5.9135885414755762      6.5132079943941221      8.4304354162870823
   146   1     0.45844887399555034       6.507474610772249      13.867269747769114
   147   1      5.9527157211130657      1.0359351786206759      8.4214596046780343
   148   1      5.9037473685694408      11.911801435846087      8.4236137605278145
   149   1       7.277742046043727      10.582164555478244      7.0240787571671603
   150   1      8.6142142099078001      14.657347532239328      2.9708761033635653
   151   1      8.6309004004079952       6.477514517766167      5.6822338580058158
   152   1      3.1599137433369435      1.0382494603797596      0.2577535872037906
   153   1      9.9821654727443274      16.032612996185321      4.3201503093412157
   154   1      5.9443439102743696      6.5237466154097774      2.9308042295316739
   155   1      3.1824240879212766      11.977004316750595      11.135559698031443
   156   1      10.034886320001419      5.1688813869910177      9.7804681518381358
   157   1      5.9301063320833123      9.2506061641987571       0.249498539910471
   158   1     0.46064649867595264      11.960703596524468      13.856511622847393
   159   1       14.06402117356788      14.631847116154063      2.9308395156363076
   160   1      1.8625026889213387      13.306517574075997      15.181527726975332
   161   1      8.6277952232002235      6.5065284564631725     0.25221302997611872
   162   1      11.329859104586831      1.0510534493129029      2.9413014806315516
   163   1      10.026615257075264      16.000391185548438      15.241696132482161
   164   1      15.431919872276126      10.598277407616251      4.3273009776071376
   165   1      14.070339576469337      11.938260660567607     0.24249742693199039
   166   1       4.533932512703359      13.312858365402462      1.5996715833560273
   167   1     0.46859661014521947      1.0727109652511047      2.9791948633690879
   168   1      11.346141330027081      1.0532538421273756      8.3936541542266241
   169   1      1.8531522362220585      2.4230688196696804      4.3203732201815228
   170   1      3.2177362312667412      14.655264435303707      13.819510370175976
   171   1      5.9192683875593843      6.5224889699701407      13.838353636755301
   172   1      1.8339343285525018      5.1327839453031174      1.6326722434955343
   173   1      11.376054212658687      11.995329729325363       8.398964104592892
   174   1      3.1677148926903556      14.663799292281055      8.4206964514081619
   175   1      7.2657983080063104      16.015830438116609      12.509277440422466
   176   1      11.347586843554836      6.5051038712457512      13.849065038007438
   177   1      8.5948258338499954      9.2527204102474343      2.9492880645486252
   178   1      3.1600556178128159      14.650443136648505      2.9714552821844507
   179   1      12.716010210136119      2.4394189404422946      4.3148038561080853
   180   1       8.626922074624872      3.7830556436616973      2.9759061984172206
   181   1      15.424728320799318      2.4237998504167138      12.493631824980298
   182   1      1.7899230653288072       2.428791009079049      9.7729670560503337
   183   1      1.8303722571278342      16.027538610986539       1.596738456327401
   184   1      12.698231853859397      13.333497573031423      4.3236657787725221
   185   1      8.6425355675442006      9.2609252813083458       13.88425769530204
   186   1      1.8088612393619741      2.4527076874473721      15.245740650130529
   187   1      3.1705976457627116      3.8222188394611578      13.846869998946772
   188   1      14.054278315049828      9.2311214205724355      8.3868110834521303
   189   1      7.2669396309768786      10.560259915131383      12.455424517587744
   190   1      5.9333813692982176      1.0787418472379073      2.9628347651461979
   191   1      3.1990949472173895      11.936258356643975     0.23797215131751592
   192   1      1.8247856150307484      10.593176740353329      7.0239668150421153
   193   1       1.821325629957073      13.270838211889895      4.3263480094295801
   194   1      5.9257469163701444      3.8056742800843892      5.7009223524296431
   195   1      7.2830276611654199      2.4253261569564586      4.3271345245342445
   196   1      3.1982361564363373      1.0741821524618871      5.7176182770276682
   197   1     0.45865386801203911      9.2151818353758017     0.27575260331069629
   198   1      12.702763076399265      5.1545654493124289      1.6045686862980801
   199   1      12.702008683817439      16.067238155576433      7.0610031104657196
   200   1     0.47291964466774772      11.936580555282148      2.9785361082984423
   201   1     0.46911087470120094      1.0289858845036122      13.841305015217358
   202   1      11.363413513216642       14.68089723511946      5.6689623890243865
   203   1      3.1586487973239343      6.5302523996944615      11.136038615644679
   204   1       7.301423159244564      13.296433048724111      4.3339118901483857
   205   1      8.6294558602900224      11.942968070278198      11.111509662522849
   206   1      3.2036616992143365      6.4982895160598559      5.6814478296060429
   207   1      15.459678599057952       16.03073431530413       9.740816304327609
   208   1      1.7934681020822723      5.1606745691105402      12.497887572551576
   209   1      3.1994098452821902      9.2281048236549168      13.839267668541538
   210   1      8.6847981000927348      1.0677741958603946      5.6705388261679559
   211   1      4.5715012632782646       10.61147392404439      4.3275234017425532
   212   1       3.218143603260927      9.2425229693607207      2.9860535087001097
   213   1     0.47269895441850807      11.961197115284449      8.4410523967902691
   214   1      15.427697220637469      5.1498001217197498      9.7500325481530581
   215   1      14.084323581411923      3.7722398442103326      2.9634779456603155
   216   1       5.915925211659669      14.689666683854512      5.7168191075958248


Velocities

     1                       0                       0                       0
     2                       0                       0                       0
     3                       0                       0                       0
     4                       0                       0                       0
     5                       0                       0                       0
     6                       0                       0                       0
     7                       0                       0                       0
     8                       0                       0                       0
     9                       0                       0                       0
    10                       0                       0                       0
    11                       0                       0                       0
    12                       0                       0                       0
    13                       0                       0                       0
    14                       0                       0                       0
    15                       0                       0                       0
    16                       0                       0                       0
    17                       0                       0                       0
    18                       0                       0                       0
    19                       0                       0                       0
    20                       0                       0                       0
    21                       0                       0                       0
    22                       0                       0                       0
    23                       0                       0                       0
    24                       0                       0                       0
    25                       0                       0                       0
    26                       0                       0                       0
    27                       0                       0                       0
    28                       0                       0                       0
    29                       0                       0                       0
    30                       0                       0                       0
    31                       0                       0                       0
    32                       0                       0                       0
    33                       0                       0                       0
    34                       0                       0                       0
    35                       0                       0                       0
    36                       0                       0                       0
    37                       0                       0                       0
    38                       0                       0                       0
    39                       0                       0                       0
    40                       0                       0                       0
    41                       0                       0                       0
    42                       0                       0                       0
    43                       0                       0                       0
    44                       0                       0                       0
    45                       0                       0                       0
    46                       0                       0                       0
    47                       0                       0                       0
    48                       0                       0                       0
    49                       0                       0                       0
    50                       0                       0                       0
    51                       0                       0                       0
    52                       0                       0                       0
    53                       0                       0                       0
    54                       0                       0                       0
    55                       0                       0                       0
    56                       0                       0                       0
    57                       0                       0                       0
    58                       0                       0                       0
    59                       0                       0                       0
    60                       0                       0                       0
    61                       0                       0                       0
    62                       0                       0                       0
    63                       0                       0                       0
    64                       0                       0                       0
    65                       0                       0                       0
    66                       0                       0                       0
    67                       0                       0                       0
    68                       0                       0                       0
    69                       0                       0                       0
    70                       0                       0                       0
    71                       0                       0                       0
    72                       0                       0                       0
    73                       0                       0                       0
    74                       0                       0                       0
    75                       0                       0                       0
    76                       0                       0                       0
    77                       0                       0                       0
    78                       0                       0                       0
    79                       0                       0                       0
    80                       0                       0                       0
    81                       0                       0                       0
    82                       0                       0                       0
    83                       0                       0                       0
    84                       0                       0                       0
    85                       0                       0                       0
    86                       0                       0                       0
    87                       0                       0                       0
    88                       0                       0                       0
    89                       0                       0                       0
    90                       0                       0                       0
    91                       0                       0                       0
    92                       0                       0                       0
    93                       0                       0                       0
    94                       0                       0                       0
    95                       0                       0                       0
    96                       0                       0                       0
    97                       0                       0                       0
    98                       0                       0                       0
    99                       0                       0                       0
   100                       0                       0                       0
   101                       0                       0                       0
   102                       0                       0                       0
   103                       0                       0                       0
   104                       0                       0                       0
   105                       0                       0                       0
   106                       0                       0                       0
   107                       0                       0                       0
   108                       0                       0                       0
   109                       0                       0                       0
   110                       0                       0                       0
   111                       0                       0                       0
   112                       0                       0                       0
   113                       0                       0                       0
   114                       0                       0                       0
   115                       0                       0                       0
   116                       0                       0                       0
   117                       0                       0                       0
   118                       0                       0                       0
   119                       0                       0                       0
   120                       0                       0                       0
   121                       0                       0                       0
   122                       0                       0                       0
   123                       0                       0                       0
   124                       0                       0                       0
   125                       0                       0                       0
   126                       0                       0                       0
   127                       0                       0                       0
   128                       0                       0                       0
   129                       0                       0                       0
   130                       0                       0                       0
   131                       0                       0                       0
   132                       0                       0                       0
   133                       0                       0                       0
   134                       0                       0                       0
   135                       0                       0                       0
   136                       0                       0                       0
   137                       0                       0                       0
   138                       0                       0                       0
   139                       0                       0                       0
   140                       0                       0                       0
   141                       0                       0                       0
   142                       0                       0                       0
   143                       0                       0                       0
   144                       0                       0                       0
   145                       0                       0                       0
   146                       0                       0                       0
   147                       0                       0                       0
   148                       0                       0                       0
   149                       0                       0                       0
   150                       0                       0                       0
   151                       0                       0                       0
   152                       0                       0                       0
   153                       0                       0                       0
   154                       0                       0                       0
   155                       0                       0                       0
   156                       0                       0                       0
   157                       0                       0                       0
   158                       0                       0                       0
   159                       0                       0                       0
   160                       0                       0                       0
   161                       0                       0                       0
   162                       0                       0                       0
   163                       0                       0                       0
   164                       0                       0                       0
   165                       0                       0                       0
   166                       0                       0                       0
   167                       0                       0                       0
   168                       0                       0                       0
   169                       0                       0                       0
   170                       0                       0                       0
   171                       0                       0                       0
   172                       0                       0                       0
   173                       0                       0                       0
   174                       0                       0                       0
   175                       0                       0                       0
   176                       0                       0                       0
   177                       0                       0                       0
   178                       0                       0                       0
   179                       0                       0                       0
   180                       0                       0                       0
   181                       0                       0                       0
   182                       0                       0                       0
   183                       0                       0                       0
   184                       0                       0                       0
   185                       0                       0                       0
   186                       0                       0                       0
   187                       0                       0                       0
   188                       0                       0                       0
   189                       0                       0                       0
   190                       0                       0                       0
   191                       0                       0                       0
   192                       0                       0                       0
   193                       0                       0                       0
   194                       0                       0                       0
   195                       0                       0                       0
   196                       0                       0                       0
   197                       0                       0                       0
   198                       0                       0                       0
   199                       0                       0                       0
   200                       0                       0                       0
   201                       0                       0                       0
   202                       0                       0                       0
   203                       0                       0                       0
   204                       0                       0                       0
   205                       0                       0                       0
   206                       0                       0                       0
   207                       0                       0                       0
   208                       0                       0                       0
   209                       0                       0                       0
   210                       0                       0                       0
   211                       0                       0                       0
   212                       0                       0                       0
   213                       0                       0                       0
   214                       0                       0                       0
   215                       0                       0                       0
   216                       0                       0                       0
