(written by ASE)

216 atoms
1 atom types

0.0      16.331106185913086  xlo xhi
0.0      16.331106185913086  ylo yhi
0.0      16.331106185913086  zlo zhi

Atoms # atomic

     1   1      1.5563996248625216      1.8237427281244862      10.644820022980639
     2   1      8.3761298579032655      5.8816621607078332      12.027901967484127
     3   1      2.9125304076754048      3.1596535995724366      3.8601730603101316
     4   1      9.7287976137369014      1.7786141121461299      7.9460798492980871
     5   1     0.20664996904398691     0.45062773932253108      3.8429461406754797
     6   1      11.088313307393946      5.8665971842012254      9.2902356232842749
     7   1      1.5578074187611861      15.389679728152601      2.5000227034745706
     8   1      12.463506739015997      1.8062048040641656      5.2013966806774761
     9   1     0.22154245429514141      3.1315420117442727      6.6081368632519002
    10   1      2.9091473219745865      8.5710678212763014      3.8434528004675315
    11   1       8.335205763806357       5.895882704227688      1.1449928471262609
    12   1      12.446049607967666      9.9694225652750674      7.9282542826468898
    13   1      13.770032924315842     0.44288843190939531      1.1266023377722547
    14   1      1.5607953000901063      12.684272184161387      16.141548258410694
    15   1        8.32974688174329      14.013160512406102      9.2816121860166731
    16   1      13.801655114526397     0.44014594110295846      12.030321864204666
    17   1      12.456756142170889      4.5152182229202822      2.5090167665170497
    18   1      9.7147766192225617      1.7789023631181209       2.514874746591147
    19   1      9.6928515372702577      12.657229886979849      2.4399976325582884
    20   1       8.382507638801485      14.042063969092737       14.74645443718498
    21   1      5.6649806563070229      11.338800846853474      3.8200972928391081
    22   1      15.181844085154808      12.665013271604721      13.387922860818549
    23   1      9.7066720093692993      7.2465359885154044      2.5094513939851595
    24   1      6.9993974654142903      15.441265579602714      2.4755027543932329
    25   1      1.5710712221405743      7.2116553090562547      5.2263266786299027
    26   1      2.9202437067959011      11.336815090896152      1.1047609690612887
    27   1      4.2746171199217997      1.8033469946174989      7.9333155268136011
    28   1      13.768574756460907       3.154471895945079      3.8687400398103193
    29   1      5.6310553785498882     0.46570044226929141       3.820806421866024
    30   1      2.9089380388712414       8.588614506024669      14.758068189305959
    31   1      11.073317929686823      14.054753339023932      12.000351550395862
    32   1      2.9023373471327147      3.1473295016623126      9.2942577525076331
    33   1      4.2910219949947077      4.5307548164667537      16.095340496011659
    34   1        7.02170071706729      9.9664741070423588      2.4976261685888232
    35   1      12.442111191985646      15.404126102742111      13.380863693072229
    36   1      1.5378665109753058       12.71139430094513        10.6726225532027
    37   1      5.6208808127930752      8.6298968149217217      6.5446681118758079
    38   1       15.18295766594656      4.5082398481859514      16.112423837703318
    39   1      7.0027250667574776      4.5029542330642585      2.4599162735953826
    40   1      4.2868582346479229      9.9683985381833509      10.650071568759927
    41   1      6.9939609717762323      4.5199178453526088      13.403956866764133
    42   1      7.0161031241101455      7.2258962941815525      5.2351886012943396
    43   1      9.7276587242907908      12.667254060925188      7.9629699691478208
    44   1      5.6793034078540927      3.1487516533552764      6.5747094845987704
    45   1      5.6547588801757342      3.1362024544328335      12.013289139821723
    46   1      8.3405137673530589      8.6364215806971742      3.8535404894012117
    47   1      7.0187318172291384      1.7822007621678182      16.108172957180955
    48   1      6.9960138930085805      12.640910671967845       10.64119017789983
    49   1      15.147655986756263      1.7902983148001539      7.9535605034804462
    50   1      5.6402696755557713      14.005782066250958      12.012374134625702
    51   1      1.5560265655631866      9.9779545020230671      7.9031174351155755
    52   1        8.36983773706595      14.059687553213962      3.8149233764900146
    53   1      9.7027491679438072       4.509395285598373      10.649345405061808
    54   1      5.6563912883818261      5.8521459425627995      3.8463572119075593
    55   1       4.310691199774908       7.229494503444414      7.9259180991676885
    56   1      12.458942420543508      4.5132144588819756      7.9287283332112111
    57   1      1.5549362249300032      15.374044820218046      13.381782591907381
    58   1      15.163864233053005      9.9791537428757238      5.1857325704494315
    59   1      2.8834507638180469     0.44739766147197813      6.5920186573600859
    60   1      1.5367249446522919      7.2042058039869517      16.125577524101004
    61   1      5.6699231444802081      11.343285345723757      14.756394897888981
    62   1      8.3489795122358146     0.44934244296124604      1.1045136013001837
    63   1      13.787050074142257      5.8553601416662673      12.033402706167863
    64   1      1.5034327482827763      12.690442628775827       5.210437710741985
    65   1       5.609711908942927     0.42655616712248801      9.3140160242829779
    66   1     0.19094080819442283     0.41009376961521582      14.770226077495636
    67   1      12.450294648031331      7.2392388220771409      10.635508384996456
    68   1      6.9908557945684606      7.2545578585371118      10.670420700273553
    69   1     0.22527625649886929      3.1606321197567979      12.046048272658822
    70   1      12.442947350989243      9.9877538183085335      2.4963592757562481
    71   1      11.076315058408682      8.5901797489557339      1.1473213650034211
    72   1      2.9138931813716056      0.4730371230609336       1.148842682818028
    73   1      5.6351797158004615      5.8806322931574186      9.2879043068539886
    74   1      8.3561700903028395      3.1225326174977113      9.3124507813519131
    75   1      11.051724780470522      5.8702620720342225      14.747441474704942
    76   1      11.103020555805301       8.597658456318527      6.5827644505530998
    77   1     0.16390614619587041      11.329072589482166      14.765127357052279
    78   1      2.9257575865117076      14.015709872627781      9.2972753228349347
    79   1      1.5690459214108188      9.9708486106071632      2.5144459595817352
    80   1      9.6977701769037594      1.7949749404263571      13.370555283470253
    81   1      0.1767185155788642      5.8585884552115886      14.783671786828222
    82   1      2.9156151432777335      14.003574372863113      3.8367440602430918
    83   1      9.7083151250830042      4.4853617980560898      5.2276612234423965
    84   1      7.0230712780417548      9.9749505594327275      7.9135319463838982
    85   1      11.087735101982844       14.04121807599131      1.1263064211982226
    86   1      11.061572767245138      3.1326638665191808      12.023566400310642
    87   1      13.787274931802131      8.5915872995019527      14.755446796760339
    88   1      2.9124082447476383      5.8704197644190685      1.1551182556890325
    89   1      4.2794072694639453      12.685143385917172      7.9155775670428739
    90   1       4.312439443745177      4.4837916880761099      5.2035464561832327
    91   1      11.106705885243741      8.6360857543220391      12.053203807973659
    92   1      13.820975351899392        5.88577141010677      1.1156254390018034
    93   1      6.9966217874180643      12.654942373989797      5.2287052054346645
    94   1      9.7219253406689177       7.239525977963126      13.376083277627913
    95   1      4.2755292048884712      12.692835270022442      2.5057916165535232
    96   1      8.3221104819956508      0.4018943739843337      6.5730235388546134
    97   1      1.5607761969231149      7.2347684376487109      10.659482494541976
    98   1      5.6578431290731714      14.036245898819743      6.5916940251974552
    99   1      11.068500524670753       3.147065220906228      1.1141995153459305
   100   1     0.19552000158515881      3.1896662567068006      1.1175753004733764
   101   1      9.7278349114615139      15.381463176174293      10.613027486058058
   102   1      15.154629494441679       7.235783217347489       13.37936853564554
   103   1      6.9938461094218383      1.8057859945050296      5.2344862861359047
   104   1      8.3232999887504775     0.41126961821402475      11.975842065469692
   105   1      6.9841494878684784      1.7889965008916136      10.633528469497833
   106   1     0.18170324061091492       14.04784894343311      6.5634894767350147
   107   1      15.171717703182253      15.375861202873125      10.660124944998756
   108   1      13.766902438453712      3.1458331274733951      9.3319228706510557
   109   1      11.100050682557367      14.061898166831156      6.5866731775367384
   110   1      4.3062446638861616      9.9475734092858374      16.116040055047165
   111   1      9.7104108763458044      15.374702845231354      5.2137857536906154
   112   1      8.3618986068757977      11.305962867823951      1.1072043492928429
   113   1     0.17774702948129928      11.322724010877437      3.8259328844881964
   114   1      15.165394433231882      15.404506705967265      5.2341202840574965
   115   1      2.9241049800526184      3.1865725170639791      14.751671913621863
   116   1      5.5980047094827796      3.1753454519792967      1.1334402981453877
   117   1      6.9859196335588649      4.4997283530433947       7.962266680579603
   118   1      12.438126052334042      7.2156535897399294      16.080000531241353
   119   1      12.430048697954703       12.66437374137729      10.688581606594994
   120   1      13.825914433138337      8.5773200323125138      3.8219426344352314
   121   1      11.095433799956595     0.41437038465871723      9.3333275009679255
   122   1      6.9810024540400377      15.383982360692698      13.388662652253629
   123   1      15.170535010295907      4.4969074114922591      5.2043096094531052
   124   1      4.2865676718276973       12.65526749285732      13.381517824446405
   125   1      4.2720643527658808      15.390479870994227      16.113966692209374
   126   1      8.3466121796435573      3.1466593090267168      3.8432233191111891
   127   1      1.5766257417148211      1.7975396318521177      16.090170716654143
   128   1       5.657938036527014      5.8932277290445541       14.74340182410549
   129   1      12.455705833015031      7.2354911944125888      5.2091421023208113
   130   1        2.90552477746715     0.46573475496414218       12.05061843159001
   131   1      13.827652943010776      11.347250043769918      6.5783325158110983
   132   1      9.7266074417251502      7.2550362894454565       7.916788002108035
   133   1      13.792741601143462     0.46127139733758327      6.5909435262547618
   134   1       15.17743940588673         12.692276532807      7.9374349970152593
   135   1      11.084706824147929      5.8671096844519752      3.8593953058935142
   136   1      4.2670449652198386      9.9896947974158365      5.2024606175702957
   137   1      8.3527728901601677      5.8768958597053711      6.6499282654654621
   138   1      1.5218415090702138      4.5266076040862799      2.5272521386868902
   139   1      5.6189899642895966      8.6150893053027175      12.042375597547561
   140   1       12.41617566172738      15.370389666482879      7.9320369530636299
   141   1      5.6489237752315375       14.04730091372528       1.137768199716831
   142   1      15.155923156043286      1.8000294924008102      2.4762381654842898
   143   1      0.1892040474176877      5.8495717603916546      9.3248043249079728
   144   1      11.058553250098271      3.1693957280331517      6.6007413824255536
   145   1     0.19741334445120629      8.6082647293141008      1.1622854719212654
   146   1      15.151181676990291      7.2482628174704473      7.9491864866205333
   147   1     0.18986528164137439      14.028891787909174      12.042078707563746
   148   1      13.784505580969494      14.054802009513082       14.71442536168513
   149   1      15.156624011087047      4.4883929961203535      10.665976111204373
   150   1     0.17936063871095698      5.8667110731458365      3.8836585181445855
   151   1      15.127777985577609      12.706261511159369      2.4496397431638002
   152   1      8.3495771858425769      11.337481876597508      6.5713152046854475
   153   1      1.5646558432894864      1.8318591405713676      5.2124185996503911
   154   1      8.3379030823150515      8.6046796610833098      9.3018561892737353
   155   1      7.0141134745136924      7.2381432493663738      16.112886207350243
   156   1      11.077240771112315      11.327448941964121      9.3034087778776211
   157   1      4.2719835597538918      1.8420691141090373      13.394569302816876
   158   1      2.9167053622346941      5.8393105611641545      6.5289967010743908
   159   1      8.3502683067885073      8.5892150998607804      14.755458477677735
   160   1      1.5509398910658945      4.5347161075786744      7.9309730161708103
   161   1      11.065370038808624      11.343149068354137      14.791856216283691
   162   1      9.7031930428048554      9.9502347116325609      10.654873399219468
   163   1     0.20464994654953372       11.29196426173462      9.3098508038215186
   164   1      12.443978191949441      4.5063752817466138      13.417736455652289
   165   1      2.9510518830754222       8.612337475846175      9.2655372968602023
   166   1      15.173537006066681       9.948514696545999      16.106596033332494
   167   1      5.6214999014150635      11.348383092757331      9.2743193999224331
   168   1      11.095186553871713      0.4499392039963368      14.727422329107753
   169   1      4.2917491321026091      7.2236146216501993      2.4979052938440987
   170   1      11.072991837409518     0.42056349146966809      3.8503377278626942
   171   1      6.9985608197058014      9.9563457782502383      13.366478643299047
   172   1     0.20971471932670838      8.6201247541101793      12.018354764332457
   173   1      4.2864834718814677      15.382851258524852      10.658931544604798
   174   1      13.808114661846389       14.03760088523768      3.8216688629337625
   175   1      12.435758719741784      1.7827094904556589      16.107769965530792
   176   1     0.20054028649334477      14.044425461226297      1.1294787636810213
   177   1        15.1831328797075      15.400491390612387       16.10105051779874
   178   1      11.051775397779238      11.310035614356025      3.8464491991320529
   179   1      9.7237699522077037      9.9437079990375423      5.2308350260398697
   180   1     0.21373397394930116      8.5554056578678228      6.5472233125561843
   181   1       12.39945248165543      15.386231910701213      2.4720537201796162
   182   1      12.472832978146926       9.959591126466762      13.395937916971775
   183   1      7.0106276940807675      15.428896461490126      7.9436633595117883
   184   1       1.555868386473449      4.5356914641812409      13.378621930341978
   185   1      5.6569782544809755      8.5555098127146039      1.1193313317219094
   186   1      13.796703378960274      14.055483396361183      9.2909491326552143
   187   1      8.3630287356338613      3.1365336571114995      14.729679666394532
   188   1      13.819426656934638      11.330434389768584      1.1267454290103558
   189   1      5.6540658124102379     0.44329060224505312      14.734197261197437
   190   1      15.149934739058267      7.2171536142155333      2.4841965205176564
   191   1       4.280647393527488      1.8332211842102311      2.5013786633022903
   192   1      9.7306402784561215      15.411984439920275      16.103173524535464
   193   1      13.792309407199809      11.337771952712842      12.043037516200002
   194   1      4.2911276099561633      4.5095364300169081      10.646408627746496
   195   1      2.9324906619807223      11.338402722252226      6.5436654997993173
   196   1      13.819867611566337      8.6226059756470477      9.2990936523095797
   197   1      9.6989986200499061      4.5428805821335914      16.075509218502589
   198   1      6.9911322429468328      12.677372655619479      16.106342946788914
   199   1      12.464602798431656      12.693454358644431      5.1777467165896951
   200   1      13.813520979781174       5.872108143687683      6.5861159004359706
   201   1      8.3729477813226367      11.320968953038687      12.048243311719489
   202   1      0.1971703874531805     0.40905368126207975      9.3064497100397148
   203   1      13.797936689155335      3.1496710388953204      14.757974741966791
   204   1      15.148263394460855       1.803071276296464      13.428793417377392
   205   1      2.8837865901931821      11.311166716523871       12.01362885983599
   206   1      12.427769945652699      12.708329033538462      16.106352680886744
   207   1      9.7168480352407869       9.948626638671044      16.079289942099763
   208   1      1.5537358889913406      15.413451368463257      7.9314718886845981
   209   1       9.726145072078225      12.672935853828562      13.367714873723457
   210   1      2.9029513253533423      5.8792300963650064       12.04131750111344
   211   1      4.2819459221780107      7.2644073054264027      13.380156024159987
   212   1      1.5420283245025246      9.9682729683213438      13.416361027628909
   213   1      2.8994538640030214      14.026050404752596      14.781528338486055
   214   1      4.2272797154695922      15.417742158786723      5.2181660977141178
   215   1      12.452278457169086      1.7636768956735409      10.650261383667612
   216   1      15.162685433805791       9.981415947211417      10.667244464151622


Velocities

     1                       0                       0                       0
     2                       0                       0                       0
     3                       0                       0                       0
     4                       0                       0                       0
     5                       0                       0                       0
     6                       0                       0                       0
     7                       0                       0                       0
     8                       0                       0                       0
     9                       0                       0                       0
    10                       0                       0                       0
    11                       0                       0                       0
    12                       0                       0                       0
    13                       0                       0                       0
    14                       0                       0                       0
    15                       0                       0                       0
    16                       0                       0                       0
    17                       0                       0                       0
    18                       0                       0                       0
    19                       0                       0                       0
    20                       0                       0                       0
    21                       0                       0                       0
    22                       0                       0                       0
    23                       0                       0                       0
    24                       0                       0                       0
    25                       0                       0                       0
    26                       0                       0                       0
    27                       0                       0                       0
    28                       0                       0                       0
    29                       0                       0                       0
    30                       0                       0                       0
    31                       0                       0                       0
    32                       0                       0                       0
    33                       0                       0                       0
    34                       0                       0                       0
    35                       0                       0                       0
    36                       0                       0                       0
    37                       0                       0                       0
    38                       0                       0                       0
    39                       0                       0                       0
    40                       0                       0                       0
    41                       0                       0                       0
    42                       0                       0                       0
    43                       0                       0                       0
    44                       0                       0                       0
    45                       0                       0                       0
    46                       0                       0                       0
    47                       0                       0                       0
    48                       0                       0                       0
    49                       0                       0                       0
    50                       0                       0                       0
    51                       0                       0                       0
    52                       0                       0                       0
    53                       0                       0                       0
    54                       0                       0                       0
    55                       0                       0                       0
    56                       0                       0                       0
    57                       0                       0                       0
    58                       0                       0                       0
    59                       0                       0                       0
    60                       0                       0                       0
    61                       0                       0                       0
    62                       0                       0                       0
    63                       0                       0                       0
    64                       0                       0                       0
    65                       0                       0                       0
    66                       0                       0                       0
    67                       0                       0                       0
    68                       0                       0                       0
    69                       0                       0                       0
    70                       0                       0                       0
    71                       0                       0                       0
    72                       0                       0                       0
    73                       0                       0                       0
    74                       0                       0                       0
    75                       0                       0                       0
    76                       0                       0                       0
    77                       0                       0                       0
    78                       0                       0                       0
    79                       0                       0                       0
    80                       0                       0                       0
    81                       0                       0                       0
    82                       0                       0                       0
    83                       0                       0                       0
    84                       0                       0                       0
    85                       0                       0                       0
    86                       0                       0                       0
    87                       0                       0                       0
    88                       0                       0                       0
    89                       0                       0                       0
    90                       0                       0                       0
    91                       0                       0                       0
    92                       0                       0                       0
    93                       0                       0                       0
    94                       0                       0                       0
    95                       0                       0                       0
    96                       0                       0                       0
    97                       0                       0                       0
    98                       0                       0                       0
    99                       0                       0                       0
   100                       0                       0                       0
   101                       0                       0                       0
   102                       0                       0                       0
   103                       0                       0                       0
   104                       0                       0                       0
   105                       0                       0                       0
   106                       0                       0                       0
   107                       0                       0                       0
   108                       0                       0                       0
   109                       0                       0                       0
   110                       0                       0                       0
   111                       0                       0                       0
   112                       0                       0                       0
   113                       0                       0                       0
   114                       0                       0                       0
   115                       0                       0                       0
   116                       0                       0                       0
   117                       0                       0                       0
   118                       0                       0                       0
   119                       0                       0                       0
   120                       0                       0                       0
   121                       0                       0                       0
   122                       0                       0                       0
   123                       0                       0                       0
   124                       0                       0                       0
   125                       0                       0                       0
   126                       0                       0                       0
   127                       0                       0                       0
   128                       0                       0                       0
   129                       0                       0                       0
   130                       0                       0                       0
   131                       0                       0                       0
   132                       0                       0                       0
   133                       0                       0                       0
   134                       0                       0                       0
   135                       0                       0                       0
   136                       0                       0                       0
   137                       0                       0                       0
   138                       0                       0                       0
   139                       0                       0                       0
   140                       0                       0                       0
   141                       0                       0                       0
   142                       0                       0                       0
   143                       0                       0                       0
   144                       0                       0                       0
   145                       0                       0                       0
   146                       0                       0                       0
   147                       0                       0                       0
   148                       0                       0                       0
   149                       0                       0                       0
   150                       0                       0                       0
   151                       0                       0                       0
   152                       0                       0                       0
   153                       0                       0                       0
   154                       0                       0                       0
   155                       0                       0                       0
   156                       0                       0                       0
   157                       0                       0                       0
   158                       0                       0                       0
   159                       0                       0                       0
   160                       0                       0                       0
   161                       0                       0                       0
   162                       0                       0                       0
   163                       0                       0                       0
   164                       0                       0                       0
   165                       0                       0                       0
   166                       0                       0                       0
   167                       0                       0                       0
   168                       0                       0                       0
   169                       0                       0                       0
   170                       0                       0                       0
   171                       0                       0                       0
   172                       0                       0                       0
   173                       0                       0                       0
   174                       0                       0                       0
   175                       0                       0                       0
   176                       0                       0                       0
   177                       0                       0                       0
   178                       0                       0                       0
   179                       0                       0                       0
   180                       0                       0                       0
   181                       0                       0                       0
   182                       0                       0                       0
   183                       0                       0                       0
   184                       0                       0                       0
   185                       0                       0                       0
   186                       0                       0                       0
   187                       0                       0                       0
   188                       0                       0                       0
   189                       0                       0                       0
   190                       0                       0                       0
   191                       0                       0                       0
   192                       0                       0                       0
   193                       0                       0                       0
   194                       0                       0                       0
   195                       0                       0                       0
   196                       0                       0                       0
   197                       0                       0                       0
   198                       0                       0                       0
   199                       0                       0                       0
   200                       0                       0                       0
   201                       0                       0                       0
   202                       0                       0                       0
   203                       0                       0                       0
   204                       0                       0                       0
   205                       0                       0                       0
   206                       0                       0                       0
   207                       0                       0                       0
   208                       0                       0                       0
   209                       0                       0                       0
   210                       0                       0                       0
   211                       0                       0                       0
   212                       0                       0                       0
   213                       0                       0                       0
   214                       0                       0                       0
   215                       0                       0                       0
   216                       0                       0                       0
