(written by ASE)

216 atoms
1 atom types

0.0      16.331106185913086  xlo xhi
0.0      16.331106185913086  ylo yhi
0.0      16.331106185913086  zlo zhi

Atoms # atomic

     1   1      10.221697285096184      14.438618460359976      6.4067091768555997
     2   1      3.4545517436191346      4.9154327349716027      5.0092066531218506
     3   1      11.562308387357575      13.086076274388347      10.459640492682183
     4   1      10.236102776474809      3.5309412931023303     0.97171282555820682
     5   1      7.5025432481494363      3.5750715556719967      9.0861252195260249
     6   1      2.0746226734027857       6.287919600692021      6.3591551887266746
     7   1     0.69512512791086323      13.072838874749323      10.442671039935135
     8   1        10.2300335664778      9.0092472616842088     0.94881463801345944
     9   1      6.1701525915054845      15.786015202218664      13.197446034481004
    10   1      6.1154547489791184      10.352611166811926      2.3476368620605115
    11   1      3.3987982381831046      4.9422423872150034      15.936686382299968
    12   1     0.69765599334666462       4.903209628326465      7.7083595525523947
    13   1      12.928846259189186      14.440894292432631      14.556846865783655
    14   1      10.239342284232634      11.682717230695175      3.6745837244930328
    15   1      14.337086952944105      7.5984844631815349      7.7831870226863202
    16   1      14.326053353053794      13.085459132585925      13.205411446735297
    17   1     0.70365840309731453      15.798508916783476      13.196788009467696
    18   1      3.4122950515292985      7.6528338250055867       7.767224562359786
    19   1      6.0997594896380178      7.6567279508424804      10.452572564247816
    20   1      8.8426102143421303      2.1958002671165104      2.3425851086391845
    21   1      11.591753059883558      2.1705996612444096      15.870223909136257
    22   1      14.333360740294779      2.1734320403604954      13.178538522856002
    23   1      13.003919515293319      3.5493433616975096      14.524232771004222
    24   1      11.600907978892678      7.6117914616200437      5.0362616046305675
    25   1      14.317142759900207      15.812922195440365      5.0471287514479855
    26   1      7.4530731028626747      14.467584215272723      14.565804182606826
    27   1      12.972640938736163      11.725211434772064     0.95250982322595235
    28   1      10.200349435145199     0.81129592756761326      14.535105758280338
    29   1      11.611906536030801       2.184881042875702      5.0020671790684332
    30   1       2.061994384935474      9.0022036684944169      3.6715221073730504
    31   1      4.7710215532047755      14.438766418646992     0.98394797814940915
    32   1      15.677644517667432       14.46018338069257      11.826694271698784
    33   1      3.4200660251794375      10.375254625184084      10.459299799258133
    34   1      14.319580177996841      7.6227754176114217      13.158037539416227
    35   1       3.418791588421044        7.63789247154142      2.3438456743081701
    36   1      6.1507296594003833      13.095289597984447      10.462810888345416
    37   1      7.4583869468680746      6.2744115931333226     0.95331562401194248
    38   1      14.317834854255921      4.9002874521578974      10.455834460430651
    39   1      15.634941030487198      14.463916407210377     0.93199253517231284
    40   1      15.707289712608713      9.0089523185199596     0.94343788740083312
    41   1      7.4903683252885571      14.451805242690284      9.0911694290215337
    42   1      8.8434541606239918      7.6120367608853599      2.3086131072124658
    43   1      7.4877075096467252      11.696381957228937     0.98231350144752838
    44   1      7.4852146071924608      6.2767740586766649      11.822898946954865
    45   1      10.261398776505644      6.2541510419099495       9.102707255179439
    46   1     0.68399783732893837      15.774063676902983      2.3145625878061651
    47   1      14.352538859839456      4.9377121380849189      5.0323611516300844
    48   1      8.8632757040352317      2.2177664756321462      7.7439031240737677
    49   1      12.968690841836747      14.433647256598192      9.0951789039177129
    50   1      6.1418370743277819      2.2231966421066147      10.443692146797503
    51   1      7.4713026345738172       3.569074864703822      14.570898036001267
    52   1      3.4150378769453482      2.1842011161422761      7.7453204087178165
    53   1      8.8576815180123276       13.07447615000433      7.7215653163734714
    54   1      14.326786330620394      2.1856972469787479      2.3143323763924855
    55   1      12.949981905807476      8.9955085560069392      14.544797999489674
    56   1      12.978947660720223      6.2773542109073333      6.3740653930777853
    57   1      8.8622847728761371       7.637875923575109      7.7482893085559681
    58   1      8.8574294048785305      15.814503986337741      15.932481252037405
    59   1      15.662610203568988     0.82376573275463016      3.6699690320642731
    60   1      0.6905474858919689      2.1854957511536668       5.008914143482059
    61   1     0.69517769203914526      13.096587153225187      15.923599861177308
    62   1      12.980003810334779      6.2885026731520384     0.94159613525328467
    63   1      10.238547008439923      3.5728305229990838      6.4006467807270724
    64   1      11.579174658667625      10.371209134125934      7.7482766542287891
    65   1      3.4190726604958854      13.077838307394813      7.7675856973892792
    66   1       4.754597696641099      14.444114331994797      6.3603641636771613
    67   1     0.66928754701201143      10.372627392179766      13.180098898738152
    68   1      3.4613751028455226      13.079245857941032      13.179632635452094
    69   1      6.1434509877479968      15.830369592390866      2.3353169011419652
    70   1      15.674261918671505      6.2891509640675167      14.569848700255193
    71   1      3.4187492450954835      15.804341588203215      15.894076342458902
    72   1      2.0762928012379689     0.83325246282353049      11.817308654571093
    73   1      4.7650204818925772      0.8314853590387159      14.513632338467346
    74   1      2.0827725468109577      3.5286367454410765      9.1137807648708531
    75   1       11.58851257871595      2.2066654671143624       10.44851539227227
    76   1      3.4158944775543887      15.758915473859929      10.446593881360627
    77   1      10.223526322078442      14.436270595963379     0.95433052538694341
    78   1      11.595487059811148        7.64967511025975      10.473206904827862
    79   1      4.8042041192974807      3.5368951540400531      6.3734652859465655
    80   1     0.69344496178729287      10.340551593010332      7.7195931881531124
    81   1      4.7594316496234796      9.0204229794028379     0.96988111169904556
    82   1      8.8744504483440778      15.787365321587686      10.468782757364124
    83   1      7.4814338835952867      6.2709034242753887       6.353406717253165
    84   1     0.70383890977394969       7.655133018913034      15.913311893180776
    85   1      15.673289482298287      14.446887576466565       6.380810149464196
    86   1      6.1803996762911311       10.37207741565237      7.7138588311214562
    87   1      6.1184674522575051      2.2124606622574561      15.919366502031039
    88   1      2.0653696833580284      6.2831007355612769      11.826291280048622
    89   1     0.68431723741398542      7.6206767461192726      5.0263080028944955
    90   1      6.1293131840596971      7.6725877164369081      15.915751258096975
    91   1      2.0413017614446716       11.76389960659742      11.845125785939899
    92   1      10.198024932583394      11.732705716691385      9.0919978007468671
    93   1      10.256726409547241      6.2839344610404169      3.6570419067935802
    94   1      4.7756856461800226      9.0339767372213373      11.807979495210816
    95   1      2.0566002346229766      14.461372887447396      9.0915665802129979
    96   1      7.5160780244771672      9.0325867080512126      14.531212119148336
    97   1      14.285742507120176      10.369661412570963      15.924894496188699
    98   1      2.0693319478797321     0.80364334488233169     0.94955814057333754
    99   1      3.4245996812437625        13.0949888143615      2.3245838415221556
   100   1      4.7871991370933529      11.735764170229572      3.6678226634927569
   101   1      11.605035236372601       13.10310899877129      15.900332447134247
   102   1      3.4002006783279626      10.383540289256985      5.0437802217944636
   103   1      12.966147322073766     0.84036492475546964     0.94608367602914001
   104   1      2.0691774190766807      11.730938004525456     0.97190306633267198
   105   1      15.663592374040036     0.83614957369018583      9.1210385082129051
   106   1      14.276311139732684      10.339927637339429      10.457303335793199
   107   1      3.3997582635815888      2.1690122732407815      13.198634567826048
   108   1      15.668092447466847       11.72924913855195       14.56613319511348
   109   1      12.970335904370017      8.9926116884927296      3.7016165309291864
   110   1       10.21384868201585      6.2732313337714345      14.559300831846599
   111   1      15.690933508024955      3.5368029234631138     0.95034921853635979
   112   1     0.73423131839990674      10.342081793189209      2.2925725307508458
   113   1       10.24388908132903     0.83704979522512701      9.0900130181993291
   114   1       14.32648360017788      13.113208125269921      7.7190359110523445
   115   1      4.7884762507286496      11.688253012131099      9.0839204463675287
   116   1      4.7613268784709817     0.83621029012540049      3.6539610648303835
   117   1      2.0572645867998745      9.0162723600881236       9.111774567308089
   118   1      8.8524280254134737       2.175814704156835      13.181431496731079
   119   1      7.4707565516855539      3.5601306889127216      3.6844081060804115
   120   1      4.7650774263648827      6.2797682671691746      9.0833354270879454
   121   1      14.320822248879949      13.082112549751969      2.3154907340342561
   122   1      6.1448405302132301      13.107204133728374      5.0093964680295358
   123   1       7.470961941149767      11.739617899560471      11.836421555660309
   124   1      11.570921117117564      10.367426463709194      2.2955105248283871
   125   1      8.8573554257350224      13.085954598165472      2.2818015081494991
   126   1      11.587852606883075      4.8937169361226438      13.201459403016315
   127   1      7.5226762826912363      8.9996796169270965      9.0894776428186788
   128   1      8.8849944231135396      10.357409103632335      5.0161008279099519
   129   1      12.963142406073644      0.8326199898170259      11.809895165663761
   130   1      13.001702087807644      3.4961187748777149      9.1024677963728209
   131   1       8.900263328969686      4.9199717447897342      5.0297426793138129
   132   1      6.0949372175730332      7.6717009401245946       5.022644575176173
   133   1      11.631181023143995      4.9125251599497801      2.3111464061727247
   134   1      12.959930153789742       8.989699246421992      9.0711697516200047
   135   1      10.219363048436549      3.5602693998067991      11.822148448012172
   136   1      6.1487210283131617      13.106285234893221      15.953817421070994
   137   1      2.0489321990573899        9.04072538724688      14.586045265634539
   138   1       6.154777583982991      15.804761127819688      7.7412822182330387
   139   1       2.064628918513165     0.83217459400319171      6.3741875560055519
   140   1      7.4754882966407195     0.82207309481821511      11.788661204657387
   141   1      14.313736799069488      15.803726393220359      15.864406812273046
   142   1      7.5108839098750764      8.9966990361715489      3.6388087247957515
   143   1      14.324795707614157      15.808688836294095      10.478000948009139
   144   1     0.72774208208153368      7.6819640861716607      10.480403323353585
   145   1     0.68416903577452359      2.1951704709869091      10.466490377325158
   146   1      2.0512902842567087      11.766638781726783       6.400830268471168
   147   1      15.673416025570077      0.7885060318612247      14.542970909326982
   148   1      11.616509790894611      15.818465764154553      2.2966625553065683
   149   1      15.637887541900341      11.694916975505521      3.6570007802302484
   150   1      15.719842805170288      6.3245864871029767      9.1668851355824472
   151   1      2.0597411846402736      3.5560579423806473      3.6731618161525148
   152   1     0.70775791839842128      4.9313309502524589      13.182195623410735
   153   1      7.5082128734305229      11.729654077021678       6.358019219509913
   154   1      8.8186224770596482      4.9411565486020663      10.462850798146519
   155   1      12.984079477096202      14.435721592845766      3.6540827410532586
   156   1       12.96802697636474      11.727098876341302      11.832275803394509
   157   1      4.7789558163460129      6.3212136222048798      14.526753902342193
   158   1      2.0690026920206321      3.5625189498153134      14.536725512159251
   159   1     0.70399222181477228      13.095331454605116      4.9934233001953885
   160   1      7.5273520565838794     0.82534703694711453      0.9404228114361004
   161   1      6.1233203867306543       4.918703878547376       13.18369272765699
   162   1      3.3855043807766663      2.1847793215533784      2.3128720183655389
   163   1      4.7817426885547434      3.5392262271178936      11.835878393001394
   164   1      7.5342958752709137      14.443479668816281       3.661754913610423
   165   1      11.599853776097689      10.366747023680659      13.147240478103186
   166   1      7.5076064391357136     0.80513241849787676      6.3721803850330048
   167   1      6.1198263323145738      2.1877839942010553      5.0064037196517006
   168   1     0.68680436024766323      15.816441071805912      7.7765989852749726
   169   1      2.0694779593471821      6.2966953765906624     0.95212058098897501
   170   1      10.218239733546966      11.762785052395884      14.529585551400942
   171   1      11.578667512170682       15.77901638587889      13.179633608861877
   172   1      11.591055125069147      13.101929226114294      5.0163806832225646
   173   1      8.8527219951679399      10.363881305279506      15.889844930132199
   174   1       15.67624572780926      3.5435535203082225       11.85743747287529
   175   1       10.21577213974706     0.84743382659961952      3.6590330165047078
   176   1      15.653598375797969      8.9826838821159072      6.3993584728792712
   177   1      11.579159084111097      15.806861746131403      7.7361538087913004
   178   1      4.7767714847929597      6.2853989560589412      3.6635902777562706
   179   1      14.326956677332419      2.1942070386541843       7.717210281004327
   180   1      4.7731547807442212      14.442961814811724      11.851224198230398
   181   1       3.400502192008247      10.383646390923332      15.909464004308575
   182   1      15.675463106343727      6.2542770984768481       3.653928455602653
   183   1      6.1333367733977298       4.912400563497556      2.2933257065704424
   184   1      14.318475357893135      4.9081847257273807      15.913239860856834
   185   1      10.218472378485103      14.434946758658498      11.832046078685721
   186   1      11.597311229744491      7.6381236563648827      15.910882262362406
   187   1      12.938224089038613      11.752097012978538      6.3502007921328527
   188   1      8.9031066589458305      15.807297833714188      5.0128622935619092
   189   1      12.979570642981344      3.5807394774859631      3.6657648752114937
   190   1      2.0583969057299498      14.464755486443323      3.6659473895458063
   191   1      8.8409437367936334       7.667855484776851      13.184736222944366
   192   1      15.640349295241549       9.018794464835878      11.820985223321486
   193   1      15.684658908563733      3.5460147869445393      6.3762146818786505
   194   1     0.70772968951471427      2.1714896011385179      15.927145019606996
   195   1       2.071452277739553      14.431467792094054      14.530802313629692
   196   1      12.951731123187528      6.2727173734060102      11.824346407302187
   197   1       4.765535902372676     0.84619205990706803      9.0725938501325345
   198   1      14.309472290810163      10.356602146922228       5.039940606905418
   199   1      3.3740935845954425      7.6807293158619245       13.17185509128592
   200   1      14.315220275578781      7.6570783783643606      2.2887034702158644
   201   1      10.228736984646844      9.0106664931478235      6.3729459718273347
   202   1      6.1448741128507436      10.372236081446999      13.193237983989093
   203   1      12.928860860335931     0.83699260740037573      6.3874599983967641
   204   1       8.849252762701326      4.9089819483396582      15.919946654261707
   205   1      4.7761397418437923      9.0057585610219348      6.4085464878210132
   206   1      6.1232663624876977      4.9312579445187339       7.743504512767629
   207   1      15.636677593540071      11.740920321850126       9.084438300372085
   208   1      10.242290742465343      8.9791844739460203      11.818134106067077
   209   1      8.8438951152556911      13.099375972253483      13.149903727269475
   210   1      3.4062341155154456      15.806723521942217      5.0382050172623281
   211   1      3.4477629404400432      4.9167609526205069      10.512849991650342
   212   1      8.8435884911740459      10.364075987236106       10.46868736320539
   213   1      11.604531010105006      4.9030018053377944      7.7651200504089388
   214   1     0.70214079640750526      4.9118856297223488      2.3295655094391066
   215   1      4.7777502483297667      11.728854907589835      14.575869239763051
   216   1      4.7219578065024166      3.5044041955981697     0.94384136575588684


Velocities

     1                       0                       0                       0
     2                       0                       0                       0
     3                       0                       0                       0
     4                       0                       0                       0
     5                       0                       0                       0
     6                       0                       0                       0
     7                       0                       0                       0
     8                       0                       0                       0
     9                       0                       0                       0
    10                       0                       0                       0
    11                       0                       0                       0
    12                       0                       0                       0
    13                       0                       0                       0
    14                       0                       0                       0
    15                       0                       0                       0
    16                       0                       0                       0
    17                       0                       0                       0
    18                       0                       0                       0
    19                       0                       0                       0
    20                       0                       0                       0
    21                       0                       0                       0
    22                       0                       0                       0
    23                       0                       0                       0
    24                       0                       0                       0
    25                       0                       0                       0
    26                       0                       0                       0
    27                       0                       0                       0
    28                       0                       0                       0
    29                       0                       0                       0
    30                       0                       0                       0
    31                       0                       0                       0
    32                       0                       0                       0
    33                       0                       0                       0
    34                       0                       0                       0
    35                       0                       0                       0
    36                       0                       0                       0
    37                       0                       0                       0
    38                       0                       0                       0
    39                       0                       0                       0
    40                       0                       0                       0
    41                       0                       0                       0
    42                       0                       0                       0
    43                       0                       0                       0
    44                       0                       0                       0
    45                       0                       0                       0
    46                       0                       0                       0
    47                       0                       0                       0
    48                       0                       0                       0
    49                       0                       0                       0
    50                       0                       0                       0
    51                       0                       0                       0
    52                       0                       0                       0
    53                       0                       0                       0
    54                       0                       0                       0
    55                       0                       0                       0
    56                       0                       0                       0
    57                       0                       0                       0
    58                       0                       0                       0
    59                       0                       0                       0
    60                       0                       0                       0
    61                       0                       0                       0
    62                       0                       0                       0
    63                       0                       0                       0
    64                       0                       0                       0
    65                       0                       0                       0
    66                       0                       0                       0
    67                       0                       0                       0
    68                       0                       0                       0
    69                       0                       0                       0
    70                       0                       0                       0
    71                       0                       0                       0
    72                       0                       0                       0
    73                       0                       0                       0
    74                       0                       0                       0
    75                       0                       0                       0
    76                       0                       0                       0
    77                       0                       0                       0
    78                       0                       0                       0
    79                       0                       0                       0
    80                       0                       0                       0
    81                       0                       0                       0
    82                       0                       0                       0
    83                       0                       0                       0
    84                       0                       0                       0
    85                       0                       0                       0
    86                       0                       0                       0
    87                       0                       0                       0
    88                       0                       0                       0
    89                       0                       0                       0
    90                       0                       0                       0
    91                       0                       0                       0
    92                       0                       0                       0
    93                       0                       0                       0
    94                       0                       0                       0
    95                       0                       0                       0
    96                       0                       0                       0
    97                       0                       0                       0
    98                       0                       0                       0
    99                       0                       0                       0
   100                       0                       0                       0
   101                       0                       0                       0
   102                       0                       0                       0
   103                       0                       0                       0
   104                       0                       0                       0
   105                       0                       0                       0
   106                       0                       0                       0
   107                       0                       0                       0
   108                       0                       0                       0
   109                       0                       0                       0
   110                       0                       0                       0
   111                       0                       0                       0
   112                       0                       0                       0
   113                       0                       0                       0
   114                       0                       0                       0
   115                       0                       0                       0
   116                       0                       0                       0
   117                       0                       0                       0
   118                       0                       0                       0
   119                       0                       0                       0
   120                       0                       0                       0
   121                       0                       0                       0
   122                       0                       0                       0
   123                       0                       0                       0
   124                       0                       0                       0
   125                       0                       0                       0
   126                       0                       0                       0
   127                       0                       0                       0
   128                       0                       0                       0
   129                       0                       0                       0
   130                       0                       0                       0
   131                       0                       0                       0
   132                       0                       0                       0
   133                       0                       0                       0
   134                       0                       0                       0
   135                       0                       0                       0
   136                       0                       0                       0
   137                       0                       0                       0
   138                       0                       0                       0
   139                       0                       0                       0
   140                       0                       0                       0
   141                       0                       0                       0
   142                       0                       0                       0
   143                       0                       0                       0
   144                       0                       0                       0
   145                       0                       0                       0
   146                       0                       0                       0
   147                       0                       0                       0
   148                       0                       0                       0
   149                       0                       0                       0
   150                       0                       0                       0
   151                       0                       0                       0
   152                       0                       0                       0
   153                       0                       0                       0
   154                       0                       0                       0
   155                       0                       0                       0
   156                       0                       0                       0
   157                       0                       0                       0
   158                       0                       0                       0
   159                       0                       0                       0
   160                       0                       0                       0
   161                       0                       0                       0
   162                       0                       0                       0
   163                       0                       0                       0
   164                       0                       0                       0
   165                       0                       0                       0
   166                       0                       0                       0
   167                       0                       0                       0
   168                       0                       0                       0
   169                       0                       0                       0
   170                       0                       0                       0
   171                       0                       0                       0
   172                       0                       0                       0
   173                       0                       0                       0
   174                       0                       0                       0
   175                       0                       0                       0
   176                       0                       0                       0
   177                       0                       0                       0
   178                       0                       0                       0
   179                       0                       0                       0
   180                       0                       0                       0
   181                       0                       0                       0
   182                       0                       0                       0
   183                       0                       0                       0
   184                       0                       0                       0
   185                       0                       0                       0
   186                       0                       0                       0
   187                       0                       0                       0
   188                       0                       0                       0
   189                       0                       0                       0
   190                       0                       0                       0
   191                       0                       0                       0
   192                       0                       0                       0
   193                       0                       0                       0
   194                       0                       0                       0
   195                       0                       0                       0
   196                       0                       0                       0
   197                       0                       0                       0
   198                       0                       0                       0
   199                       0                       0                       0
   200                       0                       0                       0
   201                       0                       0                       0
   202                       0                       0                       0
   203                       0                       0                       0
   204                       0                       0                       0
   205                       0                       0                       0
   206                       0                       0                       0
   207                       0                       0                       0
   208                       0                       0                       0
   209                       0                       0                       0
   210                       0                       0                       0
   211                       0                       0                       0
   212                       0                       0                       0
   213                       0                       0                       0
   214                       0                       0                       0
   215                       0                       0                       0
   216                       0                       0                       0
