(written by ASE)

216 atoms
1 atom types

0.0      16.331106185913086  xlo xhi
0.0      16.331106185913086  ylo yhi
0.0      16.331106185913086  zlo zhi

Atoms # atomic

     1   1     0.04033405567313153      16.164841954517897      5.9965371694290752
     2   1    0.041393536174288315      5.3083447268308532      11.442160417841819
     3   1      15.022969007422375      6.6672968162235406      15.537831723715499
     4   1      12.314567254938652      6.6816682382597605      1.9058907265314673
     5   1       9.571195756000634      6.6691477549259162      15.536477710707345
     6   1      15.002244139732511      14.813605111065272      7.3475715436468363
     7   1      1.3911002859147317      12.131767711559633      1.9133247787204652
     8   1      13.670048165045159      10.734772821027718      8.7493147271002272
     9   1       10.91975961618914      16.191932922188585     0.55891322009869526
    10   1      10.891498609959285      13.458277999704478       14.19145998235831
    11   1      5.4501826998363185      2.5883720522566023      3.2881393105844836
    12   1      13.634618969173289      10.743390417836622      3.2567519554840771
    13   1      1.4030183502691216      14.818676576034704      15.535868356183187
    14   1      14.981762624488397      9.3847527398038437      7.3799841426011881
    15   1      10.957241733293358      13.472420670441693      8.7117128805926995
    16   1      13.653766913014692      5.2966136788310223      8.7081949776369356
    17   1      2.7833516288978615      8.0302802822325248      11.413061305788801
    18   1      12.266370816352946      9.3485341085979599      4.6547112517584992
    19   1      5.4906828739727302        7.98056581109023      8.7135029811836375
    20   1      8.1914983573126392      2.5685999093918497      11.453032431708152
    21   1      8.2182865945408139      13.443137583939688       5.981605063357847
    22   1      2.7481312294244447      5.2993173245033063      14.164652276934476
    23   1      1.4115880066462125      1.2128898829576684      7.3612158285751548
    24   1      14.996722959443332      14.822733748010251      1.8860623692517464
    25   1      13.654580683593281      8.0245512789546751      5.9982936873824997
    26   1       4.107433989691458      14.819364776751286      1.9160011689188252
    27   1      6.8665508785744009      12.091616504830426      1.9493393589005876
    28   1      8.1817301901402288      10.732093997304901      14.145511146961553
    29   1      1.3709729701554068      14.814259242439448      10.076993106984673
    30   1      9.5682823405201134      9.4061083770330924      1.9039795580987686
    31   1    0.050160482942007256      5.2594698216263964       6.018006695602935
    32   1      8.2209196680038303      10.714998001286062      8.7121041913254658
    33   1       2.796525513548545       16.19402380640247      3.2651760870986095
    34   1      10.950275039476423      16.181589469834421      11.448814647118411
    35   1      9.5505380535857967      3.9003055289010149      7.3675040557733382
    36   1      10.929904492947571      2.5926368038683734      3.2667347595136391
    37   1      10.927000811564881      5.3127562199674117      11.444075114884981
    38   1       13.63574520429222      8.0139192105998518      11.436941967995153
    39   1      13.654286713838815      8.0334759865501155     0.51231213930921626
    40   1      9.5820268866560809      1.2407148016047387      15.527189434557954
    41   1      1.3940036022687536      3.9236814781348812      4.6357813517084878
    42   1      5.4864319934503669      10.726583524523335      11.436815424723363
    43   1      2.7539385921898258      5.3175439359850998      8.7339689218712238
    44   1      14.988326326655169      12.091898793667497      15.555495217637826
    45   1      6.8517239007597368      12.084787061792895      12.775092290325119
    46   1    0.045833706875625602      8.0217381246818036      14.168444681449046
    47   1      13.662755378950919      2.5648644493495851      11.426246141299544
    48   1      12.291065249137887      14.820429687053888      10.097599218681012
    49   1       8.194747599168295      8.0484105261458012      11.427086193942273
    50   1      12.300356445516627      12.123819820681433      12.810962440828689
    51   1      5.4505151192772132      5.3057895261504768       6.016121200853263
    52   1      4.1076593340562226      14.836673949512601      12.805153131243742
    53   1      4.0834014755589578      6.6572487937385176      4.6673271292510776
    54   1      4.1107396893145278      6.6545081584944796      10.090539077524909
    55   1      15.027678363952532      6.6408215302406006      10.046943946983447
    56   1      1.4252470143974989      14.827222140519666      4.6192041831039887
    57   1      6.8641971737191056      14.821259032189005      10.058570353431605
    58   1      13.667602959670262      13.460362070049882      11.428702054182054
    59   1      6.8408825493015684      1.2532125314849054      12.805341972741644
    60   1       12.27277585272509      9.3740569131082339      15.522153985750492
    61   1      1.4022238045337474      1.1905172758576299      1.8947341119798295
    62   1      15.033498381045092      6.6540083125709089       4.644268998311361
    63   1      4.0941143369257702        3.94514419044026      12.796463502110896
    64   1    0.020077630034190275      10.726706174155993      11.434778078047543
    65   1    0.041900941233205202      10.703911837267469       5.984274639687726
    66   1      10.924523483667144       10.74478142041653      11.408680961765299
    67   1      12.287927949407276      12.103781206888584      7.3830922400383088
    68   1      10.925200976876113      13.490961206578504      3.2562270442585941
    69   1      10.925929087393797      7.9883190200118293      3.2452114524492686
    70   1       6.800042168445998      1.2236550651003171      7.3609627420315746
    71   1      13.651368431309379      5.3072447737760626      3.2716753008672583
    72   1      1.4146268703125173      6.6573748503054162      12.823723843083826
    73   1      9.5613117530640466      1.2166771770708777      10.098798459533668
    74   1      13.647228519502278      2.5817409414623569     0.56428054080404877
    75   1      1.3977598689451298      1.2408906237467932      12.793454692471641
    76   1      1.3909485556648065      6.6689895758361786      1.8892690244293959
    77   1      10.945465421738618      2.5981222113480271      14.184429043495697
    78   1      8.1979559578130647      5.2885470319592969      14.166229200782936
    79   1      15.015226506008389      9.3715085262963385      1.9068506302537287
    80   1      5.4681829935435644      16.174275268724955      6.0180500123382785
    81   1      10.916786822711856       10.74884637967034     0.55600619261987561
    82   1      9.5383003457939139      12.115813525216254      4.6097046770316865
    83   1      2.7584827124093181       10.79743996944751      3.2663415019613069
    84   1      8.2206763155580802      7.9889819120740526      5.9938525052475597
    85   1      12.307160579899801      9.3827562763389096      10.084075636565785
    86   1      9.5623533015318571      12.075897883654534      15.539025124109457
    87   1      13.642449077467745      16.184885435359661      3.2741175860128067
    88   1      6.8626645400157713      9.3604564316201504      10.095686468457416
    89   1      2.7548608979592188      8.0230945712144148      6.0163913220680456
    90   1      9.5285282849823716      14.846844134925391      1.9105222102789838
    91   1      4.1226172354867003      1.2326975552795005      15.555008512746326
    92   1      12.276175973097111       6.648850214130789      7.3588738046372555
    93   1      6.8321111537469505      3.9248529768087224      15.533368639860441
    94   1      2.7419656518589193      2.5872321894007086      11.427723777350138
    95   1      1.3785516953734032      3.9558115448997171      10.091749025885179
    96   1      1.3828612238351923      12.104251363813773      7.3338547396896843
    97   1      9.5700451856371274      12.142302925641047      10.062600269933228
    98   1      2.7498877473778691      16.191269056716578      14.147980687581025
    99   1    0.075245040116540984      10.756287124051596     0.55996279919721559
   100   1      13.650397941755728      5.2894596036308599      14.197892274204378
   101   1      1.3928673896995463      12.109434770908251      12.807146674479327
   102   1      14.986870105619801      1.2268858121700958      4.6386159209965854
   103   1      6.8458449923753051      14.846212391976223      4.6557372256697818
   104   1      12.288230679849789      1.2325150409451879      12.800716329452825
   105   1      5.4856960956544185      13.475897690186571      14.151961933593498
   106   1      1.4202854230573223      9.3722054877009668      4.6212726788928649
   107   1      4.1215664396259513      14.838310251357825      7.3733084983093704
   108   1      2.7372618924350149        10.7404312520963      14.172709189708371
   109   1      4.1432063125118361      12.067372760775015      10.091131884082756
   110   1      5.4944937732731773      10.717609659733853      0.5731096717264208
   111   1   0.0092417701661745566      13.438483711767162      8.7114539535904214
   112   1      9.5695935234978151      9.3728313901914362      7.3782324916966786
   113   1      8.1990890068004774      5.2849862989730809      3.3002451213507698
   114   1      5.4870724970875813       13.44619409065831      3.2796324391383962
   115   1    0.051385621818226479      2.5889947911652769      14.155650183261287
   116   1      14.996011396891959      12.085639768762803      4.6584413580469572
   117   1      5.4942212185339372      5.3232296225276059      11.445606288473641
   118   1      14.979137338303644      3.9266557317268393      7.3754144703748921
   119   1      9.5935306434715812      9.3813263373676818      12.806654129129129
   120   1      10.931401597193826      2.5503633204597804      8.7251001853383059
   121   1      9.5999473607611208      1.2317198868286994      4.6880884998078045
   122   1      4.1274847711065945      6.6614505170668394      15.539436876447667
   123   1      8.1937702957461624      2.5760966248356283      6.0084930750887793
   124   1      12.291284266339062      12.116326512171895      1.9123230183775348
   125   1      2.7600326241363007      2.5644743553790477      6.0073225498247211
   126   1      8.1954104912305183      16.191779123442871      14.174411683418839
   127   1      1.4115059968719947      6.6370627083635441      7.3715295919309369
   128   1      8.2100642021038084      13.460227739499828        11.4583034456831
   129   1      12.281563796246019      3.9360192037819672       10.08799945140106
   130   1      5.4825952987906703      10.767066663988544      6.0151385436773239
   131   1       14.99144415819012      14.828492440286482      12.786963022628811
   132   1      6.8311508849960205      14.843895676692682      15.491699887279538
   133   1      8.2036825275664569      10.781152876958345      3.2505391675440762
   134   1      6.8221604722402276      9.3668215581911909      15.521939835598232
   135   1    0.030433662569084641      5.3208374679858821      0.5583623309996284
   136   1      6.8090895256740964      1.2348531712439552      1.9352469404434203
   137   1      9.5699614723957893      14.827607610793734      12.782964255240245
   138   1      5.4593381055503301      2.5829024626859223      8.7401870635650312
   139   1      5.4922924070489216      5.3160166560355719     0.54844511045419608
   140   1      5.4783877350036505      2.5758571660290102      14.162302465718312
   141   1      5.4721053482641651      16.197384016973388     0.57571044015226391
   142   1      13.644011400169461       16.17327460346803      14.165965406731743
   143   1      8.1740451199034396      2.5817093056444094     0.57879864352694455
   144   1      6.8552233089296237      12.100988494221156       7.382502840414702
   145   1      10.945594885239757      5.2734066161945066      6.0064786035428597
   146   1      6.8674045589540924      6.6595513945802054      12.793515043878187
   147   1      8.1768884498795842      13.494177352501538      0.5568785502997784
   148   1      13.658909436898284      16.173417694706131      8.7157583716508498
   149   1      8.1971606820203533      16.226308888675248      3.2983421052250037
   150   1       9.560325688953867      3.9192252081483048      12.765969493838838
   151   1      13.612674419025325      13.477043393501162     0.54035011302254077
   152   1      13.659494456177868      10.741517577414129      14.174391241813396
   153   1      4.1171471592111288      12.092353376036158      4.6453261213356996
   154   1      10.937408508964722      8.0038765418686353      8.7422789211886993
   155   1      4.1336780908509354      1.2075086303247957      10.103002616386448
   156   1    0.069197336391925823      16.176452786409527      11.405417118762898
   157   1      10.965386252947724      16.169069473205468      5.9976843328583413
   158   1      1.3822659837528875      9.3941295962434879      10.086094488455728
   159   1      5.4506947133821768      8.0249936937010489      14.165488435938073
   160   1    0.033966788361044831      13.485715501257914       3.319398175593534
   161   1      4.1126071759832143      9.3653137464373231      12.810101946580517
   162   1      15.025045290489516      3.9490920971676644        1.90997272045648
   163   1      4.1186953674709912      9.3774657941683017      1.9445144099586997
   164   1      15.011633650499334      9.3507875522456061      12.795846360308474
   165   1      6.8161233847660583      3.9415097216629817      4.6323418082402554
   166   1       4.144863055962503      9.3848023837027768      7.3673950338776422
   167   1    0.048363519051622728      13.461905897965721      14.180269663492936
   168   1      8.1968881272811132       8.073507950580904      0.5658932374620349
   169   1      6.8842250800043416      6.6537299173729707       1.911683974854995
   170   1      1.4073559859383948      3.9329142699266413      15.534098697197692
   171   1      10.923973507139749      8.0018304345047682      14.169787986949586
   172   1      9.5555589012465134      6.6218721619949292      4.6592741101163142
   173   1      2.7331674875352689      10.765863529496755      8.7060992263741355
   174   1    0.082602200537445825      2.5674950892881441       3.251503573286584
   175   1      2.7599515877718659       16.17082842468335      8.7069421992462139
   176   1      4.1288314835413757      1.2411804565096816      4.6488595988479915
   177   1       2.771138012998108      13.473283111509431      11.430086242893481
   178   1      9.5294549710957881      6.6477205720776169      10.078582685160313
   179   1       12.28877578932827      1.1977027435232941       7.361607139307921
   180   1    0.067789109021717309      16.142250086864237     0.52220721478208532
   181   1      14.989979176466704      12.100523204344881      10.081618750273492
   182   1       2.771570450294206      8.0203816781491923      0.5228592776604728
   183   1      15.018731754636974       1.189123474724596      10.090961537370731
   184   1      10.922160044714019      5.3098286900450375     0.59299935382247071
   185   1       4.108305678152135      3.9686028795056814      7.3298379642201326
   186   1      8.2099697813548573      5.2856248557907293      8.7224817130220345
   187   1      2.7114465782849493      5.2839481574395109      3.2359355872746107
   188   1       6.842005864191151      9.3793551825571058      4.6211694974558668
   189   1      9.5510082105109859      3.9218483041610455      1.9193543222688163
   190   1       2.749133111443598      2.5695088307767264      0.5462668018741752
   191   1      13.632606931151827      2.5627195408927435       6.013407821083149
   192   1      4.1225909534225593      12.091447131528184      15.529443851615383
   193   1      6.8543925036798328      6.6427605625283377      7.3711051852655487
   194   1      2.7374227484016558      13.450214273062102      6.0214077893847389
   195   1      4.1540783263781691      3.9366752819757096       1.907022680432874
   196   1      12.289823178254778      6.6692991201471727       12.79647128938916
   197   1      6.8339966484966226      3.9225148465099551      10.072585507487247
   198   1      5.4730067257232236      7.9796342579278985      3.2789364511435508
   199   1      8.2141067729326096      16.216172772604864      8.6995871149258619
   200   1    0.040619842701609343      2.5588310121621021      8.7171620285579365
   201   1    0.058318649345244555      8.0255903938980282       3.240532271622385
   202   1      2.7582624784459142      13.464180756628593     0.54632690992827548
   203   1      15.011950982088592      3.9170698355362958      12.813986825024472
   204   1      13.674447977264322      13.477581689111162      5.9822601681418064
   205   1      12.243864608760191       14.79751367394249      15.519126681325361
   206   1    0.036758497199634643      8.0259169728802249      8.7199596082742801
   207   1      5.4828002015499919      13.432481667045181      8.7139818987968738
   208   1      5.5226559784100573      16.173609456433383      11.443112412609594
   209   1      10.936601552254615      10.784753519745664      5.9985652687119568
   210   1      12.312419912957353        1.24406965842185      1.9167566565866565
   211   1      9.5717145834149733      14.843012794019501       7.378099621261299
   212   1      15.033554838812506      1.2386413170907247      15.511108704942785
   213   1      12.277274952742118      3.9417338492655176      15.561250016274926
   214   1      1.4368706222925312      9.3640677819150824      15.524331503435064
   215   1      12.303181280706895      3.9262040695875271      4.6185860678917834
   216   1      12.297321353813231      14.816309243442447      4.6594464036479053


Velocities

     1                       0                       0                       0
     2                       0                       0                       0
     3                       0                       0                       0
     4                       0                       0                       0
     5                       0                       0                       0
     6                       0                       0                       0
     7                       0                       0                       0
     8                       0                       0                       0
     9                       0                       0                       0
    10                       0                       0                       0
    11                       0                       0                       0
    12                       0                       0                       0
    13                       0                       0                       0
    14                       0                       0                       0
    15                       0                       0                       0
    16                       0                       0                       0
    17                       0                       0                       0
    18                       0                       0                       0
    19                       0                       0                       0
    20                       0                       0                       0
    21                       0                       0                       0
    22                       0                       0                       0
    23                       0                       0                       0
    24                       0                       0                       0
    25                       0                       0                       0
    26                       0                       0                       0
    27                       0                       0                       0
    28                       0                       0                       0
    29                       0                       0                       0
    30                       0                       0                       0
    31                       0                       0                       0
    32                       0                       0                       0
    33                       0                       0                       0
    34                       0                       0                       0
    35                       0                       0                       0
    36                       0                       0                       0
    37                       0                       0                       0
    38                       0                       0                       0
    39                       0                       0                       0
    40                       0                       0                       0
    41                       0                       0                       0
    42                       0                       0                       0
    43                       0                       0                       0
    44                       0                       0                       0
    45                       0                       0                       0
    46                       0                       0                       0
    47                       0                       0                       0
    48                       0                       0                       0
    49                       0                       0                       0
    50                       0                       0                       0
    51                       0                       0                       0
    52                       0                       0                       0
    53                       0                       0                       0
    54                       0                       0                       0
    55                       0                       0                       0
    56                       0                       0                       0
    57                       0                       0                       0
    58                       0                       0                       0
    59                       0                       0                       0
    60                       0                       0                       0
    61                       0                       0                       0
    62                       0                       0                       0
    63                       0                       0                       0
    64                       0                       0                       0
    65                       0                       0                       0
    66                       0                       0                       0
    67                       0                       0                       0
    68                       0                       0                       0
    69                       0                       0                       0
    70                       0                       0                       0
    71                       0                       0                       0
    72                       0                       0                       0
    73                       0                       0                       0
    74                       0                       0                       0
    75                       0                       0                       0
    76                       0                       0                       0
    77                       0                       0                       0
    78                       0                       0                       0
    79                       0                       0                       0
    80                       0                       0                       0
    81                       0                       0                       0
    82                       0                       0                       0
    83                       0                       0                       0
    84                       0                       0                       0
    85                       0                       0                       0
    86                       0                       0                       0
    87                       0                       0                       0
    88                       0                       0                       0
    89                       0                       0                       0
    90                       0                       0                       0
    91                       0                       0                       0
    92                       0                       0                       0
    93                       0                       0                       0
    94                       0                       0                       0
    95                       0                       0                       0
    96                       0                       0                       0
    97                       0                       0                       0
    98                       0                       0                       0
    99                       0                       0                       0
   100                       0                       0                       0
   101                       0                       0                       0
   102                       0                       0                       0
   103                       0                       0                       0
   104                       0                       0                       0
   105                       0                       0                       0
   106                       0                       0                       0
   107                       0                       0                       0
   108                       0                       0                       0
   109                       0                       0                       0
   110                       0                       0                       0
   111                       0                       0                       0
   112                       0                       0                       0
   113                       0                       0                       0
   114                       0                       0                       0
   115                       0                       0                       0
   116                       0                       0                       0
   117                       0                       0                       0
   118                       0                       0                       0
   119                       0                       0                       0
   120                       0                       0                       0
   121                       0                       0                       0
   122                       0                       0                       0
   123                       0                       0                       0
   124                       0                       0                       0
   125                       0                       0                       0
   126                       0                       0                       0
   127                       0                       0                       0
   128                       0                       0                       0
   129                       0                       0                       0
   130                       0                       0                       0
   131                       0                       0                       0
   132                       0                       0                       0
   133                       0                       0                       0
   134                       0                       0                       0
   135                       0                       0                       0
   136                       0                       0                       0
   137                       0                       0                       0
   138                       0                       0                       0
   139                       0                       0                       0
   140                       0                       0                       0
   141                       0                       0                       0
   142                       0                       0                       0
   143                       0                       0                       0
   144                       0                       0                       0
   145                       0                       0                       0
   146                       0                       0                       0
   147                       0                       0                       0
   148                       0                       0                       0
   149                       0                       0                       0
   150                       0                       0                       0
   151                       0                       0                       0
   152                       0                       0                       0
   153                       0                       0                       0
   154                       0                       0                       0
   155                       0                       0                       0
   156                       0                       0                       0
   157                       0                       0                       0
   158                       0                       0                       0
   159                       0                       0                       0
   160                       0                       0                       0
   161                       0                       0                       0
   162                       0                       0                       0
   163                       0                       0                       0
   164                       0                       0                       0
   165                       0                       0                       0
   166                       0                       0                       0
   167                       0                       0                       0
   168                       0                       0                       0
   169                       0                       0                       0
   170                       0                       0                       0
   171                       0                       0                       0
   172                       0                       0                       0
   173                       0                       0                       0
   174                       0                       0                       0
   175                       0                       0                       0
   176                       0                       0                       0
   177                       0                       0                       0
   178                       0                       0                       0
   179                       0                       0                       0
   180                       0                       0                       0
   181                       0                       0                       0
   182                       0                       0                       0
   183                       0                       0                       0
   184                       0                       0                       0
   185                       0                       0                       0
   186                       0                       0                       0
   187                       0                       0                       0
   188                       0                       0                       0
   189                       0                       0                       0
   190                       0                       0                       0
   191                       0                       0                       0
   192                       0                       0                       0
   193                       0                       0                       0
   194                       0                       0                       0
   195                       0                       0                       0
   196                       0                       0                       0
   197                       0                       0                       0
   198                       0                       0                       0
   199                       0                       0                       0
   200                       0                       0                       0
   201                       0                       0                       0
   202                       0                       0                       0
   203                       0                       0                       0
   204                       0                       0                       0
   205                       0                       0                       0
   206                       0                       0                       0
   207                       0                       0                       0
   208                       0                       0                       0
   209                       0                       0                       0
   210                       0                       0                       0
   211                       0                       0                       0
   212                       0                       0                       0
   213                       0                       0                       0
   214                       0                       0                       0
   215                       0                       0                       0
   216                       0                       0                       0
