(written by ASE)

8 atoms
1 atom types

0.0       5.443702220916748  xlo xhi
0.0       5.443702220916748  ylo yhi
0.0       5.443702220916748  zlo zhi

Atoms # atomic

     1   1      1.6985688095828806      2.4589477215403974      2.6708763966286568
     2   1     0.26537455195924053      3.8645871809272023      1.3806098484357676
     3   1       4.326173246454573      5.1739933995371814      2.7922049535187909
     4   1     0.26631383158914979      1.1637746200755501      4.0441598761187549
     5   1      4.3728836141354179      2.4881002097477136    0.012735953284511825
     6   1      2.9651607332822323      3.7925970359737846      4.1296041670157138
     7   1      3.0311842005615688      1.0475664421459498      1.3662471866682324
     8   1      1.6193553148888356      5.2344343615480113    0.015997934482454124

Velocities

     1                       0                       0                       0
     2                       0                       0                       0
     3                       0                       0                       0
     4                       0                       0                       0
     5                       0                       0                       0
     6                       0                       0                       0
     7                       0                       0                       0
     8                       0                       0                       0
