(written by ASE)

64 atoms
2 atom types

0.0      11.085848808288574  xlo xhi
0.0      11.085848808288574  ylo yhi
0.0      11.085848808288574  zlo zhi

Atoms # atomic

     1   1      5.5429244041442871      5.5429244041442871      5.5429244041442871
     2   2      4.1571933031082153      4.1571933031082153      4.1571933031082153
     3   2      6.9286555051803589      4.1571933031082153      6.9286555051803589
     4   2      4.1571933031082153      6.9286555051803589      6.9286555051803589
     5   2      6.9286555051803589      6.9286555051803589      4.1571933031082153
     6   1      3.1870489823060666      4.4570888432431843      10.495981803815937
     7   1      9.4064155463337329     0.30889057601143577      8.9087831758791935
     8   1      5.0702016687790774      1.2930497051997136      9.0373864850343466
     9   2      6.2976781538267801      8.3109895975158565      1.6787407770067375
    10   1      4.3852841671143494      9.9635401708937366      1.8233234406466181
    11   2      10.479890779525647      3.6147988509772233      2.3171017160810692
    12   2      6.4933157239553907      7.6340089116470722       9.147183013089375
    13   1      3.9012887283000452      3.7429482124612434       6.954206746075613
    14   1      8.0212791365698877      2.4932793358622263      7.0070371363959794
    15   2       2.079251142337597       5.832634865090256      3.0909964303202742
    16   2      9.4135835584683036      2.1818119295298288      5.4745534093444803
    17   1      9.2575041910001232        10.1923377263617      1.4302744684779611
    18   1      10.938403697325043      1.9471609600229556       3.979384907704997
    19   1       1.149264919016737      9.2500778185461741      3.8863421543247512
    20   1      6.1212081441701116      10.964157133252854      6.3402289751226704
    21   2      4.3706210626454833      5.8032405970402579      0.3054567294903876
    22   1      5.6902175384493603       2.122706720327372     0.91397796023262146
    23   2        11.0183500273547      7.1959256213528988      1.1392186837205998
    24   2      8.7399186068262225      9.6648888570538816      10.964418797412634
    25   1      1.9626591101532398      6.7885098991993686      5.3221426262578575
    26   1      2.1393559284534547     0.96885276699328671       5.718773291805519
    27   2        4.34599060207006      2.0265978378627381      1.8945767058124829
    28   1      0.5697025927556254      5.4162340185814628      2.2526533709896768
    29   2      3.1582355293986097      2.9681870660768084      8.7104906396041315
    30   2      8.3084145843071155     0.65245442016001576      2.8277586513574704
    31   1      9.3859786503796272      7.2171052206292075      4.0298421494651393
    32   1      4.6106665427595317      2.3587268012965268      4.1087124186761059
    33   2      3.6354442192606484      9.2035445480306066      3.5710345291019507
    34   1      10.540064285521851       3.822621645273756      5.8461726815184534
    35   2      5.7483472887733456     0.48888768308447794     0.14156823965777221
    36   1      7.5594907913966836      4.2634068162480787      9.5437476018290113
    37   1      3.9119859027512405      4.7926843612179937      3.3332478846702429
    38   1      8.1983273182967764      3.4915348782945443       2.496903648782407
    39   2     0.63282341347578708      1.5179512894705027     0.41129377001652756
    40   1       9.882270983167416      3.5404545127319409     0.30481086998994655
    41   1      2.1728233361421445      1.3612128884382813      1.7800310723726653
    42   2      9.5639585150996709      6.7933718307338609       7.847431054655658
    43   1      9.3968998252100278      7.0378408227611544      10.726786111943625
    44   1      6.8548648905863274      9.2514165346767641       10.91807913194458
    45   1      10.758354967745731      8.9846234930581659      6.9680696603992942
    46   2      6.8435750071671464      10.728823259935041       5.447885800777641
    47   2       2.587374362410273      7.9573068748803166      9.8888575193913653
    48   2       10.99404367352264      8.4595837841709454      4.9228797910625133
    49   2       1.564069267247632     0.61251726700556119      3.8532175200776919
    50   1      2.1660161033793912      10.814465410816467       8.126857321200589
    51   1      7.8897776986147505      7.1677802049745765      7.6573479010096435
    52   1      7.9825852185584267     0.25320659678949475      4.7458349131760258
    53   1     0.30245812264420024      5.5397210004912267      8.2314284952769867
    54   1      6.4188484828471815      6.5166851086496536      1.1496461821990422
    55   1      3.8142916724700626      8.2193219025106146      5.6950570038691239
    56   1      1.6562974587769475      7.9680853238053828     0.34576988033150791
    57   2     0.47930918899314889      10.700677182788638      7.8251473119172488
    58   1      4.1801074185951848      7.5294615252215635      9.3180860516699227
    59   2      3.6689078275328768     0.44805490009524718      6.6545794777812262
    60   1      6.7263864665983419      8.5200103643418856      2.5322710950858607
    61   2     0.94503595971268339       4.711595893561622      7.0145745178874108
    62   1      1.3300823696614117       2.650404368817405      8.6009260411452715
    63   2      8.6921186439008125      4.4465499227472094      10.626062590398533
    64   2      7.6370378725269461     0.93302212226557657      8.0009790196083941

Velocities

     1                       0                       0                       0
     2                       0                       0                       0
     3                       0                       0                       0
     4                       0                       0                       0
     5                       0                       0                       0
     6                       0                       0                       0
     7                       0                       0                       0
     8                       0                       0                       0
     9                       0                       0                       0
    10                       0                       0                       0
    11                       0                       0                       0
    12                       0                       0                       0
    13                       0                       0                       0
    14                       0                       0                       0
    15                       0                       0                       0
    16                       0                       0                       0
    17                       0                       0                       0
    18                       0                       0                       0
    19                       0                       0                       0
    20                       0                       0                       0
    21                       0                       0                       0
    22                       0                       0                       0
    23                       0                       0                       0
    24                       0                       0                       0
    25                       0                       0                       0
    26                       0                       0                       0
    27                       0                       0                       0
    28                       0                       0                       0
    29                       0                       0                       0
    30                       0                       0                       0
    31                       0                       0                       0
    32                       0                       0                       0
    33                       0                       0                       0
    34                       0                       0                       0
    35                       0                       0                       0
    36                       0                       0                       0
    37                       0                       0                       0
    38                       0                       0                       0
    39                       0                       0                       0
    40                       0                       0                       0
    41                       0                       0                       0
    42                       0                       0                       0
    43                       0                       0                       0
    44                       0                       0                       0
    45                       0                       0                       0
    46                       0                       0                       0
    47                       0                       0                       0
    48                       0                       0                       0
    49                       0                       0                       0
    50                       0                       0                       0
    51                       0                       0                       0
    52                       0                       0                       0
    53                       0                       0                       0
    54                       0                       0                       0
    55                       0                       0                       0
    56                       0                       0                       0
    57                       0                       0                       0
    58                       0                       0                       0
    59                       0                       0                       0
    60                       0                       0                       0
    61                       0                       0                       0
    62                       0                       0                       0
    63                       0                       0                       0
    64                       0                       0                       0
