(written by ASE)

64 atoms
2 atom types

0.0      11.085848808288574  xlo xhi
0.0      11.085848808288574  ylo yhi
0.0      11.085848808288574  zlo zhi

Atoms # atomic

     1   1      5.5429244041442871      5.5429244041442871      5.5429244041442871
     2   2      4.1571933031082153      4.1571933031082153      4.1571933031082153
     3   2      6.9286555051803589      4.1571933031082153      6.9286555051803589
     4   2      4.1571933031082153      6.9286555051803589      6.9286555051803589
     5   2      6.9286555051803589      6.9286555051803589      4.1571933031082153
     6   2      5.6219654819039988      1.5030375887072012       5.466241938047034
     7   2      1.7158970876954527      3.5046574019843035      9.0572914626838497
     8   2     0.14236638555170877      6.9974454269430453      10.382085870591027
     9   1      7.8490968509859727      7.4939452409080332      5.6332784922059886
    10   1      9.4581893684937768      8.9382798629816307      2.6519401590279301
    11   1      3.1091084137840141    0.069679315598705216      9.8361579611508887
    12   2      9.4572656147175849      3.8920409486328822      5.2990193776734884
    13   1      1.1232954119266836      7.2715611004269931       4.078867176411336
    14   1      9.7438354449781173     0.33140633094202343      8.1565086280338051
    15   1      7.0391980403979915      4.9463750520760641     0.43544992300434515
    16   2      8.1345050509614225      8.7790823309427424      11.000962576090956
    17   1       2.947202393384174      6.6396692460503459      1.4583224215644464
    18   1      2.2790875632321672       4.192258943591014      2.6205868788120057
    19   1      5.3373009764028723      8.4697259134347291       10.55363249728174
    20   2      2.0521241347629626     0.57544640188922358      5.5036331517882786
    21   1      6.2840273460568596      1.9063871092868823      2.7563286307301382
    22   1      3.8473280941784083      3.4944095498276795       10.18475078726425
    23   2      9.0473435992356599      6.1717344361946402      7.1534051953887001
    24   1      5.4434913626599268      3.2555385849762786      4.0255560773125865
    25   2      5.0887071396346073       7.823591203088256      1.2501006885394617
    26   2     0.33499196828050692      8.4790956048126986      3.7509213705016009
    27   2      7.7168176890003792     0.48013960927800525      8.8658114453161829
    28   1      5.8258302753998237      10.003360037713946      5.4646445312130254
    29   1      7.5268785827958595      10.238162653495237      1.3943374400893305
    30   1      6.1011670482960767      5.6897133724041282      8.1866812808823397
    31   2      6.1436161113076082      5.4334912985333972      10.596429124303484
    32   1     0.82924444805755115      9.0063502083049229      10.533384580998586
    33   1      1.3068504247278412      5.7137686343656924      9.0729490231134946
    34   2       1.805877841791812      6.2071106376751572       2.007456708114006
    35   2      9.1302244003097144      10.885835631932537      2.5261528782387899
    36   2      2.1972131119443361     0.75360459139492519      10.301805191912763
    37   1     0.24382912073757979      3.1779161762848673      9.0748526959526998
    38   1      10.947682202707938      6.1278951171422591     0.79435738014844048
    39   1      9.0562679329275397      6.9832144647986638      10.173297033361166
    40   2      10.502117035441074      2.4358937755886245      9.9590852724966794
    41   2      3.7348762695928883      1.3192357790280695      8.0811130077728421
    42   1      2.4950358226115554       1.700812578383406      6.4336688501191475
    43   1      5.9520178164535764      1.4039174209088401      7.7549288095650581
    44   2      1.3559657291130023      10.788403396195179     0.39497775419491177
    45   2      7.1583206491376927      9.0639890079452812      5.7627883751672471
    46   2      9.8720185056342302     0.38900246974320041      6.5647110542585096
    47   1      0.2798295415639096      3.4684562315555922      5.2390493882460021
    48   1      7.9377402104879025       2.215876175987006      10.264824645533395
    49   1      10.572252281015153      6.9554113262859119      7.3994032047536962
    50   1     0.63843544067538005      1.4673285253062573     0.82901276624941289
    51   2     0.84311735649844621      2.8247590946571677      2.9692390088605691
    52   1      8.6500970978372038       4.437550591878221      6.7508533870739029
    53   1      7.5265587710450177      9.9895400733154815      8.1119411425569865
    54   1      8.4239075939819941      5.4671442168606177      3.5914463158690069
    55   1      9.5328092470285242      1.0531851929436442      4.6717129233897481
    56   1      2.7294578359786215       10.11246209851663      3.2010001091684614
    57   2      8.8392194946945324      5.1813316268200538      1.3731988910300075
    58   2      1.1422412847077013      8.4462660035134718      6.5598986803300363
    59   2      4.8088467484609509      9.7674830130341661      3.4897663325277506
    60   2      6.5512095800747261      4.0520931841835761      7.5888804340701199
    61   1     0.54919569668301804      10.155131858066966      6.1780057860443094
    62   2      6.4956112322661852      2.8791462545746072      1.1646718005559364
    63   1      3.0998652594934129      8.2591100524629724       6.949618372526345
    64   1      5.7171226931410501      8.1412389384672679      2.9122335554251322

Velocities

     1                       0                       0                       0
     2                       0                       0                       0
     3                       0                       0                       0
     4                       0                       0                       0
     5                       0                       0                       0
     6                       0                       0                       0
     7                       0                       0                       0
     8                       0                       0                       0
     9                       0                       0                       0
    10                       0                       0                       0
    11                       0                       0                       0
    12                       0                       0                       0
    13                       0                       0                       0
    14                       0                       0                       0
    15                       0                       0                       0
    16                       0                       0                       0
    17                       0                       0                       0
    18                       0                       0                       0
    19                       0                       0                       0
    20                       0                       0                       0
    21                       0                       0                       0
    22                       0                       0                       0
    23                       0                       0                       0
    24                       0                       0                       0
    25                       0                       0                       0
    26                       0                       0                       0
    27                       0                       0                       0
    28                       0                       0                       0
    29                       0                       0                       0
    30                       0                       0                       0
    31                       0                       0                       0
    32                       0                       0                       0
    33                       0                       0                       0
    34                       0                       0                       0
    35                       0                       0                       0
    36                       0                       0                       0
    37                       0                       0                       0
    38                       0                       0                       0
    39                       0                       0                       0
    40                       0                       0                       0
    41                       0                       0                       0
    42                       0                       0                       0
    43                       0                       0                       0
    44                       0                       0                       0
    45                       0                       0                       0
    46                       0                       0                       0
    47                       0                       0                       0
    48                       0                       0                       0
    49                       0                       0                       0
    50                       0                       0                       0
    51                       0                       0                       0
    52                       0                       0                       0
    53                       0                       0                       0
    54                       0                       0                       0
    55                       0                       0                       0
    56                       0                       0                       0
    57                       0                       0                       0
    58                       0                       0                       0
    59                       0                       0                       0
    60                       0                       0                       0
    61                       0                       0                       0
    62                       0                       0                       0
    63                       0                       0                       0
    64                       0                       0                       0
