(written by ASE)

64 atoms
2 atom types

0.0      11.085848808288574  xlo xhi
0.0      11.085848808288574  ylo yhi
0.0      11.085848808288574  zlo zhi

Atoms # atomic

     1   1      5.5429244041442871      5.5429244041442871      5.5429244041442871
     2   2      4.1571933031082153      4.1571933031082153      4.1571933031082153
     3   2      6.9286555051803589      4.1571933031082153      6.9286555051803589
     4   2      4.1571933031082153      6.9286555051803589      6.9286555051803589
     5   2      6.9286555051803589      6.9286555051803589      4.1571933031082153
     6   1      6.0604558053356072      3.2764043194144676      8.7995516045327804
     7   2      1.1713408501939071     0.62892322988210125      6.9267207762413818
     8   2     0.58514086077863681      7.6897235546377374       6.025386200244327
     9   1     0.99182048729076655      3.2889268656873583      0.7973306713175532
    10   2     0.78942218595305036      3.3251372868691931      4.8155020045652464
    11   1      5.4772334846779813      9.1738767219953843      1.4015436115805358
    12   2      6.6424510796682057      8.8673008165690703       8.919000632704126
    13   1        1.39599002105804       9.560869424324494      7.3716694468893706
    14   1      8.1061039173360427      4.3494626079477428      1.1745777052310302
    15   1      9.9836962404137353       7.623894534642659       7.502601963527411
    16   2      9.7395741516285739      6.6529381298698809      9.6350294082753862
    17   1      9.5483941229693414      3.8797047389586226       8.995837388148118
    18   1        2.80909426577864      6.4598068530696651      1.8062227627297034
    19   1      7.9520881285824885      10.259167149230279      9.1904084785952023
    20   1      8.3166200023276815      1.0115767095262029      1.4606719476658014
    21   1      5.5628650632701238      9.3992653749373289      6.7938885513726177
    22   2      8.3131489876021192      5.7161493817588394      6.1594031822809825
    23   1     0.41258292854109868      6.6340765050190953       3.404234199531686
    24   1      3.2641031304484613     0.29127604766711279       2.627071161175536
    25   2      10.974253669519101      10.756844451914276      10.596994741780179
    26   1      3.4888657056343675      8.3453786114844775        10.0471266722775
    27   2      10.059533253752306      5.3483576086897244      2.2682706245664264
    28   1      3.0773898940117306      8.8670074355414386      4.6858523691550147
    29   2      4.3664222118795237      6.7050231737957233      9.7913129530803644
    30   2      5.1169344912548809       2.327249296681515      9.0033100143676847
    31   1      5.8567978322489012      5.7262967971672651      4.7493112140462301
    32   1      10.433117650196948      0.9515935873331216      8.9018821140490445
    33   2      9.8945513579388944       8.477608215864052      1.9753413971095313
    34   1      5.8638852306776812      6.0045548257463111     0.82946341008014457
    35   2      7.7411821904235012      11.006611482409028      3.8816497098028435
    36   2      7.7711632205287628     0.80620486923134393      10.720107728956521
    37   1      7.5838248974881139      2.2769775655599034      6.8136303193062986
    38   1      5.9177675637818083      1.0053291473274228       4.742315331996565
    39   2      9.2731802529360152      2.4622873305941795      7.9795139685214167
    40   2      3.0997298020369612      4.9393837954029607      3.2737090464151208
    41   1      3.5228582587548374      3.5730267448639097      9.5901526833370099
    42   1      1.5653683372934069      1.4688497786190169      5.4586794473685529
    43   1      7.7807126408245608      8.9297268809508523      2.6361190584984229
    44   1      4.0937212428553948      6.4817681409849115      7.1206793346780728
    45   1      6.3321140823290989      1.3534762027746439      10.591686791791517
    46   2      5.4206859435221588     0.52695333454563453      1.6935314097150922
    47   2      8.8924932603967477      9.4619511211746499      6.7074812310542598
    48   2      4.7238210941983994      11.055374184427365       6.234936903070718
    49   1      7.3729711600074666      6.9289019716742928      9.9857129045946635
    50   1     0.52222194600499705       9.587806295884036       2.345712973955969
    51   2      9.8828907836266922      1.5825583840931756      2.9086125463453527
    52   1      8.6206010715028469      6.5701234056038516      5.1533371959480689
    53   1      10.277032996584126      3.4175100214160636      2.9170637700917723
    54   2      2.5418348870874041      9.6414785047386431      3.4465316162687998
    55   2      2.4458465947974162      9.6768190247428265      9.0489248172517023
    56   1      9.9412114959258702      8.4111395723672899     0.13060741874255655
    57   1      4.0924370400914256      1.0888501500752312      7.3204956021461953
    58   1     0.76532232214606921       6.278038144177458        10.5185113522802
    59   1      2.0383322530079084      4.7206586581663146      5.7230253344019388
    60   1      9.2287158472797159      10.763645076996227      5.1680624126164787
    61   2      2.8935272110732058      1.3466619493510379     0.95118300256725519
    62   2       6.838148118924039      4.8111544809812301    0.021996969391580024
    63   2     0.58596686217695648      4.0733966774749319      10.752642627691955
    64   1      1.7145701001982872      10.593244882924751      10.481143595805804

Velocities

     1                       0                       0                       0
     2                       0                       0                       0
     3                       0                       0                       0
     4                       0                       0                       0
     5                       0                       0                       0
     6                       0                       0                       0
     7                       0                       0                       0
     8                       0                       0                       0
     9                       0                       0                       0
    10                       0                       0                       0
    11                       0                       0                       0
    12                       0                       0                       0
    13                       0                       0                       0
    14                       0                       0                       0
    15                       0                       0                       0
    16                       0                       0                       0
    17                       0                       0                       0
    18                       0                       0                       0
    19                       0                       0                       0
    20                       0                       0                       0
    21                       0                       0                       0
    22                       0                       0                       0
    23                       0                       0                       0
    24                       0                       0                       0
    25                       0                       0                       0
    26                       0                       0                       0
    27                       0                       0                       0
    28                       0                       0                       0
    29                       0                       0                       0
    30                       0                       0                       0
    31                       0                       0                       0
    32                       0                       0                       0
    33                       0                       0                       0
    34                       0                       0                       0
    35                       0                       0                       0
    36                       0                       0                       0
    37                       0                       0                       0
    38                       0                       0                       0
    39                       0                       0                       0
    40                       0                       0                       0
    41                       0                       0                       0
    42                       0                       0                       0
    43                       0                       0                       0
    44                       0                       0                       0
    45                       0                       0                       0
    46                       0                       0                       0
    47                       0                       0                       0
    48                       0                       0                       0
    49                       0                       0                       0
    50                       0                       0                       0
    51                       0                       0                       0
    52                       0                       0                       0
    53                       0                       0                       0
    54                       0                       0                       0
    55                       0                       0                       0
    56                       0                       0                       0
    57                       0                       0                       0
    58                       0                       0                       0
    59                       0                       0                       0
    60                       0                       0                       0
    61                       0                       0                       0
    62                       0                       0                       0
    63                       0                       0                       0
    64                       0                       0                       0
