(written by ASE)

64 atoms
2 atom types

0.0      11.085848808288574  xlo xhi
0.0      11.085848808288574  ylo yhi
0.0      11.085848808288574  zlo zhi

Atoms # atomic

     1   1      5.5429244041442871      5.5429244041442871      5.5429244041442871
     2   2      4.1571933031082153      4.1571933031082153      4.1571933031082153
     3   2      6.9286555051803589      4.1571933031082153      6.9286555051803589
     4   2      4.1571933031082153      6.9286555051803589      6.9286555051803589
     5   2      6.9286555051803589      6.9286555051803589      4.1571933031082153
     6   1      8.8374109724588834      7.2058212841227487      11.054480825982864
     7   2       9.640391541246629      9.9601299468315574       5.988364025475903
     8   1      3.6205891616644692      5.4786068911327845      8.8003114878250699
     9   1      1.2819100639227798      7.8682102284753341       10.77079260532031
    10   2      2.9083092537965172      6.8377741241906165      10.519034680599759
    11   1      1.3428943323534526      5.7090547148811766      6.0634662647092341
    12   1      3.2180912059482125      10.645429042062631      9.1749379155322686
    13   1      9.2295180197291415      6.2347307434296795      3.0878706669166434
    14   1      1.5255892729021525       4.829594205412775      1.5995878642494432
    15   2      10.649914335791379      8.1316584620716981      1.0758988479142673
    16   1     0.12243107451752167      8.9125548400812704       7.487387778479615
    17   1       3.147964880743217      3.2053995030467775      10.874151269969445
    18   2      8.1931283950413558      4.4700841690774951     0.11481241855221924
    19   1      3.9565669339737042      8.5055672956437434     0.54013846601099758
    20   2      5.7707962235318178      5.2020106942755717      1.9469856912896688
    21   1       10.22599064468892      5.0973374315307751      9.4485203491754532
    22   2       1.703384948519826      9.7383517306801082      9.4382308686297733
    23   2      2.3178586259169975      4.6916456532986217       7.216938707072984
    24   2      1.6962260219463587      6.1877355960260161      3.2165919231741213
    25   2      4.9299830479252194      8.3650239072784416      2.0387341651927215
    26   2     0.96573228973429792      7.9608902201795217      6.3191987094324986
    27   2      6.5519760710478181      11.077339436951092      8.6914915749926536
    28   2      10.675729223150654     0.76005310968611184      8.5772368447001668
    29   2      7.3987457405138457      1.4398826971329015      1.7157003439995577
    30   2      2.5102883322080061      1.7324985553277372      9.2293422554197946
    31   1      6.1961438698472193      4.8041364632008765      10.990563408043954
    32   1      9.0956761412337528      3.8951934731437632      6.2544084168595759
    33   1      10.070536363824658        10.0355764462347      1.9765919007014077
    34   1      2.0324803256971791      8.6996705622900095      3.8328285298094045
    35   1      8.6588535964366997      9.1994325882672001      5.0041374153474294
    36   2      9.6855669333572791       5.756821639402574      7.7814771494934121
    37   2      7.4307896885656533      7.6099410950919832      9.2955333763228509
    38   1        1.71588998443859      2.7302454715302815      7.5019841453723757
    39   2      4.6598947558904058      10.117056418978621       10.77347003758149
    40   1       4.259614668235514      3.0582880799637735      2.8711334504494346
    41   2      10.173585128244156      4.9105871920815503      3.1143925761217872
    42   1      4.3013121075557592       6.161399362651423      2.3757800691036834
    43   1      10.532986798614274      2.9628103962078001      4.3903423467686764
    44   2      10.940137552767624      2.8662252651493247      6.0740596985718298
    45   2      3.8461572131402022      9.9538546323734067      5.3582502980032132
    46   2      1.6698104964021354     0.25412958655259388      4.0750684207179688
    47   1      11.039444387548656    0.089107001879740189      5.8378509683157631
    48   1      4.1995571270373944     0.29907651809949698      5.1382697014140888
    49   2      4.9426516239438456      4.2906053519674003      9.5480234320763202
    50   2      8.0167052999183852      10.149790869674291      3.2981455715589902
    51   1       5.715140388900295      2.4599830671063216      8.5095755148185503
    52   1      7.1500577442941449     0.80993094043588343       6.516552294265523
    53   1       7.503339380704972      3.5178552532352114      1.4297423849813384
    54   1      7.5915578663312999     0.84733082675818139      3.4650469986455334
    55   1    0.058927297396849099      1.5343018304243117      10.282996428508397
    56   1      7.0893153169808443      6.9484706183709477      7.1846086464424275
    57   1      6.4806831597971382      9.2898045170670684      9.4631239845170967
    58   1      1.3388863609666757     0.59364663918968219      1.9854225705179118
    59   2      2.3369085696706549      3.0802900051159554      1.3918138015988291
    60   2    0.073388867601238417     0.14209901194273566      1.5170194412853277
    61   1      6.0391281940093222      9.4885728063599117      2.9158387060709856
    62   1       4.570542722622406      8.8443272319548782      6.6129206933936757
    63   1      6.0315590956500387     0.83473700012863361     0.69449896921241816
    64   1      9.1039707629451527      0.2706370392764601      9.0073459858018623

Velocities

     1                       0                       0                       0
     2                       0                       0                       0
     3                       0                       0                       0
     4                       0                       0                       0
     5                       0                       0                       0
     6                       0                       0                       0
     7                       0                       0                       0
     8                       0                       0                       0
     9                       0                       0                       0
    10                       0                       0                       0
    11                       0                       0                       0
    12                       0                       0                       0
    13                       0                       0                       0
    14                       0                       0                       0
    15                       0                       0                       0
    16                       0                       0                       0
    17                       0                       0                       0
    18                       0                       0                       0
    19                       0                       0                       0
    20                       0                       0                       0
    21                       0                       0                       0
    22                       0                       0                       0
    23                       0                       0                       0
    24                       0                       0                       0
    25                       0                       0                       0
    26                       0                       0                       0
    27                       0                       0                       0
    28                       0                       0                       0
    29                       0                       0                       0
    30                       0                       0                       0
    31                       0                       0                       0
    32                       0                       0                       0
    33                       0                       0                       0
    34                       0                       0                       0
    35                       0                       0                       0
    36                       0                       0                       0
    37                       0                       0                       0
    38                       0                       0                       0
    39                       0                       0                       0
    40                       0                       0                       0
    41                       0                       0                       0
    42                       0                       0                       0
    43                       0                       0                       0
    44                       0                       0                       0
    45                       0                       0                       0
    46                       0                       0                       0
    47                       0                       0                       0
    48                       0                       0                       0
    49                       0                       0                       0
    50                       0                       0                       0
    51                       0                       0                       0
    52                       0                       0                       0
    53                       0                       0                       0
    54                       0                       0                       0
    55                       0                       0                       0
    56                       0                       0                       0
    57                       0                       0                       0
    58                       0                       0                       0
    59                       0                       0                       0
    60                       0                       0                       0
    61                       0                       0                       0
    62                       0                       0                       0
    63                       0                       0                       0
    64                       0                       0                       0
