(written by ASE)

64 atoms
1 atom types

0.0      10.887404441833496  xlo xhi
0.0      10.887404441833496  ylo yhi
0.0      10.887404441833496  zlo zhi

Atoms # atomic

     1   1       5.443702220916748       5.443702220916748       5.443702220916748
     2   1      6.8046277761459351      6.8046277761459351       4.082776665687561
     3   1      6.8046277761459351       4.082776665687561      6.8046277761459351
     4   1       4.082776665687561      6.8046277761459351      6.8046277761459351
     5   1       4.082776665687561       4.082776665687561       4.082776665687561
     6   1      9.4895847079317832      4.0407964207503539      9.5020346194198737
     7   1      6.8369320030876679      6.7656803517111825      9.5227688973430418
     8   1      9.4504672612499689      1.3760964716101398      1.3414270210616195
     9   1      4.0633931561127099       9.489053875114621      9.5235138803187169
    10   1      5.3961498537490229      8.0879388245313066      8.2241195060891528
    11   1      1.3446695302609513      1.3403346119007509      9.5131217571719731
    12   1      5.4104180947648501      8.0898888888535225      2.7528227393682698
    13   1      5.4251620087085257      5.4628284258314466    0.026607875818953408
    14   1      2.7206984310066815      8.1340849389914638      10.883293407729923
    15   1      8.1493986221447585      8.1112967663661948    0.011728661713872213
    16   1      10.866759717612979      10.861412453048899      5.3863485903578123
    17   1      6.7416591933247787      9.4863082105065359      6.8061884765435821
    18   1      1.3564742332790374      9.5251479109221577       1.402897526182997
    19   1    0.010106519891721955       8.136134940054319      2.7307153046711221
    20   1      6.7322365863502114      1.3348276270101138      4.0968132351682698
    21   1      10.853019064714942      2.6865700340783434      2.7709265395110378
    22   1      6.7894360936890052      4.0389070323063834      1.3579281019498808
    23   1      2.7124762005645664      2.6786343105907235      5.4832005953047656
    24   1      2.7308113477725158      2.6614060925733298      10.853601163782173
    25   1   0.0095257934844208414   0.0090279995651157963    0.011658586347135347
    26   1      5.4290193073212549      10.873844843160384    0.040357251381471837
    27   1      8.1726592229985044      5.4282353879531229      8.1716150787407855
    28   1      9.5301694076693479      9.5010469329312173      9.5866012191368668
    29   1      2.7796301211049013    0.028991852774139071      2.7508032384795058
    30   1      5.4414838199565168      2.7348652751671523      2.7229504146054069
    31   1      9.4837053126707929      9.5099432496677423      4.0525990147138486
    32   1      4.0413249822779562      1.3401774873336905      6.8241978559346421
    33   1      8.1836230621744903      5.4335089978414715      2.6559931228469793
    34   1      5.4335764875883967      2.6625383304189825      8.1742783279848368
    35   1      9.5377561637395729      6.7531610036565439      1.3295625344576152
    36   1      10.876401017325179      5.4099255494002705      10.846458282585957
    37   1      4.0612876706906036      4.1124585265973224      9.5119095374868152
    38   1      9.5490379834539567       6.770845264170589      6.7923582699428948
    39   1      8.1092143183096255       10.84305459294535       2.644697513160267
    40   1      8.1349564652426238       10.79566510968607      8.1648051037000755
    41   1      10.868082257076765      8.1865763875423454        8.20498810965546
    42   1      2.6602646073344687      5.4142689039788365      8.1610328162108772
    43   1      1.2961653305326237      9.5525837909270308      6.8370390781669244
    44   1      1.3635946449321068      4.0663860668128962      1.3580620269164356
    45   1      2.6836136262460855      5.4339642291632799      2.7578416403559629
    46   1       1.287887453496289      4.1253396586318729      6.8145305986274707
    47   1       4.149130767832844      1.3731058321995135      1.3709234474023049
    48   1      8.1372679890748145       2.684844827422566      10.854405849226282
    49   1      6.7420946319804216      9.4614135790493492      1.3325174010576717
    50   1      1.3055129849517115       6.859886304320753      4.1073867370098753
    51   1      10.818228100174963      5.4111471787136054      5.3905261407984995
    52   1      9.4636647514732317      4.0271978856847852      4.0603798038064838
    53   1      1.3761574719583223      1.3753281267989905      4.0820771085030856
    54   1      3.9919273545777116      6.7727271898060053      1.3932559020008597
    55   1      4.0872303400447549      9.4760893543062252       4.150018517580861
    56   1      9.4877728678027893      1.3117896936507307      6.8209998802341829
    57   1      2.6694917211719087      10.865662360285569      8.2208968706734709
    58   1      10.868961570606416      2.6523490009829516      8.1349240182489098
    59   1      2.6425861872792922      8.1739616453261874      5.4849494882659542
    60   1      8.1222664460010492      2.6433469070469187      5.4369542196340319
    61   1      5.4299365838335518      10.833387984578053      5.4739551489158771
    62   1      8.1745411486339208      8.1339674808742188      5.4767293668784305
    63   1      6.7612630179869484       1.310830641634027      9.5040722906251176
    64   1      1.3687645866755389       6.773272948240276      9.5187915448535705

Velocities

     1                       0                       0                       0
     2                       0                       0                       0
     3                       0                       0                       0
     4                       0                       0                       0
     5                       0                       0                       0
     6                       0                       0                       0
     7                       0                       0                       0
     8                       0                       0                       0
     9                       0                       0                       0
    10                       0                       0                       0
    11                       0                       0                       0
    12                       0                       0                       0
    13                       0                       0                       0
    14                       0                       0                       0
    15                       0                       0                       0
    16                       0                       0                       0
    17                       0                       0                       0
    18                       0                       0                       0
    19                       0                       0                       0
    20                       0                       0                       0
    21                       0                       0                       0
    22                       0                       0                       0
    23                       0                       0                       0
    24                       0                       0                       0
    25                       0                       0                       0
    26                       0                       0                       0
    27                       0                       0                       0
    28                       0                       0                       0
    29                       0                       0                       0
    30                       0                       0                       0
    31                       0                       0                       0
    32                       0                       0                       0
    33                       0                       0                       0
    34                       0                       0                       0
    35                       0                       0                       0
    36                       0                       0                       0
    37                       0                       0                       0
    38                       0                       0                       0
    39                       0                       0                       0
    40                       0                       0                       0
    41                       0                       0                       0
    42                       0                       0                       0
    43                       0                       0                       0
    44                       0                       0                       0
    45                       0                       0                       0
    46                       0                       0                       0
    47                       0                       0                       0
    48                       0                       0                       0
    49                       0                       0                       0
    50                       0                       0                       0
    51                       0                       0                       0
    52                       0                       0                       0
    53                       0                       0                       0
    54                       0                       0                       0
    55                       0                       0                       0
    56                       0                       0                       0
    57                       0                       0                       0
    58                       0                       0                       0
    59                       0                       0                       0
    60                       0                       0                       0
    61                       0                       0                       0
    62                       0                       0                       0
    63                       0                       0                       0
    64                       0                       0                       0
