(written by ASE)

64 atoms
1 atom types

0.0      10.887404441833496  xlo xhi
0.0      10.887404441833496  ylo yhi
0.0      10.887404441833496  zlo zhi

Atoms # atomic

     1   1       5.443702220916748       5.443702220916748       5.443702220916748
     2   1      6.8046277761459351      6.8046277761459351       4.082776665687561
     3   1      6.8046277761459351       4.082776665687561      6.8046277761459351
     4   1       4.082776665687561      6.8046277761459351      6.8046277761459351
     5   1       4.082776665687561       4.082776665687561       4.082776665687561
     6   1      1.3421986916896245      4.1633308701618716      1.3642954999963308
     7   1      10.858732331368117      5.4586427636423309       10.82971498488962
     8   1      2.7076995163849489      8.1732698754202033      5.4976395075075288
     9   1      5.4392326475326342      2.6799203471865809      8.1255961564959875
    10   1      8.1166823183828569    0.015067552426602404      2.7516043547543063
    11   1      5.4765327380965232      8.1753036529862015      8.1608887515587867
    12   1      9.5061313768462128       6.774612360140793      6.7670593489440307
    13   1      8.1467223941032216      5.4595454390074565      2.6994349426160369
    14   1      9.5213873043506965      1.3632552493778576      6.7920720874583367
    15   1      6.8315198445361602      6.8385537038334974        9.49315517512008
    16   1      1.3596963008723293      9.5397886434258226      1.3377375545238763
    17   1      4.0741464142994914      1.3743943023198995      1.3539048369643041
    18   1       9.478592315401329      9.5842254502571222      4.1073010769464702
    19   1      1.3553776060089859      4.0489078447089355      6.7144037186049559
    20   1      2.7596765178504938      5.4895433336359929      2.7511484744926236
    21   1      4.0629619355662498      1.3668247431563429      6.7848214822429895
    22   1      2.7118785269403531   0.0036167713297560189      2.7143589373748256
    23   1       6.784594353286991      9.5672550236047869      1.3227558852337609
    24   1      8.1591645183128207      2.7691967902761405       5.456095674635776
    25   1      2.7248780905019601      2.7014262146202697      5.3761264894581302
    26   1      6.7919306185657433      1.4244218884031028      4.0553352696937566
    27   1      9.5084078579251923      1.3668260410360915      1.3699265135204399
    28   1      1.3876733967323531      1.3331997613354787      4.0234460398016267
    29   1      1.3056783023846847      9.4936431779055397      6.8356191977219964
    30   1      8.1869255171947088      5.4222943434040758      8.1733983655153111
    31   1      4.0851826102714597      9.5350098501916136      4.0816478347762484
    32   1       9.528465940499359      4.0728219280160829      9.4792243828388791
    33   1      5.5006200883501037       8.173520366211676      2.7329586898165132
    34   1      4.0957635749216195      9.5425992020213357      9.5339994508073573
    35   1      2.7411048320583689      2.7411246247245344   0.0044981032905593854
    36   1      4.1162097235406065      6.8178732879198947      1.3605064211878855
    37   1      5.4176440402649746   0.0097573636226839788      10.862084754758655
    38   1      6.7842251064985248       9.596747394071258      6.7947204110852795
    39   1      10.868729899071297      8.1246941300707363      8.1815341247191782
    40   1      4.1242607960908799       4.127193355382758      9.4833743533349093
    41   1      6.7780160497813995      1.4034273855903479      9.5705801915206052
    42   1      10.880905957932441      8.2184691866037838      2.7474053892977679
    43   1      1.3778426065768627      6.9240794366846785        4.08140026421421
    44   1      1.3510220838077771      6.8465603240023825      9.5400826131888721
    45   1       5.450341524770522      5.4947380973296163      10.839113581088839
    46   1      6.7772989712203184      4.1655820425857542      1.3283565608187473
    47   1      5.4172955595524854      2.7458404707909381      2.6605412179558812
    48   1      8.1368351461786688      8.2086215240115621      5.4403819200499868
    49   1      9.5204943630836851      4.1028960730798474      4.0858828163958094
    50   1      8.1995623233665924      2.7924755614463663    0.036621801369824514
    51   1      2.7282100722864584      8.1495031014645178    0.026658257381458661
    52   1    0.037106660852768147      2.7058062343017326      8.1346806657960542
    53   1      10.874482102116929    0.022288570039556532      5.4286101507305204
    54   1      9.5202873512637893      9.5780637661508194      9.5644970291390905
    55   1   0.0056495539391110405    0.077070335270331025      10.876176484128678
    56   1    0.008589871357884582      5.4483914604483061      5.3789597609492432
    57   1       5.411930124671926    0.059103162320313096      5.3783426191288015
    58   1      2.7293103498433027    0.023484979420042906      8.1594227963827848
    59   1      1.3825509898347121       1.393076794595558      9.5062592180014462
    60   1      2.7187142973410658      5.4334570826515289      8.1651386587954562
    61   1      9.4984349499372343      6.7945114524457608       1.368536484309729
    62   1      8.1156712700587263      8.2151063801752571      10.874422399648495
    63   1    0.035149848569828279      2.7499485846650771       2.723107458054983
    64   1      8.1492260041381996    0.036621996558771075      8.1653820112483118

Velocities

     1                       0                       0                       0
     2                       0                       0                       0
     3                       0                       0                       0
     4                       0                       0                       0
     5                       0                       0                       0
     6                       0                       0                       0
     7                       0                       0                       0
     8                       0                       0                       0
     9                       0                       0                       0
    10                       0                       0                       0
    11                       0                       0                       0
    12                       0                       0                       0
    13                       0                       0                       0
    14                       0                       0                       0
    15                       0                       0                       0
    16                       0                       0                       0
    17                       0                       0                       0
    18                       0                       0                       0
    19                       0                       0                       0
    20                       0                       0                       0
    21                       0                       0                       0
    22                       0                       0                       0
    23                       0                       0                       0
    24                       0                       0                       0
    25                       0                       0                       0
    26                       0                       0                       0
    27                       0                       0                       0
    28                       0                       0                       0
    29                       0                       0                       0
    30                       0                       0                       0
    31                       0                       0                       0
    32                       0                       0                       0
    33                       0                       0                       0
    34                       0                       0                       0
    35                       0                       0                       0
    36                       0                       0                       0
    37                       0                       0                       0
    38                       0                       0                       0
    39                       0                       0                       0
    40                       0                       0                       0
    41                       0                       0                       0
    42                       0                       0                       0
    43                       0                       0                       0
    44                       0                       0                       0
    45                       0                       0                       0
    46                       0                       0                       0
    47                       0                       0                       0
    48                       0                       0                       0
    49                       0                       0                       0
    50                       0                       0                       0
    51                       0                       0                       0
    52                       0                       0                       0
    53                       0                       0                       0
    54                       0                       0                       0
    55                       0                       0                       0
    56                       0                       0                       0
    57                       0                       0                       0
    58                       0                       0                       0
    59                       0                       0                       0
    60                       0                       0                       0
    61                       0                       0                       0
    62                       0                       0                       0
    63                       0                       0                       0
    64                       0                       0                       0
