(written by ASE)

64 atoms
1 atom types

0.0      10.887404441833496  xlo xhi
0.0      10.887404441833496  ylo yhi
0.0      10.887404441833496  zlo zhi

Atoms # atomic

     1   1       5.443702220916748       5.443702220916748       5.443702220916748
     2   1      6.8046277761459351       4.082776665687561      6.8046277761459351
     3   1       4.082776665687561       4.082776665687561       4.082776665687561
     4   1       4.082776665687561      6.8046277761459351      6.8046277761459351
     5   1      6.8046277761459351      6.8046277761459351       4.082776665687561
     6   1      2.7402823007677171      2.6782301832840147      5.4563643357437286
     7   1      5.4639653684911877      8.1209757045911033      8.1937465242132816
     8   1      4.0170504128706455      1.3049205839639768      6.8356529425954591
     9   1       8.155836105697631      8.1161339641890891      5.5155470033383267
    10   1      8.1306994196673372      2.7107651083510547      5.4728513021897243
    11   1      1.3643686679671561      6.8289974152448281      4.1277715608107428
    12   1      10.872964231750984      8.1617836396454209       2.761449746056968
    13   1      9.5227481312670648      4.0408681286064621      9.4983272259181035
    14   1       9.583360413404705      6.7974855438895929       6.902871432653285
    15   1      1.3387128300374371      9.5424668182869823      1.4301985889289881
    16   1       2.624261909814237      5.4110018161817663      2.7544038813719567
    17   1      4.1063844493740476      4.1079256815754661      9.5076901304242369
    18   1      6.7999469728327426      1.3637171323333774      4.0965614464970486
    19   1       9.465802359419115      9.5059568120200311       9.573274589878622
    20   1      6.8127434182136994       9.489724878944628      6.8800573024330447
    21   1      6.7895542007461245      6.7850843028920735       9.587270276147251
    22   1      9.6065139391791945      6.7890954002550075      1.3734737811082312
    23   1      6.7541915201769029      4.0561412530176142      1.3831663470704996
    24   1      8.1618680018290775      8.0413864737098493    0.040098942892451195
    25   1       5.440191131726948      2.7015091166892091      8.1857509360222593
    26   1      2.7494433849729489      8.1603910146752128       5.494917204734918
    27   1      2.7443034566987023      8.1419325688911499    0.064699244627751895
    28   1      2.7087202988071937      5.3951118744201096      8.1387125292349651
    29   1     0.05494483165355879      5.3749291953900808     0.01544547244858363
    30   1      9.5245320669814646      9.4615946332742737      4.1163180964996116
    31   1      4.1135717829516523      1.3182918278385785      1.3383933893843221
    32   1       4.056855411349261      6.7602253631279723      1.4411179757235857
    33   1      4.0950150227766358      9.4485781972759355      9.5562769077515668
    34   1      8.1743691795672362      10.880064931855372       2.797364349989266
    35   1      1.3664967040498937      9.5319734605198505      6.8337242932890945
    36   1      5.4420461263575817      8.1173001091431729      2.7248839309608286
    37   1      2.7255747274570012       10.85646233968788      8.2512361076758793
    38   1       5.474494417951405      10.882192805703141       5.442627900954875
    39   1      9.4737570643980575      1.2571449814794988       6.817814234391335
    40   1      1.3108244767052213      3.9879736883936516      1.4317602627364465
    41   1      8.1737513888069202       10.87600711082149      8.2228047539038585
    42   1      10.857987997332316      8.1566252165847573       8.228405753958782
    43   1       5.418373448683667      10.768887254713718    0.011445001476091066
    44   1      10.868160778801553      2.6623267760199667      8.1280056702491947
    45   1      2.7000073075851532    0.052459964827293426      2.7437554269748716
    46   1    0.029961082500199243      2.7268265324744903      2.7919577074266897
    47   1      10.846813252697189      10.885131205453888      5.4856062154187271
    48   1      1.4083181209528703      6.7835781134438662      9.5538115851691714
    49   1      5.4252395570235024      2.6829458671154498       2.733340915402465
    50   1       1.267769019513814      1.3370396196890866      4.1223350670139496
    51   1    0.015302398950754248      5.4325099549050151      5.5124087301063014
    52   1      9.5185819372741776      1.3919567243725481      1.3704980673147134
    53   1      1.3794957809065949      1.3336472053787958      9.5969875018247421
    54   1      8.1239887324273923      2.7648002226278834     0.04571705366671619
    55   1      6.8599258896530841      9.4341976896618576      1.4083531637060815
    56   1      5.3808497983330881       5.454703049665568    0.042249126583320029
    57   1      4.1214018914747328      9.5239817659680739      4.0824752331159573
    58   1      8.1837009349594041      5.4132627227037631       2.724124022368045
    59   1      9.5338527903957697      4.0727531403894091      4.1312317082204117
    60   1      1.3687790255877417      4.0252695608483577      6.8075869419726587
    61   1      2.7743844156311468      2.7272781946269902    0.055097459270084137
    62   1      10.886064380993105      10.823088659833331    0.061468913190748431
    63   1      6.7850258983033882      1.3187359460650399      9.5776354658337937
    64   1      8.1713847050854156      5.4586648275980565      8.2061419247519325

Velocities

     1                       0                       0                       0
     2                       0                       0                       0
     3                       0                       0                       0
     4                       0                       0                       0
     5                       0                       0                       0
     6                       0                       0                       0
     7                       0                       0                       0
     8                       0                       0                       0
     9                       0                       0                       0
    10                       0                       0                       0
    11                       0                       0                       0
    12                       0                       0                       0
    13                       0                       0                       0
    14                       0                       0                       0
    15                       0                       0                       0
    16                       0                       0                       0
    17                       0                       0                       0
    18                       0                       0                       0
    19                       0                       0                       0
    20                       0                       0                       0
    21                       0                       0                       0
    22                       0                       0                       0
    23                       0                       0                       0
    24                       0                       0                       0
    25                       0                       0                       0
    26                       0                       0                       0
    27                       0                       0                       0
    28                       0                       0                       0
    29                       0                       0                       0
    30                       0                       0                       0
    31                       0                       0                       0
    32                       0                       0                       0
    33                       0                       0                       0
    34                       0                       0                       0
    35                       0                       0                       0
    36                       0                       0                       0
    37                       0                       0                       0
    38                       0                       0                       0
    39                       0                       0                       0
    40                       0                       0                       0
    41                       0                       0                       0
    42                       0                       0                       0
    43                       0                       0                       0
    44                       0                       0                       0
    45                       0                       0                       0
    46                       0                       0                       0
    47                       0                       0                       0
    48                       0                       0                       0
    49                       0                       0                       0
    50                       0                       0                       0
    51                       0                       0                       0
    52                       0                       0                       0
    53                       0                       0                       0
    54                       0                       0                       0
    55                       0                       0                       0
    56                       0                       0                       0
    57                       0                       0                       0
    58                       0                       0                       0
    59                       0                       0                       0
    60                       0                       0                       0
    61                       0                       0                       0
    62                       0                       0                       0
    63                       0                       0                       0
    64                       0                       0                       0
