(written by ASE)

64 atoms
1 atom types

0.0      10.887404441833496  xlo xhi
0.0      10.887404441833496  ylo yhi
0.0      10.887404441833496  zlo zhi

Atoms # atomic

     1   1       5.443702220916748       5.443702220916748       5.443702220916748
     2   1      6.8046277761459351      6.8046277761459351      6.8046277761459351
     3   1       4.082776665687561      6.8046277761459351       4.082776665687561
     4   1       4.082776665687561       4.082776665687561      6.8046277761459351
     5   1      6.8046277761459351       4.082776665687561       4.082776665687561
     6   1       1.342818915974469       4.264113828397285      8.1144545077944485
     7   1      2.7278632139236549      1.1424427496456531      10.731886000961936
     8   1      2.3362586622038322      6.2726249203903421      10.569650383451688
     9   1      1.4022383655056956       1.150710162526515      5.4202284433143006
    10   1      10.257908753005097      4.7858913385538244       1.968904182411066
    11   1     0.52692344112462308      6.1209761079891223      6.6127083509063027
    12   1      8.8563504764876484      6.1986308491051432      3.1177738703366344
    13   1      5.2777634280139125     0.93520380079385745      3.8506972718580812
    14   1      5.7076137379294209      10.074757154406882      5.3965959999125914
    15   1      3.5767106388272509      2.7484602410634125      7.9493122885872936
    16   1      7.9077723493547865     0.96110445129114908      7.9364418640606686
    17   1      8.6169429291278448      4.4984151923563047      9.4832127673062132
    18   1    0.078512781585418523      7.7378227835589541       5.161633690691616
    19   1     0.87225071141219956      5.8088541987762028      1.2250191318857091
    20   1      6.8229927745881014      7.7982384369146871      1.1265110323795895
    21   1      2.0064815325362417      6.8964430342586525      5.4179175684219842
    22   1      10.727758094421631      1.6153507069246444     0.22517260507127546
    23   1      4.7564456917583016      2.5401505414190524      2.3483566860450935
    24   1      9.1605410425570994      1.8085954296225282      6.4748144680803534
    25   1      6.5876229311260772      1.8464828107726419      2.4298460128782438
    26   1      4.6522493097841675      5.6283476791055591      10.528369371229019
    27   1      1.2256759401559663      9.8388551802479469      2.0773068304153242
    28   1      9.2617750140051385      8.1249115249286206      4.5518424122059002
    29   1     0.93663463209916387      9.8556607761722148      8.0183666295494618
    30   1      8.7544416075703566      1.4436287240971808      1.3912513267292042
    31   1     0.55855999005320456      7.8767335551679025    0.020056759345204345
    32   1      6.9390602136824668      9.7632653658118898    0.039964794852814567
    33   1      3.0464696548303323      10.351776607940167      1.2966238876712879
    34   1      4.6717613094541264      3.9576360737409289      1.1254764599850162
    35   1      5.1173013631800757      7.7525225695911786      2.4044096788610005
    36   1      6.4330402615532307     0.27439668191389188      9.3458406321391863
    37   1      8.4346466332839327        3.48236289285515       5.276157626295003
    38   1      9.1785971456191078      3.3568731712561544     0.18340622638138626
    39   1      9.8644934968010602     0.11926271763847218      7.6324355969155135
    40   1      3.2783423613098535      8.9524325142737666      2.7518175315030078
    41   1      8.6539383424207585      8.0691734301867086      10.411213011025609
    42   1       6.263112759713124      4.9000165006044654      5.6489242646392768
    43   1      5.7337536850053539      2.2475536106735774      8.4867182177361542
    44   1      1.6806961942703253        2.38559804755036      9.4703228745833599
    45   1      10.602891030632009      2.5267294914090996      5.0518392288919927
    46   1      5.0217741689864681      7.6916474668044543      8.0861925273296151
    47   1      8.1040532994894647      10.630271101807693      2.6447416410717182
    48   1      6.3815254675131428       8.591197537495475      6.6372551505908746
    49   1      2.2127757871660521      10.299202095085377      6.7698316200869613
    50   1      1.2963954608355408      2.9232564143103161      4.1247325753794826
    51   1       2.815101499103065      3.4992878937162857      2.6148456300034439
    52   1       10.18199317075215      9.3388703689495287      9.4855418125150095
    53   1      7.7909060652751805      9.3283627345051627      5.0407102345180022
    54   1      10.104867315633669      5.2139499254764416      7.9729531682073684
    55   1      6.6269428470486673      3.6099308444015321       10.36514087571112
    56   1       3.572300767911571      7.0697800661982342        9.31866951960302
    57   1      4.6793065333723973       10.66550723910143      10.703750563772587
    58   1      3.5681287334598153     0.40998346181054401      5.4699648176289202
    59   1      10.205713869976762    0.092038746921608627      1.8495044370622651
    60   1      8.4888551767421632      6.3655193655139897      8.5854102916966326
    61   1      3.2203628282421732      8.7639453320292091      8.0512562002577965
    62   1      10.099792605816788      9.6676953415865796      3.5788602521608084
    63   1      1.3096871284580587      4.5689195894675549      2.5525454552527975
    64   1       6.875813884595118       6.405658243557923       2.339775105147595

Velocities

     1                       0                       0                       0
     2                       0                       0                       0
     3                       0                       0                       0
     4                       0                       0                       0
     5                       0                       0                       0
     6                       0                       0                       0
     7                       0                       0                       0
     8                       0                       0                       0
     9                       0                       0                       0
    10                       0                       0                       0
    11                       0                       0                       0
    12                       0                       0                       0
    13                       0                       0                       0
    14                       0                       0                       0
    15                       0                       0                       0
    16                       0                       0                       0
    17                       0                       0                       0
    18                       0                       0                       0
    19                       0                       0                       0
    20                       0                       0                       0
    21                       0                       0                       0
    22                       0                       0                       0
    23                       0                       0                       0
    24                       0                       0                       0
    25                       0                       0                       0
    26                       0                       0                       0
    27                       0                       0                       0
    28                       0                       0                       0
    29                       0                       0                       0
    30                       0                       0                       0
    31                       0                       0                       0
    32                       0                       0                       0
    33                       0                       0                       0
    34                       0                       0                       0
    35                       0                       0                       0
    36                       0                       0                       0
    37                       0                       0                       0
    38                       0                       0                       0
    39                       0                       0                       0
    40                       0                       0                       0
    41                       0                       0                       0
    42                       0                       0                       0
    43                       0                       0                       0
    44                       0                       0                       0
    45                       0                       0                       0
    46                       0                       0                       0
    47                       0                       0                       0
    48                       0                       0                       0
    49                       0                       0                       0
    50                       0                       0                       0
    51                       0                       0                       0
    52                       0                       0                       0
    53                       0                       0                       0
    54                       0                       0                       0
    55                       0                       0                       0
    56                       0                       0                       0
    57                       0                       0                       0
    58                       0                       0                       0
    59                       0                       0                       0
    60                       0                       0                       0
    61                       0                       0                       0
    62                       0                       0                       0
    63                       0                       0                       0
    64                       0                       0                       0
