(written by ASE)

8 atoms
1 atom types

0.0       5.443702220916748  xlo xhi
0.0       5.443702220916748  ylo yhi
0.0       5.443702220916748  zlo zhi

Atoms # atomic

     1   1      3.1215695196613069       4.384235194886287      2.4366039104940427
     2   1       4.414211350029035      3.0397531271315188      3.8961778984771627
     3   1      4.4761354641225353     0.32802568150564682      1.0932409395524729
     4   1      1.7655264258112453     0.35491669536857628      3.7727722472844221
     5   1      1.7663604757846656      3.0975068291229491      1.0835168188888176
     6   1     0.38883779656582362      1.7709291747345759      2.4792108691148371
     7   1     0.38036552147839942      4.4194116297115897      5.1540930093524651
     8   1       3.055900049083391       1.672219903867429      5.1885536634964353

Velocities

     1                       0                       0                       0
     2                       0                       0                       0
     3                       0                       0                       0
     4                       0                       0                       0
     5                       0                       0                       0
     6                       0                       0                       0
     7                       0                       0                       0
     8                       0                       0                       0
