(written by ASE)

8 atoms
1 atom types

0.0       5.443702220916748  xlo xhi
0.0       5.443702220916748  ylo yhi
0.0       5.443702220916748  zlo zhi

Atoms # atomic

     1   1      4.0470726427444674      3.5348566126955916      3.9817558709882235
     2   1      1.3688510579137869      3.6287053239043701      1.2275744948756611
     3   1       2.605228016596655      2.1945224063822621      5.2914090112203667
     4   1      5.4294213255733723      4.9416920682706973      5.4054679814038309
     5   1      5.4360752305743176      2.2976348965313775        2.58007105119529
     6   1      4.0308413586089387      0.8874105146978053      1.2517509121269867
     7   1      2.7123181837051789      4.9317941128382188      2.6087738240697291
     8   1      1.2526430422191552     0.78761126819431837       3.953027951693656

Velocities

     1                       0                       0                       0
     2                       0                       0                       0
     3                       0                       0                       0
     4                       0                       0                       0
     5                       0                       0                       0
     6                       0                       0                       0
     7                       0                       0                       0
     8                       0                       0                       0
