(written by ASE)

8 atoms
1 atom types

0.0       5.443702220916748  xlo xhi
0.0       5.443702220916748  ylo yhi
0.0       5.443702220916748  zlo zhi

Atoms # atomic

     1   1      5.2080319182929316      3.8021948567144079      2.3568652612067353
     2   1      5.3968552513923669       1.135357137393342      4.9120452501141472
     3   1      4.0173816966764662      5.2249841746287871     0.82593595370221351
     4   1      1.3225143984830439      5.2245078527610644      3.5477017285671195
     5   1      3.8260362587556358       2.505121253710243      3.7366230515875714
     6   1      2.5186847460226005      3.8993917732045418      5.0556251441185509
     7   1      1.1852254898548935      2.5495124725153744     0.96098845328862126
     8   1      2.6733997993298004      1.1744868328152833       2.179074068205054

Velocities

     1                       0                       0                       0
     2                       0                       0                       0
     3                       0                       0                       0
     4                       0                       0                       0
     5                       0                       0                       0
     6                       0                       0                       0
     7                       0                       0                       0
     8                       0                       0                       0
