(written by ASE)

8 atoms
1 atom types

0.0       5.443702220916748  xlo xhi
0.0       5.443702220916748  ylo yhi
0.0       5.443702220916748  zlo zhi

Atoms # atomic

     1   1      1.9185388231232992      1.6024845005072024      3.8045913916701295
     2   1      3.2301822619498637      2.9397041198939178      5.2372150689093075
     3   1      1.8438052848513564      4.3621881115974475      1.0679874443448085
     4   1     0.51498667884212068      0.2718178759709815      5.1893486148424302
     5   1     0.55551556975049721      3.0382294163067058      2.5065534640127822
     6   1      4.5924715643248533       4.405328985499807      3.8770370924152928
     7   1      4.6662842569151906      1.6489182575666348      1.1584342504976348
     8   1      3.2319026015565839     0.23593626657541655      2.3876605407057951

Velocities

     1                       0                       0                       0
     2                       0                       0                       0
     3                       0                       0                       0
     4                       0                       0                       0
     5                       0                       0                       0
     6                       0                       0                       0
     7                       0                       0                       0
     8                       0                       0                       0
