(written by ASE)

216 atoms
1 atom types

0.0      16.331106185913086  xlo xhi
0.0      16.331106185913086  ylo yhi
0.0      16.331106185913086  zlo zhi

Atoms # atomic

     1   1      4.8803549400313955      11.170321134792175      12.425212798152756
     2   1       10.32633202290026      11.185714637100546      1.5670556634332513
     3   1      15.775113012649058      3.0028190320976194      15.156366057494552
     4   1      7.6165519221638078      13.864223948558106      1.5645535135860484
     5   1      15.747499323924899      13.915225754138419      4.2782742204765327
     6   1      4.9265451810543368      13.898020736223884       9.713497558767699
     7   1      4.8568052371512636      11.191669958152943      1.5658820962636213
     8   1      2.1381452056693888      5.7437747713066756      15.193521108911682
     9   1       4.910413834130452      13.881482504010705      15.144451521750625
    10   1      7.6061675865987581      2.9961158889794319      6.9735899385424887
    11   1      14.396715116021369        12.5604612736322      2.9176850991812842
    12   1      10.335841263070392     0.30668589316638872      12.432608765683995
    13   1     0.79407728191611682      1.6395662966074127      11.099843346273587
    14   1      4.8714307191408466      5.7283038829205566      12.434422228109725
    15   1      13.038392822758283     0.30351230350230551      4.2846057644100597
    16   1      8.9757191351185384      15.255264491447406      11.110816594757353
    17   1      8.9711626039243129      9.8219130201689495     0.20788156056240048
    18   1      14.386384317994384      4.3511470837661932     0.18556515266780238
    19   1     0.80270059750749567       1.661079139516616      5.6614131094523259
    20   1     0.80100461347495155      15.278947551467809      2.9347599235373423
    21   1      7.6307262287189701       11.16309162033383      4.2772871829565702
    22   1     0.80036344061851139      4.3364880191390967      13.805368672848545
    23   1       6.227751195185192      1.6272756596585793     0.17986122990139286
    24   1      11.693348812345107       1.642623168354703      11.077533767456998
    25   1      4.8575854250923385      11.163057550991425      7.0121900167824833
    26   1      11.683563123796603      9.8001135080786526      13.798102168818446
    27   1      11.667826981244616      7.0543216257152039      11.054405551012906
    28   1      3.5374896640650206      1.6295670662877626      2.9303861500298751
    29   1     0.80562757988686684      9.7958869628008642      8.3341642153385465
    30   1      14.389505069758684      9.8156296600196811      11.096919223285454
    31   1      6.2604446228619395       4.356321730172624      8.3501106144036612
    32   1      7.6389208789771601      8.4631653468306922      7.0200692822709811
    33   1      8.9956195247222013      7.0803403825099167      8.3642114285202069
    34   1      3.5042761922117052      12.572128563291244       8.349767974160045
    35   1      2.1573758893423474     0.27025654916154096      9.7358976646941073
    36   1      2.1652400669792087      11.140835579055306      15.145776332465289
    37   1      4.8943574397598582      3.0173104268895941      4.3024668605183365
    38   1      14.424075718201948      9.8186219216926247      5.6700253525074231
    39   1       10.30728239344694      5.7365827331249761      1.5744069757906942
    40   1     0.77731212354727575      7.0976125656994782      11.097610344231384
    41   1      8.9699857514966652      12.544855567991135      2.9302973263871763
    42   1       7.622394327681377      13.887103945507533      6.9935044425880051
    43   1      8.9897547307796231      1.6382133786852648      13.831228277143737
    44   1      8.9602243981927359      12.513052323560942      13.797812092703111
    45   1      11.675900441984822      15.216112976565341      13.837464913623421
    46   1      14.409521295126524      15.250225149000812      5.6453654757697791
    47   1      10.293937918731785       8.457223653515257      9.7509358724316826
    48   1      11.727286744429421      4.3863777040423315      8.3809229276747601
    49   1      11.689441545476143      4.3757057258864052      2.9140817795170619
    50   1      7.5763744333704608      8.4389556721176859      12.436636735366051
    51   1      3.5167589559164583      9.8008192301713279      11.100653223213044
    52   1      15.807325089188112      8.4360227884415053       4.269600165900215
    53   1      3.5086944992167446      15.248570352369711     0.19416226224267952
    54   1      10.343192453751612      8.4437604228065766       4.287988850110878
    55   1      14.436585007323288      9.8128992455783646     0.16430329738733462
    56   1      13.066150576130326      11.166672794925489      9.7111964180406858
    57   1      6.2439399732862739       15.28136160772965      13.813042062167938
    58   1      3.5324938817062161      4.3910009138066926     0.21457906094575208
    59   1       14.38698296501093      4.3442524222732004      5.6363916109802972
    60   1     0.81545822779972355      12.540996971611321      11.093326367776399
    61   1      13.007250523570747      3.0526641835032819      1.5783910203562925
    62   1      14.442002032765686      1.6727511745483525      2.8872546058975672
    63   1      3.5371350995515627       12.52170398971225      13.803051957565003
    64   1      15.783533980681796      8.4324893109292134      9.7120199227171042
    65   1       8.962284133293565      4.3728672629591756      5.6458409864487749
    66   1      13.043711533812598      8.4334101565839319      1.5521241657431375
    67   1      15.787151171435426      8.4405014468530908      15.143425547839342
    68   1      2.1625286340286607     0.28731570770390391      4.3019417059404077
    69   1      2.1563406680381263      0.2736059001295672      15.172399090030353
    70   1      8.9801948733007748      4.3514887506000264      0.1962345604135205
    71   1     0.80970920878321095      7.0752552898035219      5.6187524523025445
    72   1      15.778392430207987      3.0231856849873395      9.7474247833443997
    73   1      8.9601718340644538      4.3706318273925149      11.075314393151757
    74   1      8.9608668486495162      1.6500276532215423      8.3539215137041083
    75   1      8.9779268285063836      15.260785671736585      5.6156657698806498
    76   1       6.245874138525096      9.7955871525877001      13.811577080444522
    77   1      15.750997758685003       5.719042375540198      1.5500963098127016
    78   1      3.5508694248848087       9.793655907578227     0.18442708453619616
    79   1      14.419312824133726      12.513916711448246      8.3805725001528799
    80   1      4.8805423214146231      5.7179579970419354      6.9857069435212793
    81   1       3.526252134825171      7.0668250743778458      8.3489220810586176
    82   1      11.679408610842756      9.8091019740148795      8.3893069061357437
    83   1      15.750100274865076      13.903039637065035      15.169667702179254
    84   1      7.6373205932939072     0.28909324522483004      9.7364632157780306
    85   1      6.2599569445606562      9.8229516484074111      2.9167119327507294
    86   1      3.5509115248579235      12.533397561435436      2.9372798381130849
    87   1      13.051726589965824     0.30810780150690675      9.7306655871104795
    88   1      10.321535059489634      3.0035006622981655      9.7267135433914973
    89   1      3.5294293443568847      15.271470790924582      5.6363653289161562
    90   1      15.775637680522095     0.27586685728397597      12.470102563705609
    91   1     0.83706348380020046      15.254367981037262      8.3724396614159105
    92   1      10.317708585632658      5.7439266232328237      12.447356897306236
    93   1      6.2685127298483394      4.3841529759832838      2.9377602158409957
    94   1      14.435546379084826      15.253441294923846     0.19988417788054669
    95   1      7.6095448318408785      0.2938722613925826       4.266924749111638
    96   1       7.624093901162496      11.179730113754658       9.753566999075133
    97   1      13.061386708652321      11.160734995249186      4.2933946813407715
    98   1      6.2539300778892084      12.522799075718126     0.20787527902739455
    99   1      13.040375658486255     0.29199002148187247      15.150990888672823
   100   1      11.689418183641351      12.548735579386175      5.6175687860064158
   101   1      11.670449347200019       15.28674359041986      8.3874340657132507
   102   1     0.79009427159841294      15.263976509005261      13.817777700762235
   103   1       6.270522334345344      15.254531513880806      2.9038726577129523
   104   1      4.8835579449223587      0.2836581204442794      12.455407969621433
   105   1      8.9702699871533014      1.6109231053615076      2.9233975544928228
   106   1      4.8905285323784256      3.0076116151642225      9.7178331259411834
   107   1      15.740994999754889      5.7185527504193487      12.455176298093079
   108   1      7.5852655583283877      13.850790893552698      12.462053438209978
   109   1      13.057340244184388      13.911298045664012        7.00886046861973
   110   1      15.787248512413726      11.172317598257109       6.986134757120908
   111   1      13.052757430926022      2.9952008837834114      6.9922429035092364
   112   1      11.671141441555733       9.817341887827979      2.9536839831286557
   113   1      6.2445902110213183      1.6154477573853399      11.059907263106425
   114   1      2.1852256299388841      3.0111027493509539      12.446673563638569
   115   1      8.9687738563168296      7.1003410333212287      13.805700605584548
   116   1      15.788771898724121      11.173941245775154      12.451631139663391
   117   1       11.68597912687801      7.0853894590543405      5.6547773749616113
   118   1      2.1638690192998524      5.7238266846236456      4.3037795036107127
   119   1      2.1321879377974255      13.884947842838187      1.5607383556178007
   120   1      2.1808087830485192      11.152528177368708        4.27514276120462
   121   1      14.419102567620598      12.519397981936322      13.812282802537197
   122   1      11.700939461832945      15.256957251060044      2.9094164697795861
   123   1      3.5445768173426018      4.3523541118971139      5.6549258199535188
   124   1      4.9059293352601685     0.25070533989847377      1.5351011754580242
   125   1      7.5647855031989479      5.7210091500067506      4.2744302252434636
   126   1      13.051401471098302       2.990695943307685      12.435825885016811
   127   1      6.2928942113880453      7.1043500215125164      5.6577506551437864
   128   1     0.80938676679259203      12.541696853245298      5.6425542683164736
   129   1     0.80980569802795088      12.516372624330756     0.17220784111113474
   130   1      7.5725873826096972      8.4720340833636101      1.5546407950608625
   131   1      14.412146581311276      1.6394758911738165      13.806644813074058
   132   1      13.032617582515741      8.4406133889781358      6.9974988296325478
   133   1      3.5193837553963192      4.3685944807166948      11.055220295001277
   134   1      7.6203462734979439      5.7145539830307825      9.6997160230599775
   135   1      6.2532876274324281      12.520653680556393      11.098961437010189
   136   1       6.224921006241118      1.6319766205293575      5.6592034692449147
   137   1      10.306762592622817     0.28405898276054131      1.5371015325620903
   138   1      6.2393303912588749      9.8529083344792525      8.3562460162659136
   139   1      2.1524241537762236       5.714387043252998      9.7312223775063558
   140   1      13.026609697335061      8.4161194786084934      12.402842867929621
   141   1      2.1613972885083683      8.4611620694972771      7.0119768400400062
   142   1      8.9328258330306198      7.0906546325705904      2.9264061207796317
   143   1      3.5574735235575758      1.6401275890235354      13.804925771397279
   144   1      2.1684681371720842      8.4006938537772839      1.5501146829223558
   145   1      13.047532167210875      5.7353494229299145      15.169962645343503
   146   1      4.8752279907043317      8.4324922311585624      15.179523476232134
   147   1      6.2618633676206628      12.541285100907089      5.6582208120689756
   148   1      2.1720909250319664      8.4438850192588006      12.454173686016588
   149   1      7.5981530171504232      5.7157249949997322       15.18710049798301
   150   1      6.2490844439894317       4.393654428875152      13.819166756522577
   151   1     0.83087910725824088      9.8121964437150382      13.797924034828156
   152   1      2.1544113698482192        13.8996803999039      6.9895616462619614
   153   1      10.332828559792006      5.6988708913119694      7.0018694395582202
   154   1      8.9761678770285016       9.795491758428966      5.6501755802124762
   155   1      8.9648500414815544       9.833820742044395      11.094485698827953
   156   1       6.240485341966405       7.096333018539724      11.082964420636358
   157   1      2.2016215009712994      11.162482265809672      9.7108294425524946
   158   1      4.8812193279186999      13.914933731203519      4.2778760958752855
   159   1       11.68472050802859      12.519668589855996     0.21222083886068255
   160   1      11.690609637215744      12.527492857691755      11.082794073924333
   161   1      15.743258177500365      5.7195884584284613      6.9762239854152881
   162   1      14.434169977651663      1.6535988503629255      8.3600637294348417
   163   1      10.342386470451288     0.26880011519278213      7.0275119734718032
   164   1       14.38634732842263      4.3681632601828255      11.116002922081179
   165   1      4.8661801467713417      8.4616993916974934       9.726221971451082
   166   1      13.046111962337477      13.929305153239739      12.462054411619761
   167   1      7.6021308562286549      3.0067613417187715       1.547058297879957
   168   1      10.335012891345059      11.162823932643505      12.472071771696619
   169   1      3.5083413948179611      9.8162049452014344      5.6309346757367962
   170   1     0.81506144163692795      1.6397601268304527     0.19643170631363382
   171   1      14.415687846101832      7.0566334739498302      2.9163201353130717
   172   1      2.1644939483805388      13.934776689629985      12.439924913613027
   173   1      13.022814372591142      11.166359356975363      15.188905199720693
   174   1      11.699694470720488      1.6187422627959052     0.24541493377550516
   175   1      14.409616689285258      7.0915156135236543      8.3395549587168034
   176   1      3.5567398159336392      15.233391000213601       11.06459033757244
   177   1      13.040619984341788       5.716328995770084      4.2899716858388501
   178   1     0.79986736665784974       7.097223201786278     0.19904420128545652
   179   1      7.6189538108033616      11.151353271760627      15.150156676488791
   180   1      3.5247124439009099       7.056251897314894       13.80054640078356
   181   1     0.78740808646411153      4.3533800858083964      8.3382953664576007
   182   1      15.744972352128229      2.9940826792951896      4.3120408324390382
   183   1      7.5875467441548494      2.9982140737666896      12.438993360450695
   184   1       8.965905217686327      12.536080278797385       8.342493682851682
   185   1      10.314749419892337       2.995824596101869      4.2995354369568304
   186   1      13.030101318226684      13.928393068273067      1.5413258876678668
   187   1      2.1753396801827307      3.0121693631206767      1.5918935524849616
   188   1       4.881369233025282      3.0089008964218067      15.180670152956509
   189   1       4.891265403584157      5.7439558255263137      1.5511270290966763
   190   1       14.41506097020158      15.245730916032699      11.088727979961504
   191   1      11.697616240833781      4.3527721913989126      13.801540252172003
   192   1       15.78158229406688     0.26769106684033162      6.9985807746063529
   193   1      15.773668472531085       11.16250757446403      1.5699451086978655
   194   1      11.662494642453339      7.0712355941046212     0.21248353782586982
   195   1      7.6227773644309877     0.30792306658152668      15.151469806286059
   196   1     0.79863405646278807       9.800941879803986       2.880870741188204
   197   1      4.8791849014722288     0.30255331235171568      7.0176703138607763
   198   1      2.1818369471318135      3.0009459483226806      7.0068060872727074
   199   1      14.406607879646003      7.0789493799300089      13.807156826619917
   200   1      13.044176823688872      5.7527038592461395      9.7004197983330869
   201   1      10.333207216197593      13.895435359840235      15.165549205387379
   202   1       15.75398807353838     0.28689242654357727      1.5507931495411071
   203   1      6.2789841855889676      15.267211149714171      8.3549241257805988
   204   1      8.9744391012538927      15.228795532628055     0.21889973799146212
   205   1      10.300115177214707      13.890889536153622      9.7220898469222448
   206   1      3.5122749437510663      7.1001278565787516      2.9301664027713628
   207   1      6.2681827439319022      7.0805735141529453     0.20378460046197411
   208   1     0.77539572303699345      4.3600343150849881      2.9514675290527634
   209   1      15.778029348358928      13.883327115549491       9.709833644344485
   210   1      10.336380532090175      13.893764015242823      4.2399715189252447
   211   1      11.687115096094772      1.6414981499980001      5.6416592180210046
   212   1      10.336703704138131      11.145614047680056      7.0018197956592871
   213   1      10.326778817990657      2.9888350271550337      15.181335965248081
   214   1      10.314792249922789      8.4453071709517644      15.153421492900975
   215   1      3.5259537847266813      1.6375114285554986      8.3809073531182321
   216   1      4.8777135925852235      8.4422107544320397      4.2968546664144469

Velocities

     1                       0                       0                       0
     2                       0                       0                       0
     3                       0                       0                       0
     4                       0                       0                       0
     5                       0                       0                       0
     6                       0                       0                       0
     7                       0                       0                       0
     8                       0                       0                       0
     9                       0                       0                       0
    10                       0                       0                       0
    11                       0                       0                       0
    12                       0                       0                       0
    13                       0                       0                       0
    14                       0                       0                       0
    15                       0                       0                       0
    16                       0                       0                       0
    17                       0                       0                       0
    18                       0                       0                       0
    19                       0                       0                       0
    20                       0                       0                       0
    21                       0                       0                       0
    22                       0                       0                       0
    23                       0                       0                       0
    24                       0                       0                       0
    25                       0                       0                       0
    26                       0                       0                       0
    27                       0                       0                       0
    28                       0                       0                       0
    29                       0                       0                       0
    30                       0                       0                       0
    31                       0                       0                       0
    32                       0                       0                       0
    33                       0                       0                       0
    34                       0                       0                       0
    35                       0                       0                       0
    36                       0                       0                       0
    37                       0                       0                       0
    38                       0                       0                       0
    39                       0                       0                       0
    40                       0                       0                       0
    41                       0                       0                       0
    42                       0                       0                       0
    43                       0                       0                       0
    44                       0                       0                       0
    45                       0                       0                       0
    46                       0                       0                       0
    47                       0                       0                       0
    48                       0                       0                       0
    49                       0                       0                       0
    50                       0                       0                       0
    51                       0                       0                       0
    52                       0                       0                       0
    53                       0                       0                       0
    54                       0                       0                       0
    55                       0                       0                       0
    56                       0                       0                       0
    57                       0                       0                       0
    58                       0                       0                       0
    59                       0                       0                       0
    60                       0                       0                       0
    61                       0                       0                       0
    62                       0                       0                       0
    63                       0                       0                       0
    64                       0                       0                       0
    65                       0                       0                       0
    66                       0                       0                       0
    67                       0                       0                       0
    68                       0                       0                       0
    69                       0                       0                       0
    70                       0                       0                       0
    71                       0                       0                       0
    72                       0                       0                       0
    73                       0                       0                       0
    74                       0                       0                       0
    75                       0                       0                       0
    76                       0                       0                       0
    77                       0                       0                       0
    78                       0                       0                       0
    79                       0                       0                       0
    80                       0                       0                       0
    81                       0                       0                       0
    82                       0                       0                       0
    83                       0                       0                       0
    84                       0                       0                       0
    85                       0                       0                       0
    86                       0                       0                       0
    87                       0                       0                       0
    88                       0                       0                       0
    89                       0                       0                       0
    90                       0                       0                       0
    91                       0                       0                       0
    92                       0                       0                       0
    93                       0                       0                       0
    94                       0                       0                       0
    95                       0                       0                       0
    96                       0                       0                       0
    97                       0                       0                       0
    98                       0                       0                       0
    99                       0                       0                       0
   100                       0                       0                       0
   101                       0                       0                       0
   102                       0                       0                       0
   103                       0                       0                       0
   104                       0                       0                       0
   105                       0                       0                       0
   106                       0                       0                       0
   107                       0                       0                       0
   108                       0                       0                       0
   109                       0                       0                       0
   110                       0                       0                       0
   111                       0                       0                       0
   112                       0                       0                       0
   113                       0                       0                       0
   114                       0                       0                       0
   115                       0                       0                       0
   116                       0                       0                       0
   117                       0                       0                       0
   118                       0                       0                       0
   119                       0                       0                       0
   120                       0                       0                       0
   121                       0                       0                       0
   122                       0                       0                       0
   123                       0                       0                       0
   124                       0                       0                       0
   125                       0                       0                       0
   126                       0                       0                       0
   127                       0                       0                       0
   128                       0                       0                       0
   129                       0                       0                       0
   130                       0                       0                       0
   131                       0                       0                       0
   132                       0                       0                       0
   133                       0                       0                       0
   134                       0                       0                       0
   135                       0                       0                       0
   136                       0                       0                       0
   137                       0                       0                       0
   138                       0                       0                       0
   139                       0                       0                       0
   140                       0                       0                       0
   141                       0                       0                       0
   142                       0                       0                       0
   143                       0                       0                       0
   144                       0                       0                       0
   145                       0                       0                       0
   146                       0                       0                       0
   147                       0                       0                       0
   148                       0                       0                       0
   149                       0                       0                       0
   150                       0                       0                       0
   151                       0                       0                       0
   152                       0                       0                       0
   153                       0                       0                       0
   154                       0                       0                       0
   155                       0                       0                       0
   156                       0                       0                       0
   157                       0                       0                       0
   158                       0                       0                       0
   159                       0                       0                       0
   160                       0                       0                       0
   161                       0                       0                       0
   162                       0                       0                       0
   163                       0                       0                       0
   164                       0                       0                       0
   165                       0                       0                       0
   166                       0                       0                       0
   167                       0                       0                       0
   168                       0                       0                       0
   169                       0                       0                       0
   170                       0                       0                       0
   171                       0                       0                       0
   172                       0                       0                       0
   173                       0                       0                       0
   174                       0                       0                       0
   175                       0                       0                       0
   176                       0                       0                       0
   177                       0                       0                       0
   178                       0                       0                       0
   179                       0                       0                       0
   180                       0                       0                       0
   181                       0                       0                       0
   182                       0                       0                       0
   183                       0                       0                       0
   184                       0                       0                       0
   185                       0                       0                       0
   186                       0                       0                       0
   187                       0                       0                       0
   188                       0                       0                       0
   189                       0                       0                       0
   190                       0                       0                       0
   191                       0                       0                       0
   192                       0                       0                       0
   193                       0                       0                       0
   194                       0                       0                       0
   195                       0                       0                       0
   196                       0                       0                       0
   197                       0                       0                       0
   198                       0                       0                       0
   199                       0                       0                       0
   200                       0                       0                       0
   201                       0                       0                       0
   202                       0                       0                       0
   203                       0                       0                       0
   204                       0                       0                       0
   205                       0                       0                       0
   206                       0                       0                       0
   207                       0                       0                       0
   208                       0                       0                       0
   209                       0                       0                       0
   210                       0                       0                       0
   211                       0                       0                       0
   212                       0                       0                       0
   213                       0                       0                       0
   214                       0                       0                       0
   215                       0                       0                       0
   216                       0                       0                       0
