(written by ASE)

216 atoms
1 atom types

0.0      16.331106185913086  xlo xhi
0.0      16.331106185913086  ylo yhi
0.0      16.331106185913086  zlo zhi

Atoms # atomic

     1   1       5.425547645048141      4.1162725505211029      4.1189070840987938
     2   1      16.284623921955244       15.00781399051084       14.97794199109012
     3   1      5.3943303933073139      14.981116280392484      4.0902951636421676
     4   1      14.927813334085158      8.1615810943370093      10.933262756698923
     5   1      6.7584089453221736    0.045017331665391236      10.885511166384049
     6   1      10.826321037709135      4.1373123162757679      9.5345186487869569
     7   1      10.864553653756047      4.1067822918417392      4.0980152766311448
     8   1      13.570508254045308      12.261284750236769      14.984533922140599
     9   1      16.328793364268677       6.853901418444309      6.8131481577643171
    10   1      4.0400793864616276      8.1636301219302254   0.0029622397284913282
    11   1      16.297487532237596      9.5595635090937776      4.1113329825772666
    12   1      14.942982952143439      10.906122145129302      2.7492355628232588
    13   1      6.7607680039312754      16.326937071812495      5.4601207270158625
    14   1      13.582564907617552      1.3976117889818909      4.1148158427808426
    15   1       4.023937088677684      13.642624291228685    0.030079881346311454
    16   1      1.3220720262392547      13.638870823105435      2.7366591084268919
    17   1      10.873700785486903      1.3968959677627169      12.239716909674826
    18   1      1.3241404003519079      2.7308463919077042      2.7479762139165018
    19   1      14.932237481548896      2.7390931195892847      10.906770436044781
    20   1      9.4952425374526683      8.1670443567440998   0.0044546587272188409
    21   1      16.310015316144813      12.295250911204789      6.7891901094802165
    22   1      2.6968610060964693      6.8304130403805061      9.5574697046505435
    23   1      13.567350512709254      15.010700150517437      1.3606613969716363
    24   1      14.961321992455169      5.4806713543545698      13.634517734555857
    25   1      9.5153882263216474      10.919316714737874      13.643328066501795
    26   1      4.0489678345426512       13.61968004923358      10.854102152915971
    27   1      5.4047906548354376      4.1211882699252556      9.5471476673116058
    28   1      13.588472531590583      9.5800002474878738      12.249744003849514
    29   1      14.920544883235493    0.050519230075626531       13.60047175398563
    30   1      1.3311168282666728      8.2328497783042849      13.616590446582336
    31   1      5.4307013631442373      6.8280520349518383       6.868394516703404
    32   1      14.958443619726836      10.899505878834248       13.64091303683017
    33   1      9.5135767107154834      5.4833097815713927       13.60174010693288
    34   1      12.235827164181956      13.617085912161883       2.733771244953175
    35   1      5.4213225598850272       6.865793079058335      1.3803021295156839
    36   1      13.625056191465092      12.307093414624774      9.5149112555279771
    37   1      2.6742788725406399      9.5575826201853715      6.8187092478545992
    38   1       12.22292656432785      5.4778387318860382      5.4359052118441582
    39   1      8.1296435193567618      6.8097645853586073      9.5260752923292102
    40   1       6.794689388049278      2.7472894733145949      13.636649501980628
    41   1      5.4339019345107431      1.3808804566030091      6.8359283802109871
    42   1      5.4085071333869337      15.002228565175983      14.970965563175355
    43   1      16.294532260136407      1.3914103169306173      12.285356200760589
    44   1      6.7623035578639588      13.655083936451092      2.7188549567909206
    45   1      14.946319800879564    0.066349086133518753      8.1871238537478348
    46   1      4.0380237883523762      5.4523621643404567        13.6457499100419
    47   1      14.916356300939242      5.4881816975353104      2.7704116059475439
    48   1      8.0931937033274153      15.003378162129707      12.194142837044524
    49   1      12.232096084483715      2.7358713765599987      13.649859646145728
    50   1      4.0632192838231163      2.7430113373183076      5.4772921622928834
    51   1      2.7010135722307496      4.1279617419002648      1.3751806556186494
    52   1      12.213502984218621      13.661132704842657      8.1613591569064852
    53   1      6.7682564453918985      8.2011127257393355      13.615539164016695
    54   1      10.876118735387877      12.288881890994617      6.8290609741919184
    55   1      13.577711486439512      1.4130307216208422      9.5396514385727187
    56   1      12.227265051730683      2.7180925335783854      2.7463698444221052
    57   1      5.4292582831409391      9.5760433367199767      4.1036790614535334
    58   1      10.866353488444815      15.006849341415887      14.984746125473293
    59   1      10.889397018237787      14.965864895912432      4.0939746526219096
    60   1      2.7033137395479798       14.99731284577183      12.261688715296714
    61   1      12.202782822278436      8.2046345223342314      2.7399161375608116
    62   1      10.864691877945234      9.5553544851920833      4.0839860081336496
    63   1      14.932299779775008      5.4767567869122331      8.1824125503981122
    64   1      4.0564752574940428      5.4670426439827793       2.750977722982384
    65   1      2.6992237149922573      15.040811608744775      6.8342623893673817
    66   1      16.300387319981155       12.26407843631398      12.255949491216143
    67   1      12.255927102791134    0.036008519183270415      5.4426446144767624
    68   1       4.010375056876029      5.4469509793567568      8.1818762016076789
    69   1      4.0664057407477685      2.7622206059760401      10.906311960036987
    70   1      4.0139557447627965      2.7634855519890493    0.004439578955644008
    71   1      16.323218646441433      4.1009223649480759       14.99049995070061
    72   1        1.35507134794031      8.2126447114385428      2.7393873326961966
    73   1      9.5039088047507221      2.7251969648796148      5.4662940918596519
    74   1      5.4130359224023437      9.5634581216355627      9.5230470144942956
    75   1      12.218330123332521      10.899725869445206      16.318150101701349
    76   1      6.7573552292320755       5.475684576036258      10.918300474924422
    77   1      12.198243812460305      10.905649067974764      5.4717889900846899
    78   1      5.4015477401433714      9.5508310499304798        14.9866754236632
    79   1      9.4724082907630418      10.911691995907631      2.7629737817956368
    80   1      5.4237789594724291      1.4007241450868122      1.3354674832917937
    81   1      2.6791729335771208      1.3939883927408943      4.1081401984890249
    82   1      6.7528249801019911      13.632130933767939      8.1770033122339782
    83   1      12.233360543791832      8.2103406504821805       13.61702653416512
    84   1      16.317372347284731      15.009422063472357      9.5430554525838716
    85   1      8.1377578633078542      15.000027685656619      6.8272343707341179
    86   1      10.880682080450583      12.270533116585057      12.260608230437583
    87   1      16.312344685755534      9.5343093656836118      9.5210057741793435
    88   1      6.7896641600445378      10.901919935096089    0.014093331979434409
    89   1      13.570654265512758      6.8260896408293092      9.5320734434120595
    90   1      2.6895212529801995      12.285665745071583      4.0987823235401493
    91   1       6.810124260273426    0.038883720725044313      16.312141243110887
    92   1      9.4862930079077614      8.1950016591216581      10.883724959432243
    93   1      2.6806177170475394      15.015312166069293      1.3958999262022616
    94   1      1.3511323235771755      13.665672688070572      13.610681849199523
    95   1      10.865932975418559      1.3681331687897256      1.3748083263766517
    96   1      8.1448301720862446      9.5162302257839428       1.360505894758802
    97   1      10.858920531341823      9.5523067391615086        14.9701498457772
    98   1       12.20308555272095      2.7577709065054989      8.1902426586925685
    99   1      8.1225970059376209      14.995364079386263      1.3653290185573468
   100   1      8.1366807853829641      1.4060364073013147      14.995839103360368
   101   1      13.573003103319138      1.3798229685500019      14.995575309309174
   102   1      1.3186345512668112      2.7522280678486482       8.183894080087839
   103   1      4.0583317933026706      8.1836867438040599      5.4743286162085383
   104   1       2.675798121859458      4.0748164879777846      12.268851064480032
   105   1      14.943055957877164      2.7645380513169187      16.322800080234742
   106   1      16.273184410185422      4.1282119082144959      4.1294510588682556
   107   1      6.7769348803122398      13.627928723734726      13.603031821714922
   108   1      12.219064074308903      5.4712555615236056      10.889341533880156
   109   1      2.6938531698669976      9.5600239319211369      12.277157170158375
   110   1       16.27355041226383      6.8162650158894849      1.3763051872704608
   111   1      12.268959112965945      10.934036617476409      10.869612464398301
   112   1      2.6529502474328694      12.310655121020773      9.5468945807680257
   113   1      16.305773196310497      1.3819377013035705      1.3926902291190402
   114   1      9.4647319812142996    0.055641156456114782      13.607958248626687
   115   1      10.855252723279477      6.8551103933947957      12.261365543248758
   116   1      8.1495774915979382      4.1151249003869452      1.3874610717647613
   117   1      1.3403535136975648      8.2182496049690599      8.1903000898697655
   118   1      12.185733549929182      5.4922130741516071    0.033946438012768976
   119   1      6.7744171559085089      8.1842639758053792       2.722343170748303
   120   1      6.7948495139585816       10.92793820518591      5.4613988140609422
   121   1      9.5294121410653361      13.654598204969375      10.893353929005684
   122   1      1.3466013443897538      10.934462970961363      5.4792633171034595
   123   1       6.784677381726226      5.4876244204345426      5.4822862411845676
   124   1      10.849013166570444      9.5596744778090397      9.5714799916572701
   125   1      1.3450973045987951      5.4496444042263192      16.330649656724859
   126   1      13.577754316469964      4.1100500284832719      1.3880771184811778
   127   1       6.763675578953098      10.908667611711849      10.911951896319692
   128   1      2.7143346851111119        9.56209145430023      1.3444581394000323
   129   1      9.5030434434536346    0.017803866457323902      8.1693737263548201
   130   1      10.863056549509793      1.3560588721651641      6.8126380910380249
   131   1      2.7073713982284175      12.252020809331952      14.998224930738502
   132   1      5.4251139909898143      12.255432610621369       1.364508799138946
   133   1      10.866025449347944       4.123912843907874      14.955705418007256
   134   1       8.148229805753374      12.285670612120498      9.5305763391658047
   135   1      13.597387991793084      14.997272935970727      6.8465487676484145
   136   1      9.4864721153078335      8.1979277289293577      5.4571294387527018
   137   1      5.4291770034240585      1.4206093251626157      12.270746293327534
   138   1      4.0619526343429868       10.92375643675814      2.7215797741259848
   139   1      4.0784380590754381    0.048472852742639905      2.7095569465436995
   140   1      6.7957917746285261      8.2042967491395302      8.1907858213514828
   141   1      13.569514402656864      9.5497369373343872       6.845622081534998
   142   1      2.6705655575709386      6.8215287292910602      14.978330381593537
   143   1      13.558579117154636      14.996185637243116      12.251576934470904
   144   1      16.329647044648368      1.4128850751820607      6.8214781119823442
   145   1      5.4029903334417781      6.8240449935801166      12.297055612942472
   146   1   0.0040063369804627103      12.276643209792951      1.3610115811410708
   147   1      10.877971134204927      15.008187779867512      9.5151546079737273
   148   1      16.290281379614044      4.0966851121626746       9.563854299417244
   149   1      14.928217299145103      2.7661716762852393      5.4791513749784144
   150   1      10.868997269415445      6.8318546602691299      6.8013922878150197
   151   1      16.326866986308119      15.017099346430882      4.0921733578184671
   152   1      13.565406613372602      6.8742529834823927      14.984770460717868
   153   1      9.4823360971398643      13.626563029809176    0.014124082792979609
   154   1      6.7582848355748411      2.7816722536697398      2.7296546949808658
   155   1      14.940534826539192      13.647993619591716      10.909275019416441
   156   1       5.415519090758778      12.265451917517794      6.7913014352995447
   157   1      8.1241223390675827      4.0785633855849994      12.264483374783708
   158   1      8.1260516372574898      12.257431994315652      4.1000628441096865
   159   1      1.3455067450887697    0.025440960139671676      5.4449238534836581
   160   1      2.6753192042462217      1.3829053923040959      14.982326228752754
   161   1      4.0713258404959447    0.047376211562540682       8.149200782011917
   162   1      13.568787265548963      4.0958304583732001      6.7954535147289334
   163   1      4.0674470458631333      10.938284577769423      13.604955279446131
   164   1      16.303498337647625      6.8557435964586375      12.263022286699425
   165   1      8.1601054051059805      9.5761163424537017      6.8352966372618198
   166   1      9.4948122903285821      5.4629295009447105      2.7438161038564033
   167   1      8.1391980230818035       4.106439651598123       6.794670893263401
   168   1      9.4967250405521781      2.7740088418006223      16.317374294104297
   169   1       8.123640014520106      6.8211242775262235      14.986474901247902
   170   1      2.6787964673435454      4.0821194948747461      6.8241778640154962
   171   1      1.3360984961836238      10.913626161146453      10.923032219879588
   172   1      14.923429096422524      8.1902416852827855       5.460061835723991
   173   1       12.21792421145301    0.014147828668350071      10.890798728325308
   174   1       4.051767117726115    0.046695007228774621      13.628556573044762
   175   1      8.1250923419163428      1.3688907249533457      9.5259876854487402
   176   1      13.594142643576561      4.1121156040427991      12.268746909633251
   177   1      1.3382420662020138    0.038123871725099345    0.033429629663253024
   178   1      8.1174637294469676      9.5530835201683431      12.263548901392028
   179   1      1.3258588336475725      5.4686706718448477        10.9025205289322
   180   1      10.836866959298163      6.8657487889132085      1.3643210527270497
   181   1      1.3312778059095365      5.4839157291613105        5.48561870957667
   182   1      2.7042392088991676      6.8573161399630749       4.090996992095711
   183   1      13.560353643189046      6.8571813227081293      4.0899306216784339
   184   1      1.2901561096266789      13.663060056212998      8.1873905680283769
   185   1      14.946552445817701      13.656902265925737      5.4506450694832438
   186   1      4.0825086154355006      8.1944954860344978      10.881052949577906
   187   1      9.4779246040033058      13.617997023718772      5.4505813111424573
   188   1      14.910174175407406      13.630698074567363    0.024392033149658321
   189   1      16.275530327762453      9.5449506814313736      14.989945107124299
   190   1      12.209816681370398       13.62820906575223      13.651716912011693
   191   1      5.4103673194822477      15.013790726578463      9.5435168488210138
   192   1      5.4429449113948181      4.1367088022103076      15.007041103143138
   193   1      14.933239120215603       8.187454813074055   0.0094280678705421783
   194   1      5.4160019020111463      12.307064212331284      12.259048827965216
   195   1      9.4864633546197865    0.021790833153462197      2.7481762496269084
   196   1      13.598992171115469      12.280627376034772      4.1132355119981412
   197   1      12.210730713156636       8.207491480047338       8.162837766366863
   198   1      4.0229154951104249      13.638258548351928      5.4563823467442489
   199   1      4.0569960317279481       10.93171114150482      8.1849560701610926
   200   1      9.5368081085965741      10.948043984253786      8.1812191500041536
   201   1      10.871544682817557      12.269949070715256      1.3529490712609231
   202   1      8.1159101674332987      1.4007641765641381      4.0850134421596067
   203   1      1.3304010070474988    0.016120097576841852        10.9317695460918
   204   1      1.3354923052412602      10.898277435688101    0.028962471555920244
   205   1      2.7090235179826152      1.3793547584443786      9.5467213138266516
   206   1      6.7685275400164642      5.4627318987587614    0.021419614206998228
   207   1      6.7683703343365096      2.7375300668302316      8.1614161013787907
   208   1      1.3232409697124154      2.7652386630082333      13.646325195223653
   209   1      8.1238955345881436      12.310020457842256      14.970624869751305
   210   1      14.986527465376184      10.881148343736641      8.1687887070752367
   211   1       9.510990360922051      5.4562733248485529      8.1514259967758562
   212   1      9.4759592896514278      2.7396085400693835      10.912209849912188
   213   1      8.1558228887656696      6.8582549936987789      4.0790637182134617
   214   1      14.960369997687394    0.043492686766565036      2.7300718010728815
   215   1      13.589934593084649      9.5495987131452011      1.3810153955341775
   216   1       12.19397930420098    0.033623505514876584       0.018255112235811

Velocities

     1                       0                       0                       0
     2                       0                       0                       0
     3                       0                       0                       0
     4                       0                       0                       0
     5                       0                       0                       0
     6                       0                       0                       0
     7                       0                       0                       0
     8                       0                       0                       0
     9                       0                       0                       0
    10                       0                       0                       0
    11                       0                       0                       0
    12                       0                       0                       0
    13                       0                       0                       0
    14                       0                       0                       0
    15                       0                       0                       0
    16                       0                       0                       0
    17                       0                       0                       0
    18                       0                       0                       0
    19                       0                       0                       0
    20                       0                       0                       0
    21                       0                       0                       0
    22                       0                       0                       0
    23                       0                       0                       0
    24                       0                       0                       0
    25                       0                       0                       0
    26                       0                       0                       0
    27                       0                       0                       0
    28                       0                       0                       0
    29                       0                       0                       0
    30                       0                       0                       0
    31                       0                       0                       0
    32                       0                       0                       0
    33                       0                       0                       0
    34                       0                       0                       0
    35                       0                       0                       0
    36                       0                       0                       0
    37                       0                       0                       0
    38                       0                       0                       0
    39                       0                       0                       0
    40                       0                       0                       0
    41                       0                       0                       0
    42                       0                       0                       0
    43                       0                       0                       0
    44                       0                       0                       0
    45                       0                       0                       0
    46                       0                       0                       0
    47                       0                       0                       0
    48                       0                       0                       0
    49                       0                       0                       0
    50                       0                       0                       0
    51                       0                       0                       0
    52                       0                       0                       0
    53                       0                       0                       0
    54                       0                       0                       0
    55                       0                       0                       0
    56                       0                       0                       0
    57                       0                       0                       0
    58                       0                       0                       0
    59                       0                       0                       0
    60                       0                       0                       0
    61                       0                       0                       0
    62                       0                       0                       0
    63                       0                       0                       0
    64                       0                       0                       0
    65                       0                       0                       0
    66                       0                       0                       0
    67                       0                       0                       0
    68                       0                       0                       0
    69                       0                       0                       0
    70                       0                       0                       0
    71                       0                       0                       0
    72                       0                       0                       0
    73                       0                       0                       0
    74                       0                       0                       0
    75                       0                       0                       0
    76                       0                       0                       0
    77                       0                       0                       0
    78                       0                       0                       0
    79                       0                       0                       0
    80                       0                       0                       0
    81                       0                       0                       0
    82                       0                       0                       0
    83                       0                       0                       0
    84                       0                       0                       0
    85                       0                       0                       0
    86                       0                       0                       0
    87                       0                       0                       0
    88                       0                       0                       0
    89                       0                       0                       0
    90                       0                       0                       0
    91                       0                       0                       0
    92                       0                       0                       0
    93                       0                       0                       0
    94                       0                       0                       0
    95                       0                       0                       0
    96                       0                       0                       0
    97                       0                       0                       0
    98                       0                       0                       0
    99                       0                       0                       0
   100                       0                       0                       0
   101                       0                       0                       0
   102                       0                       0                       0
   103                       0                       0                       0
   104                       0                       0                       0
   105                       0                       0                       0
   106                       0                       0                       0
   107                       0                       0                       0
   108                       0                       0                       0
   109                       0                       0                       0
   110                       0                       0                       0
   111                       0                       0                       0
   112                       0                       0                       0
   113                       0                       0                       0
   114                       0                       0                       0
   115                       0                       0                       0
   116                       0                       0                       0
   117                       0                       0                       0
   118                       0                       0                       0
   119                       0                       0                       0
   120                       0                       0                       0
   121                       0                       0                       0
   122                       0                       0                       0
   123                       0                       0                       0
   124                       0                       0                       0
   125                       0                       0                       0
   126                       0                       0                       0
   127                       0                       0                       0
   128                       0                       0                       0
   129                       0                       0                       0
   130                       0                       0                       0
   131                       0                       0                       0
   132                       0                       0                       0
   133                       0                       0                       0
   134                       0                       0                       0
   135                       0                       0                       0
   136                       0                       0                       0
   137                       0                       0                       0
   138                       0                       0                       0
   139                       0                       0                       0
   140                       0                       0                       0
   141                       0                       0                       0
   142                       0                       0                       0
   143                       0                       0                       0
   144                       0                       0                       0
   145                       0                       0                       0
   146                       0                       0                       0
   147                       0                       0                       0
   148                       0                       0                       0
   149                       0                       0                       0
   150                       0                       0                       0
   151                       0                       0                       0
   152                       0                       0                       0
   153                       0                       0                       0
   154                       0                       0                       0
   155                       0                       0                       0
   156                       0                       0                       0
   157                       0                       0                       0
   158                       0                       0                       0
   159                       0                       0                       0
   160                       0                       0                       0
   161                       0                       0                       0
   162                       0                       0                       0
   163                       0                       0                       0
   164                       0                       0                       0
   165                       0                       0                       0
   166                       0                       0                       0
   167                       0                       0                       0
   168                       0                       0                       0
   169                       0                       0                       0
   170                       0                       0                       0
   171                       0                       0                       0
   172                       0                       0                       0
   173                       0                       0                       0
   174                       0                       0                       0
   175                       0                       0                       0
   176                       0                       0                       0
   177                       0                       0                       0
   178                       0                       0                       0
   179                       0                       0                       0
   180                       0                       0                       0
   181                       0                       0                       0
   182                       0                       0                       0
   183                       0                       0                       0
   184                       0                       0                       0
   185                       0                       0                       0
   186                       0                       0                       0
   187                       0                       0                       0
   188                       0                       0                       0
   189                       0                       0                       0
   190                       0                       0                       0
   191                       0                       0                       0
   192                       0                       0                       0
   193                       0                       0                       0
   194                       0                       0                       0
   195                       0                       0                       0
   196                       0                       0                       0
   197                       0                       0                       0
   198                       0                       0                       0
   199                       0                       0                       0
   200                       0                       0                       0
   201                       0                       0                       0
   202                       0                       0                       0
   203                       0                       0                       0
   204                       0                       0                       0
   205                       0                       0                       0
   206                       0                       0                       0
   207                       0                       0                       0
   208                       0                       0                       0
   209                       0                       0                       0
   210                       0                       0                       0
   211                       0                       0                       0
   212                       0                       0                       0
   213                       0                       0                       0
   214                       0                       0                       0
   215                       0                       0                       0
   216                       0                       0                       0
