(written by ASE)

216 atoms
1 atom types

0.0      16.331106185913086  xlo xhi
0.0      16.331106185913086  ylo yhi
0.0      16.331106185913086  zlo zhi

Atoms # atomic

     1   1      4.6630806290727378      8.4981458007925994      4.3072574967653736
     2   1      15.547198846057313      3.0703101560495156        9.75724162100596
     3   1      11.475227148170347      15.321529362425167      5.6498859908020336
     4   1      3.3040467732582783      12.596155236965046       11.07471185249608
     5   1      14.227862588013181      15.302338588553312      2.9552044492097025
     6   1      3.3077505974825954      4.4125818954007059      2.9376076338575103
     7   1      7.3937379361300941      3.0538901931249711      12.478895374275453
     8   1      15.555143816706163      5.7759897680750782      12.487658009142024
     9   1      1.9561269453174503      5.7940533334182192      9.7599613279396635
    10   1      10.096002826636891      5.7443291281780944      7.0136710597673186
    11   1      6.0301022855664996      1.7153178976540744      8.3704149690672693
    12   1      4.6616414427085715      5.7787313767288992      7.0329883769109642
    13   1      3.3307471602535372      1.7055990093519284       5.684465886638236
    14   1     0.58901902038167009      4.4716162785103393      5.6760200966560319
    15   1      4.6373582755569487      5.8029838814723576      1.6005936457729746
    16   1      7.3842238289110469      13.975303632535429      12.441293527767925
    17   1       15.54818101652836      11.238673969754473      7.0192321498576007
    18   1      1.9747139617713998      11.255318303633999      9.7424691541391439
    19   1      12.832436834051464      3.0372541332286005      1.5742916267314087
    20   1     0.56390602139003931      7.1521420083333851      2.9544824225031618
    21   1     0.61090346247553384      12.580005395255284      13.807320359463461
    22   1       1.955970469694833     0.37063228455537711      4.3022454097927039
    23   1      6.0567659263424503      4.4232037429528077      11.141808015428524
    24   1      10.084098024990794      3.1057683108624303      15.171597000369161
    25   1      7.4194198931398887      11.227209149330292      4.2831495433746909
    26   1      14.162880671129415      15.353495166289122       8.397176924231303
    27   1      10.107341103789281      5.7827014285288669      1.5769551192501439
    28   1       8.743525859120723      12.603386698242957      5.6490021347190691
    29   1      14.206981001348254      12.584661214247376      5.6681607860680856
    30   1      8.7565442415585721      15.308763093121115      13.809683798416586
    31   1      8.7924192591110568      1.6823858629042689      5.6716962103999435
    32   1      11.470107012711765      12.555719794579204      8.3913500932702618
    33   1      7.4048766642769692       13.96180535907456      7.0392362076031532
    34   1      15.532674598685162     0.35761536223220247       6.997101191736192
    35   1      15.547814041040169      5.7902993785900776      7.0619049746296696
    36   1      8.7334520412764505      7.1601171546855085      5.6545656583338086
    37   1      7.3685791868786623      11.228823062750507      9.7583055578987796
    38   1      7.3936858587067036      8.5195822310338372      12.450941965537027
    39   1      3.3255340641606779      4.4057047552838071      8.3940454649593903
    40   1      10.103058100744079      5.7714502715520553      12.451539639143789
    41   1       15.57193416205314      8.5233152575516442      15.195055202729691
    42   1     0.60231896159925213      15.283949904342649     0.23018605939668468
    43   1      3.3058714298965128      1.6796409689924303     0.23468894658615014
    44   1      6.0478782083187639      7.1488314416614003      8.3876073326546248
    45   1      12.803667707914883      13.964092872064612       6.999659799350809
    46   1      10.095406126439912      8.5161275997139683      15.179135085728717
    47   1     0.58941264296267093       4.425533112563528      11.105168871196383
    48   1      4.6583727326572557      8.5015167188711303       9.737112480103292
    49   1      8.7492923386752182      12.601072903188765     0.23975974233635711
    50   1      1.9371393707377962       3.051772053437162       1.564746735427974
    51   1      7.3977697994512823     0.31615796125043261      9.7356299770037822
    52   1     0.60898255994500516      9.8443734775019038     0.23407384286046096
    53   1      4.6782740956707016     0.33090670125378807      12.460403508627792
    54   1      11.462412208377145       4.440182929797686     0.23155972311483275
    55   1     0.62284263765459258      9.8836466686068434      11.120316100829655
    56   1       3.291565226315754      12.585594714229273      5.6674983807107537
    57   1      1.9535537365560884      13.962924780325011      1.6081357464478856
    58   1      7.3581096779576001      5.8090268094052249       4.307056487645184
    59   1      12.827338113608107       3.080059828436049      12.458456689061791
    60   1       12.83294495395819       8.506573582693818      7.0555359544194971
    61   1      4.6075213188884163      8.4987833842004648      15.177519225488936
    62   1      12.819808788936598      8.5055553960607995      12.472797935394738
    63   1      3.2794423808782653      9.8893138603634725      2.9751836850057884
    64   1      12.832309317369891      5.7858270473420816       9.766266103104158
    65   1      11.454936421243701      15.343985926118989     0.22108803923128661
    66   1      7.3724445971269574      8.4660700016231658      1.6303128198577639
    67   1      14.194623564153062       9.871980352357582      8.3666254847820483
    68   1       10.10945924347709      13.963505905965462      15.179494273938644
    69   1     0.61001881549712067      15.328904888350962      5.6584700049734238
    70   1      12.803319227212569      11.232698207096632       4.313344228138476
    71   1      8.7063211638046596      9.8630648921550801      8.3920538685433712
    72   1      12.842516492354434     0.33368928437566225      4.2902914509525658
    73   1      8.7634817330820169      15.324546932752469       8.378987789026155
    74   1      5.9913693368911254      7.1535787611730939      2.9680809571716793
    75   1      11.503329488605573      7.1371325161844084      13.833118638942324
    76   1      11.440620483565112      7.1579737063433413      8.3611296131472272
    77   1     0.59563832858229659      15.310409129064169      11.098411460482794
    78   1      7.3900000425633721       3.082350505007895      6.9966767850708038
    79   1      12.818364248818625      3.0795044981548472      7.0666449935679907
    80   1      12.815473221763114      5.7790224262540164      15.208379235839402
    81   1      14.201101606258931      4.4053776895967189      13.826862534266979
    82   1      14.203778483162182      9.8839347979026115      13.834869803141942
    83   1      4.6649203735626088      3.0638255434276118      4.3193647676463343
    84   1      8.7128731850540362      1.7176161181517386     0.27206115964205679
    85   1      12.820101785281281     0.36063834715142207      9.7561319338533394
    86   1      10.104275836382612      8.5292968606681825      9.7226261957126781
    87   1      10.083580170986238     0.34477261942207349      1.6038211075847357
    88   1      11.462668215150075      1.7027732007518779      8.4218577292792816
    89   1      11.466448938747249       7.131903845535021      2.9895186041751458
    90   1      8.7429291589237437      7.1875283741748035       11.08795119895467
    91   1      1.9540797428675774      13.955355545852399      7.0614391980485038
    92   1     0.56291515106905621      7.1305950960817768       8.406336710289338
    93   1      14.182550362614506      9.8700851235100799       2.957043706994682
    94   1      10.090777562921744      11.220241482103575      1.5980401485597184
    95   1     0.59853738626851793      4.4169885214883493     0.25560207781185795
    96   1        10.1340981919044     0.37891496756081722      12.452837194384529
    97   1      14.203883611418746       15.33207041696528      13.828782098359056
    98   1       15.55585635266732      13.972924619025775      9.7163593835297206
    99   1      8.7593885449444997      1.7179891774510736       11.07150349385131
   100   1     0.60376861211858568      7.1646274489150414       13.83964145789821
   101   1      8.7352314343597754      9.8851194376085232      13.815658587664643
   102   1      4.6648639157951948     0.29449414856769707       1.590416646491704
   103   1      12.814756792162825      8.5351305054977047      1.6046687041532834
   104   1      6.0228771514521782      4.4072500433143205      5.6598824225685576
   105   1      1.9118540782145743      8.4733209310967368      7.0154679742267376
   106   1       11.46947624317238      15.331986703723942      11.106840215793795
   107   1      3.2872656753042406      4.4352638034592928      13.838251428728086
   108   1      14.165498170035903      1.7328153035321776      5.6631701141106419
   109   1      12.814426806246388       13.96336573495671      1.5714829744787835
   110   1      6.0083494971457867      9.8777409914533791     0.23209366879986426
   111   1      7.3693457470827752      11.233841963591658       15.17861041785568
   112   1       10.13218738850037      0.3438986495322176        7.04175587882645
   113   1      15.570647314320013      5.7886236536486422      1.5939283439601013
   114   1       11.46927182711795      1.7059437180913335      13.853554403926637
   115   1      14.212164408442732      1.7010301888591925     0.23267114415362933
   116   1      6.0245183203463171      15.297134739853391      11.116007789130094
   117   1      11.463143239124179       4.431077654687499      11.080082154268894
   118   1      10.100975003808458      11.219467621326089      7.0354515903668471
   119   1      10.119507752667005      13.946254164381344      4.3158054947747928
   120   1      4.6511529522967408      13.956337716323446      15.174575634305143
   121   1      1.9470043921836151      8.4939377503006881       1.584673407095778
   122   1      14.187114681086996      4.3975135119598576      8.3875469812480787
   123   1      8.7557986096647937      15.320177296236579      2.9470387578925568
   124   1      6.0391535364337301      12.592320002420024      8.3778450059409124
   125   1      12.835278217208042      11.220308647378602      15.198251880457065
   126   1      15.595936500482367      8.5403070987237015      9.7326201939547445
   127   1       6.045387739388957      4.4444055814363423      0.2421958676231224
   128   1      7.3702305765755227      13.922171032940128      1.6023533273081938
   129   1      1.9449442920541173      11.218214842935367      4.3160653951868539
   130   1      14.197435745016151      12.537208460735883     0.22606426213726394
   131   1      4.6776657145563263      3.0855724913896267      9.7482239527762431
   132   1      1.9639687345293027      13.928565361804658      12.460751989330106
   133   1      15.556715873505709      11.231678073644048      1.6013244331675622
   134   1      12.826234266914184       11.25488708310013      9.7545433290874826
   135   1      1.9490255559217928     0.35182923196771299      9.7393240671302692
   136   1      15.576684401794182      3.0779373084042163      15.189696581874273
   137   1      15.575537725069807      8.5231965015581181      4.3187335114020584
   138   1      4.6877974502826874     0.37134390794486194      7.0347672832893977
   139   1      0.5795511501273154      9.8770849132596368       5.695328166406739
   140   1      6.0262894394464865      15.313221309927258     0.20398567042027516
   141   1      14.238368599801106      12.613024428504445      11.111116404970517
   142   1      14.233011925765254      7.1589218074719838      11.093090802608913
   143   1      0.6002770520650742      12.569030199951953       2.970340727982915
   144   1      8.7227951509721606      4.4526995194923984      13.828552373650268
   145   1      14.219425072014133      1.6949080497052336      11.108865881552219
   146   1      3.3454794739668046      1.7126106016951042      11.108120249658441
   147   1      1.9198598869748622      11.219315769399941      15.166070953031067
   148   1      4.6493025002992567      13.943810905826012      4.3014243386407429
   149   1      3.3030580322711955      9.8707353612451243      8.3709299028424766
   150   1      10.091153299097982      3.0708854412312689      4.3128098261676087
   151   1      15.592910169467018     0.33933122831604479      1.5980330913387917
   152   1      3.2868952928818089      9.9019029690870184      13.837385094021215
   153   1      11.462942716708881      12.578544307171001      13.827164291299709
   154   1      7.3882644529202821       3.096575672224219      1.6238971976542302
   155   1      10.078891256061524      11.218589605701823       12.43311007172224
   156   1      4.6346848055879377      11.206626399468746      1.5834830486073912
   157   1      1.9541975254513204      5.7521694572752722      15.217371595414761
   158   1      1.9474733323465756       3.079691636185629      7.0577485148562573
   159   1      6.0404471980353378       7.168445648788861      13.839087587731683
   160   1      7.4060827189981069     0.33290666291012982       4.320639934462065
   161   1       3.307919484079946      15.327071957729572      2.9552134532501952
   162   1     0.62138982355346428      1.7173046270211785      13.810955071593185
   163   1      3.3048245276748958      7.1375564361449051      11.117684974186204
   164   1      15.591121042285863      13.912449589437301      15.194915031720939
   165   1      10.084838789835658      8.4988291344602658      4.3168509368817354
   166   1       12.82667716836545       5.784719307009027      4.3275526040360432
   167   1      6.0355197977137891      1.7063916082677366      13.826579272020126
   168   1      4.6548752713069348      5.7906707344222923      12.480015768935687
   169   1      15.554121736434013      13.954606993729271      4.3223098189448024
   170   1      8.7620878102727602      9.8557477708162651      2.9155830207548945
   171   1      14.191368481838708      7.0996796013736798     0.20816714986701612
   172   1      14.205400183860661      4.4160983382417953      2.9398163006551385
   173   1      10.087642210010699      3.0878439431182585      9.7247414151711382
   174   1      1.9606154595030887       3.081545008412462      12.447503882183469
   175   1      1.9566927397538194     0.37780810938037845      15.226366875219469
   176   1      8.7572996075501806      7.1507500323436943     0.22843576214015471
   177   1      11.460871300690656      1.7107247419167635      2.9618737663379306
   178   1      4.6805912976591344      11.225318787531705      6.9861654195290726
   179   1      6.0121521224630783       9.893925875915329      5.6431032714340859
   180   1      1.9319445260783681      5.8084656386653251      4.2900004014274487
   181   1      11.435355310048863      9.8773613616380089      11.082166224614298
   182   1      3.2779868899002338      7.1525931837678058      0.2137334720348818
   183   1     0.60110305110406159      1.6906140957999725      2.9605392215254369
   184   1      6.0203214640669103      12.591439066566409      2.9713309290846723
   185   1      4.6631774833461463      11.235664186705435      12.487341650962549
   186   1      8.7392409092559546      4.4627426749285064      2.9824655202399697
   187   1      12.843662195669026     0.31749490916832812      15.184875283219071
   188   1      7.3889409727194675     0.34960462558488814      15.210700818171858
   189   1     0.55030985940786792      1.7112407707779766      8.3936492871777091
   190   1      7.3629888944948902      8.4991007157897229      7.0312683618244023
   191   1       14.20515975164426      7.1568937081891022      5.6554037641569721
   192   1      6.0077124004428129      15.323945365506574      5.6971547698645395
   193   1      1.9836346540514853       8.521081282099658      12.471746652829097
   194   1       15.58765862368773     0.33465676244279763      12.477706840930409
   195   1      8.7559952384409598      12.603743939633318      11.094904265034643
   196   1      3.2839891779746608      7.1594820048021006         5.6552246567569
   197   1      6.0274570444811957      1.6939452257536232      2.9413175418929711
   198   1      8.7582262936635971       4.402752890116858      8.3875216725937207
   199   1      4.6408786120371701      13.948043291562499      9.7186235346849799
   200   1      3.2868714443421254      15.311212192135145      13.827853465426074
   201   1      7.3713422105477093      5.8051283032243077       15.19807861351569
   202   1      11.480856376945439      4.4208636658344744      5.6477522765576964
   203   1      4.6590648270129691      3.0524760720627171      15.198740532168131
   204   1      11.444456691519918      12.555897928569493      2.9392210605728337
   205   1      12.831410860140181      13.972928512664907      12.434774602451171
   206   1       3.309381302221567      12.595521547196313     0.21682278570509617
   207   1      10.093567355359824      13.963820317325371      9.7148749336106448
   208   1      15.544922040574875      3.0654104979067824      4.3196650645643899
   209   1      11.461953732369352      9.8672349796654544      5.6751780971937364
   210   1      3.3273728352407659      15.354686619863514      8.3819985454849757
   211   1     0.57285031885736259      12.572126616471678       8.375286885031187
   212   1      6.0151906211007145      9.8697395630371147       11.11097136691285
   213   1      6.0115880314938295      12.630043525150427      13.827839837689112
   214   1      7.3812870515957343      5.8022411698079281      9.7640467287989168
   215   1      15.573778773591926        11.2104655276529       12.47044033690031
   216   1      11.459529942009681      9.8958522538758871     0.19051773996748622

Velocities

     1                       0                       0                       0
     2                       0                       0                       0
     3                       0                       0                       0
     4                       0                       0                       0
     5                       0                       0                       0
     6                       0                       0                       0
     7                       0                       0                       0
     8                       0                       0                       0
     9                       0                       0                       0
    10                       0                       0                       0
    11                       0                       0                       0
    12                       0                       0                       0
    13                       0                       0                       0
    14                       0                       0                       0
    15                       0                       0                       0
    16                       0                       0                       0
    17                       0                       0                       0
    18                       0                       0                       0
    19                       0                       0                       0
    20                       0                       0                       0
    21                       0                       0                       0
    22                       0                       0                       0
    23                       0                       0                       0
    24                       0                       0                       0
    25                       0                       0                       0
    26                       0                       0                       0
    27                       0                       0                       0
    28                       0                       0                       0
    29                       0                       0                       0
    30                       0                       0                       0
    31                       0                       0                       0
    32                       0                       0                       0
    33                       0                       0                       0
    34                       0                       0                       0
    35                       0                       0                       0
    36                       0                       0                       0
    37                       0                       0                       0
    38                       0                       0                       0
    39                       0                       0                       0
    40                       0                       0                       0
    41                       0                       0                       0
    42                       0                       0                       0
    43                       0                       0                       0
    44                       0                       0                       0
    45                       0                       0                       0
    46                       0                       0                       0
    47                       0                       0                       0
    48                       0                       0                       0
    49                       0                       0                       0
    50                       0                       0                       0
    51                       0                       0                       0
    52                       0                       0                       0
    53                       0                       0                       0
    54                       0                       0                       0
    55                       0                       0                       0
    56                       0                       0                       0
    57                       0                       0                       0
    58                       0                       0                       0
    59                       0                       0                       0
    60                       0                       0                       0
    61                       0                       0                       0
    62                       0                       0                       0
    63                       0                       0                       0
    64                       0                       0                       0
    65                       0                       0                       0
    66                       0                       0                       0
    67                       0                       0                       0
    68                       0                       0                       0
    69                       0                       0                       0
    70                       0                       0                       0
    71                       0                       0                       0
    72                       0                       0                       0
    73                       0                       0                       0
    74                       0                       0                       0
    75                       0                       0                       0
    76                       0                       0                       0
    77                       0                       0                       0
    78                       0                       0                       0
    79                       0                       0                       0
    80                       0                       0                       0
    81                       0                       0                       0
    82                       0                       0                       0
    83                       0                       0                       0
    84                       0                       0                       0
    85                       0                       0                       0
    86                       0                       0                       0
    87                       0                       0                       0
    88                       0                       0                       0
    89                       0                       0                       0
    90                       0                       0                       0
    91                       0                       0                       0
    92                       0                       0                       0
    93                       0                       0                       0
    94                       0                       0                       0
    95                       0                       0                       0
    96                       0                       0                       0
    97                       0                       0                       0
    98                       0                       0                       0
    99                       0                       0                       0
   100                       0                       0                       0
   101                       0                       0                       0
   102                       0                       0                       0
   103                       0                       0                       0
   104                       0                       0                       0
   105                       0                       0                       0
   106                       0                       0                       0
   107                       0                       0                       0
   108                       0                       0                       0
   109                       0                       0                       0
   110                       0                       0                       0
   111                       0                       0                       0
   112                       0                       0                       0
   113                       0                       0                       0
   114                       0                       0                       0
   115                       0                       0                       0
   116                       0                       0                       0
   117                       0                       0                       0
   118                       0                       0                       0
   119                       0                       0                       0
   120                       0                       0                       0
   121                       0                       0                       0
   122                       0                       0                       0
   123                       0                       0                       0
   124                       0                       0                       0
   125                       0                       0                       0
   126                       0                       0                       0
   127                       0                       0                       0
   128                       0                       0                       0
   129                       0                       0                       0
   130                       0                       0                       0
   131                       0                       0                       0
   132                       0                       0                       0
   133                       0                       0                       0
   134                       0                       0                       0
   135                       0                       0                       0
   136                       0                       0                       0
   137                       0                       0                       0
   138                       0                       0                       0
   139                       0                       0                       0
   140                       0                       0                       0
   141                       0                       0                       0
   142                       0                       0                       0
   143                       0                       0                       0
   144                       0                       0                       0
   145                       0                       0                       0
   146                       0                       0                       0
   147                       0                       0                       0
   148                       0                       0                       0
   149                       0                       0                       0
   150                       0                       0                       0
   151                       0                       0                       0
   152                       0                       0                       0
   153                       0                       0                       0
   154                       0                       0                       0
   155                       0                       0                       0
   156                       0                       0                       0
   157                       0                       0                       0
   158                       0                       0                       0
   159                       0                       0                       0
   160                       0                       0                       0
   161                       0                       0                       0
   162                       0                       0                       0
   163                       0                       0                       0
   164                       0                       0                       0
   165                       0                       0                       0
   166                       0                       0                       0
   167                       0                       0                       0
   168                       0                       0                       0
   169                       0                       0                       0
   170                       0                       0                       0
   171                       0                       0                       0
   172                       0                       0                       0
   173                       0                       0                       0
   174                       0                       0                       0
   175                       0                       0                       0
   176                       0                       0                       0
   177                       0                       0                       0
   178                       0                       0                       0
   179                       0                       0                       0
   180                       0                       0                       0
   181                       0                       0                       0
   182                       0                       0                       0
   183                       0                       0                       0
   184                       0                       0                       0
   185                       0                       0                       0
   186                       0                       0                       0
   187                       0                       0                       0
   188                       0                       0                       0
   189                       0                       0                       0
   190                       0                       0                       0
   191                       0                       0                       0
   192                       0                       0                       0
   193                       0                       0                       0
   194                       0                       0                       0
   195                       0                       0                       0
   196                       0                       0                       0
   197                       0                       0                       0
   198                       0                       0                       0
   199                       0                       0                       0
   200                       0                       0                       0
   201                       0                       0                       0
   202                       0                       0                       0
   203                       0                       0                       0
   204                       0                       0                       0
   205                       0                       0                       0
   206                       0                       0                       0
   207                       0                       0                       0
   208                       0                       0                       0
   209                       0                       0                       0
   210                       0                       0                       0
   211                       0                       0                       0
   212                       0                       0                       0
   213                       0                       0                       0
   214                       0                       0                       0
   215                       0                       0                       0
   216                       0                       0                       0
