(written by ASE)

8 atoms
1 atom types

0.0       5.443702220916748  xlo xhi
0.0       5.443702220916748  ylo yhi
0.0       5.443702220916748  zlo zhi

Atoms # atomic

     1   1       2.721851110458374       2.721851110458374       2.721851110458374
     2   1       1.360925555229187       1.360925555229187       1.360925555229187
     3   1       4.082776665687561       4.082776665687561       1.360925555229187
     4   1       4.082776665687561       1.360925555229187       4.082776665687561
     5   1       1.360925555229187       4.082776665687561       4.082776665687561
     6   1      5.0539748900182531      2.3772603058106228      3.4670884705642493
     7   1     0.21866953803235845      5.3570207261494716       2.118615747052587
     8   1      2.3547349538344378      5.1825668686862514      3.5549305942966782

Velocities

     1                       0                       0                       0
     2                       0                       0                       0
     3                       0                       0                       0
     4                       0                       0                       0
     5                       0                       0                       0
     6                       0                       0                       0
     7                       0                       0                       0
     8                       0                       0                       0
