(written by ASE)

8 atoms
1 atom types

0.0       5.443702220916748  xlo xhi
0.0       5.443702220916748  ylo yhi
0.0       5.443702220916748  zlo zhi

Atoms # atomic

     1   1       2.721851110458374       2.721851110458374       2.721851110458374
     2   1       1.360925555229187       1.360925555229187       1.360925555229187
     3   1       4.082776665687561       4.082776665687561       1.360925555229187
     4   1       4.082776665687561       1.360925555229187       4.082776665687561
     5   1       1.360925555229187       4.082776665687561       4.082776665687561
     6   1      5.2228024387714527      3.1735002841608093     0.06284839712850232
     7   1      3.0125722804972384      1.8136323386917326      5.0711727700965241
     8   1     0.39892860881719017      1.8156190681168454      2.2507376341667396

Velocities

     1                       0                       0                       0
     2                       0                       0                       0
     3                       0                       0                       0
     4                       0                       0                       0
     5                       0                       0                       0
     6                       0                       0                       0
     7                       0                       0                       0
     8                       0                       0                       0
