(written by ASE)

64 atoms
1 atom types

0.0      10.887404441833496  xlo xhi
0.0      10.887404441833496  ylo yhi
0.0      10.887404441833496  zlo zhi

Atoms # atomic

     1   1       5.443702220916748       5.443702220916748       5.443702220916748
     2   1      6.8046277761459351       4.082776665687561      6.8046277761459351
     3   1      6.8046277761459351      6.8046277761459351       4.082776665687561
     4   1       4.082776665687561       4.082776665687561       4.082776665687561
     5   1       4.082776665687561      6.8046277761459351      6.8046277761459351
     6   1       2.824041619281104      5.5684966034404511      2.5498161763765381
     7   1      2.6699401386250372      2.8242703705867882      10.831397037043757
     8   1       5.508403473202236   0.0031752197111958314      5.4345469771703847
     9   1      1.4296912801822685      9.5391565759882724      6.7906716752096372
    10   1      4.1901155390029032      4.0803645561748567      9.4495885966601918
    11   1      9.5907823387468625      9.4876236116317045      9.4449285594229764
    12   1      8.1503110316079983      2.7047946992726963      10.844262270051388
    13   1      8.1898463955688499      10.807960573484081      2.7099271647383887
    14   1       2.801345596117983    0.039802737328741067      2.6813911694116399
    15   1      5.4524148876688514      0.0657719118208826      10.829964177801344
    16   1      9.5098751109809427      4.0696531546099664       9.479129637617234
    17   1      9.5401286879199461      6.8265911461909923      1.3805602045353851
    18   1      9.5823357373432145      6.8680253082239915      6.7016812523696672
    19   1      1.3953738795155459       4.115171095271819      6.8186052920980842
    20   1     0.12405914378582761      8.1650062750611028      8.1171002356618942
    21   1      2.6568755188410336      2.7086885007533539      5.3440626947398187
    22   1    0.014693078630242606      2.7802858748478627      8.1555947000643982
    23   1        9.59270384971461      4.1051657402901469      4.1203087522565056
    24   1      4.0517086692063344      9.5355543107461358      9.4858461653160475
    25   1      9.5438860497920359      1.3524186835347152      6.7406487939405224
    26   1      4.1480214051177597      9.5946474246380831      4.0438477360392255
    27   1      9.5567149421667068      9.4557781851810887      4.0583311006233771
    28   1      5.3855854370656573      2.7048441809381103      2.6477629428914042
    29   1      1.3824294758432529      1.3901325543859429       9.381660166379902
    30   1      5.5433949601633685      8.1735755261009899      2.6217180655070536
    31   1      5.4531825835401264      8.2253485982110419      8.1404808903923822
    32   1      10.841355668354481      2.7242249325184957      2.6890759154028814
    33   1      2.7717357675342669      8.2149266238300811      5.4131949084869007
    34   1      4.0507213071876151      1.4010634598633089       1.249161479793635
    35   1      6.9081284945748394      4.0834191161630997      1.4250383812836702
    36   1      8.1515836027014643      8.2789886703394018      5.4420711105427415
    37   1      9.5450963226575709      1.3295799747167365      1.3222953001579896
    38   1      8.2565223718917764      10.862745375550674      8.1114174691828111
    39   1      10.847558235672864      10.848606922509703      5.3911724849132838
    40   1      10.880726201587265      10.880308284308228      10.835818913347111
    41   1      8.2131946033056238      5.5032366139232067      2.7841350617121634
    42   1      4.2325734036875815      6.8792065422578617      1.2292622252536987
    43   1      8.1850922620498636      5.4488437715406803      8.0236191488918962
    44   1      6.8744848557325895      1.3042022886406315      9.3860664681262733
    45   1       2.813294201553191      5.4772154228442673      8.0750002613178822
    46   1      6.8610070234836371      9.5308099113252638      1.2518565270915261
    47   1    0.096494986619243051      5.4553467980208552      5.3735742089325811
    48   1      1.3857492900051085      6.8984566946885479      4.0336330979480977
    49   1      8.2509985956818923      8.1262931179209659       10.78444753501924
    50   1      10.822941999421744      5.4829189553993274      10.831198461442227
    51   1    0.037756634974974279      8.1973578746136582      2.6819993883088102
    52   1      2.7358964406273856      8.1818839033114159      10.845215562726708
    53   1      6.7742541453301897      9.5328793805843475      6.7478701968615269
    54   1      1.4239848273977742      6.7671813496403956      9.5185423519418464
    55   1      1.3106478028244481       4.211008158255396      1.3135187939457538
    56   1      5.5302415978515569      2.7778834994332726      8.1063129081317129
    57   1      4.1277751299800514      1.4071751755992921      6.7553531225518668
    58   1      1.3707696486521002      9.5674899398392768      1.3285876645314758
    59   1       8.187006634678994      2.7430649549486361      5.3948646283280084
    60   1      6.8650609508782736      6.7944880906102867      9.4350283327009379
    61   1      6.7692404358614908       1.367038082140013      3.9784173998049823
    62   1      2.7701328860447916   0.0070561564658300213      8.0607287756026835
    63   1      1.3736963674851097      1.3494751733824586      3.9835287747247605
    64   1      5.6024277226470076      5.4437359657902107       10.85760512280649

Velocities

     1                       0                       0                       0
     2                       0                       0                       0
     3                       0                       0                       0
     4                       0                       0                       0
     5                       0                       0                       0
     6                       0                       0                       0
     7                       0                       0                       0
     8                       0                       0                       0
     9                       0                       0                       0
    10                       0                       0                       0
    11                       0                       0                       0
    12                       0                       0                       0
    13                       0                       0                       0
    14                       0                       0                       0
    15                       0                       0                       0
    16                       0                       0                       0
    17                       0                       0                       0
    18                       0                       0                       0
    19                       0                       0                       0
    20                       0                       0                       0
    21                       0                       0                       0
    22                       0                       0                       0
    23                       0                       0                       0
    24                       0                       0                       0
    25                       0                       0                       0
    26                       0                       0                       0
    27                       0                       0                       0
    28                       0                       0                       0
    29                       0                       0                       0
    30                       0                       0                       0
    31                       0                       0                       0
    32                       0                       0                       0
    33                       0                       0                       0
    34                       0                       0                       0
    35                       0                       0                       0
    36                       0                       0                       0
    37                       0                       0                       0
    38                       0                       0                       0
    39                       0                       0                       0
    40                       0                       0                       0
    41                       0                       0                       0
    42                       0                       0                       0
    43                       0                       0                       0
    44                       0                       0                       0
    45                       0                       0                       0
    46                       0                       0                       0
    47                       0                       0                       0
    48                       0                       0                       0
    49                       0                       0                       0
    50                       0                       0                       0
    51                       0                       0                       0
    52                       0                       0                       0
    53                       0                       0                       0
    54                       0                       0                       0
    55                       0                       0                       0
    56                       0                       0                       0
    57                       0                       0                       0
    58                       0                       0                       0
    59                       0                       0                       0
    60                       0                       0                       0
    61                       0                       0                       0
    62                       0                       0                       0
    63                       0                       0                       0
    64                       0                       0                       0
