(written by ASE)

8 atoms
1 atom types

0.0       5.443702220916748  xlo xhi
0.0       5.443702220916748  ylo yhi
0.0       5.443702220916748  zlo zhi

Atoms # atomic

     1   1       2.721851110458374       2.721851110458374       2.721851110458374
     2   1       1.360925555229187       4.082776665687561       4.082776665687561
     3   1       4.082776665687561       4.082776665687561       1.360925555229187
     4   1       1.360925555229187       1.360925555229187       1.360925555229187
     5   1       4.082776665687561       1.360925555229187       4.082776665687561
     6   1   0.0055118715853348932      2.6833777366017841   0.0026706645228295467
     7   1      5.4436045554656687       5.368138039605725      2.7059384558011175
     8   1      2.7212584661181864      5.3734700540827589      5.4416207462699901

Velocities

     1                       0                       0                       0
     2                       0                       0                       0
     3                       0                       0                       0
     4                       0                       0                       0
     5                       0                       0                       0
     6                       0                       0                       0
     7                       0                       0                       0
     8                       0                       0                       0
