(written by ASE)

8 atoms
1 atom types

0.0       5.443702220916748  xlo xhi
0.0       5.443702220916748  ylo yhi
0.0       5.443702220916748  zlo zhi

Atoms # atomic

     1   1       2.721851110458374       2.721851110458374       2.721851110458374
     2   1       1.360925555229187       4.082776665687561       4.082776665687561
     3   1       4.082776665687561       4.082776665687561       1.360925555229187
     4   1       1.360925555229187       1.360925555229187       1.360925555229187
     5   1       4.082776665687561       1.360925555229187       4.082776665687561
     6   1    0.012943207189399786    0.011020640426895878      2.6964444654403792
     7   1      2.7176712887281269      5.4388900072790136      5.4285316290057324
     8   1      5.4385778671994842      2.7142546202900348  0.00097751630484788771

Velocities

     1                       0                       0                       0
     2                       0                       0                       0
     3                       0                       0                       0
     4                       0                       0                       0
     5                       0                       0                       0
     6                       0                       0                       0
     7                       0                       0                       0
     8                       0                       0                       0
