(written by ASE)

8 atoms
1 atom types

0.0       5.443702220916748  xlo xhi
0.0       5.443702220916748  ylo yhi
0.0       5.443702220916748  zlo zhi

Atoms # atomic

     1   1       2.721851110458374       2.721851110458374       2.721851110458374
     2   1       1.360925555229187       4.082776665687561       4.082776665687561
     3   1       4.082776665687561       4.082776665687561       1.360925555229187
     4   1       1.360925555229187       1.360925555229187       1.360925555229187
     5   1       4.082776665687561       1.360925555229187       4.082776665687561
     6   1      2.7416213881982969   0.0019103246765454773      5.4417602683429607
     7   1     0.01207875210144016     0.01624365581934295      2.7240662667192339
     8   1    0.006692367996833759      2.7049937615791322      5.4398127997802419

Velocities

     1                       0                       0                       0
     2                       0                       0                       0
     3                       0                       0                       0
     4                       0                       0                       0
     5                       0                       0                       0
     6                       0                       0                       0
     7                       0                       0                       0
     8                       0                       0                       0
