(written by ASE)

8 atoms
1 atom types

0.0       5.443702220916748  xlo xhi
0.0       5.443702220916748  ylo yhi
0.0       5.443702220916748  zlo zhi

Atoms # atomic

     1   1       2.721851110458374       2.721851110458374       2.721851110458374
     2   1       1.360925555229187       1.360925555229187       1.360925555229187
     3   1       4.082776665687561       1.360925555229187       4.082776665687561
     4   1       1.360925555229187       4.082776665687561       4.082776665687561
     5   1       4.082776665687561       4.082776665687561       1.360925555229187
     6   1      5.0528950540674487      1.1164307248424379      3.4547122137518897
     7   1     0.85558114950907793      4.6220800950288208       2.863437461168985
     8   1     0.89031070811345359      5.3410198156693127      2.8596924291545065

Velocities

     1                       0                       0                       0
     2                       0                       0                       0
     3                       0                       0                       0
     4                       0                       0                       0
     5                       0                       0                       0
     6                       0                       0                       0
     7                       0                       0                       0
     8                       0                       0                       0
