(written by ASE)

216 atoms
1 atom types

0.0      16.331106185913086  xlo xhi
0.0      16.331106185913086  ylo yhi
0.0      16.331106185913086  zlo zhi

Atoms # atomic

     1   1       14.63631020000912      7.8313824878622427      15.524629366828663
     2   1      15.976883339288975      1.0166176789626959      8.7408022585478875
     3   1      10.546982605691255      11.918663001406458      14.142118813867796
     4   1      2.4164715348653942      1.0173460936709375       6.013433129737507
     5   1      3.7799000924976554      10.536937990140473      12.774726288246711
     6   1      5.0942009017343253      11.902412898489047      14.122993258451402
     7   1      1.0136743919694595      2.3809060616239037      1.8758292772317304
     8   1      9.1626722180416209      2.3597769855216484      4.6455826148135202
     9   1       1.062132799463015      15.960971982976048      15.496190226608519
    10   1      5.0772747657226205      14.608330509206553     0.51291042129709297
    11   1      14.669333126897413      13.260837399779348      10.099658953781841
    12   1       10.52332485432521      1.0191470234457114      8.7518436457164626
    13   1      2.3773825615618875       6.477411336329169      11.467689062810791
    14   1      6.4078578003995403      2.3816463397638756      12.821525883793811
    15   1      9.1925743931656143      5.1375521931251455      7.3677454613995224
    16   1      5.0744684253182299      1.0139325889144004      14.141928998960111
    17   1      6.4649706725975307      13.295261063345379       7.364281582686715
    18   1      5.0950730768998937      3.7706955295896023     0.54770008694153205
    19   1      15.975994616157095       9.182933742674777     0.51629873907549495
    20   1      11.923804551880266      15.991433868725267      10.072084201449002
    21   1      3.7585276639496499      10.543688586985581      1.9151483402726939
    22   1      10.554453525775784      3.7420721715680259      5.9754798822983162
    23   1      5.0630109054674222       14.63151518341806      5.9863518961646491
    24   1      2.3609088177468323      9.1679519927046158      3.2663049990944444
    25   1      5.0733636052145243      11.903237376575248      8.7169965488948264
    26   1      11.905616390084901      7.8125251068410648      7.3424630891056495
    27   1      5.1158081653924796      9.1848309183418451      6.0309841948298981
    28   1      7.8115852796955778       6.490160084257127     0.52388306139974361
    29   1      3.7122215871625315       2.414286229902558      15.506337050186517
    30   1      7.8346112881124554      14.622727239897131      3.2725155968624335
    31   1      6.4835881081071989      2.3930700336247241      7.3728860384635482
    32   1      1.0254496084381941       13.27496936300895      12.798668275269392
    33   1      10.576684258399951      6.4614157800700127      8.7059512680871194
    34   1      15.972313180357787      11.890869231872443      3.2796757558737397
    35   1      11.866365587404971      13.257417811211667      1.8932337224755571
    36   1      5.0739359701669287      3.7516325157517656      6.0027918139897452
    37   1      7.8585508416106791      14.619631796787189      8.7523011483144728
    38   1      10.551400912696295      1.0084167015409164      3.2415665195168231
    39   1        13.2629759810726      14.607983001914022      8.7518806352882166
    40   1      13.264726171862435      9.2326185248186903      3.2028839447977191
    41   1      11.902742884405484      2.3713016706474832      12.790228812450778
    42   1      14.623957629862844      5.1160427571501828      1.8926512583966542
    43   1      14.606786681290714      5.1151345658226433      12.825109978614819
    44   1      7.8333151929863902      6.4830614934145956      11.439539025296199
    45   1      16.005103462307943      11.915446855483424      8.7421173351647212
    46   1     0.99805718792533327      10.538804990104268      4.6455354044390447
    47   1      3.7302211508124401      10.524529935636565      7.3427113086003146
    48   1      13.277358110616433      6.4648110333931186     0.52922957547098548
    49   1      5.0759197793046837      9.1996140927162742     0.54472881441703436
    50   1      14.621400482362901      2.3555149107867805      15.521071554071796
    51   1      10.523038671849008      9.2282897715136869     0.52100797392942866
    52   1      6.4438549808797916      10.560167441201997      15.537745090244812
    53   1      5.1054179893687319      3.7468360390460305      11.463372963832967
    54   1       3.701333512034779       15.95266782411727      7.3876103215461058
    55   1      5.1174172117637795      9.1671323816673294      11.446260419847818
    56   1      13.286014643816657      9.1817422891003844      14.189173442778042
    57   1      16.005930860623494      1.0052882841745756       14.15047359003529
    58   1      1.0121455910671457      7.8549078554977996      12.779370426321407
    59   1       11.91246432790831      7.8443264044516923      1.8894136974583944
    60   1     0.99805791798267052      15.993752530828374       10.05433504746577
    61   1      13.287049378415986      11.908415916620811      0.5342596096865293
    62   1       3.756396626582216      7.8468665172804322      4.6172977600439822
    63   1      7.7995519879581252      11.910229379046541      11.408404513386927
    64   1      3.7248369779502184      13.234999210499382      15.515526038538042
    65   1      15.990041892735576      6.4433721696274233      3.2412725497623569
    66   1       9.182818880320383      7.7921341187067696       4.619708409371583
    67   1      16.028293976978148      6.4938196183363175      8.7233237124843299
    68   1       2.368615789703739      14.633985697447315      14.145496545814808
    69   1      16.002596932116717      6.4837238987719275      14.165943991716517
    70   1      9.1943975896891743      5.1282327678626984       12.78954839901246
    71   1      7.8425883812841448      3.7599237769309184      8.7152765338082645
    72   1      2.3699427905904145      3.7421609952107246      3.2217019027226854
    73   1      7.8295125676690986      9.1943362648728453      14.129335996597433
    74   1      1.0250767924913049      2.4084306833529183      12.818658218573091
    75   1      3.7376881772578372      13.271997542941449      10.093003751095466
    76   1      14.652424998966694      10.574259494630496      7.3590066750726351
    77   1      14.647489811366881      7.8167774474781027      10.060927951926033
    78   1      10.553116060733942      6.4859296453402067      3.2105179110209008
    79   1      6.4635456006752179      10.547846020168777      10.118509034229646
    80   1      13.294421984112432      11.937334947863974      5.9967313646807838
    81   1      7.8212123024494531      3.7265917924365226      14.161308614329869
    82   1      13.256431747101487       1.018124273954335     0.53902104364007641
    83   1       10.51416020121826      6.4836061161881844      14.172033643318969
    84   1      7.7888201451005443      9.1864000549120419      8.7206283407952014
    85   1      3.7403463160227659      13.212312922096771      4.6258272632675244
    86   1      6.4578112436435617      13.272273017910038      12.753625684380609
    87   1      13.255552758067438      3.7321292773395669      14.170600784118392
    88   1      3.7439138628774629      7.8196709080580717      10.074988856241475
    89   1      16.006533401279171      3.7218860861930523      6.0053927649299226
    90   1      3.7380811914577237      5.1310756111339515      12.813733738480892
    91   1      9.1533342979932968      10.530657550220553      1.8805145418697577
    92   1       9.151863475811183      15.999997927996105      12.780295165615257
    93   1        5.12933953478597      6.4916372336028303      8.7243691545912725
    94   1      14.617729754071206      7.8495448542983581       4.614239793210686
    95   1      9.1800981999768965      2.3777225249286005      15.498796044597611
    96   1       3.729652436146722      2.3874792545360606      10.108289204917924
    97   1      10.550196804794723      3.7354887578531475      11.478604880117359
    98   1      1.0347041802738488      2.3789589987054569      7.4093718706548657
    99   1      11.911729403522145      13.263150221423757      12.805260206319872
   100   1      2.3845037841818737      11.916347259532699     0.53654681848602337
   101   1      14.614974030975532      13.277290945341406      15.508983751386495
   102   1      1.0169213219768807      5.1052315813952873      15.516046812771947
   103   1      14.648879840537006      15.961290287975089      7.3625591340756955
   104   1        11.9109818248088      10.558619719647027      4.6155427022052322
   105   1      16.040558940243955      3.7384428131921084      0.5311144010014317
   106   1      10.537992192935462      11.895485141063432      3.2790398759329946
   107   1      1.0309817395874319      10.543346920151748      15.481326259222101
   108   1      10.532578087722413        14.6116547036155     0.51069926013689582
   109   1      14.643698380262094      15.967525951044991      12.829893314288483
   110   1      14.648395082465072      15.966419184121719      1.8634910648797529
   111   1      14.643559182663125      2.3815531357771533      10.148569875148269
   112   1      6.4459848014849968      7.8471823887550158      1.9068720452689547
   113   1      9.1908368567029584      7.8580174130495948      15.540560191337249
   114   1       11.89911790637359      5.1166618457721711      15.504398991308562
   115   1      15.997570243997302      14.592460036104512      6.0339156183914042
   116   1      5.0976122163188506      11.902299009544436      3.2357905492169436
   117   1      6.4382549543981895      7.8125820513133704       12.80684589085638
   118   1      6.4369603193867988      7.8230413394317111      7.3781361241281616
   119   1       11.87542608566514      5.1145115835615229      10.062637259504982
   120   1      1.0359982069041251      16.013262583109054      4.6273847189203252
   121   1      2.3952246761793958       6.497466498088329      5.9808107609749186
   122   1      6.4487181361556623      5.0972199321763014      15.516863503579884
   123   1      15.986550271843953       9.191923182020787      11.473182014216263
   124   1      13.240443491415704      14.627144573492387      14.155754338108068
   125   1      13.268588661881381      6.4963650849188639      5.9559221329382694
   126   1      11.947090460709205      2.3622669677465638      7.3770244901559749
   127   1      7.8206944484448968      6.4872987461999969      6.0060600373361694
   128   1      11.912674584421438      7.8548329029445085      12.786344907416606
   129   1       11.89283746645367      5.0842468132933618      4.6301647772605747
   130   1      2.4061329495601456      9.1977062095415931      14.150385009745037
   131   1      7.8136596159431519      1.0149270486839583     0.51133812114510135
   132   1      10.522816734418484      1.0119585138744753      14.140859221608594
   133   1      6.4338186393121646      15.970464675179869      15.492147655779718
   134   1      6.4462982394351229      2.3657172187224091      1.8832795123583708
   135   1       7.787339102115709      14.612528825600634      14.139940322773441
   136   1      2.3735633882782849      11.893991930456309      11.421532891130255
   137   1      15.969902044325295      3.7743959468796788      11.451140123089999
   138   1      10.548792174477853      3.7441686528881633     0.52254729982502113
   139   1      16.001497952471709      9.1808652468859009      6.0054156400598231
   140   1      2.3821902324801272      11.895270990911172      5.9906436598978985
   141   1      2.3750750936712848       3.794317508146122      14.136086593442542
   142   1      9.1371464933019979      15.995205831634394      7.3940173047378153
   143   1      11.898271039862379      10.554855544016164      10.093199406461849
   144   1      6.4553309955164764      13.271258724916152      1.8920018723951699
   145   1      9.1730127501664356      13.244633047121738      10.101159951667228
   146   1      2.3806602756536961      3.7623704424204902      8.7423655546593864
   147   1      3.7021258675981414      2.3783277424611811      4.6350469140272139
   148   1      9.1584505398127476      10.526779485645079      7.3745262339479041
   149   1      3.6912441196339785      5.1066289111387846      1.9228828110559704
   150   1      5.0806232953761423      6.4886634667157637      14.157055786987939
   151   1      9.1593791727457301      15.953746362156835      1.8722400720093617
   152   1      10.556347781213503      14.616179112286886      11.460105227191434
   153   1      2.3855302447980478       1.030330041737713      11.460079918537076
   154   1      5.0583015489372656      1.0068794441411129      3.2548730312504404
   155   1      10.520691780862194      9.1879059198463437       11.45496854376654
   156   1      2.3651370664917408      14.623885597538901      3.2851280674207715
   157   1      11.926555407927026      10.546564039484565      15.514422191844119
   158   1      13.243306289587508      11.921446953385839      11.443410276003192
   159   1      1.0178164331104611      10.517299447768437      10.077553791019682
   160   1      16.022251049045281      14.618644759267227     0.51501767096295481
   161   1      2.3888213432743726      1.0142833206268378     0.52794035505151271
   162   1     0.98897910745095885      7.8580728974072258      1.8712082576393811
   163   1      6.4621876940279321      10.575820843922429      4.6230841944990289
   164   1      9.1714621083821157      10.573263696422487      12.765933477676867
   165   1      14.598524379052606      10.551233486213619      12.824431511996067
   166   1      5.0507488624309644      1.0179750380669788      8.7120292387721747
   167   1      14.642390117513742      10.561658704989554      1.8880375393776774
   168   1      10.554519717641028      11.888090146941977      8.7329624161556012
   169   1      2.3576398643430707       9.166474356654021      8.7349433050640073
   170   1      3.7423785522972253       7.831008211800679      15.535845967758178
   171   1      7.8344438616297793      3.7471772191749722      3.2147539470440734
   172   1      13.254636779461634      6.4706914018922248      11.443858044503372
   173   1      7.7923492422688128      1.0377482760177372       11.42566112201996
   174   1      5.0632182417512013      14.636730713035377      11.424888234652258
   175   1      14.638795315185121      2.3273342108640236      4.6381413837273726
   176   1      3.7317459972375104      15.997553696030991      12.776246754327758
   177   1       1.021558889535541      13.223509081420843      7.4136967303207371
   178   1      10.536103777956441      14.616816695694752      6.0113256975573108
   179   1      9.1886223494466321      2.3993787024283506       10.13028631919417
   180   1      7.8230252781702916       11.90641069246783     0.50945432986254957
   181   1      11.904588469354053      15.981038825652604       4.643367134147411
   182   1      9.1881667936681879      13.254352543804998      4.6317168791595691
   183   1      7.8416305460576723      1.0449325269211727      5.9772836106262162
   184   1      9.1983944102581745      7.8298128645871543       10.06913476980651
   185   1      3.7328442468251808      5.1508596782685458      7.3400767750226237
   186   1      9.1603292206939386      5.0723994428244623      1.8726496341755592
   187   1      15.972718118827515      11.932500994881593      14.134159242072201
   188   1      2.3838754481669469      14.583610767767254      8.7200287203688731
   189   1      7.8000601078648515      9.1941873331760462       3.259613536893653
   190   1      6.4477374257992892      15.989852077827891      10.077707589765396
   191   1      6.4783020062806145      15.989250510581996      4.6341640313540324
   192   1      6.4423700442558243      5.0997021271229528      10.107696398360076
   193   1      2.3953714177041832      6.4669213858026637     0.53342515415005209
   194   1      13.269468624325214      1.0007388710393883      11.429672543735705
   195   1      14.623515701821361      13.272323635218754       4.611439779969885
   196   1      13.288373215720867       3.679375334149853       3.246063186009394
   197   1      3.6758839566106758      15.988126222282631      1.8894663832628993
   198   1      16.031952050942664     0.97208691910543621      3.2372421465558432
   199   1     0.99927461937330975      5.1269955640285048      10.073962882330193
   200   1      1.0063785031315362      7.8170782311010498      7.3891901656239156
   201   1      15.977682508720818      14.635439971663118      11.443180551294404
   202   1      14.633166086410029      5.1059071277846897      7.3757780389288428
   203   1      10.541502308612962      9.2313842412138456      5.9646983955418023
   204   1      1.0306232814348419      13.264352382505763      1.9082679148977775
   205   1      13.276970693522799      14.610599527410727      3.2481752418860594
   206   1      6.4356204208204986      5.1185716757664181      4.6392870870419642
   207   1      5.0848074973283701       6.471930065841093       3.226432674268068
   208   1      13.244788792687018      9.1872887780439214      8.7228516087395747
   209   1      13.278808491193104     0.98213311644711609         6.0144527764852
   210   1       11.88447392959813      15.998784085996704       15.51655395926889
   211   1      1.0160786532953594      5.1211930683120386      4.6335751184353171
   212   1      9.1832442603955542      13.254458645471345      15.503629024170209
   213   1      11.914741133390748      2.3580474796897022      1.8924614434889691
   214   1      11.926150469457298      13.268657773975974      7.3922968029463618
   215   1      13.272433630524233      3.7194425842852752      8.7296411419760034
   216   1      7.8123440526214267      11.894414390302131      6.0420538108821802

Velocities

     1                       0                       0                       0
     2                       0                       0                       0
     3                       0                       0                       0
     4                       0                       0                       0
     5                       0                       0                       0
     6                       0                       0                       0
     7                       0                       0                       0
     8                       0                       0                       0
     9                       0                       0                       0
    10                       0                       0                       0
    11                       0                       0                       0
    12                       0                       0                       0
    13                       0                       0                       0
    14                       0                       0                       0
    15                       0                       0                       0
    16                       0                       0                       0
    17                       0                       0                       0
    18                       0                       0                       0
    19                       0                       0                       0
    20                       0                       0                       0
    21                       0                       0                       0
    22                       0                       0                       0
    23                       0                       0                       0
    24                       0                       0                       0
    25                       0                       0                       0
    26                       0                       0                       0
    27                       0                       0                       0
    28                       0                       0                       0
    29                       0                       0                       0
    30                       0                       0                       0
    31                       0                       0                       0
    32                       0                       0                       0
    33                       0                       0                       0
    34                       0                       0                       0
    35                       0                       0                       0
    36                       0                       0                       0
    37                       0                       0                       0
    38                       0                       0                       0
    39                       0                       0                       0
    40                       0                       0                       0
    41                       0                       0                       0
    42                       0                       0                       0
    43                       0                       0                       0
    44                       0                       0                       0
    45                       0                       0                       0
    46                       0                       0                       0
    47                       0                       0                       0
    48                       0                       0                       0
    49                       0                       0                       0
    50                       0                       0                       0
    51                       0                       0                       0
    52                       0                       0                       0
    53                       0                       0                       0
    54                       0                       0                       0
    55                       0                       0                       0
    56                       0                       0                       0
    57                       0                       0                       0
    58                       0                       0                       0
    59                       0                       0                       0
    60                       0                       0                       0
    61                       0                       0                       0
    62                       0                       0                       0
    63                       0                       0                       0
    64                       0                       0                       0
    65                       0                       0                       0
    66                       0                       0                       0
    67                       0                       0                       0
    68                       0                       0                       0
    69                       0                       0                       0
    70                       0                       0                       0
    71                       0                       0                       0
    72                       0                       0                       0
    73                       0                       0                       0
    74                       0                       0                       0
    75                       0                       0                       0
    76                       0                       0                       0
    77                       0                       0                       0
    78                       0                       0                       0
    79                       0                       0                       0
    80                       0                       0                       0
    81                       0                       0                       0
    82                       0                       0                       0
    83                       0                       0                       0
    84                       0                       0                       0
    85                       0                       0                       0
    86                       0                       0                       0
    87                       0                       0                       0
    88                       0                       0                       0
    89                       0                       0                       0
    90                       0                       0                       0
    91                       0                       0                       0
    92                       0                       0                       0
    93                       0                       0                       0
    94                       0                       0                       0
    95                       0                       0                       0
    96                       0                       0                       0
    97                       0                       0                       0
    98                       0                       0                       0
    99                       0                       0                       0
   100                       0                       0                       0
   101                       0                       0                       0
   102                       0                       0                       0
   103                       0                       0                       0
   104                       0                       0                       0
   105                       0                       0                       0
   106                       0                       0                       0
   107                       0                       0                       0
   108                       0                       0                       0
   109                       0                       0                       0
   110                       0                       0                       0
   111                       0                       0                       0
   112                       0                       0                       0
   113                       0                       0                       0
   114                       0                       0                       0
   115                       0                       0                       0
   116                       0                       0                       0
   117                       0                       0                       0
   118                       0                       0                       0
   119                       0                       0                       0
   120                       0                       0                       0
   121                       0                       0                       0
   122                       0                       0                       0
   123                       0                       0                       0
   124                       0                       0                       0
   125                       0                       0                       0
   126                       0                       0                       0
   127                       0                       0                       0
   128                       0                       0                       0
   129                       0                       0                       0
   130                       0                       0                       0
   131                       0                       0                       0
   132                       0                       0                       0
   133                       0                       0                       0
   134                       0                       0                       0
   135                       0                       0                       0
   136                       0                       0                       0
   137                       0                       0                       0
   138                       0                       0                       0
   139                       0                       0                       0
   140                       0                       0                       0
   141                       0                       0                       0
   142                       0                       0                       0
   143                       0                       0                       0
   144                       0                       0                       0
   145                       0                       0                       0
   146                       0                       0                       0
   147                       0                       0                       0
   148                       0                       0                       0
   149                       0                       0                       0
   150                       0                       0                       0
   151                       0                       0                       0
   152                       0                       0                       0
   153                       0                       0                       0
   154                       0                       0                       0
   155                       0                       0                       0
   156                       0                       0                       0
   157                       0                       0                       0
   158                       0                       0                       0
   159                       0                       0                       0
   160                       0                       0                       0
   161                       0                       0                       0
   162                       0                       0                       0
   163                       0                       0                       0
   164                       0                       0                       0
   165                       0                       0                       0
   166                       0                       0                       0
   167                       0                       0                       0
   168                       0                       0                       0
   169                       0                       0                       0
   170                       0                       0                       0
   171                       0                       0                       0
   172                       0                       0                       0
   173                       0                       0                       0
   174                       0                       0                       0
   175                       0                       0                       0
   176                       0                       0                       0
   177                       0                       0                       0
   178                       0                       0                       0
   179                       0                       0                       0
   180                       0                       0                       0
   181                       0                       0                       0
   182                       0                       0                       0
   183                       0                       0                       0
   184                       0                       0                       0
   185                       0                       0                       0
   186                       0                       0                       0
   187                       0                       0                       0
   188                       0                       0                       0
   189                       0                       0                       0
   190                       0                       0                       0
   191                       0                       0                       0
   192                       0                       0                       0
   193                       0                       0                       0
   194                       0                       0                       0
   195                       0                       0                       0
   196                       0                       0                       0
   197                       0                       0                       0
   198                       0                       0                       0
   199                       0                       0                       0
   200                       0                       0                       0
   201                       0                       0                       0
   202                       0                       0                       0
   203                       0                       0                       0
   204                       0                       0                       0
   205                       0                       0                       0
   206                       0                       0                       0
   207                       0                       0                       0
   208                       0                       0                       0
   209                       0                       0                       0
   210                       0                       0                       0
   211                       0                       0                       0
   212                       0                       0                       0
   213                       0                       0                       0
   214                       0                       0                       0
   215                       0                       0                       0
   216                       0                       0                       0
