(written by ASE)

64 atoms
1 atom types

0.0      10.887404441833496  xlo xhi
0.0      10.887404441833496  ylo yhi
0.0      10.887404441833496  zlo zhi

Atoms # atomic

     1   1       1.977569801022284    0.069708893152393703      5.6056049322714898
     2   1      8.6976301662763831      6.8238694923582557      6.9612675851202539
     3   1      9.9902444166994542      2.7172536959190268      5.5829718562761741
     4   1      3.3315336915151477      1.4023709114750176      1.5042491179832496
     5   1     0.59334393793079343      1.4156970540283567      4.2021449374524593
     6   1      4.6709141184482519       2.638264409951546      5.5841938100594462
     7   1      1.9113346171089631      5.4362008004399911     0.22445501952591762
     8   1      4.5801647440790418       8.158139193311456     0.21135373463901708
     9   1      4.6291347204021349      5.4581943461892024      2.9020928626603109
    10   1      7.3937022980850884      10.820449421364629       5.578065870826606
    11   1      7.3006293944960134      2.7056563291907736      2.8315664015933351
    12   1       3.294499341829777      1.3797504898072503      6.9818577983913315
    13   1     0.59645422563074035      6.7820362323025734       9.675718834192196
    14   1      8.6986379699011422      4.1159913552729108      4.2308138032184672
    15   1     0.66854499682341384       9.606812451521364      6.9268549525269805
    16   1      0.4907957010023658      1.3497112252617285      9.7974119330567078
    17   1      7.3243169977870366      5.4600808144037387     0.10996079320115015
    18   1      7.2941886662437696   0.0059358676058507975     0.17519774535285748
    19   1      10.155127708896771     0.01469990390606879      2.9105771025766671
    20   1      4.6575459570380531      8.2355473372752499      5.6301497851364388
    21   1      4.5679390413175156      5.4860747500079583      8.3238401497503673
    22   1      3.3289460437664502      4.0692530831774718      4.2441443261159577
    23   1       4.657469706602825        2.77059720252484     0.11403440172541135
    24   1      3.2954133736427025      6.8043974024905651      6.9043010471963271
    25   1      10.064940640928626      5.4168507112686655      8.3207771535437587
    26   1      10.086548391922577      5.5051756462675598      2.9388458969101805
    27   1      0.5362813974642151      4.1339906760959195      1.5556396400374126
    28   1      8.7860573093054768      9.5668345105662524      9.7186312812588085
    29   1      4.6196099053973683      10.886042965977254      2.8838544074936294
    30   1      1.9568580737597472    0.016441294767421732     0.20692853251880727
    31   1      10.132808719800607      8.1069203158540404     0.14002975688560593
    32   1       7.334982324620853      5.4424773469040417       5.636365331252307
    33   1      6.0377411328941548      1.3060872156229664      4.2318378303400834
    34   1      8.6401678382885052      4.0441829134842919      9.7853364598760777
    35   1       6.002085131501758      4.1168314079401682      1.4958078703335644
    36   1      7.4036155036046125      2.6359519127095439       8.347651051617504
    37   1      5.9688211224859629       9.457747717699533      1.6049819456133747
    38   1     0.54391946034325045      6.7908475379155675        4.37805242023407
    39   1      1.8835257589113468      8.1341628117763776      3.0054482185573761
    40   1      8.6486345568282559      6.7903303328357651      1.5432924232844272
    41   1      1.8499807589299877      2.6712769547660571      8.3372511411922687
    42   1        8.76424708907075      1.2908742803851538      7.0184748797375391
    43   1      1.9766640431927556      2.8104025254733926      2.9059589219613429
    44   1     0.57794463527283568      9.4401484683090189      1.5434811025528745
    45   1      3.2400902759503936      4.1119004383054403      9.6630898152988038
    46   1      8.7604241842713577      1.2869190729688924      1.5288095454051813
    47   1      3.2309259470457903      9.5379229412872633      9.7238085235758263
    48   1      1.9027191291030334      5.3531715392851709      5.6481053025179335
    49   1      4.5736085045291759    0.016234734163532272      8.3947712248289577
    50   1      3.1833112816501341      6.7884146623268862      1.6018988322706633
    51   1      10.154553397108032      10.861148334520067       8.350067054769454
    52   1      7.4071639068371837       8.174108305737775      8.4044852058070774
    53   1      5.9188099221345851       6.747898101276121      9.7150991015230943
    54   1       5.990977876613556      9.5986870753554854      6.9939176970149788
    55   1      7.3700958122783504      8.1683327408566697      2.9321747950025667
    56   1      6.0162106057452434      6.7790258002257815      4.3165312978024986
    57   1      5.9480122164772524      3.9672170220448209      7.0653750623316114
    58   1      8.7310395378240173      9.5319092154722966      4.1827549384788654
    59   1      3.3063532020433399      9.5445654898404086      4.2622624029359599
    60   1      10.082638529180031      8.2426947610505863      5.6541573157854828
    61   1      9.9995028418858283      2.7153659298247419     0.23769838168654367
    62   1     0.50678655291447328      4.0035106068636992      6.9758505619751077
    63   1      5.9430588584168618      1.2875266429261885      9.6540663063469196
    64   1      1.9875741825941446        8.11268744451678      8.2778900151322432

Velocities

     1                       0                       0                       0
     2                       0                       0                       0
     3                       0                       0                       0
     4                       0                       0                       0
     5                       0                       0                       0
     6                       0                       0                       0
     7                       0                       0                       0
     8                       0                       0                       0
     9                       0                       0                       0
    10                       0                       0                       0
    11                       0                       0                       0
    12                       0                       0                       0
    13                       0                       0                       0
    14                       0                       0                       0
    15                       0                       0                       0
    16                       0                       0                       0
    17                       0                       0                       0
    18                       0                       0                       0
    19                       0                       0                       0
    20                       0                       0                       0
    21                       0                       0                       0
    22                       0                       0                       0
    23                       0                       0                       0
    24                       0                       0                       0
    25                       0                       0                       0
    26                       0                       0                       0
    27                       0                       0                       0
    28                       0                       0                       0
    29                       0                       0                       0
    30                       0                       0                       0
    31                       0                       0                       0
    32                       0                       0                       0
    33                       0                       0                       0
    34                       0                       0                       0
    35                       0                       0                       0
    36                       0                       0                       0
    37                       0                       0                       0
    38                       0                       0                       0
    39                       0                       0                       0
    40                       0                       0                       0
    41                       0                       0                       0
    42                       0                       0                       0
    43                       0                       0                       0
    44                       0                       0                       0
    45                       0                       0                       0
    46                       0                       0                       0
    47                       0                       0                       0
    48                       0                       0                       0
    49                       0                       0                       0
    50                       0                       0                       0
    51                       0                       0                       0
    52                       0                       0                       0
    53                       0                       0                       0
    54                       0                       0                       0
    55                       0                       0                       0
    56                       0                       0                       0
    57                       0                       0                       0
    58                       0                       0                       0
    59                       0                       0                       0
    60                       0                       0                       0
    61                       0                       0                       0
    62                       0                       0                       0
    63                       0                       0                       0
    64                       0                       0                       0
