(written by ASE)

64 atoms
1 atom types

0.0      10.887404441833496  xlo xhi
0.0      10.887404441833496  ylo yhi
0.0      10.887404441833496  zlo zhi

Atoms # atomic

     1   1      1.0690135805210161       2.124581775786794       4.200375927355168
     2   1      3.7898588341742538      7.5130838731174094      6.7666764744182046
     3   1       6.466590453053584      2.0788758047963682      4.1401202376784454
     4   1      2.3003325395887657      6.1349218258874316    0.094557049360927792
     5   1      7.7873810238780834      8.9794718920154537      8.2205957625718042
     6   1      3.6968900854350011      2.2247041132301888      1.4229027201574098
     7   1      3.7371035915644768      4.8532931541261348      4.1254733402459749
     8   1      2.4230357133675966     0.72132700820300499      5.5383364738433443
     9   1      2.4934359556290246      8.8900382432413494      2.8041013192941193
    10   1      6.5568690215440029      7.5913297984589008        4.04096482064773
    11   1      5.0923651995709349     0.85976478376108645      2.6729182859430836
    12   1      10.605562067154551      8.9756119976432274    0.061626225341991248
    13   1      1.0070939278891515       4.850218152531852      6.8682745011357156
    14   1      9.1885097021987576      2.1129130256723698      6.8237604704593764
    15   1      7.8365142085795583      8.9600556109769514      2.6774349074680828
    16   1      3.6889730189687668      4.8738369681962013      9.5995099311160743
    17   1      1.0045373481369353      2.1576008100000479      9.5535013919092648
    18   1      9.2362197617559332      10.250166900304919      9.5491690693085616
    19   1      6.4241011147850031      10.255562186419695       6.834935864034378
    20   1       7.805571457494068     0.74573063552781349      5.4875024177313776
    21   1      7.7960586478769756      3.4941327153549935       8.130551461376001
    22   1      9.1968161325895608      2.1207507592389732       1.386135409230306
    23   1       1.015590741015572      4.8396050653579152      1.4811196029841085
    24   1      3.7559468586939886      2.1575172589912341      6.8552470331595146
    25   1      6.4952366059239921      7.6041995740456514      9.6497910904551532
    26   1      2.3222084649857635     0.78274186673016288    0.045678614118850547
    27   1      5.1406696880529523      6.2163021308217026      8.2126910259631813
    28   1      2.3557768268025967      3.5215361483661525      2.8080854856522706
    29   1      3.6553264598970827       10.23201215838202      9.5409074157690839
    30   1      10.546555911205758      6.2095856031228891      2.7733253457563194
    31   1      3.8466128442893535      10.343153494890714      4.2367227252437374
    32   1      6.4326087165368335      4.8628088839726615      1.3527338249611631
    33   1      9.2032218180885934      4.8460250275341821      4.1551688288930961
    34   1      6.4795153885296486      2.0953207523855042      9.4798071308459839
    35   1      2.4466146192296776      8.8337219430714526      8.1658129073248347
    36   1       10.58535018583018      3.4622915070135605       5.503705148512438
    37   1      1.0644327139484631      7.5730543537193853      9.5993489940272525
    38   1      10.503100950404246      3.4855284215618951    0.051317207057897551
    39   1      5.0375281578444628     0.68387790482048416      8.2588306510245957
    40   1      1.0511033266957526      10.281202449792431      6.8827659774682957
    41   1      5.1024867147901034      3.5378209700413095   0.0061453446367924491
    42   1      10.671139388270319     0.81761443545933332      2.7791466608985615
    43   1      9.1595299942329689      10.407289520545703      4.0836163938848813
    44   1      7.8928369981481978      6.2000935595817737    0.070434058112689435
    45   1      7.8018381063973266       6.235262207128585      5.4528944542359454
    46   1      10.519967546676696       6.261907029426709      8.1927043267751856
    47   1      2.3209899181368314      6.2087419812863232       5.542679179482036
    48   1        1.02029076917254      10.270565676313083      1.4598629284621438
    49   1      6.4164319433507444      10.316056361500216      1.3608341358243976
    50   1      9.1741389286827939      7.6099264684361856      6.8445791105662011
    51   1      2.4328179952674844      3.5017013011087386      8.2012755246346956
    52   1      10.480055797588761       9.024843821205593      5.4633002051200492
    53   1      9.2974751433089864      7.6386388131737704      1.4138044208850147
    54   1      7.9340278077283415     0.68208772305979437      10.846794433440834
    55   1      6.4994365447903419      4.8628981132053752      6.8176623824607532
    56   1      3.7272643651906208      7.4841437504839519       1.433901926556544
    57   1      10.578045069665393     0.78886461444400879      8.1451143210947521
    58   1      5.1694644481545708      8.8788764774037077      5.4853167882347975
    59   1      5.1175518539715483      6.1952193721860453        2.77388700321751
    60   1      5.0807430108924905      3.5373514620422668      5.4472564646081878
    61   1       9.209915632891807      4.7959473108456905      9.5327048157581658
    62   1      7.7780654919827725      3.5041971238652252      2.7274732010592118
    63   1     0.98853221954759363      7.5911526378732219      4.1772249973401756
    64   1      5.0648666968681937      8.8852769713837461    0.074024105033755561

Velocities

     1                       0                       0                       0
     2                       0                       0                       0
     3                       0                       0                       0
     4                       0                       0                       0
     5                       0                       0                       0
     6                       0                       0                       0
     7                       0                       0                       0
     8                       0                       0                       0
     9                       0                       0                       0
    10                       0                       0                       0
    11                       0                       0                       0
    12                       0                       0                       0
    13                       0                       0                       0
    14                       0                       0                       0
    15                       0                       0                       0
    16                       0                       0                       0
    17                       0                       0                       0
    18                       0                       0                       0
    19                       0                       0                       0
    20                       0                       0                       0
    21                       0                       0                       0
    22                       0                       0                       0
    23                       0                       0                       0
    24                       0                       0                       0
    25                       0                       0                       0
    26                       0                       0                       0
    27                       0                       0                       0
    28                       0                       0                       0
    29                       0                       0                       0
    30                       0                       0                       0
    31                       0                       0                       0
    32                       0                       0                       0
    33                       0                       0                       0
    34                       0                       0                       0
    35                       0                       0                       0
    36                       0                       0                       0
    37                       0                       0                       0
    38                       0                       0                       0
    39                       0                       0                       0
    40                       0                       0                       0
    41                       0                       0                       0
    42                       0                       0                       0
    43                       0                       0                       0
    44                       0                       0                       0
    45                       0                       0                       0
    46                       0                       0                       0
    47                       0                       0                       0
    48                       0                       0                       0
    49                       0                       0                       0
    50                       0                       0                       0
    51                       0                       0                       0
    52                       0                       0                       0
    53                       0                       0                       0
    54                       0                       0                       0
    55                       0                       0                       0
    56                       0                       0                       0
    57                       0                       0                       0
    58                       0                       0                       0
    59                       0                       0                       0
    60                       0                       0                       0
    61                       0                       0                       0
    62                       0                       0                       0
    63                       0                       0                       0
    64                       0                       0                       0
