(written by ASE)

8 atoms
1 atom types

0.0       5.443702220916748  xlo xhi
0.0       5.443702220916748  ylo yhi
0.0       5.443702220916748  zlo zhi

Atoms # atomic

     1   1       2.721851110458374       2.721851110458374       2.721851110458374
     2   1       4.082776665687561       4.082776665687561       4.082776665687561
     3   1       1.360925555229187       4.082776665687561       1.360925555229187
     4   1       4.082776665687561       1.360925555229187       1.360925555229187
     5   1       1.360925555229187       1.360925555229187       4.082776665687561
     6   1      2.8905955949076656      3.2527115075652944      1.8978368299588766
     7   1      3.0316556553802343      1.7185099207447081     0.89346561042975736
     8   1      2.9579769688739361      4.7478498341835689        1.84216054673999

Velocities

     1                       0                       0                       0
     2                       0                       0                       0
     3                       0                       0                       0
     4                       0                       0                       0
     5                       0                       0                       0
     6                       0                       0                       0
     7                       0                       0                       0
     8                       0                       0                       0
