(written by ASE)

216 atoms
1 atom types

0.0      16.331106185913086  xlo xhi
0.0      16.331106185913086  ylo yhi
0.0      16.331106185913086  zlo zhi

Atoms # atomic

     1   1       8.165553092956543       8.165553092956543       8.165553092956543
     2   1      9.5264782839793725      6.8046288753434965       6.804627415228822
     3   1      9.5264782839793725      9.5264782839793725      9.5264782839793725
     4   1       6.804627415228822      6.8046288753434965      9.5264782839793725
     5   1       6.804627415228822      9.5264782839793725       6.804627415228822
     6   1      7.1554418674977569      4.2147962217075019      6.8588356326343387
     7   1       1.712350701283043      15.061509220960716      12.391290440624971
     8   1      1.7169619867775623      15.087817567165871      6.9183922500925519
     9   1      9.9470575021008472      9.6661460398736381        15.1288263479139
    10   1      1.6753022382371512      1.5460723554460003      4.1295844160085267
    11   1      4.3910315762148571      4.2704197769375014      4.1901017889225614
    12   1      9.9046197557913729      1.5124476179593671      6.7995890461920112
    13   1      4.4016524503571759      12.446099251866599      6.8456352225670685
    14   1      4.4538320817749195      4.2335036976220977      15.113619740283866
    15   1      7.2263815389583783      15.133323501111363      1.4909963432189386
    16   1      15.353428974423878      15.085319797662692      15.044357740584246
    17   1      9.9260532658032616      15.131729055886808      15.111279663165533
    18   1      14.040883223025958     0.15541471242056026      8.2465427337217534
    19   1      1.6862870459620893      1.5291110550058846      15.132616805608905
    20   1      1.6860625533308848      12.426981483728468      4.1613832800946966
    21   1      9.8580060815128263      9.6711912227789298      4.1550979731258622
    22   1      5.8568747672886161     0.10985855661407662      5.4503768950880271
    23   1      11.305294135303029      5.5924757419153366      5.5022353012773806
    24   1      3.0640671924062417      13.800462687542222      5.4936498269913159
    25   1     0.41577525832803275      2.9212910957224096      8.3054398660519837
    26   1      3.0902713837646161      8.2893873653205219      11.055220295001277
    27   1      12.657815879669215      15.144818497238816      12.403515494089675
    28   1      11.307006363111327     0.14235572054332657      5.5233704611907797
    29   1      13.969374593547172      2.8541153565402055     0.10020538107704713
    30   1      3.0014633156223454       2.930692044054183      0.1803003898088047
    31   1      8.5407149574227788      0.1173186627242977       13.79611835968069
    32   1      12.701106332948598      1.5517924763595801      15.118112026432414
    33   1      15.339998839647819      4.3363697498504621      4.1525452059699433
    34   1      4.4706594166936497      12.385436354190006      12.408677486168926
    35   1      5.7723102790953362     0.15243645872277511      11.052496694428442
    36   1      12.615340170378204       15.10414164922679      6.9539499360557784
    37   1      14.041770972748054      13.763270646553337     0.13028029841370348
    38   1      11.275585668725853      8.2845923487294613      2.8131647370267103
    39   1      7.1766894562410926      6.9055758501846753      4.1197417829877168
    40   1      14.065982594280626      8.1903984042578486     0.20413475421235283
    41   1      15.370019770765339      7.0056048996004847      12.401179310610473
    42   1      4.4674690661298655      9.6822355301768539      15.133388719566824
    43   1      9.9494423560691985      4.2439819672312069      15.144692927376809
    44   1      13.961370244901559      11.093309819810088      2.8314487796857009
    45   1      8.5839635540814925      11.121858955335711      2.7936437338859719
    46   1     0.34001307144998094      2.9276924818078669      13.832981388162921
    47   1      9.9622534022232685      15.122972261478935      4.1988103995461756
    48   1      14.062017896234465      5.7295157781003923      2.7785076984652051
    49   1      3.0238332458454806    0.074345814805674593      13.803296283420536
    50   1     0.36151070483132486      13.759659296258405      2.8035060784548875
    51   1      4.5270870084044077      9.6357075159592114      9.6153661717238492
    52   1      7.2059662155795081      12.398608535373569      15.087745534841929
    53   1      14.024038366731133      8.2698782864496252      11.037580162913741
    54   1      1.7058905455819371      6.9937818643761602      15.169047640147483
    55   1      8.5488234609151732      13.790533907755616      5.5355045008407728
    56   1     0.35510262655360947     0.12736149876032066      5.5162971790026063
    57   1      15.375789170549183       15.10421952200943      9.6449344672922734
    58   1      11.313341313979095     0.17893382894016696     0.10910686372344625
    59   1      1.7057403971229093      12.339923606376033      15.114469527024426
    60   1      12.613530601591606      6.9162342006036397      9.6311548784041179
    61   1      7.1850091896563981      1.4639733925568379      4.1487605887336372
    62   1     0.37317966753843379       10.98658225097256      5.4888767121203728
    63   1      8.5418188041167014      8.3973901009737801      5.3865406815188521
    64   1      12.691377102167507      15.100433931363341      1.4603740882079705
    65   1      12.679686450673671      6.9393609569330579      4.2116769300578767
    66   1      3.0489776373026132      13.713365873798466     0.10471397944422378
    67   1      7.2060387346083417      9.7009133170930681      12.434501074302148
    68   1      11.331199489858022      13.746287566069327      13.745017266302511
    69   1      11.309849693087472      13.779259875648904      2.8502599237421862
    70   1      9.9858352276262394      12.394775247648113      1.4716106440380372
    71   1      7.1866031481760615       4.252319708727498      1.5003947363500316
    72   1      0.2494396334090716      8.2565338117344709      2.6957642166234734
    73   1      3.0820842774322443       11.05308658075694      8.2554630609731703
    74   1      14.024680817187914      13.767288882137564      11.025893405059037
    75   1      8.5871719127262622       5.555822483241343      13.862800823455359
    76   1      12.620149788116009      12.444241012590851      9.6588639612870111
    77   1      8.5021056317898456      5.3834564326214149      8.2958001889709294
    78   1       4.475668096732079      1.4790887430197159      1.4807168925580072
    79   1      12.632647396319953      9.6922129804526094      6.9112269806798849
    80   1      15.340173079998976      12.374491334589948      12.367332879045762
    81   1      8.5524649869133782      5.5902018566622473      2.8149159012263283
    82   1      11.247277938826414      5.6365726651999353      11.093550252026489
    83   1      1.7007245381873304      4.2828546002104417      12.408250159274189
    84   1       3.071956678697461      11.049453815446782      13.744676572878461
    85   1       8.544763368710278      2.8523707628566228      11.068478136245744
    86   1      3.1139060166483148      8.3587272378027819     0.13653574907934996
    87   1      1.7546973121015839      4.3122798045407649      6.8749664928533321
    88   1     0.33411417774594199      2.8723811477657648      2.8496349946614998
    89   1      4.3951189238936763      12.422586538558221      1.4665063264884282
    90   1     0.40052825419200389      13.716755286662874      13.743724578110687
    91   1      1.7287661621873411      9.6947224308731847      6.8726906607806768
    92   1      4.2101413761251933      3.9555728161504362      9.8476275864064746
    93   1      5.8494364564318175      11.090723470016655      11.069594637266846
    94   1      12.696658823650068      1.4902995034905331      4.2172550548193612
    95   1      5.8562225827340058       2.783835170207567      8.2363151171317668
    96   1      12.643904880460354       9.591327817132651      12.375528989418626
    97   1     0.26444818256732106      5.6871885138012885     0.20167884132984248
    98   1      15.364840257309993      12.373880033246223      6.9221763806239665
    99   1     0.37853065321086632      13.727729508556422      8.2978686847598055
   100   1      13.998067793720679     0.16416114913996083      13.741512991083709
   101   1      8.5420485288254895      11.059132428919156      13.793668287256878
   102   1      12.679684503854105      4.2643301253350501      1.4836328632392082
   103   1      1.6514201159161246      4.2917861216743631      1.5208021507744149
   104   1      5.8086325784431097        5.70072669706326     0.15529525678875267
   105   1      7.1404528169542232       15.11355938887732      6.9009672415670593
   106   1       4.435587948917032      1.4862468335352332      12.420255222127935
   107   1      9.9552906020454657      4.2098912098109622      4.1253145539953948
   108   1       5.828334879155932      8.3324802164139555       13.84321971226052
   109   1      8.6043856913288437      13.722266732854223     0.14318536986900021
   110   1      14.017137864779443      5.6369834441283615      13.671990117562245
   111   1      11.277364088399395      11.099710962543099      5.5372722130067018
   112   1       5.776544124946497       2.836812997647371      2.8379913101896932
   113   1      11.278103879834475      11.049969722631772      11.058134683891581
   114   1      5.8515375614484242       13.75066791009283      2.7554673322540282
   115   1      13.998100889653301      8.3086725599413285       5.546820389568154
   116   1      1.6872361205005149      9.6519284165831323        1.48977459226505
   117   1      4.3916005342330209      9.7165725602721977      4.0576350752504879
   118   1      4.5085396583991155      7.0837745722243426      6.9035526179507087
   119   1     0.34551381013371696      5.6878270706189369      11.021672700239947
   120   1       4.454642932124159      6.9808170194763761      1.4946769272846865
   121   1      15.330687201663636      1.5570016788133074      6.9243728797993072
   122   1      4.4101863339247416      6.9269173729720706      12.505822809102597
   123   1      11.312571346840741      8.2988946586710881       13.81909959124755
   124   1      7.1773348269272219      4.2641875208018405       12.41194230258111
   125   1     0.38838371996778775      8.3346149040680757       13.72507209984883
   126   1      3.0892198578465297     0.13717327164910387      8.2643308240963052
   127   1      15.326171553680297      1.4984633696643357      12.420695203349851
   128   1      4.4171622751346149      15.118241489933553      15.133242708099374
   129   1     0.35652091502649697     0.15792896905193921     0.16596361507704849
   130   1       9.862836140856075      4.2448624163799309      9.6472531293953807
   131   1      5.8154936572985889      2.8583433619326684      13.793661473388397
   132   1      5.7967920218426912     0.13535027284940604     0.11154443391535818
   133   1       9.906686304760683      6.9135874994036612      1.4643993810131235
   134   1      5.8460193013885942      13.770935275184684      13.768598118295699
   135   1      7.1570280387391563      12.405697878823162      4.1747632842669304
   136   1      7.1800194911087374      1.4518377711159474       9.695254886024486
   137   1      15.344203969910382       9.629563353408912      15.098354728066852
   138   1      4.4618018743732364      15.090702753762685      4.1243659661618608
   139   1      11.291514546414874      2.8697208188288243      13.749257439317262
   140   1      0.3743198345848846      8.3273941502977777      8.2071965368830888
   141   1      11.340697049110759      10.995451960915261     0.11944321322809959
   142   1       15.36206895965779      4.3014749559494589      15.097966337563435
   143   1      4.4643049976302223      1.5006492830082863      6.8797250065775302
   144   1      12.651331023694866      12.381672178559143      15.107191342076931
   145   1      2.9632109880273276      2.8173250904392546      11.155908829545069
   146   1      3.0393002405924676      5.6310879877776188      13.786861232644355
   147   1     0.38242925064895061      5.6445896681727277      5.5400639522643473
   148   1      4.5092750694901724      4.4771885628131258      9.4955296933386535
   149   1      9.8958580943345851      6.9910923331457298      12.424342569806754
   150   1      9.8748431505293865      12.391064609555315      6.9300770611276903
   151   1      5.7990868354061149      11.027684479059758      5.5213676705622561
   152   1      1.6969276316525139      7.0128212730267592      9.6973292222720602
   153   1      7.1859460965725361      9.7311075151519617      1.4680567249203023
   154   1      14.034058647037341      5.6343766527294861      8.1967119401103901
   155   1      14.021730412135639      2.8427242719070875      11.069609238413591
   156   1      4.4702807602880625      15.123881426216258      9.6285441933661104
   157   1      15.346801027211427      12.388254375511792      1.4967827776739853
   158   1      0.3188421691461123     0.12624162122403426      11.077600932732025
   159   1      12.641394456629996      1.4821882014450125      9.6947993302460418
   160   1      12.744296525020332      4.2122478348956065      6.8954781838007193
   161   1      5.8264279693910339      11.068675738431693     0.14439518134351914
   162   1      14.058656712253764     0.19534665859614542        2.83486617808137
   163   1      15.378279152774098      9.6584200864259628      9.5758515749927255
   164   1      1.7116371919121036      7.0337155140188656      4.1732875950359016
   165   1      8.6163488975619202     0.15073627686054181      2.8152052472843252
   166   1      9.8907759218575393      15.164187405100961      9.6646002651382332
   167   1       15.34388566491134      1.5499936150805951      1.4650529040061855
   168   1      8.5287507777799192    0.082306268753885803       8.254882908742502
   169   1      11.283454713411629      8.3135960666237452      8.2852338257764586
   170   1      3.0924562020225608     0.15077980652927536      2.8217193055521648
   171   1      1.6960986515460661      1.4460164155849355      9.7011488822605543
   172   1      11.211449644943514     0.13775226795565487      11.017096700850061
   173   1      8.5735227607490287      8.3293205282583358     0.17672427998992291
   174   1      1.7434035684467659      12.331358573695411      9.6848705504594363
   175   1      8.5572045191468078      2.8705049004090313      5.4678851301499662
   176   1      11.257762535599113      5.5840036698689914     0.13704808202529328
   177   1      5.7767548681645167      5.6085418703837604      5.5481890037230528
   178   1      3.0684747919036681      2.9376772326569949       5.543925955578402
   179   1        3.10656139648313      13.768412197027146      11.036886121738462
   180   1      12.680842861495876      9.6449149990966134      1.4523254494172306
   181   1      5.7981708568003114      13.759909462572637      8.2533692565299361
   182   1      15.356058154247762      15.097506888145858      4.2300115900255832
   183   1     0.37762763312279901      10.983725293259454      10.980463397076619
   184   1      15.348687495370882      7.0240914114943394      6.9446056888438648
   185   1      5.7922870813669647      8.3210115023506432      2.8220208192324492
   186   1      9.9323122907079551      1.5092701650752076      12.459017373096799
   187   1     0.35898251627242672       11.05424493839871     0.12189218296114213
   188   1       8.568430854174153      8.2638402255656729      11.201376800509024
   189   1      7.1687916959667177      12.484021350192734      9.6731390157547139
   190   1      12.672213583769576      4.2210936962986239      12.388479233171665
   191   1      7.1863476281080239      6.9530923620369549       15.09526901905474
   192   1      14.023826163398439      11.054548642251007        8.22035509032969
   193   1      8.5559712089517461      13.756030424587379       11.00946614156112
   194   1      15.348378924469671       9.649520200779989       4.193115465610731
   195   1      12.654977416741986      6.9521145719099309      15.125245173322241
   196   1      7.2216760760673537      1.4942835480561314      15.126397690505314
   197   1       14.05679652615845      2.9429338888376435      5.5094278261639715
   198   1      1.7394847423366286      9.6589428074794341      12.385194948563822
   199   1      8.6011783060938569      2.8520125480564786     0.13642400467816707
   200   1      8.4507923350789724      11.172559977293076      8.2425790090853752
   201   1      11.281227551828124      13.775627110338746       8.278562075123773
   202   1       13.98365451506379      11.000984822121836      13.764711293032178
   203   1      1.7284022286047218      15.133016877029718      1.5093502280298594
   204   1      2.9904910405483633      5.7297304149575439       8.207504134374517
   205   1      7.1965499360436525      15.113292674596778      12.389070092909947
   206   1      3.0158352243634567      11.024876191835801      2.7798743658005378
   207   1      9.8787309492026907      12.430184975324323      12.405943178088478
   208   1      9.9599678360527832      1.5293722938563974      1.4852164792799272
   209   1      11.336057778084978      2.8406078356863986      2.8628322411469753
   210   1      5.8443893267069598       5.625128286381198      11.146436578946691
   211   1       12.61522530802381      12.392217126738387      4.1989111474587162
   212   1      3.0820694329330536      5.6300936496842837      2.8529251197280416
   213   1      11.293171289865541      2.8350961461426039      8.2391866759916184
   214   1      15.409288094821363       4.269589458392602      9.6680909126200731
   215   1       3.026714782155608       8.377139283848237      5.4312089963460721
   216   1      13.999476317676681      13.707756113219034      5.5417674193845983

Velocities

     1                       0                       0                       0
     2                       0                       0                       0
     3                       0                       0                       0
     4                       0                       0                       0
     5                       0                       0                       0
     6                       0                       0                       0
     7                       0                       0                       0
     8                       0                       0                       0
     9                       0                       0                       0
    10                       0                       0                       0
    11                       0                       0                       0
    12                       0                       0                       0
    13                       0                       0                       0
    14                       0                       0                       0
    15                       0                       0                       0
    16                       0                       0                       0
    17                       0                       0                       0
    18                       0                       0                       0
    19                       0                       0                       0
    20                       0                       0                       0
    21                       0                       0                       0
    22                       0                       0                       0
    23                       0                       0                       0
    24                       0                       0                       0
    25                       0                       0                       0
    26                       0                       0                       0
    27                       0                       0                       0
    28                       0                       0                       0
    29                       0                       0                       0
    30                       0                       0                       0
    31                       0                       0                       0
    32                       0                       0                       0
    33                       0                       0                       0
    34                       0                       0                       0
    35                       0                       0                       0
    36                       0                       0                       0
    37                       0                       0                       0
    38                       0                       0                       0
    39                       0                       0                       0
    40                       0                       0                       0
    41                       0                       0                       0
    42                       0                       0                       0
    43                       0                       0                       0
    44                       0                       0                       0
    45                       0                       0                       0
    46                       0                       0                       0
    47                       0                       0                       0
    48                       0                       0                       0
    49                       0                       0                       0
    50                       0                       0                       0
    51                       0                       0                       0
    52                       0                       0                       0
    53                       0                       0                       0
    54                       0                       0                       0
    55                       0                       0                       0
    56                       0                       0                       0
    57                       0                       0                       0
    58                       0                       0                       0
    59                       0                       0                       0
    60                       0                       0                       0
    61                       0                       0                       0
    62                       0                       0                       0
    63                       0                       0                       0
    64                       0                       0                       0
    65                       0                       0                       0
    66                       0                       0                       0
    67                       0                       0                       0
    68                       0                       0                       0
    69                       0                       0                       0
    70                       0                       0                       0
    71                       0                       0                       0
    72                       0                       0                       0
    73                       0                       0                       0
    74                       0                       0                       0
    75                       0                       0                       0
    76                       0                       0                       0
    77                       0                       0                       0
    78                       0                       0                       0
    79                       0                       0                       0
    80                       0                       0                       0
    81                       0                       0                       0
    82                       0                       0                       0
    83                       0                       0                       0
    84                       0                       0                       0
    85                       0                       0                       0
    86                       0                       0                       0
    87                       0                       0                       0
    88                       0                       0                       0
    89                       0                       0                       0
    90                       0                       0                       0
    91                       0                       0                       0
    92                       0                       0                       0
    93                       0                       0                       0
    94                       0                       0                       0
    95                       0                       0                       0
    96                       0                       0                       0
    97                       0                       0                       0
    98                       0                       0                       0
    99                       0                       0                       0
   100                       0                       0                       0
   101                       0                       0                       0
   102                       0                       0                       0
   103                       0                       0                       0
   104                       0                       0                       0
   105                       0                       0                       0
   106                       0                       0                       0
   107                       0                       0                       0
   108                       0                       0                       0
   109                       0                       0                       0
   110                       0                       0                       0
   111                       0                       0                       0
   112                       0                       0                       0
   113                       0                       0                       0
   114                       0                       0                       0
   115                       0                       0                       0
   116                       0                       0                       0
   117                       0                       0                       0
   118                       0                       0                       0
   119                       0                       0                       0
   120                       0                       0                       0
   121                       0                       0                       0
   122                       0                       0                       0
   123                       0                       0                       0
   124                       0                       0                       0
   125                       0                       0                       0
   126                       0                       0                       0
   127                       0                       0                       0
   128                       0                       0                       0
   129                       0                       0                       0
   130                       0                       0                       0
   131                       0                       0                       0
   132                       0                       0                       0
   133                       0                       0                       0
   134                       0                       0                       0
   135                       0                       0                       0
   136                       0                       0                       0
   137                       0                       0                       0
   138                       0                       0                       0
   139                       0                       0                       0
   140                       0                       0                       0
   141                       0                       0                       0
   142                       0                       0                       0
   143                       0                       0                       0
   144                       0                       0                       0
   145                       0                       0                       0
   146                       0                       0                       0
   147                       0                       0                       0
   148                       0                       0                       0
   149                       0                       0                       0
   150                       0                       0                       0
   151                       0                       0                       0
   152                       0                       0                       0
   153                       0                       0                       0
   154                       0                       0                       0
   155                       0                       0                       0
   156                       0                       0                       0
   157                       0                       0                       0
   158                       0                       0                       0
   159                       0                       0                       0
   160                       0                       0                       0
   161                       0                       0                       0
   162                       0                       0                       0
   163                       0                       0                       0
   164                       0                       0                       0
   165                       0                       0                       0
   166                       0                       0                       0
   167                       0                       0                       0
   168                       0                       0                       0
   169                       0                       0                       0
   170                       0                       0                       0
   171                       0                       0                       0
   172                       0                       0                       0
   173                       0                       0                       0
   174                       0                       0                       0
   175                       0                       0                       0
   176                       0                       0                       0
   177                       0                       0                       0
   178                       0                       0                       0
   179                       0                       0                       0
   180                       0                       0                       0
   181                       0                       0                       0
   182                       0                       0                       0
   183                       0                       0                       0
   184                       0                       0                       0
   185                       0                       0                       0
   186                       0                       0                       0
   187                       0                       0                       0
   188                       0                       0                       0
   189                       0                       0                       0
   190                       0                       0                       0
   191                       0                       0                       0
   192                       0                       0                       0
   193                       0                       0                       0
   194                       0                       0                       0
   195                       0                       0                       0
   196                       0                       0                       0
   197                       0                       0                       0
   198                       0                       0                       0
   199                       0                       0                       0
   200                       0                       0                       0
   201                       0                       0                       0
   202                       0                       0                       0
   203                       0                       0                       0
   204                       0                       0                       0
   205                       0                       0                       0
   206                       0                       0                       0
   207                       0                       0                       0
   208                       0                       0                       0
   209                       0                       0                       0
   210                       0                       0                       0
   211                       0                       0                       0
   212                       0                       0                       0
   213                       0                       0                       0
   214                       0                       0                       0
   215                       0                       0                       0
   216                       0                       0                       0
