(written by ASE)

216 atoms
1 atom types

0.0      16.331106185913086  xlo xhi
0.0      16.331106185913086  ylo yhi
0.0      16.331106185913086  zlo zhi

Atoms # atomic

     1   1       8.165553092956543       8.165553092956543       8.165553092956543
     2   1      9.5264782839793725      6.8046288753434965       6.804627415228822
     3   1      9.5264782839793725      9.5264782839793725      9.5264782839793725
     4   1       6.804627415228822      6.8046288753434965      9.5264782839793725
     5   1       6.804627415228822      9.5264782839793725       6.804627415228822
     6   1      13.417060909262887      5.1772196151922003     0.15272273245614443
     7   1      1.1145841338864386      6.5626990679912183      4.2474653141396743
     8   1      9.2566967892109915      1.1778995732217084      12.382262064887641
     9   1       13.34929893403887      2.5341324423855838      2.8513912692624785
    10   1      13.360058032370375      13.439408451061013       13.81063579318436
    11   1      12.003856799024447      9.3160757593838071      1.5470270270906781
    12   1      3.8523738577762856      6.6225997858077221      1.5637506938675187
    13   1      5.1828430035085944      10.704545527036203      2.9096486280128318
    14   1      3.8710820637482186      6.6310231873649172      6.9743696397786721
    15   1      13.393964815341633      7.9817835467287637      2.8556180578927126
    16   1      7.9105070754832241      2.4870391204364637       8.304121869205801
    17   1      2.4934616781847012      7.9384697316145889      13.717636222516489
    18   1      16.065862727553053      7.9830319447754619      11.054745271027173
    19   1       3.871279422581722      3.8764494452916836      4.2735950396496492
    20   1      9.2935792858888817      14.802273647781362      4.2681765540925767
    21   1      16.099294486550207      5.1851173754665751      2.8687126096460815
    22   1      16.092959535682439      16.161062204330506      13.755635220215481
    23   1      7.9856596644846718      8.0324660739002525      13.735019374421313
    24   1      14.731887359782377      14.780884914619492       9.678807180921126
    25   1      7.9439709570032164      13.386123999539564      8.3239151837333338
    26   1      3.8116325213661355      1.1598048587655114       12.40425041847584
    27   1      2.5105121672961843      10.628423908595778      11.028431084363319
    28   1      6.5527357321573163      9.3333975864723016      1.4957361188048139
    29   1      2.5062206469153807      5.2105992967659631      5.6419916374618992
    30   1       3.849893853001646      11.999284693273694      12.377674384580359
    31   1      6.5345081472657398      11.995464059875417      15.108328284703475
    32   1      12.039561469864907      6.5409243778503878      4.2372751738263332
    33   1      7.9327835583671913      2.4778810378455489      2.8845108070717345
    34   1      16.113241501921038      2.5393908020333527     0.17399823068310205
    35   1      2.4181251147342664      13.407673345315629      2.8611808514501149
    36   1      14.791351990016096      3.8615574923740041      15.089686513949232
    37   1      3.8546428759804598       6.605103231663179       12.36334189893546
    38   1      9.2379722786251932      3.8560667311405439      15.164981707483889
    39   1      7.9035948926141373      16.110349501455744     0.14025006787788996
    40   1      3.7823886146078962      12.015394625182353      6.9335005433345032
    41   1      1.0588710249564031      9.3212387248728419      6.9531288649038174
    42   1      7.9643220353364086      10.737168382503683      5.5233013490961866
    43   1      13.326227175362192      2.5126607260397122      13.778121959612577
    44   1      16.083460029610137      5.2158211535468695      13.732326922961533
    45   1       11.96855511983415      1.1839539387195259      15.150479848536747
    46   1      16.094680524178784      2.4869590574818119      11.024923888915168
    47   1      3.7903389390105531      14.775647969986949      15.128467159703973
    48   1      12.032411775008768      9.3019700782183463      12.433968619150846
    49   1      3.7872855958737262      1.1326322463492744      1.4521936740678569
    50   1      16.072903400513496       10.67565569808653      2.8724449061065513
    51   1      13.353760071074362      2.4625223349369207      8.3162028580226206
    52   1      16.092417346433308      13.369732752203618       11.05762851080442
    53   1      11.980296388636702        12.0749721709509      15.120638998229083
    54   1      3.8492679505111767      9.2967564954205955      9.6749592920489249
    55   1      2.4586235854035579       7.968680964344685      2.9029072785606616
    56   1       2.454800761833269      10.618681050077726      5.6161938446879276
    57   1       11.97924121243193      1.1916162555026375      4.2380358935717481
    58   1      5.1702500011459165      16.146431855292008      13.762123969828963
    59   1      5.1500682961149664      10.634896110242948      13.768778199105554
    60   1      10.655252055625056      13.399281579576382      5.5924791488495771
    61   1      13.426172024831772      5.1933991459003437      11.020010116330582
    62   1      10.607159771886131      7.9542443238530041      11.025068926972835
    63   1      9.3070561443345241      6.6056970116308094      12.408898450189668
    64   1      2.5035844098705695      10.663015972054268     0.20077646004194527
    65   1      9.2678501185046116      3.8861633448686916      9.6772847680205132
    66   1      5.1811482970763905      13.381754363023674      5.5805052351088875
    67   1      7.9240987962832605      13.407732723312392      2.8404705849069956
    68   1      13.397509000361538      13.444941312267588      8.3526911237383956
    69   1      3.8754183609790402      9.3018902586161403      4.2593224187064038
    70   1       3.816264978523435       3.866386334955024      9.6701798500143923
    71   1      6.5340993151568796      14.738903697498245      1.5067233600542096
    72   1      5.2162552943100877      7.9506534151635151      0.1496068933693433
    73   1      7.8940856524440051      16.094216207712293      5.6135885134037267
    74   1       12.01321710749778      14.748853892300076      1.4865753593369959
    75   1      2.4884447241631165      5.2229401859948439      11.061691523238665
    76   1      3.8335060125999405      12.063449919349523      1.5056591798089443
    77   1      14.733637550572212      6.5735180310243777      1.5017348782687776
    78   1      14.703119207055579       6.615124972084061      12.422537868069071
    79   1      5.1715572904844862      10.668833068917479      8.2961924731134786
    80   1      11.997497512912105       6.582224694828426       9.662343901261238
    81   1      6.5683020147021693      14.733352341505793      6.9582334258058722
    82   1      13.315911951891735       10.67908794098139      11.068229916751079
    83   1      10.623418635491589      16.156474524023224      13.821006501012448
    84   1      5.1848238924170005      2.4960541117892774     0.13707597629938739
    85   1      14.650489860318089      12.037229180024838      12.406597309462654
    86   1      1.1521410818677253      1.1700312585932693      9.6829480661380103
    87   1      1.1753437641602176      3.8852320350588059      1.5764939663654474
    88   1      9.2894559220480915      12.033610042451642      12.432364439828461
    89   1      7.8791491660287534      10.634953541420145     0.14232551442099783
    90   1      7.9296647534224576      7.9636966195508307      2.9052634169404143
    91   1      7.9296345777191846      5.1847562404370819      5.5988968395488996
    92   1      11.984018707646896      3.8857163064258486      12.391246637184736
    93   1      3.8466141920902714      1.1799398401268775      6.9617352675002167
    94   1      6.5678099560568626      6.6110556324862273      4.2330004447642864
    95   1      13.365715490029174      7.9339827992198479      8.2795938894937535
    96   1      13.338718943107438      13.390299927508636      2.8537795301650704
    97   1      11.935666523495911      14.766878521251897      12.409164191060427
    98   1      2.4447016353346385      7.9672724403886832      8.3087338847576575
    99   1      5.1833851927577257      5.2430902552078464      13.797506442031249
   100   1      2.4731648674469113      16.143833824581179      11.036592151983996
   101   1      11.982122505389611       3.863620391056628       1.477337578820098
   102   1      7.9149779466165455      5.2640287863450794      11.020112324357797
   103   1      13.337842874302737      16.126733934923209       11.06297155710331
   104   1      16.077484266952297       10.65679783036046      8.3542135366390085
   105   1      10.608484582600795      5.2198019128544502      2.8897377742540016
   106   1      13.359769903074607      10.649017365964937     0.10776046308398612
   107   1      1.1119403529158092      9.3088219096808871      1.5062906794056659
   108   1      10.631030699994653      5.2454755958810892      8.2496751664034491
   109   1      9.2983704088408103      1.1785751196111107      6.9257711829525874
   110   1       14.76177980080854      9.2698368478717157      15.117113307995055
   111   1       1.113596244632916      12.015362502659514      4.2525747420906441
   112   1      14.690080383012287      3.8307106230556087      9.6341383793890145
   113   1      1.1333243407049878      6.5535392819331832      15.118336884092287
   114   1      13.355839274370851      16.114798957573839    0.097464091823311172
   115   1      12.049595377908076       9.339748111896597      6.9154131294516787
   116   1      14.718275197376897      1.1681189950745647      12.441421044449498
   117   1      16.087534722961777      13.427348877259419       5.593215533350417
   118   1      10.589929445317239      2.5452996427686116     0.19669419234543106
   119   1      1.1262802608103044      11.997649364838253       15.12169222761429
   120   1      10.737137233390627      7.9994713758956664      5.5215589455846157
   121   1      14.671670283786398      1.1369388545817145      1.5214602974639462
   122   1      6.5571214299346252       14.77274818224339      12.440141010584853
   123   1      14.698394275968894      9.3077093022989175      9.6600641755494507
   124   1      14.771064183318799      14.796593801697554      15.153881915728334
   125   1      10.648536501532135      13.336756548984908      11.036690466372079
   126   1      6.5279833814902872      1.1411517721225408      9.6633825294996996
   127   1      5.2100361792064973      7.9423297881090775      11.017348813983858
   128   1       5.170321546764967      5.2241043840953125      2.9109026231657822
   129   1      10.612649803062254      13.411436547536709     0.11222712117809053
   130   1       6.575835719717702      6.6337239128078522      15.081658803468827
   131   1      7.9494371396396559      13.376292560731258      13.772219202688461
   132   1      3.8216184889774922      14.768990820481008      9.6759940266482545
   133   1      13.349079916837695      16.163417856005367      5.5976250796674094
   134   1      14.663936543060458      12.044760451515913      1.5052380584015737
   135   1      16.101794202872952      2.5146051120812558      5.6045825260914057
   136   1      9.2374339830151939      14.751347768164123      9.6864484477176802
   137   1      6.5276709169499441      1.0936690862602205      4.2068210753553785
   138   1      6.5484249869332984       9.334210383641107      12.392681443204879
   139   1      14.710728351329294       3.835239168718573      4.2154099565756837
   140   1      13.363279045342324      7.9465869957950304      13.818197240378709
   141   1      2.4682489046903129      2.5189932433830222      13.756998967321465
   142   1      7.8752185373249972      2.4904141755065723      13.780173907435142
   143   1      16.120044662894429      16.130076624118033      2.8819096127791113
   144   1      5.1406422824812807      13.400596656193215    0.083254620839738003
   145   1      6.5897798148591846      12.033766761426705      4.2366044944858459
   146   1      14.665620541985049      14.776924110212462      4.2762539084719151
   147   1      16.071692478743444      7.9553233485974602      5.5507539385012592
   148   1      10.624702562995367      16.083228358081783       8.342374926858156
   149   1      5.1789936545217188      16.073680181520331      2.8335009708607117
   150   1      2.5389936508418884      2.4792832346379612       2.939280195217151
   151   1      10.630300642657403      10.709507970109939      2.8410278620077634
   152   1      16.073853448461705      5.2711935690528549      8.3446040352612272
   153   1      3.8127375848222869      9.2872199997765392      15.125887623779022
   154   1      10.639331938624082      2.4918455745924746      11.018373814485358
   155   1      7.9562622023331642      10.644183412982557      11.038836834943595
   156   1      10.602215823598272      2.5172340485526945      5.5970838638280611
   157   1      9.3002617440491804      12.049866959237534       6.942251497283678
   158   1      2.4873917381303556      16.095488454298675      5.6109403520890737
   159   1      11.990307908254863      3.8355229176703176      6.9374559939877258
   160   1      2.4589667123520655      16.108348170941895     0.13720011646577568
   161   1      9.2793889180722999      6.6070232824601476      1.5196761590079291
   162   1      6.5427339466369858      3.9094855132120472      12.339508933808474
   163   1      6.5433690965203937      3.8740234647600005      1.5330527562459224
   164   1      1.0952135225571737      14.737689855498843      12.420265929635548
   165   1      16.087276769369282      7.9208597752303262     0.13705211255017602
   166   1      1.1170866487623101      11.999397608808522      9.7146325545746777
   167   1      11.982820440204023      1.1182384358880455      9.6827806396553342
   168   1      1.0866899814685524      9.2801102147215033      12.441969074157328
   169   1      16.114649052467257       16.15436125138433       8.358873249270232
   170   1      2.4576117259341288      13.362877027101945      8.3330876241185479
   171   1      14.721014372506261      9.3392604335953138      4.2087610810528986
   172   1      14.757483170026376      1.1867350921457813      6.9792902262317398
   173   1      10.698178453645596      10.748465776445187      8.2515655282020361
   174   1      2.5013528679430408      2.5119825027734066      8.3272179631270546
   175   1      5.1873922341294474      13.399664129621101      11.054181666762815
   176   1      2.5197846255366017      5.2536288762235017     0.18109717134477421
   177   1      10.632175429899462      16.130964373840129      2.8848427398077376
   178   1      9.2718041090431598      3.8266162181558627      4.2256103176917463
   179   1      9.2397059214487172      1.1216518189683597      1.4575052062250222
   180   1      1.0947326581243715      3.9007795794653362      6.9771209825303231
   181   1      1.1047890762687729      14.793517826783273      6.9693570661011108
   182   1        16.0723076737263      13.391558546358056     0.12317261227351217
   183   1      6.5553371698023852      1.1589817191177616      15.148478518022898
   184   1      10.624793090105186      5.1914732546446771      13.742826120880977
   185   1      12.040070563181416      14.722793765589586       6.929555313484002
   186   1      6.5233591983161432       3.847122068644552      6.8897467469984122
   187   1      10.645243456236244      10.694486310338675      13.828155222458804
   188   1      2.4971182920345427      13.369495240216565      13.767307376923441
   189   1       5.193046284854006      2.5010112011092076      10.997858229898839
   190   1      10.653235150554679      7.9400247537429323     0.13616133613203552
   191   1      7.8880943152296368        16.0753310845123      11.062628916859694
   192   1      13.359218953137429      10.676801401401121      5.5787667252364486
   193   1      1.1058019091479849      1.1766780656202656      15.156019523611803
   194   1      13.384018514178933      5.1672528724240578      5.5888648783252961
   195   1      16.030215487889791      10.687520589931523      13.770916780398807
   196   1      1.0829365133453024       14.77010732150211      1.5000398068079051
   197   1      1.1255525153212886      3.8671623859045212      12.383705631595831
   198   1      5.1737883457071234      16.097174400042832      8.2838535307041639
   199   1      1.1216173845972861      1.1735603557615377      4.2664623794647127
   200   1      12.005477526313143      12.049499010339559      9.6426771300054952
   201   1      5.2256968825003014      7.9259974320650031      5.6160575673183075
   202   1      6.5644789477794347      11.973960464359152      9.6798798785019926
   203   1      9.2872248668254542      9.3368473507432554       15.16900773034638
   204   1      9.2975741596383159      12.035113960566378      1.4827208999487596
   205   1      1.1269461947780997      6.5530783724009325      9.7019879614935007
   206   1      12.015376130396476      12.057483890789513      4.2079906272096537
   207   1      9.3041076861018155      9.3735497666112906      4.2233325387995251
   208   1      3.7900955865648029      14.751898718101302      4.2316741739349482
   209   1      7.8984767039751205      5.2759846920047835     0.12234665886310836
   210   1      14.755383525124444      6.5683385175690319      6.9239878962301304
   211   1      12.010667747276102      6.5546528627249359        15.1824514928594
   212   1      14.667107912133474      11.997053638051057      6.9854538569776992
   213   1      5.2147781449643844      2.4604424015830944      5.5837544769645433
   214   1      3.8282371887970044       3.848532296067674      15.119758062375467
   215   1      9.2488783618339312      14.772267317810588      15.108265986477363
   216   1        5.23413439849935      5.2368998556928545      8.3221474715674049

Velocities

     1                       0                       0                       0
     2                       0                       0                       0
     3                       0                       0                       0
     4                       0                       0                       0
     5                       0                       0                       0
     6                       0                       0                       0
     7                       0                       0                       0
     8                       0                       0                       0
     9                       0                       0                       0
    10                       0                       0                       0
    11                       0                       0                       0
    12                       0                       0                       0
    13                       0                       0                       0
    14                       0                       0                       0
    15                       0                       0                       0
    16                       0                       0                       0
    17                       0                       0                       0
    18                       0                       0                       0
    19                       0                       0                       0
    20                       0                       0                       0
    21                       0                       0                       0
    22                       0                       0                       0
    23                       0                       0                       0
    24                       0                       0                       0
    25                       0                       0                       0
    26                       0                       0                       0
    27                       0                       0                       0
    28                       0                       0                       0
    29                       0                       0                       0
    30                       0                       0                       0
    31                       0                       0                       0
    32                       0                       0                       0
    33                       0                       0                       0
    34                       0                       0                       0
    35                       0                       0                       0
    36                       0                       0                       0
    37                       0                       0                       0
    38                       0                       0                       0
    39                       0                       0                       0
    40                       0                       0                       0
    41                       0                       0                       0
    42                       0                       0                       0
    43                       0                       0                       0
    44                       0                       0                       0
    45                       0                       0                       0
    46                       0                       0                       0
    47                       0                       0                       0
    48                       0                       0                       0
    49                       0                       0                       0
    50                       0                       0                       0
    51                       0                       0                       0
    52                       0                       0                       0
    53                       0                       0                       0
    54                       0                       0                       0
    55                       0                       0                       0
    56                       0                       0                       0
    57                       0                       0                       0
    58                       0                       0                       0
    59                       0                       0                       0
    60                       0                       0                       0
    61                       0                       0                       0
    62                       0                       0                       0
    63                       0                       0                       0
    64                       0                       0                       0
    65                       0                       0                       0
    66                       0                       0                       0
    67                       0                       0                       0
    68                       0                       0                       0
    69                       0                       0                       0
    70                       0                       0                       0
    71                       0                       0                       0
    72                       0                       0                       0
    73                       0                       0                       0
    74                       0                       0                       0
    75                       0                       0                       0
    76                       0                       0                       0
    77                       0                       0                       0
    78                       0                       0                       0
    79                       0                       0                       0
    80                       0                       0                       0
    81                       0                       0                       0
    82                       0                       0                       0
    83                       0                       0                       0
    84                       0                       0                       0
    85                       0                       0                       0
    86                       0                       0                       0
    87                       0                       0                       0
    88                       0                       0                       0
    89                       0                       0                       0
    90                       0                       0                       0
    91                       0                       0                       0
    92                       0                       0                       0
    93                       0                       0                       0
    94                       0                       0                       0
    95                       0                       0                       0
    96                       0                       0                       0
    97                       0                       0                       0
    98                       0                       0                       0
    99                       0                       0                       0
   100                       0                       0                       0
   101                       0                       0                       0
   102                       0                       0                       0
   103                       0                       0                       0
   104                       0                       0                       0
   105                       0                       0                       0
   106                       0                       0                       0
   107                       0                       0                       0
   108                       0                       0                       0
   109                       0                       0                       0
   110                       0                       0                       0
   111                       0                       0                       0
   112                       0                       0                       0
   113                       0                       0                       0
   114                       0                       0                       0
   115                       0                       0                       0
   116                       0                       0                       0
   117                       0                       0                       0
   118                       0                       0                       0
   119                       0                       0                       0
   120                       0                       0                       0
   121                       0                       0                       0
   122                       0                       0                       0
   123                       0                       0                       0
   124                       0                       0                       0
   125                       0                       0                       0
   126                       0                       0                       0
   127                       0                       0                       0
   128                       0                       0                       0
   129                       0                       0                       0
   130                       0                       0                       0
   131                       0                       0                       0
   132                       0                       0                       0
   133                       0                       0                       0
   134                       0                       0                       0
   135                       0                       0                       0
   136                       0                       0                       0
   137                       0                       0                       0
   138                       0                       0                       0
   139                       0                       0                       0
   140                       0                       0                       0
   141                       0                       0                       0
   142                       0                       0                       0
   143                       0                       0                       0
   144                       0                       0                       0
   145                       0                       0                       0
   146                       0                       0                       0
   147                       0                       0                       0
   148                       0                       0                       0
   149                       0                       0                       0
   150                       0                       0                       0
   151                       0                       0                       0
   152                       0                       0                       0
   153                       0                       0                       0
   154                       0                       0                       0
   155                       0                       0                       0
   156                       0                       0                       0
   157                       0                       0                       0
   158                       0                       0                       0
   159                       0                       0                       0
   160                       0                       0                       0
   161                       0                       0                       0
   162                       0                       0                       0
   163                       0                       0                       0
   164                       0                       0                       0
   165                       0                       0                       0
   166                       0                       0                       0
   167                       0                       0                       0
   168                       0                       0                       0
   169                       0                       0                       0
   170                       0                       0                       0
   171                       0                       0                       0
   172                       0                       0                       0
   173                       0                       0                       0
   174                       0                       0                       0
   175                       0                       0                       0
   176                       0                       0                       0
   177                       0                       0                       0
   178                       0                       0                       0
   179                       0                       0                       0
   180                       0                       0                       0
   181                       0                       0                       0
   182                       0                       0                       0
   183                       0                       0                       0
   184                       0                       0                       0
   185                       0                       0                       0
   186                       0                       0                       0
   187                       0                       0                       0
   188                       0                       0                       0
   189                       0                       0                       0
   190                       0                       0                       0
   191                       0                       0                       0
   192                       0                       0                       0
   193                       0                       0                       0
   194                       0                       0                       0
   195                       0                       0                       0
   196                       0                       0                       0
   197                       0                       0                       0
   198                       0                       0                       0
   199                       0                       0                       0
   200                       0                       0                       0
   201                       0                       0                       0
   202                       0                       0                       0
   203                       0                       0                       0
   204                       0                       0                       0
   205                       0                       0                       0
   206                       0                       0                       0
   207                       0                       0                       0
   208                       0                       0                       0
   209                       0                       0                       0
   210                       0                       0                       0
   211                       0                       0                       0
   212                       0                       0                       0
   213                       0                       0                       0
   214                       0                       0                       0
   215                       0                       0                       0
   216                       0                       0                       0
