(written by ASE)

8 atoms
1 atom types

0.0       5.443702220916748  xlo xhi
0.0       5.443702220916748  ylo yhi
0.0       5.443702220916748  zlo zhi

Atoms # atomic

     1   1       2.721851110458374       2.721851110458374       2.721851110458374
     2   1       1.360925555229187       1.360925555229187       4.082776665687561
     3   1       1.360925555229187       4.082776665687561       1.360925555229187
     4   1       4.082776665687561       1.360925555229187       1.360925555229187
     5   1       4.082776665687561       4.082776665687561       4.082776665687561
     6   1      2.7248654361744116      5.4357390797194398    0.011775225684773294
     7   1    0.023021020363909628    0.008908194110669343      2.7449923063752522
     8   1     0.01645890486627577       2.740780037651291       5.432168612531143

Velocities

     1                       0                       0                       0
     2                       0                       0                       0
     3                       0                       0                       0
     4                       0                       0                       0
     5                       0                       0                       0
     6                       0                       0                       0
     7                       0                       0                       0
     8                       0                       0                       0
