(written by ASE)

8 atoms
1 atom types

0.0       5.443702220916748  xlo xhi
0.0       5.443702220916748  ylo yhi
0.0       5.443702220916748  zlo zhi

Atoms # atomic

     1   1       2.721851110458374       2.721851110458374       2.721851110458374
     2   1       4.082776665687561       4.082776665687561       4.082776665687561
     3   1       1.360925555229187       1.360925555229187       4.082776665687561
     4   1       4.082776665687561       1.360925555229187       1.360925555229187
     5   1       1.360925555229187       4.082776665687561       1.360925555229187
     6   1      2.6643771015527591   0.0072047218708376493      5.4191281657574564
     7   1      5.4371660985029848      2.7319791150762853    0.019039556231953636
     8   1    0.033667135028557338      5.4160100096615338       2.714203191804998

Velocities

     1                       0                       0                       0
     2                       0                       0                       0
     3                       0                       0                       0
     4                       0                       0                       0
     5                       0                       0                       0
     6                       0                       0                       0
     7                       0                       0                       0
     8                       0                       0                       0
