(written by ASE)

216 atoms
1 atom types

0.0      16.331106185913086  xlo xhi
0.0      16.331106185913086  ylo yhi
0.0      16.331106185913086  zlo zhi

Atoms # atomic

     1   1       3.960267328181402      3.4015829202198233      9.0468315868156424
     2   1      16.187900085457613      7.4798379782560573      10.446063373028892
     3   1       6.659787446452583       6.102814536241965      14.481705470994712
     4   1      5.2847040101360108      7.4918737035179674      4.9395260872155404
     5   1      10.721543208666958      10.232279222847183      7.6950968442590124
     6   1      6.6503745738509679      11.558538371268014       3.611448609320064
     7   1      3.9715671556473637      8.8321626071411856      14.515072984946187
     8   1      12.108794267271037     0.69277659429504013      9.0415878283146185
     9   1      5.3116791420425216      15.640215938101278      13.138504125300756
    10   1       12.10958370260505     0.65125999783084154      3.6122134660570566
    11   1       10.74723733329904       7.464598274693401      10.402696020376652
    12   1      14.826361646271494      6.1249469544780482      11.750126831577745
    13   1       6.696179344599841      3.3783245102172543      6.3121107806191503
    14   1      3.9355271451366605      11.581838881243698      11.756488064509654
    15   1      3.9572392936989331      11.531780309743112     0.86925682220093137
    16   1      12.102639397213125      3.4090212310766219       6.307813176427203
    17   1      9.3622416651621734      3.3835388230723424      14.477729092031154
    18   1      8.0262839483684161       4.792020922453446      4.9993907888700733
    19   1      13.440910422356183      10.231329174898974      10.422668442304257
    20   1      8.0131599509691114      2.0348201907283396      13.125756350782581
    21   1      2.6000580800539694      12.921311094058979      2.2412254080500134
    22   1      9.4076784870130723      0.6460192203972781      6.2956061310434848
    23   1      9.3897550926786835      14.273296489634731       14.45932385985418
    24   1      1.2274215525794148     0.68370131237379184      14.527105303273856
    25   1      10.724978371791167      2.0346660269539569      15.825538559637835
    26   1      1.2183648262821549      6.1329892661051986      9.0738485753428222
    27   1      12.136106198962466      8.8428633008857105      6.3341190891079009
    28   1      1.2159468763811816      6.1127209276035614      3.5873172940945892
    29   1      8.0034127121070355      10.184275519398511      4.9498466644398036
    30   1      13.473329835179015      10.183218396374173      15.850924113368706
    31   1      6.6701274918725062      8.8373995517737285     0.84699816488361535
    32   1      14.847722150549657      11.577559771837628      0.8822195986049266
    33   1      6.6845728930522341      14.294051533027869      6.3334172606543575
    34   1      3.9755092219160701      14.284949178147031      14.511367213902304
    35   1      13.468857017226128      2.0514382425437248      7.6655937671460492
    36   1      14.817843337260456     0.66843958541479509      11.752967241324541
    37   1      6.6448572872009208      3.3785067811991212     0.86798056029919479
    38   1      12.098591959335408       11.55753770601109      9.0482089616585881
    39   1      12.128150520806003      6.1130567539786966      9.0470029069374505
    40   1      10.737052546739505      4.7782315994674605      13.110733717601533
    41   1      16.153434565270913      15.646653096996261      13.113788277500589
    42   1      6.7055454935318721      6.1200818523826115      9.0529543343507157
    43   1      9.4136396485241676      6.1460952554235178     0.84134247153004793
    44   1      6.6660133754246544      11.545095582164777      9.0770277316941019
    45   1      5.3144353518430876      10.188894348818849      7.7017535070600616
    46   1      13.476519699037908      12.941276702118103      13.154227613525563
    47   1      3.9351988626873435      8.8315279439626693      9.0539598666565553
    48   1      13.436312034541288       12.90814377992433      2.2242094749858268
    49   1       1.244672564106196      3.4162587761656766     0.85559288656261856
    50   1      10.748097827547213      15.636442028372585       13.16732289533627
    51   1      8.0085620498591084      10.183386796266632      10.407890134978743
    52   1      9.3729920028056313      3.4342486057177553      3.5822957163765352
    53   1      8.0120405297186608      2.0083891948905261      7.6628550787215772
    54   1      8.0344849257901956      12.912179536884651      2.2321649097898444
    55   1      14.886193251993404       11.55927037542483      6.3412337412118518
    56   1      9.3988603677888705      11.595147339796881     0.86060777208841444
    57   1      2.5977627797856542      12.918826952292761      13.141923713868437
    58   1      13.494938558951844      12.905995464533248      7.7001249924931017
    59   1      9.3985118870865563      8.8333560075351443      3.5886798244383442
    60   1      14.836089903642801      11.560654564136257      11.777174969217981
    61   1      2.5555435639724635      15.638080277037375      15.825013891764797
    62   1      16.198550161893422      7.4443231223232829      4.9649160212904349
    63   1      2.5705530561214402      10.205318692087417       15.86069033372155
    64   1      13.447482885211002      15.650087286710686      10.373244533982188
    65   1      2.6176797173556281      4.7798279915115813      15.825904561716243
    66   1      10.776771559525059      7.4878189650668787      4.9489754626840181
    67   1      3.9307866394934479      3.4053938195202704       3.591550166535967
    68   1      3.9663270474330261      3.3806721312614059      14.504041331875442
    69   1      16.188736244461211      2.0653314770240456      10.409860316379536
    70   1      2.5943030380644245      15.618981977094904      4.9721635438297653
    71   1      12.112575964277994      14.283957273578153      6.3336396847897731
    72   1      5.3084415811042618      15.630794304811616      2.2369601697333508
    73   1       2.607001655388558      7.4796350223163017      13.162421777078862
    74   1      3.9755084918587329      11.550941881321478      6.2965415778449483
    75   1      3.9188292737190693      6.1191478656958225     0.87681924280506252
    76   1      1.2297055369590026     0.67998209610728111      9.0733978866132929
    77   1      8.0098605785096311      4.7402175139168321      10.404477360279543
    78   1       13.45671178336363      2.0457693473199754      13.119661832131214
    79   1      2.5719893222562575      7.4539131555054041      7.6918646370745591
    80   1      16.214456651157434      15.643698798304854      7.6921045825860688
    81   1      14.839403390544135      3.3879393653488421      3.5862046867126196
    82   1      14.852001259955728        14.2907915836646      3.5995783637212639
    83   1      5.3273690476298157      7.4933041291940867      15.854532543434289
    84   1      16.183478858223225      2.0450317460569067      4.9665343150546732
    85   1      8.0114837393227845      12.962126166260191      13.119484671550708
    86   1      12.084785114973329       3.399102672092738      11.751924719446947
    87   1      16.208801140318201      10.199551239123139      7.6982575058244151
    88   1      9.3641135321748834      11.552678444374351      6.3155912072982687
    89   1      12.127888673574375      14.279834883147146     0.87726652460035126
    90   1      3.9584068987336423      14.277821871715901      9.0557811163605493
    91   1      16.199176064383892      10.199829634321077      13.116509931253859
    92   1       10.73758597530059      12.951957927666967      10.389899575369327
    93   1      10.757077532795392      15.642789633567531      2.2287372905914538
    94   1      14.797690834522996     0.66480882776231454      6.3218283304828446
    95   1        6.66710846143053     0.66186992111310161      14.500534136427291
    96   1      1.1955330131169859      6.1048187869851631      14.521755443106485
    97   1      2.5757544712969036      4.7542993465426093      4.9351384426186655
    98   1      16.199509943939461      4.7412877779732412       13.14824114336011
    99   1      16.194428744872198      12.960713748665057      15.838888874811687
   100   1         14.856566551838      6.1183491829688705      6.3296414041060984
   101   1       12.11711984114504      8.8409135610903604     0.89364073726509474
   102   1      7.9977941908395564      15.645580399415394      10.409297685524962
   103   1      5.2688826942280116      2.0565900138202551       15.86066113142806
   104   1      3.9595798575221579     0.67816102891762142      11.778954362301306
   105   1      16.193607187015346      12.934395668362072      4.9668146570721774
   106   1       1.230969387886006     0.67118867715632291      3.5972173582925961
   107   1       1.215106945414675      11.551778040325075      14.526093930509319
   108   1      10.745278832815643      2.0346311058779918      4.9320975104565719
   109   1      8.0457983809931193      12.958388272693469      7.6808943088201431
   110   1      6.6421916045101739     0.66693292958504458      9.0468617625189154
   111   1      8.0312220561975778      2.0114627362803503      2.2555939098568842
   112   1      13.468642867073868      4.7514487159930923      15.886311452619907
   113   1      14.851001568108586      3.4013169359966184      9.0301230078904382
   114   1      16.191843368488549      2.0257695482422236      15.875849244272217
   115   1        16.2145559389553      4.7706711256828953      2.2236429504921205
   116   1      14.823699370514987     0.67200579383104042     0.88402369196149522
   117   1      12.092303732137225      11.583395363486716      14.507838603438927
   118   1      9.3645204174641776      6.1192607812306505      11.820590992359371
   119   1      1.2400087144833947      11.593930577568131      3.5834601578294496
   120   1      3.9472343445968079      14.304129244511273      3.5828843859428048
   121   1      2.6144443465893801      10.169982943554714      10.418716398585275
   122   1      2.5889823801905436      2.0561987030874889      7.6880162614974665
   123   1      6.6548926553587648      6.1043987606637984      3.5936398339876234
   124   1      5.3156540608914042      4.7424656038106718      7.6572350973394236
   125   1      13.514072875056286      10.215715681979646      4.9407530702470126
   126   1      5.3117579882349446       15.66448596422083      7.6891473636653132
   127   1      12.155446877940904     0.68355791694513357      14.487748398927579
   128   1       6.637833162206789     0.66281966487075294      3.6364216806553884
   129   1      5.3084980388716758       4.772811167090822      2.2448922427025764
   130   1      6.6053392835355567      8.8304620602502837      11.777067894141851
   131   1      14.856028256228001      8.8431728451967047      14.496121669880949
   132   1      6.6530475571150873      3.3713405383766712      11.819716870374236
   133   1      10.741999415256714      12.917248081624734      4.9804881442939859
   134   1       7.996911308166375      7.5346487363172514      7.6494916225156544
   135   1      16.193237291297805      12.925068455821361      10.416754977872529
   136   1      9.4102950125097777      0.6693774657407161     0.90110125403256802
   137   1      5.3295543525926519      10.240668068357081      13.133623448648791
   138   1      13.483922480437627      4.7644296221542959       4.959794912422069
   139   1      13.450092596839227      4.7570502025893688      10.410828859113622
   140   1      5.3259911860819784      12.909214530685631      10.391118284417644
   141   1      14.799423503936737      14.302449139225814      14.488768532380163
   142   1      8.0168443069977684      4.7542312078577993      15.845326033706669
   143   1      14.841728866515723      8.8432818670924007      9.0730182567979227
   144   1      10.733262089044501       12.94569111548401       15.84691269165296
   145   1      13.487312866711818      15.647177764869298      15.862262390521096
   146   1      16.190652888323939      7.4796729852978387      15.839268504627057
   147   1      5.2744111750905631      10.189616618877835      2.2597822488006898
   148   1      9.3890649451425361      14.275968499489068      3.5983562477387068
   149   1      10.692661166995549      10.212172470369524      2.2154813961665525
   150   1      3.9510333196274132      6.1203451597289131      6.3246959957035642
   151   1        9.37252768633914      14.316428277119485      9.0457958788065298
   152   1       2.589682261824521       12.90301780400705      7.6975323155360798
   153   1      8.0100343321558967      10.217769576621777       15.85556143757492
   154   1      14.823449204200756      6.1143650167270494     0.89336921677374903
   155   1      5.2954966911050292      12.965972108312826      15.871388107236726
   156   1      3.9823432886500711      6.1234109138404733      11.783648144274935
   157   1      14.826894101422795      3.3707423780650174      14.523470591144132
   158   1      2.5646242604856297       7.489168597731009      2.2571314106091336
   159   1      6.6260714517987935      11.600037750546676      14.479129828708892
   160   1      1.2355394251409706      8.8476028331191401      11.816969907966609
   161   1      2.5748178077332113      15.647635267467308      10.403737568844463
   162   1      2.5902663076943213      4.7524391604472953      10.429347006825424
   163   1      13.467480615792965      7.4762134869290549      13.145847528703712
   164   1      12.123275684612736      6.1268188214907582      3.6072911761368687
   165   1      14.857921538255937      14.287564730233953      9.0555007743430451
   166   1      1.2415397663958316      3.3857995672933612      11.784589431535096
   167   1      9.3575634577450728     0.66828815935542707       11.76782828848161
   168   1      9.3810985594784597      6.1343715079970593      6.3314149567307254
   169   1      1.2304611463030568      14.275588869673697      11.783226657838895
   170   1       8.031626994667306      7.4824442829500413      13.126154475383828
   171   1       6.636034300927804      14.292606019500113       11.76607323064286
   172   1      10.739049983614223      2.0169553226571537      10.406329759096593
   173   1      13.481711866820433      2.0455284283986828      2.2580439822806966
   174   1      10.746010836972459      4.8092118259261269      7.7291452583536966
   175   1      5.3193544781814808      12.962417215785308      4.9777815783923529
   176   1      5.3267996029067604      2.0316796057397113      10.421160630550389
   177   1      10.733645612499004      15.637586758277394      7.6782724295696312
   178   1      6.6714532759969529       8.838260046021901      6.3163772356980417
   179   1       5.297853802894565      7.4842192956893427      10.395434383395468
   180   1      16.211776854024833      10.199767336094965      2.2326486944519957
   181   1      1.2090692495593913      14.298014284254464      6.3350000249615164
   182   1      3.9345138255525569      0.6934797003489237      6.3336236235283536
   183   1      9.3580744978811481      8.8563771489031069      9.0397101208432105
   184   1       12.08050989920639      11.541062745433806      3.6002417424883788
   185   1      14.845654628170564      8.8355160038436225       3.619222503199552
   186   1      13.494415837898373      15.621920701229783      4.9489360395878066
   187   1      3.9290758717998244      8.8586792630399032      3.6028005934554415
   188   1      13.468273944766111      7.4924081054888347      2.2368309495846574
   189   1      1.2116627782499734      11.567787711026085      9.0586799306943249
   190   1       16.18829139619038      15.667152133616469      2.2352382078272228
   191   1       2.563334492523154      10.204579874062119      4.9580700302865921
   192   1      10.758794627652605      10.250372963893597      13.126232348166468
   193   1      5.2856224222662718      2.0799598792429776      4.9684397647048968
   194   1       1.216832800959935      8.8440245787568301      6.3092771847408358
   195   1      12.109090183845069      3.3974892453774146      0.9141018717418774
   196   1      9.3909708814976511      8.8926590517448858      14.501484184375499
   197   1      2.5932359375898102      2.0313115351655142        13.1398357498839
   198   1      6.6596326742970859       14.28683369948692     0.89746818453185284
   199   1      8.0093539187175793      7.4943554117597273      2.2440811490008912
   200   1      1.2196816063661089      8.8386620642622802     0.87596568410159392
   201   1      16.226580470004706      4.7478636477623013      7.6868909997883179
   202   1      12.081894087917817      6.1114934578671978      14.499241448235466
   203   1      9.3591841850337687      11.602119874072514      11.742148764996273
   204   1      1.2299381818971398      14.282714229285261     0.86757251908578326
   205   1      3.9595246165169726     0.65429600210590877      0.8956839852377243
   206   1      5.3055486072291842      4.7469807650891198      13.141650185719413
   207   1      13.473335675637713      7.5127256011845134      7.7132952268570989
   208   1      1.2297942389254786      3.4016442450361524      6.3107226982685916
   209   1      9.3654140076449721      3.3933802393309236       9.066181026482127
   210   1      2.6084882954796456      2.0482062787117172      2.2528484075639312
   211   1      10.766350234388256      7.4773708711610425      15.839089397226985
   212   1       10.72370125815587       4.771095045643392      2.2155368805241835
   213   1       8.028045820075647      15.657610770923498      4.9313246230888694
   214   1      8.0092040136109972      15.625954511370537      15.842439873700073
   215   1      12.118863218066394      14.288298681210335      11.745671535000952
   216   1      12.129626210037031      8.8555370962603774      11.773410793587118


Velocities

     1                       0                       0                       0
     2                       0                       0                       0
     3                       0                       0                       0
     4                       0                       0                       0
     5                       0                       0                       0
     6                       0                       0                       0
     7                       0                       0                       0
     8                       0                       0                       0
     9                       0                       0                       0
    10                       0                       0                       0
    11                       0                       0                       0
    12                       0                       0                       0
    13                       0                       0                       0
    14                       0                       0                       0
    15                       0                       0                       0
    16                       0                       0                       0
    17                       0                       0                       0
    18                       0                       0                       0
    19                       0                       0                       0
    20                       0                       0                       0
    21                       0                       0                       0
    22                       0                       0                       0
    23                       0                       0                       0
    24                       0                       0                       0
    25                       0                       0                       0
    26                       0                       0                       0
    27                       0                       0                       0
    28                       0                       0                       0
    29                       0                       0                       0
    30                       0                       0                       0
    31                       0                       0                       0
    32                       0                       0                       0
    33                       0                       0                       0
    34                       0                       0                       0
    35                       0                       0                       0
    36                       0                       0                       0
    37                       0                       0                       0
    38                       0                       0                       0
    39                       0                       0                       0
    40                       0                       0                       0
    41                       0                       0                       0
    42                       0                       0                       0
    43                       0                       0                       0
    44                       0                       0                       0
    45                       0                       0                       0
    46                       0                       0                       0
    47                       0                       0                       0
    48                       0                       0                       0
    49                       0                       0                       0
    50                       0                       0                       0
    51                       0                       0                       0
    52                       0                       0                       0
    53                       0                       0                       0
    54                       0                       0                       0
    55                       0                       0                       0
    56                       0                       0                       0
    57                       0                       0                       0
    58                       0                       0                       0
    59                       0                       0                       0
    60                       0                       0                       0
    61                       0                       0                       0
    62                       0                       0                       0
    63                       0                       0                       0
    64                       0                       0                       0
    65                       0                       0                       0
    66                       0                       0                       0
    67                       0                       0                       0
    68                       0                       0                       0
    69                       0                       0                       0
    70                       0                       0                       0
    71                       0                       0                       0
    72                       0                       0                       0
    73                       0                       0                       0
    74                       0                       0                       0
    75                       0                       0                       0
    76                       0                       0                       0
    77                       0                       0                       0
    78                       0                       0                       0
    79                       0                       0                       0
    80                       0                       0                       0
    81                       0                       0                       0
    82                       0                       0                       0
    83                       0                       0                       0
    84                       0                       0                       0
    85                       0                       0                       0
    86                       0                       0                       0
    87                       0                       0                       0
    88                       0                       0                       0
    89                       0                       0                       0
    90                       0                       0                       0
    91                       0                       0                       0
    92                       0                       0                       0
    93                       0                       0                       0
    94                       0                       0                       0
    95                       0                       0                       0
    96                       0                       0                       0
    97                       0                       0                       0
    98                       0                       0                       0
    99                       0                       0                       0
   100                       0                       0                       0
   101                       0                       0                       0
   102                       0                       0                       0
   103                       0                       0                       0
   104                       0                       0                       0
   105                       0                       0                       0
   106                       0                       0                       0
   107                       0                       0                       0
   108                       0                       0                       0
   109                       0                       0                       0
   110                       0                       0                       0
   111                       0                       0                       0
   112                       0                       0                       0
   113                       0                       0                       0
   114                       0                       0                       0
   115                       0                       0                       0
   116                       0                       0                       0
   117                       0                       0                       0
   118                       0                       0                       0
   119                       0                       0                       0
   120                       0                       0                       0
   121                       0                       0                       0
   122                       0                       0                       0
   123                       0                       0                       0
   124                       0                       0                       0
   125                       0                       0                       0
   126                       0                       0                       0
   127                       0                       0                       0
   128                       0                       0                       0
   129                       0                       0                       0
   130                       0                       0                       0
   131                       0                       0                       0
   132                       0                       0                       0
   133                       0                       0                       0
   134                       0                       0                       0
   135                       0                       0                       0
   136                       0                       0                       0
   137                       0                       0                       0
   138                       0                       0                       0
   139                       0                       0                       0
   140                       0                       0                       0
   141                       0                       0                       0
   142                       0                       0                       0
   143                       0                       0                       0
   144                       0                       0                       0
   145                       0                       0                       0
   146                       0                       0                       0
   147                       0                       0                       0
   148                       0                       0                       0
   149                       0                       0                       0
   150                       0                       0                       0
   151                       0                       0                       0
   152                       0                       0                       0
   153                       0                       0                       0
   154                       0                       0                       0
   155                       0                       0                       0
   156                       0                       0                       0
   157                       0                       0                       0
   158                       0                       0                       0
   159                       0                       0                       0
   160                       0                       0                       0
   161                       0                       0                       0
   162                       0                       0                       0
   163                       0                       0                       0
   164                       0                       0                       0
   165                       0                       0                       0
   166                       0                       0                       0
   167                       0                       0                       0
   168                       0                       0                       0
   169                       0                       0                       0
   170                       0                       0                       0
   171                       0                       0                       0
   172                       0                       0                       0
   173                       0                       0                       0
   174                       0                       0                       0
   175                       0                       0                       0
   176                       0                       0                       0
   177                       0                       0                       0
   178                       0                       0                       0
   179                       0                       0                       0
   180                       0                       0                       0
   181                       0                       0                       0
   182                       0                       0                       0
   183                       0                       0                       0
   184                       0                       0                       0
   185                       0                       0                       0
   186                       0                       0                       0
   187                       0                       0                       0
   188                       0                       0                       0
   189                       0                       0                       0
   190                       0                       0                       0
   191                       0                       0                       0
   192                       0                       0                       0
   193                       0                       0                       0
   194                       0                       0                       0
   195                       0                       0                       0
   196                       0                       0                       0
   197                       0                       0                       0
   198                       0                       0                       0
   199                       0                       0                       0
   200                       0                       0                       0
   201                       0                       0                       0
   202                       0                       0                       0
   203                       0                       0                       0
   204                       0                       0                       0
   205                       0                       0                       0
   206                       0                       0                       0
   207                       0                       0                       0
   208                       0                       0                       0
   209                       0                       0                       0
   210                       0                       0                       0
   211                       0                       0                       0
   212                       0                       0                       0
   213                       0                       0                       0
   214                       0                       0                       0
   215                       0                       0                       0
   216                       0                       0                       0
