(written by ASE)

216 atoms
1 atom types

0.0      16.331106185913086  xlo xhi
0.0      16.331106185913086  ylo yhi
0.0      16.331106185913086  zlo zhi

Atoms # atomic

     1   1      2.7665359748965273      6.2064807313119559      3.7828935709328277
     2   1      15.003786994238567      7.5871038427035842      13.331150682044608
     3   1      13.628207118932664      8.9481093400335112      11.916473802804489
     4   1      4.0820941862203881      12.992241518126662      7.8302012550905715
     5   1      4.0973017672602055      15.747366940194411       10.61316084319833
     6   1      8.1862497317627003       3.507641269831538      1.0615280686353259
     7   1      4.1049479011056746      7.5885026325617559      7.8612072769084875
     8   1    0.029109599022477006     0.76874897684810861       1.088864213895107
     9   1      15.005705584920861       15.73738462286974      16.066573316694644
    10   1      13.627937484422773      6.2315523603878091      14.692320198922971
    11   1        13.6288349682427      6.1914756195070026      3.8337023980236609
    12   1      10.887704258625149       8.944030753042739       3.807443209012547
    13   1      9.5523729310267527      10.271598164211923      16.055483259036919
    14   1      14.961765867316217      10.304373845015334      5.1486310565703661
    15   1      9.5871470221146637      7.5845943922830088      2.4412633086286348
    16   1      2.7390074595283807      3.5298016735988824      11.917424824162481
    17   1      16.318769190323337      3.4906951789192817      9.1917518618989789
    18   1      10.934713137275594      8.9478455459823181      9.2295483903631066
    19   1       15.00845644096762      15.736183435197518      10.595577168878208
    20   1      1.3963170322942773      13.031460198283753      10.590200053236913
    21   1      6.8417887938095419      2.1565426505680989      16.022047606400633
    22   1      9.5727240093599448      10.292294803018081      10.561395884348144
    23   1      12.289957508804832      4.8460227769849666      13.312995616181865
    24   1      12.287192051611328       2.168475194393011      10.572780885170118
    25   1      8.1933935861601412      6.1999204360794238      3.7922516892341491
    26   1      2.7471931057460779      8.9270827153109167      1.0732499909184412
    27   1      4.1197520037904383      7.5691342114045028      2.3927074384805564
    28   1      5.4999784506954938      14.358351089653752      3.8030246586550618
    29   1      5.4668820313685842      3.5161082314765224      14.694472407953185
    30   1      14.982974519668232      2.1391577951961551      13.299958738958139
    31   1      6.8218285395042244      4.8594456111876525      7.8552796980349058
    32   1       9.583916275044885      13.015094259602165      2.4650938402311624
    33   1      12.240570590054517      4.8815230317709961      2.4371749875400326
    34   1      1.3992164550091672      13.009137965139985      5.1396192287993472
    35   1      12.301837001796571      10.295344495868221      13.304801452628567
    36   1      12.255071475591876      2.1477337787368356      5.1672635799316708
    37   1      2.7475900135850964      11.645673147993307      9.2410317055731639
    38   1      6.8580734527742493      10.319886103317231      13.307145423386032
    39   1      14.977184678278945      13.038566089699657      2.4719388578252222
    40   1    0.013635397811071148      14.386158486924728      3.8110652668150919
    41   1      1.4097093257650215      15.711572715653915      7.8788892656166922
    42   1      8.1762829889945579      0.8094027672159001       14.67150869776242
    43   1      4.1317268909409108      2.1724070398589959      13.309100030230297
    44   1      9.5819207849897339      4.8561958826271052      16.031280398192393
    45   1      5.4815625110109067      6.2313980749372035      1.0699647329008144
    46   1    0.023289696001375759      11.664793836360786      6.4997194550310837
    47   1       10.92409713018219     0.81045210296197467      1.0698077705733056
    48   1      8.1941771810354567      8.9055246088468039      1.0618905421032707
    49   1      2.7404313146884647      14.382036096493721      1.0647297350878375
    50   1      2.7733909699408628      14.382412806079742      6.4725238458087233
    51   1      8.1950474093814591        6.22036690857135      9.2291366380248974
    52   1      8.1913396915180101      14.358638245539737       1.083970274534849
    53   1      2.7207509156957599      14.390615730321088      11.973131119224036
    54   1      4.0983661908579165       15.74068058839498      16.033264207330149
    55   1    0.013197376717057785      8.9552765562657441      14.695915001251592
    56   1       1.406121824009773      7.5708556866057393      5.1582366643090154
    57   1      9.5598097817688767      2.1578105168104571      13.322352031016067
    58   1   0.0051758479591317297      6.2041085316707836      1.0881769865883086
    59   1      2.7535940051266437      6.2319840676265699      9.2308702808484213
    60   1      4.1288095818212582      13.023400365280509      2.4478175200500232
    61   1      5.4497427186144023      11.658753828657268      1.0987541789666153
    62   1      6.8132211634980422      7.5816517745089982      5.1417621904366229
    63   1      1.3767083005968459      7.5807148675928602      10.605648066493131
    64   1    0.021863106928659004      14.404185062696115      9.2147603489397625
    65   1      2.7523429302030422      8.9722284876366984      11.946934715143925
    66   1      13.637491501442923      11.657597417835063      9.2112940367024976
    67   1      9.5619629642088739      10.293749077233883      5.1965023762885494
    68   1      12.246353617575323      7.5659754966586661       5.211342495135284
    69   1      12.293669120307413      2.1609193443049151      16.045917561099373
    70   1      12.233527970274508      15.751665517796141      2.4141932692682815
    71   1      8.1689191439861588      8.9372042302345562      6.5052012122240512
    72   1      9.5975810015786465      13.001780934000067      13.322021071689846
    73   1      13.603756038593474      8.9526025995918417      1.0772409710287434
    74   1      2.7603767244945914      11.665577431236102      3.7857395777858756
    75   1      10.954635915304266      6.2467020235455379      11.932045439103149
    76   1      1.3894047277489676      2.1624137716742666      10.579000000273709
    77   1      6.8446326104905779      13.023028522743402       16.06815510759202
    78   1      4.1203910473129781      10.331332428955534      5.1612678623732791
    79   1      5.4705941295760567      8.9481054463943792      14.663439130661345
    80   1      5.4843800456278018      6.2205348217589176      11.943521940444725
    81   1      10.917158665248962      14.389428170385827      3.8055367859525404
    82   1      13.617156971076042     0.77515005874300869      14.685500489983269
    83   1      1.3942201859454713      15.758930075006674      13.303677164329201
    84   1      8.1953890762152923      6.2345582497977148      14.673384458414262
    85   1      13.630767186661956      3.5285123923412982      11.952585358934243
    86   1      2.7333947787195996     0.81590836898624985       14.67858441347505
    87   1       13.60591214126282     0.79094703940643285      3.8231277608460346
    88   1      5.4611895309575971      14.368989485172165      14.662326523279376
    89   1      10.913581384296435      14.341218104063159      9.2332823902906966
    90   1      8.2364328997155098      11.665372041771889      3.8041968873862402
    91   1      13.654605018837856     0.78201253687505101      9.2319157229553639
    92   1      6.8167497739614191      2.1536900731990158      10.579400071694522
    93   1      1.3931543022330857      2.1221907759735643      16.086784224019084
    94   1      10.880079539794906     0.79401766056690803      6.5432561809855656
    95   1        6.83922531914601       10.27725172823159      2.4388183466061832
    96   1      13.647367717101247       11.63618824306775      14.663071181763371
    97   1    0.040192188802023132      8.9168735935068071      3.8136362854044421
    98   1       15.01562268379007       7.627782150830285      7.8717128019915208
    99   1      6.8349836860165851      4.8897201155536436      13.322568127987893
   100   1      9.5615580257391457      15.736149365855113      10.604451745869824
   101   1      5.4520321784240195     0.78174667432806899      1.0800215160738844
   102   1       2.748702620967066      11.674095740247139      14.690361698439574
   103   1      13.654727668470514      6.2578052222353335      9.2279860676613907
   104   1      6.8118029054442104      15.725575215382378      13.278290637188547
   105   1      8.2241659896301371      14.383178879578963      6.5120428228838705
   106   1      1.3973482382831435      4.8807287293880677      7.8803849097482725
   107   1      15.002974197069761      15.779390175235562      5.1764126584820929
   108   1       9.564007124753175      2.1640731920018368      7.8969523442549416
   109   1      12.257479691395019      15.749590208138784      7.8571505916378328
   110   1      12.269209279280176      7.5970345693097556      16.049647667387831
   111   1      4.0978390894604217      10.284998123284709      16.033510480005248
   112   1       13.61256247690028      8.9424353344084011      6.4976183500144771
   113   1      4.1027548088645744      2.1343440404667717        7.88127947333885
   114   1      10.927007625433362     0.80014600520823365      11.895981580052762
   115   1      14.994206695154276      10.327539051031181      10.555700463707808
   116   1      9.5720903195912115      2.1748948319118995      2.4350205883378067
   117   1      6.8267131097953211      15.729795920201468       7.904917756509235
   118   1      6.8177465455792117      7.5946156459989993      10.594228022918969
   119   1      1.3665613553426255      2.1574917251065244      5.1362341962789628
   120   1      8.1955438483707894     0.79176981402551405      9.2381728010404913
   121   1      12.269106097843178      13.009245040216115      16.035806753683346
   122   1    0.025449623866978577      6.2422992910970265      11.941575120878724
   123   1      10.950319816326441      3.5161284297295197      14.682088688693852
   124   1      8.1863237109062084      3.5247457831859776      11.937331054224842
   125   1       10.94105100837271      14.409678014101587      14.697466616445695
   126   1      5.4439027466212906     0.79302612102669912      11.923821099846577
   127   1       13.66802736633565      14.388648469149643      6.4936152022818874
   128   1        4.11563253358878      15.746121949081953      5.1430879745610696
   129   1      6.8463852348048704      13.007574669028486      5.1518598568205789
   130   1      15.005608243942561      13.019575838243099      7.8577818478821087
   131   1      8.1944156664322918      11.622836954484114      9.2220073847742015
   132   1      1.3862733901532778      4.8772429489551428      2.4237429059444082
   133   1      8.1942355856224367      3.4966188641537315      6.5071567924780993
   134   1      8.1960266596231577      8.9413217536166485      11.957467008995991
   135   1       12.27583819990241      10.308907014374768      7.8683910411070315
   136   1      9.5411368619015775       15.75619382010666      5.1894432085422295
   137   1      9.5878478771584241      4.8595716677545511      10.572636820522234
   138   1      10.912485324880777      11.669101174650564      6.5091401149109629
   139   1    0.035072186426809093      14.388930757986714      14.673375697726215
   140   1      14.975937740346922      4.8245941340219929      5.1855422688368549
   141   1      5.4463158294733489      11.665367174722974      11.952252452788457
   142   1      5.4830347933076951      11.668823752862409       6.509361078931704
   143   1      5.4511001385567965      14.356327370714894      9.2062420399287248
   144   1         5.4820209870187     0.78730460083655629      6.5177460308024706
   145   1      8.2027840703367474      11.644504082843923      14.663947250568071
   146   1      2.7480409456670714      3.4972656949545353      6.5014905741312532
   147   1      5.4707401410435068      3.5381598567006165      3.7698408758001278
   148   1      5.4681956478707434      6.2510891814375213      6.5560088225526556
   149   1    0.045293259117434204      11.639144488578722      11.946859762590634
   150   1      12.302439542452248      13.032100701920967      10.574800710469844
   151   1      10.897447117143201      11.640576374369516      1.0888704193824736
   152   1      4.1254133550883694      10.304917981084031       10.56405134623617
   153   1      5.4530352772054016      8.9111557844414619      3.7820131217841038
   154   1      12.294791461787213      15.753395266980533      13.279025561574713
   155   1      6.8255236030404944      4.8835705992495377       2.398670303458772
   156   1      12.233155154327619      10.301787495221902      2.4409742059230837
   157   1      1.3659796213210598      4.8866748030475264      13.270078952259155
   158   1    0.057786293055874349     0.76964700821103804      11.928670627385486
   159   1      9.5585414288216271      15.753194744565235       16.03140888828375
   160   1   0.0044547181394370416       3.516274197844524      14.691177415837728
   161   1      5.4413898892664747      3.5206910447348889      9.2309501004506274
   162   1      13.603961428057687      11.688174165938676       3.829767632328327
   163   1      13.611025462852922      3.5341464881653053       1.077719523613311
   164   1      13.616716989854126      14.380382273272403      1.0784507977127902
   165   1    0.041569833614088392      6.2503128871355784      6.5267972816697011
   166   1       2.775180827179355     0.77046138717074086      9.2459737070414576
   167   1      6.8015611744123703      7.5842322838437326       16.02115109599049
   168   1      1.3846104412152442      10.321133041249254      2.4285221046264951
   169   1    0.025606162228898333      11.662323322331531      1.0933922728531797
   170   1      8.1936310981471934     0.78929637976690969      3.7724681088044463
   171   1      4.0947451064651545      4.8942858941408076      10.570451515559398
   172   1      14.973276438000198      2.1425970953119418      2.4304275542767186
   173   1      4.1169914136458488      4.8666400828938094      16.042254620085941
   174   1      12.243654352247063      13.063915627268557      5.2036107012289108
   175   1    0.046984128946235604      3.5246657202313258      3.7914578735561122
   176   1      9.5553174956203293      4.8641423133906301      5.1542646656894817
   177   1      6.8086140149951007      2.1707855825129627      5.1556770832846155
   178   1      9.5539459612360815      7.5714290249679266      13.304067501652185
   179   1      2.7526164583520654      0.7792480530913295       3.792057980687332
   180   1      2.7603246470712008      8.9718595653289412      6.4872359612689934
   181   1       13.63238402031152      3.4809859030387429      6.5354922645563533
   182   1      1.3733748587949606      10.330292827307289      13.341016190195319
   183   1      15.001550098557232      13.001849072684877      13.324580166009355
   184   1      8.2049849498561116      14.353736153872546      11.978114977312998
   185   1      4.1034488500398538      7.5702867285875755       13.32567525201523
   186   1      15.006489179796176      4.8453657253814413      10.582802138886109
   187   1      14.993433807786573      4.8736277050210788      16.031085716235793
   188   1      14.995315408897113      2.1144670126979008      7.8297763617202918
   189   1      15.000515363957902      10.283867021116862      16.042827958448129
   190   1      6.8242732581742303       13.04408532316927      10.577775450766694
   191   1    0.048564147933615853     0.79921718976091682      6.5013294748121666
   192   1      4.1225296286062303      2.1732407653381358      2.4467255976259423
   193   1      10.925624410131718      3.4855645793055317      3.8089483438895115
   194   1      4.1216774083412133      13.000482405349544      13.323007135800026
   195   1      6.8117469343816879      10.293199100706488      7.8868984813112206
   196   1      14.955870897670366      7.5754399599787803       2.461597838995516
   197   1      12.264519390945679      4.8794053787880785      7.8605322172239767
   198   1      2.7353150728690139      3.5414066650318148      1.0785303739625505
   199   1      10.893508701161181      6.2014871391251631        6.50837355470685
   200   1    0.069976512899398102      8.9435206863164467      9.2634853490376372
   201   1      9.5663530423302063      7.5835581975690047      7.8487714802257642
   202   1      6.8244552858036513      15.741019334999464      2.4564365769736014
   203   1      10.948938547844364      11.656417645178067       11.97428753004624
   204   1      10.903362528394496      6.2366861235833539      1.0752069096109409
   205   1      1.3758720199170256      13.007517237851289      16.033405351748684
   206   1       1.384262933922713      10.306611714106452      7.8422525549090096
   207   1      1.3893135922580342      7.5564511686368974      16.031818693802393
   208   1      1.4104779544649233      15.732918618785334      2.4345550551090867
   209   1      4.1139426942054911      4.8707639334394912      5.1436871082825064
   210   1        5.44459678779657      8.9362911718581017      9.2496483289722846
   211   1      9.5429425370490435      13.003464932924658      7.8799921389008318
   212   1      2.7488522827212023      6.2267534501576165      14.687699422683067
   213   1       10.95191231473143      3.5155387867534671      9.2127784866215734
   214   1      10.914719300332763      8.9455463520748708      14.644223048135132
   215   1      13.613890207844292      14.393067749564466      11.973335535278466
   216   1      12.307983111166436      7.5880125207360152      10.598065204283557


Velocities

     1                       0                       0                       0
     2                       0                       0                       0
     3                       0                       0                       0
     4                       0                       0                       0
     5                       0                       0                       0
     6                       0                       0                       0
     7                       0                       0                       0
     8                       0                       0                       0
     9                       0                       0                       0
    10                       0                       0                       0
    11                       0                       0                       0
    12                       0                       0                       0
    13                       0                       0                       0
    14                       0                       0                       0
    15                       0                       0                       0
    16                       0                       0                       0
    17                       0                       0                       0
    18                       0                       0                       0
    19                       0                       0                       0
    20                       0                       0                       0
    21                       0                       0                       0
    22                       0                       0                       0
    23                       0                       0                       0
    24                       0                       0                       0
    25                       0                       0                       0
    26                       0                       0                       0
    27                       0                       0                       0
    28                       0                       0                       0
    29                       0                       0                       0
    30                       0                       0                       0
    31                       0                       0                       0
    32                       0                       0                       0
    33                       0                       0                       0
    34                       0                       0                       0
    35                       0                       0                       0
    36                       0                       0                       0
    37                       0                       0                       0
    38                       0                       0                       0
    39                       0                       0                       0
    40                       0                       0                       0
    41                       0                       0                       0
    42                       0                       0                       0
    43                       0                       0                       0
    44                       0                       0                       0
    45                       0                       0                       0
    46                       0                       0                       0
    47                       0                       0                       0
    48                       0                       0                       0
    49                       0                       0                       0
    50                       0                       0                       0
    51                       0                       0                       0
    52                       0                       0                       0
    53                       0                       0                       0
    54                       0                       0                       0
    55                       0                       0                       0
    56                       0                       0                       0
    57                       0                       0                       0
    58                       0                       0                       0
    59                       0                       0                       0
    60                       0                       0                       0
    61                       0                       0                       0
    62                       0                       0                       0
    63                       0                       0                       0
    64                       0                       0                       0
    65                       0                       0                       0
    66                       0                       0                       0
    67                       0                       0                       0
    68                       0                       0                       0
    69                       0                       0                       0
    70                       0                       0                       0
    71                       0                       0                       0
    72                       0                       0                       0
    73                       0                       0                       0
    74                       0                       0                       0
    75                       0                       0                       0
    76                       0                       0                       0
    77                       0                       0                       0
    78                       0                       0                       0
    79                       0                       0                       0
    80                       0                       0                       0
    81                       0                       0                       0
    82                       0                       0                       0
    83                       0                       0                       0
    84                       0                       0                       0
    85                       0                       0                       0
    86                       0                       0                       0
    87                       0                       0                       0
    88                       0                       0                       0
    89                       0                       0                       0
    90                       0                       0                       0
    91                       0                       0                       0
    92                       0                       0                       0
    93                       0                       0                       0
    94                       0                       0                       0
    95                       0                       0                       0
    96                       0                       0                       0
    97                       0                       0                       0
    98                       0                       0                       0
    99                       0                       0                       0
   100                       0                       0                       0
   101                       0                       0                       0
   102                       0                       0                       0
   103                       0                       0                       0
   104                       0                       0                       0
   105                       0                       0                       0
   106                       0                       0                       0
   107                       0                       0                       0
   108                       0                       0                       0
   109                       0                       0                       0
   110                       0                       0                       0
   111                       0                       0                       0
   112                       0                       0                       0
   113                       0                       0                       0
   114                       0                       0                       0
   115                       0                       0                       0
   116                       0                       0                       0
   117                       0                       0                       0
   118                       0                       0                       0
   119                       0                       0                       0
   120                       0                       0                       0
   121                       0                       0                       0
   122                       0                       0                       0
   123                       0                       0                       0
   124                       0                       0                       0
   125                       0                       0                       0
   126                       0                       0                       0
   127                       0                       0                       0
   128                       0                       0                       0
   129                       0                       0                       0
   130                       0                       0                       0
   131                       0                       0                       0
   132                       0                       0                       0
   133                       0                       0                       0
   134                       0                       0                       0
   135                       0                       0                       0
   136                       0                       0                       0
   137                       0                       0                       0
   138                       0                       0                       0
   139                       0                       0                       0
   140                       0                       0                       0
   141                       0                       0                       0
   142                       0                       0                       0
   143                       0                       0                       0
   144                       0                       0                       0
   145                       0                       0                       0
   146                       0                       0                       0
   147                       0                       0                       0
   148                       0                       0                       0
   149                       0                       0                       0
   150                       0                       0                       0
   151                       0                       0                       0
   152                       0                       0                       0
   153                       0                       0                       0
   154                       0                       0                       0
   155                       0                       0                       0
   156                       0                       0                       0
   157                       0                       0                       0
   158                       0                       0                       0
   159                       0                       0                       0
   160                       0                       0                       0
   161                       0                       0                       0
   162                       0                       0                       0
   163                       0                       0                       0
   164                       0                       0                       0
   165                       0                       0                       0
   166                       0                       0                       0
   167                       0                       0                       0
   168                       0                       0                       0
   169                       0                       0                       0
   170                       0                       0                       0
   171                       0                       0                       0
   172                       0                       0                       0
   173                       0                       0                       0
   174                       0                       0                       0
   175                       0                       0                       0
   176                       0                       0                       0
   177                       0                       0                       0
   178                       0                       0                       0
   179                       0                       0                       0
   180                       0                       0                       0
   181                       0                       0                       0
   182                       0                       0                       0
   183                       0                       0                       0
   184                       0                       0                       0
   185                       0                       0                       0
   186                       0                       0                       0
   187                       0                       0                       0
   188                       0                       0                       0
   189                       0                       0                       0
   190                       0                       0                       0
   191                       0                       0                       0
   192                       0                       0                       0
   193                       0                       0                       0
   194                       0                       0                       0
   195                       0                       0                       0
   196                       0                       0                       0
   197                       0                       0                       0
   198                       0                       0                       0
   199                       0                       0                       0
   200                       0                       0                       0
   201                       0                       0                       0
   202                       0                       0                       0
   203                       0                       0                       0
   204                       0                       0                       0
   205                       0                       0                       0
   206                       0                       0                       0
   207                       0                       0                       0
   208                       0                       0                       0
   209                       0                       0                       0
   210                       0                       0                       0
   211                       0                       0                       0
   212                       0                       0                       0
   213                       0                       0                       0
   214                       0                       0                       0
   215                       0                       0                       0
   216                       0                       0                       0
