(written by ASE)

216 atoms
1 atom types

0.0      16.331106185913086  xlo xhi
0.0      16.331106185913086  ylo yhi
0.0      16.331106185913086  zlo zhi

Atoms # atomic

     1   1      10.288751591407959      1.5689300856466417      13.405939702492105
     2   1      8.9433328182283276      11.085390157815596      12.021236057290139
     3   1      10.284742116511779      9.7150102375704819      10.685689606129699
     4   1      8.9190734996163883      8.3704597459172874      9.2692109453812463
     5   1      4.8543069809431927      15.203329185885195      5.2197040851712586
     6   1      3.5186072177419305       5.651562689153252      6.5826028645291217
     7   1     0.81618098456360144      11.128128687748017      9.3094857751528934
     8   1      2.1273659090848867      1.5645385474106348      5.2450769845749505
     9   1       13.00757272220892      7.0023162346486174      16.084607679744295
    10   1      7.5734989808714772      7.0040133746052788      5.2227717861023848
    11   1      10.300218358651705      15.197694116651405      16.122333149294263
    12   1      8.9609320671049772      5.6495185286089509      12.063718580449631
    13   1      11.666666676783279      8.3483049392561952      12.009958131544295
    14   1     0.75187631753635742         2.9524331515575      12.002409338677126
    15   1     0.78880517285516305       13.84486769502314      12.021581617763104
    16   1       13.03110879735209      12.445892888992603      16.096874589829667
    17   1      3.4964855070134604      11.064859972082331      12.052271281401545
    18   1      2.1177486204288414      4.3353204141043875      13.392537796599754
    19   1      4.8592796448196509      1.6070127965869716      7.9094626067860645
    20   1      15.706829289781354      1.5841897441098496      13.369281090064305
    21   1      8.9290782053660678      8.3599780693739376      3.8824463796123041
    22   1      11.662909315020897      11.084485860127188      3.8745281777324863
    23   1      14.389087476961777      2.9448327679718318      14.757542548023139
    24   1      4.8772667974948263      12.448450036492545      13.385341378074031
    25   1      2.1222722990428906      9.7414363663593804      2.4672088163371768
    26   1      13.024164491960164      15.181705860965621      2.5041884106409213
    27   1      14.372095635789719      0.2162946652692348      1.1103440825479112
    28   1      7.5799395467007002      15.157524415136322      13.446511422247568
    29   1      10.280795913251495      4.3269914332961434      10.672060895757909
    30   1      10.333427206808551      9.7149109497726158      16.114778515968396
    31   1      6.2171931059738768      11.115949384543114      9.3039022966376024
    32   1      4.8401978928434914      15.225346741766884       16.06581308365412
    33   1      11.676566254276395      8.3560678822756245       6.563985915724345
    34   1       2.117065286761175      4.2726211431617571      2.5062802682645895
    35   1      6.2106303772168872      13.852349322615282      1.1042560127363572
    36   1      4.8602608418809155      12.441141675841777      2.4601104688470912
    37   1      4.8473427206507154      4.3305886691492219      5.2344809323820982
    38   1       2.163173031305007      1.6117675383482606      10.658361126471959
    39   1      2.1688441167007682      4.3025997309537161      7.9148324218539869
    40   1      14.356083044859361     0.22572020740755683      6.5879021073877766
    41   1     0.76369004452963196      11.041619813513194      3.8999003470788409
    42   1       13.02925639853504      6.9854207610450771      5.1806211956788957
    43   1      4.8527115623088548      9.7320556162806042      16.114028017025703
    44   1      13.020934718300168      1.6116160514507811      5.2183364444261429
    45   1      7.5770733415946552      9.7442135044702809      2.5377452527951903
    46   1       13.01146246770179      12.446279332676454      5.2268284713730395
    47   1      4.8557826701742215      15.173112599401293      10.697809531337839
    48   1      15.735957604127861      7.0194550606979078      13.368023444624669
    49   1      11.645910659980359      5.6294658003742484      14.752857526737557
    50   1      2.1251144122568064      6.9916831928840111      16.143501891845176
    51   1      6.1796555045120272      13.808748351615122      6.6032367184042755
    52   1      13.032471571048291      1.5787515470046714      16.131051007310816
    53   1       14.38093614343893      11.084883011318652      11.984177373441526
    54   1      3.4801662920014564     0.21233986862571008      1.1161567990670989
    55   1       3.497962413006718      13.846387187694404      9.3337947376637658
    56   1      14.375472394326948      5.6475644084695773      12.003986262525586
    57   1      10.283867021116862      12.480020635984602      13.385020152845641
    58   1      8.9337096891135843     0.21306280790392229      12.022116019733971
    59   1      6.2107909898310822     0.21029776136766998      3.8586433468361463
    60   1      6.2006831026444047      2.9311699882576363      1.1403106243938055
    61   1       7.557639701981941      15.200227902316556      7.9384444229602309
    62   1      2.1405417405551361       12.43624055758437      10.669843468272234
    63   1      10.312840563307873      7.0086784409903089      2.4597663684888005
    64   1      7.5892365835381383      7.0292047330844412      16.106717709555369
    65   1      3.4894937478946133      11.107071887322149      1.1249998619169901
    66   1      7.6136029772262077       7.022483825237714      10.653995383595202
    67   1      14.371672202534114      8.3884279171016942      3.8418004373608881
    68   1      3.5076965108367233      2.9518800114483099      9.2916898975000777
    69   1      15.754658752878868      9.7517924730407231      10.631314935651289
    70   1      4.8656072951140459      4.2830074255463728      16.110844967035291
    71   1      6.2262560377585032      8.3730918459705208      1.1570973194540954
    72   1      15.727703089168017      7.0446366850792401      7.9416810104887077
    73   1      11.700121797615225       0.213160726844281      3.8491589286154806
    74   1       14.38737232892413      11.081009813792093      6.5790148760689817
    75   1      2.1499448790589213      15.180397598217269      2.4716451314232017
    76   1      14.398453625893808      13.823223928498123      14.717991935130044
    77   1      13.030235648776738      15.198995565531277      7.9743622705431676
    78   1      2.1372474784970166      15.184836346827751      13.421164804908017
    79   1      10.301151858633602      7.0224069258648569      13.388330719517626
    80   1      3.4986676483945018     0.21705380322375234      6.5966063376673674
    81   1      0.7969866212431711      8.3520671680674923      6.5928640637566218
    82   1      6.2287114639361221     0.20653165412676877      14.787457377474311
    83   1      11.662502429731603      2.9571318005800435      1.1130323970161129
    84   1      7.5340340280392866       12.46813043548525        5.23128279454005
    85   1      10.312113426199971       1.559058006979896      7.9294486564506315
    86   1      7.5822513949353265      4.2854390031843081       7.956811692155668
    87   1      13.017572560909684      6.9776135278805214      10.653822116653828
    88   1      15.741897350623731      15.178968632655824      5.2378416296579076
    89   1      8.9650612714044655       2.916879845938297      14.765369736088246
    90   1      7.5532934273008436      15.234417947534666      2.4756195635671929
    91   1       6.220295849657191      2.9557077020675138      12.063164710283104
    92   1      7.6038085279896563      1.5669013779826457      16.091388452292676
    93   1      8.9134793135934842      11.099029575694999      6.5879697593676951
    94   1      11.609273462567785      5.6390850358498597      9.3002909463426704
    95   1      11.657809621167758     0.20683871928472186      9.3207656477183036
    96   1       7.578591860856136      12.467827705042737      10.655631685440426
    97   1      11.661612733189941      2.9540061817668288      6.5774262713031248
    98   1     0.77508982901268553     0.21648729393957389      3.8254225744094583
    99   1      2.1387438526859341       15.17849360868172      7.9534782503537826
   100   1       2.120287029790461      9.6979376033864355      13.395583595810763
   101   1      7.5772480686507038      9.7390485921616801      13.376186459064911
   102   1       6.233132204465619      13.835525881335684      12.021361627152146
   103   1      4.8424703179819062      7.0337072400357101      2.5142571180838331
   104   1      15.765639788640897      12.453120456631382      2.5170831700363294
   105   1      8.9601776745231518      8.3888445364888184      14.758943284700877
   106   1      13.051661371510363      9.7504530611793143      13.366228476984816
   107   1      6.2217627782001728      11.060858284464416      14.749469087282932
   108   1      3.4854326822799351       5.631533809458233      1.1712308644745946
   109   1      3.5261676915264957      13.818241043818944      14.740547786621732
   110   1      0.7921997569590431      2.9189339839328738      6.5999650881236107
   111   1       14.35524591244598      11.108294490009598      1.1556117744490138
   112   1      14.362450118249967      8.4048746487952712      9.3244597378447907
   113   1      11.634991922444442       2.924769575581962      12.010583060624981
   114   1      2.1323560943374389      9.7211972301512333      7.9831876903407419
   115   1      6.2304280720884435      5.6924205913849164      14.728993412497516
   116   1      7.5665580824137919      12.461520009648893      16.105055125646004
   117   1      0.7754593597015571     0.23219038618752208      14.725947613286507
   118   1      10.311058249995199      4.2857938110502118      5.2059376373151736
   119   1      7.5764294310232003      1.6133118529689909      5.2196948377783201
   120   1      12.996582925758844      4.3283021295689537      7.9426422526494207
   121   1      3.5220455444479342      5.6556286218168452      12.023584895096519
   122   1      4.8374192946179164      6.9718718702754927      7.9309180185180708
   123   1     0.75728975353018058      13.842599650228749      6.6080108066850016
   124   1      8.9625839435067292      5.6577029580644194      1.1282510505922119
   125   1     0.76599063771364229      5.6553385457015111      9.2566802412446805
   126   1     0.78489005786982347      13.824465025971449      1.1212782729641333
   127   1      3.4717197719619151      8.3986633209699448      3.8560217109380801
   128   1      15.748424063218749      9.7183373522087777      16.117101071710636
   129   1     0.78114674971118347      5.6703577719483178      14.756989651266395
   130   1      10.299224507263261      15.236392995984374      5.2025535782045722
   131   1      10.329603653180925      12.462455456450357      7.9346666195924058
   132   1      4.8308288236821113      1.5714905184046017      2.4857836651688388
   133   1      3.5061407586510427      13.834775382392991      3.8273983529165037
   134   1      8.9344718689736737      2.8813929755367838       9.277698105279228
   135   1      10.297048936398255      12.439948275447819      2.4903655050174223
   136   1      3.5286934465609363       2.927336943884626      14.726935624216253
   137   1      11.664049177876791      13.787801546494734       1.149055007826945
   138   1      3.4715798443056087       8.364370094314836       14.79219009583926
   139   1      4.8608667894708333       1.555376571180588      13.408477381796388
   140   1      14.373766006977348      5.6633170989878749      1.1426336668409363
   141   1     0.78687210270234687      5.6645635502150071      3.8510254418743841
   142   1      10.281865690603013       15.19260902394501      10.650051127154484
   143   1      13.033244458415993      4.2885592682437164      2.4879804076966252
   144   1      3.4732553258945984     0.20414705872039107      12.035786586726431
   145   1      10.293176712281479      1.5819467646173706      2.5090960994143643
   146   1      3.4949407056878385      2.9303223916890886      3.8732182115170133
   147   1      13.000225425166832      12.449170359731966      10.671144917152105
   148   1       11.67624016199909      11.104004673095915      14.726809080944463
   149   1      2.1340744059568806      12.457816185424576        5.22594948233899
   150   1      6.1741907819902622     0.25302237458210008      9.3237559625716813
   151   1      2.1065407801873732      1.6166255832227705      16.064511634774249
   152   1      8.9526863128331797     0.23750231379241171      6.5915207582560811
   153   1      10.286405673830927      9.7365741844932927      5.2165969611439209
   154   1      8.8929024041906359      13.826483877861392       9.277646514560729
   155   1      7.5937108616057003       4.280698010836204      13.378751393843118
   156   1       11.66682923621704      5.6329530409218478      3.8844058535054842
   157   1      11.669923705917199       8.389800424895725      1.1399086061534263
   158   1     0.77775685014188412      8.3912157627202077      1.1382325161833222
   159   1      7.5628732396802434      4.3339191907217582      2.4795321841899636
   160   1      4.8719339719986579      4.2973038950293017      10.646414468205194
   161   1      13.023673893429532      9.7482346602838561      2.5160808013122846
   162   1      15.730395540627796      15.171999992019323      10.675403584952733
   163   1      4.8264660010347029      9.7338359827737122      5.2447703604933054
   164   1      11.686404506953181      13.873021626176865      6.5579123253833131
   165   1      13.002406836490536      9.7369139045075599      7.9637934738242393
   166   1      2.1497869433216295      12.471869302461755      16.073353115833243
   167   1      14.392088499322767      8.3561107123060765      14.750308166515879
   168   1      14.367887585297808      2.9153257972197366      3.8711728342104834
   169   1       3.503540051063311      8.3297955522324401      9.3267092878533049
   170   1      15.749817012618223      9.7040399093160659       5.226777367359432
   171   1      6.2243642158452417      5.6625812011919265      9.2950024109916285
   172   1      3.4933343361934419      11.135684294483667      6.5852237703698506
   173   1      8.9510665589542668     0.22271958049429053      1.1220095470636124
   174   1      11.715430613272474     0.21632099296195939      14.765539109390488
   175   1      6.1998634916071182      11.082738589566702      3.8704795230925413
   176   1       7.593997530786794      1.5760135886375366      10.671593659062069
   177   1       8.945896779596751      5.6586325644071849      6.5797006432611056
   178   1     0.79496010375118686      8.3870193931456924      12.016837218480759
   179   1      15.748005497012059      15.179616923571302      16.101587839998956
   180   1      12.993050421656335      4.3137331053467847      13.365855661037926
   181   1      15.745621616453491      1.5677948464872173       7.944991090455801
   182   1      8.9553729238342612      2.9489670826726808       3.817072421938434
   183   1      14.353404221136543     0.22273237170722027      11.996754801247675
   184   1      4.8596086573263051      9.7367503716640158      10.705573447767051
   185   1     0.79786853050656958       11.05584425067218      14.754696297817645
   186   1      12.984498043302892      1.5706036204160654      10.651766275192131
   187   1       7.576810520953245      9.7251327259039044      7.9233755528144911
   188   1      11.658665248367015      11.056390333560444      9.2745218691572973
   189   1      10.291968710740775      4.2872763141497217      16.117812634262009
   190   1      4.8386146418314411      7.0374076573257867      13.395146534818196
   191   1      15.737962828280843      12.428159309565899      13.408729494930185
   192   1      15.734223961304338      1.5895562739197544      2.4722683570367678
   193   1      13.009677234159767       15.18135835367309      13.386667162198478
   194   1     0.77158330278376042     0.21582429541065551      9.2852332704094351
   195   1      15.751806662214676      12.436856725977009      7.9627348906852262
   196   1      6.2432683205360036      8.3681819670250661      12.024886343976391
   197   1      8.9428539006150913       11.07969181694591      1.1562376769394831
   198   1      15.747591797854284      4.3113745334425744      16.114732765708595
   199   1      6.1906019842267597      2.9328885432295237      6.5915762426137121
   200   1      4.8674723482582749      12.443681301965626       7.960537904804994
   201   1      6.2125392338013512      8.3671881156366226      6.5816708246618987
   202   1      10.315720882855771      7.0079951073226425      7.9048101947282134
   203   1      14.339501009205947      13.807436195227638      3.8383910695959287
   204   1      8.9712336628384719      13.824263530146368      14.775425059146642
   205   1      14.382263874382943      5.6555721640494312      6.5824208368997006
   206   1      15.739338256304222      4.2709347107127087       5.239639030822218
   207   1      11.656610380315101      13.841118120539022      12.007546995511802
   208   1      2.1450279428925398      7.0205102369026804      5.2152998926080727
   209   1       6.217712906797999      5.6491515531207597      3.8876748069092457
   210   1      14.364917712049873      2.9527232276728341      9.2839804920187134
   211   1      14.394579454957466      13.815173829592709      9.3395135201388939
   212   1      15.716337556541703      4.3220723069577502       10.65835820624261
   213   1      2.1552341444673004      6.9878017213742964      10.649736715794575
   214   1      0.7693224368865188      2.9264713392350927      1.1554781739562969
   215   1       15.74586788912859      7.0062522171061801      2.4815142898605984
   216   1      8.9563502272563937      13.837235188914633      3.8603543578822155


Velocities

     1                       0                       0                       0
     2                       0                       0                       0
     3                       0                       0                       0
     4                       0                       0                       0
     5                       0                       0                       0
     6                       0                       0                       0
     7                       0                       0                       0
     8                       0                       0                       0
     9                       0                       0                       0
    10                       0                       0                       0
    11                       0                       0                       0
    12                       0                       0                       0
    13                       0                       0                       0
    14                       0                       0                       0
    15                       0                       0                       0
    16                       0                       0                       0
    17                       0                       0                       0
    18                       0                       0                       0
    19                       0                       0                       0
    20                       0                       0                       0
    21                       0                       0                       0
    22                       0                       0                       0
    23                       0                       0                       0
    24                       0                       0                       0
    25                       0                       0                       0
    26                       0                       0                       0
    27                       0                       0                       0
    28                       0                       0                       0
    29                       0                       0                       0
    30                       0                       0                       0
    31                       0                       0                       0
    32                       0                       0                       0
    33                       0                       0                       0
    34                       0                       0                       0
    35                       0                       0                       0
    36                       0                       0                       0
    37                       0                       0                       0
    38                       0                       0                       0
    39                       0                       0                       0
    40                       0                       0                       0
    41                       0                       0                       0
    42                       0                       0                       0
    43                       0                       0                       0
    44                       0                       0                       0
    45                       0                       0                       0
    46                       0                       0                       0
    47                       0                       0                       0
    48                       0                       0                       0
    49                       0                       0                       0
    50                       0                       0                       0
    51                       0                       0                       0
    52                       0                       0                       0
    53                       0                       0                       0
    54                       0                       0                       0
    55                       0                       0                       0
    56                       0                       0                       0
    57                       0                       0                       0
    58                       0                       0                       0
    59                       0                       0                       0
    60                       0                       0                       0
    61                       0                       0                       0
    62                       0                       0                       0
    63                       0                       0                       0
    64                       0                       0                       0
    65                       0                       0                       0
    66                       0                       0                       0
    67                       0                       0                       0
    68                       0                       0                       0
    69                       0                       0                       0
    70                       0                       0                       0
    71                       0                       0                       0
    72                       0                       0                       0
    73                       0                       0                       0
    74                       0                       0                       0
    75                       0                       0                       0
    76                       0                       0                       0
    77                       0                       0                       0
    78                       0                       0                       0
    79                       0                       0                       0
    80                       0                       0                       0
    81                       0                       0                       0
    82                       0                       0                       0
    83                       0                       0                       0
    84                       0                       0                       0
    85                       0                       0                       0
    86                       0                       0                       0
    87                       0                       0                       0
    88                       0                       0                       0
    89                       0                       0                       0
    90                       0                       0                       0
    91                       0                       0                       0
    92                       0                       0                       0
    93                       0                       0                       0
    94                       0                       0                       0
    95                       0                       0                       0
    96                       0                       0                       0
    97                       0                       0                       0
    98                       0                       0                       0
    99                       0                       0                       0
   100                       0                       0                       0
   101                       0                       0                       0
   102                       0                       0                       0
   103                       0                       0                       0
   104                       0                       0                       0
   105                       0                       0                       0
   106                       0                       0                       0
   107                       0                       0                       0
   108                       0                       0                       0
   109                       0                       0                       0
   110                       0                       0                       0
   111                       0                       0                       0
   112                       0                       0                       0
   113                       0                       0                       0
   114                       0                       0                       0
   115                       0                       0                       0
   116                       0                       0                       0
   117                       0                       0                       0
   118                       0                       0                       0
   119                       0                       0                       0
   120                       0                       0                       0
   121                       0                       0                       0
   122                       0                       0                       0
   123                       0                       0                       0
   124                       0                       0                       0
   125                       0                       0                       0
   126                       0                       0                       0
   127                       0                       0                       0
   128                       0                       0                       0
   129                       0                       0                       0
   130                       0                       0                       0
   131                       0                       0                       0
   132                       0                       0                       0
   133                       0                       0                       0
   134                       0                       0                       0
   135                       0                       0                       0
   136                       0                       0                       0
   137                       0                       0                       0
   138                       0                       0                       0
   139                       0                       0                       0
   140                       0                       0                       0
   141                       0                       0                       0
   142                       0                       0                       0
   143                       0                       0                       0
   144                       0                       0                       0
   145                       0                       0                       0
   146                       0                       0                       0
   147                       0                       0                       0
   148                       0                       0                       0
   149                       0                       0                       0
   150                       0                       0                       0
   151                       0                       0                       0
   152                       0                       0                       0
   153                       0                       0                       0
   154                       0                       0                       0
   155                       0                       0                       0
   156                       0                       0                       0
   157                       0                       0                       0
   158                       0                       0                       0
   159                       0                       0                       0
   160                       0                       0                       0
   161                       0                       0                       0
   162                       0                       0                       0
   163                       0                       0                       0
   164                       0                       0                       0
   165                       0                       0                       0
   166                       0                       0                       0
   167                       0                       0                       0
   168                       0                       0                       0
   169                       0                       0                       0
   170                       0                       0                       0
   171                       0                       0                       0
   172                       0                       0                       0
   173                       0                       0                       0
   174                       0                       0                       0
   175                       0                       0                       0
   176                       0                       0                       0
   177                       0                       0                       0
   178                       0                       0                       0
   179                       0                       0                       0
   180                       0                       0                       0
   181                       0                       0                       0
   182                       0                       0                       0
   183                       0                       0                       0
   184                       0                       0                       0
   185                       0                       0                       0
   186                       0                       0                       0
   187                       0                       0                       0
   188                       0                       0                       0
   189                       0                       0                       0
   190                       0                       0                       0
   191                       0                       0                       0
   192                       0                       0                       0
   193                       0                       0                       0
   194                       0                       0                       0
   195                       0                       0                       0
   196                       0                       0                       0
   197                       0                       0                       0
   198                       0                       0                       0
   199                       0                       0                       0
   200                       0                       0                       0
   201                       0                       0                       0
   202                       0                       0                       0
   203                       0                       0                       0
   204                       0                       0                       0
   205                       0                       0                       0
   206                       0                       0                       0
   207                       0                       0                       0
   208                       0                       0                       0
   209                       0                       0                       0
   210                       0                       0                       0
   211                       0                       0                       0
   212                       0                       0                       0
   213                       0                       0                       0
   214                       0                       0                       0
   215                       0                       0                       0
   216                       0                       0                       0
