(written by ASE)

216 atoms
1 atom types

0.0      16.331106185913086  xlo xhi
0.0      16.331106185913086  ylo yhi
0.0      16.331106185913086  zlo zhi

Atoms # atomic

     1   1      5.4934400571830793      9.6706899167406846      11.966525560436594
     2   1      10.910871411460562      9.6595511885938095      6.5730770763926785
     3   1      13.648874555445332      9.6661246248584121      9.3022124572543134
     4   1      10.899796928359365       9.642390947529293      1.1064998439623963
     5   1      1.3939644225249879      8.2824781026807841      10.612529100249162
     6   1      2.7932877092578394      12.380672486712001       11.95888429364004
     7   1      8.2160419115812147      12.364627773258803      11.995447511909106
     8   1      14.996590575712844      2.8012789168713823      13.339904556223132
     9   1      1.3887564368334893      5.5761735615745351       7.924107070266416
    10   1    0.056784703820132343      12.380481698394533      14.701698028772398
    11   1      10.923304774618828      1.4925147408041965      14.720857653531198
    12   1      13.652110169564025      9.6260795197955531      14.711293902413217
    13   1    0.014509103435380477      4.1932322747846911      11.994066243427028
    14   1       6.826496039413712      2.8091270332468241      5.2052630643355542
    15   1      9.5555783694421734      13.735014507372398      2.4755224659413386
    16   1    0.043102376060255576      12.388967884882732      9.2680788698036167
    17   1      5.4702865320846286      15.051767335852446      6.5371855108738828
    18   1      9.5491694394308979      2.8544854956101915      13.361958128266792
    19   1       10.92832756909911       4.208514321672908      1.0807749352459268
    20   1      5.4764905593365825       12.36174258666199      3.8126419473111071
    21   1      10.941810268003451       4.208653519271877       11.98330617168574
    22   1      10.958852726484224      4.2229723771798149      6.5663887777736818
    23   1      2.7982433384630951      1.4978508515583826      12.003382748460126
    24   1      1.3720550368054347      11.020747960946096      2.4767285206624763
    25   1      2.7673604529827287      4.2143980971062547      9.3201699209311073
    26   1      1.4094044051504966      13.748224651537498      16.095356070568187
    27   1       2.761444555026543      6.9343542237141946      6.5380012282720372
    28   1      12.243729304800354      8.3122040906340544       10.65572707959916
    29   1      4.1308503354313189      2.8498423309452789      13.345164862690467
    30   1      14.995914055913659      8.3237847468224118      13.341844561920652
    31   1      5.4721588858022301      6.9189616948156072      9.2734579322644777
    32   1      8.1933828786525282      9.6360306880071676      3.8229097170546424
    33   1      2.7482794310639065      6.9458477597269734      11.975435180180398
    34   1       10.92390244822559      15.095547414252678      6.5251916422326417
    35   1      9.5349566831893071       5.541230097184382      10.597945474880248
    36   1      15.016380970011028     0.15683587549421318      5.1663519816698908
    37   1    0.066723894528557537      15.090479842922377      11.959980353055698
    38   1      12.256258062117354      10.985286642551387      2.4824672580381559
    39   1       2.762435972890529      4.1752879521399677      3.8131403331200033
    40   1      2.7631207666728699       1.486438960291153      1.1182055833078692
    41   1      8.1800345102982419       15.08904016985332      14.683212003583435
    42   1      8.1706167706477117      6.9610076436874238      6.5442291040636746
    43   1      10.933615131040369      15.104733482374854      1.0918996706271713
    44   1      1.4164051683098364      8.3209316827484372      5.1996956470816826
    45   1      9.5394314479617606      5.5983030595812693       16.05886391121328
    46   1      6.8222767947092962      2.8299309904815573      10.618203105874272
    47   1      10.926646490403868      6.9106906318894517       9.272168164302002
    48   1      15.030986983804951       2.854013635217882      2.4799599977895923
    49   1      13.653254899468834      12.380713369922887      6.5650990098112061
    50   1      5.5051852196247637      12.394577645462164      9.2750475104401175
    51   1       9.565732980298435     0.11834902458436769       16.06813563939636
    52   1      13.647131178523978      12.377397936201987      11.980732476219487
    53   1    0.030852631828263144      9.6634730566095186      6.5865354400524438
    54   1       1.388692435140257        13.7266714121223      10.633401926226043
    55   1      6.8394302219053316     0.08281418333198598      7.9095599477643646
    56   1       4.137572216687829    0.097834375383811789      16.076068929127814
    57   1      5.4824147312759237      1.4746049742067697      14.701552017304948
    58   1      5.4807180780241538      15.081633494814469      1.1175998790703972
    59   1      5.5132572202502956      6.9157426286632244      3.8190445501587931
    60   1       5.491199267862612      12.357021549214437       14.72508225198942
    61   1      4.1292427491746935      5.5592960960519804      16.090564947616258
    62   1      2.7533672006472045      1.4723628464478509      6.5598387033438712
    63   1    0.052762787530164168      9.6744151559802276      1.0894042129722266
    64   1      15.019412168075291     0.12357638721435915      10.613752676346394
    65   1       2.774680251198447      4.1971989196504182      14.709297438948283
    66   1      12.299821070135977      8.3251115043566415      5.2090004711973847
    67   1      8.1923461972336327       4.194926007807112      14.692793276077509
    68   1      5.4864188524182964      1.4723716071358979      3.8028360605096054
    69   1      5.4903655423834721      6.9502237234064523      14.719535763045883
    70   1       1.401918397214331      2.8254087719821825      5.1857315970396485
    71   1    0.067009575090340334      6.9151605296129901      3.8227186853847286
    72   1      10.934529162826607      6.9199720941703617      3.8531326307021345
    73   1    0.035225346372353084      1.5001689052803755      9.2735766882580037
    74   1      10.950017085883928       6.949592953867068      14.690349044112395
    75   1      6.9005973458495191      5.5644507875578597      2.4981980468363361
    76   1      2.7774573893093475      6.9355140414706398      1.0947735413352575
    77   1      6.8493526745283475      5.6119478312144793      13.340068089066676
    78   1      1.3870387335951619      11.025033884220647      13.332018963571045
    79   1      15.023225014195305      8.2891459596943378      7.9054906081665308
    80   1      14.980542942030297        13.7249650247727      2.4580431898204438
    81   1      13.692636139059687      9.6918810477166062      3.8459968069354034
    82   1       4.111119319129898      11.017116169045721      5.2316093735222466
    83   1      2.7389777705299991      12.356264236403263      1.0934033453894614
    84   1      1.4132946373482582      2.8435329320843152      10.621572077133237
    85   1      9.5812355045025015      2.8450159218887165      7.9309579283191738
    86   1      2.7736730154254872      12.388321540786819      6.5633634201681161
    87   1      12.273343350628579     0.10702004805826348      2.4708320909019506
    88   1      13.622855311945727      12.354182112877425      1.1385548364977183
    89   1      13.681310516234475      4.1962201561136112      14.674737498012632
    90   1      13.633378845109746      1.4872225551664684      6.5602519157967549
    91   1      9.5672242440859918      8.3053795146454377      2.4446546683126087
    92   1      4.1113222750696536    0.071367561107889443      5.1604589588436056
    93   1      5.4939715389245976      4.2196837122279476      1.1110555234230617
    94   1      14.990017139448241      11.017864721168849      10.606421927270617
    95   1      13.660433796618463      15.084763007266815      14.708119613110853
    96   1      1.3942860127820467      11.048513501596403      7.8845082735890628
    97   1      5.4894335025162491      9.6581514253258547      1.1146779462542753
    98   1      15.037454318403206     0.11288770139207926      16.058278891933696
    99   1      13.645590270837488      1.4423139297990701      1.0892264440106061
   100   1      13.658227076640401      6.9379076561270381      6.5279381179353777
   101   1       12.28184316485374      5.5673505753014183      7.8996613436810321
   102   1      9.5723560604619706      13.756101483501538      7.9100266977553133
   103   1      6.8514163032683086      11.021118830073419      7.9106535736555657
   104   1     0.02512286617282955      4.1953718294877262      6.5499980171426273
   105   1      8.1786435077183341      12.395283367554839      1.1048680441374188
   106   1      13.635256552581154       1.467521349539652      11.968709891989647
   107   1      1.3971343314833291     0.12567652642594673      13.320008060258601
   108   1      4.1266836548551851      11.016741406279266      10.613239689390753
   109   1      4.1195227657865416      8.3035903874642827      2.4888820285081295
   110   1      6.8323150830964892     0.13724513666823945      13.347483524793574
   111   1      4.1208071799952108      5.5734961979663922      5.2033435002434771
   112   1      6.8451660390516622      2.8428624960962736      16.066475975716344
   113   1      5.4821811129280036      1.4634100316449263      9.2477423926171696
   114   1      1.3931064834774958      5.5776385432979509       2.462046824257925
   115   1      2.7683567378956297      15.092280651020928      3.8318042489468098
   116   1     0.04210190092242927      12.403420099930941      3.8294147712819893
   117   1      15.013146329302117      2.8264174678698168      7.9347649339804889
   118   1    0.029893216712084225      15.093303704702862      1.1132860919408074
   119   1      8.2133767155953592      1.4868851470004358      11.990742049018081
   120   1      8.1923822133956037      1.4809418718941032      6.5768227572376645
   121   1      14.993801756684547      11.025031937401081      16.061025854341324
   122   1      10.915562273204841      12.381433693162307      9.2622500920230095
   123   1      10.939609388484087      15.075780381789286      11.978198690554336
   124   1      9.5568788449122621      11.047347356676369      10.642210311352414
   125   1      12.298249013336431      11.005836296480311      13.387325187211786
   126   1      8.1866780320672206      4.2000008797107853      3.8682859441465496
   127   1      8.2135061790964983      6.9272721808379742      11.955846281707295
   128   1      4.1273786694402474      2.8773856908126163      2.4475963126768363
   129   1      2.7770237352510208      9.6278462585516991      9.2928920585820833
   130   1      4.1452577736295098      5.5819653497833883      10.629433334540749
   131   1      8.2082857824302664      12.409737529422614      6.5582783274617213
   132   1      13.655726386907872      6.9339862748162204       12.00140185955172
   133   1      5.4714156874329092      4.1954482421556918      6.5546080858749178
   134   1      12.297564706258981      2.8357950543667982      16.090448138442298
   135   1      10.929195850625547      1.4642603050903773      3.8457855770124922
   136   1      14.989955814631912      5.5720180752109059      16.042530095054531
   137   1      1.4072074192702644     0.11440503431038707      7.9334031336940711
   138   1      4.0903710896052417       8.309655703822159      13.327607470434486
   139   1      10.935312757701922      12.360284418807055      3.8300270460354966
   140   1      8.1860638104941472      1.4483541808550342      1.0839455742616053
   141   1      12.300495643115596      5.5723135050800465      2.4882330075353138
   142   1      13.653778593932088      6.9231862932738295       1.124079624643386
   143   1      9.5355709047623805      8.2860855593365841       13.32522748351505
   144   1      12.290030514538557      13.721773214094242      10.623420582311155
   145   1      2.7880831305005813      9.6576471990582604      3.8160479081418259
   146   1      15.037517590039101      8.2862685603757882      2.4573990358965432
   147   1       6.864009792335878    0.070185354926435295      2.4934894203635167
   148   1      1.4122616062160489      8.2954487880392662      16.073531249823532
   149   1      4.1129186671137745     0.11190879336475756      10.640092171664605
   150   1      8.2259843191047821      4.1843898203159142      9.2755702314935888
   151   1      9.5548979560038561      5.5644478673285107       5.189468030491696
   152   1      4.1135908065689364      2.8438305521254676      7.9198011920913132
   153   1    0.054245206977270755      6.9215173822008751      14.704178276899484
   154   1      12.306275750407053      13.723811534179845      16.101641377537021
   155   1      12.251301459502315      2.8610591752272398      5.1551830778197427
   156   1    0.038956517327761286      6.9156798437322209      9.2723910751423091
   157   1      2.7775403724933483      15.084735751792891      14.663253209392792
   158   1       6.844697828946039      8.2665433845330654      10.626357359626468
   159   1      6.8285942242009696      13.752591367824039      5.1559238426646061
   160   1      1.4007741540144139       5.573106834053192       13.35464198033776
   161   1      9.5510578544099189      2.8351265651983226      2.4881600018015888
   162   1      12.277417070570436      5.5537817296312824      13.345922175501642
   163   1      4.1187508518286222      13.724150280784329      7.9124110650187731
   164   1      1.3912579782995778     0.12065102464970501      2.4485079109386163
   165   1      15.014296899665624      5.5422687254228435      5.1960512008541286
   166   1      15.015168101421409      13.736748150195922      7.8975475843372465
   167   1       12.29209803691765        13.7547523375423       5.163962747357516
   168   1      8.2309866719796219      9.6546091871255157      14.712929230848658
   169   1      9.5738054676288584     0.12074115631179971      5.1998533394665287
   170   1      8.2316758461059862      9.6299235150286222      9.3120984070104669
   171   1      2.7222971771360562      9.6510572148273468      14.723690275999729
   172   1      15.025980737290979      11.042648707653825      5.1749846663304311
   173   1      9.5668893911206396      13.733277944319525       13.37470687619475
   174   1      8.1873214559337839      15.083934635541482      9.2567513001588395
   175   1      5.4775822384082176      15.102471278039161      11.990566835257141
   176   1      8.2011292737056465      6.9382926396962148      1.0970682332224584
   177   1      15.018106825556288      13.729941095583399      13.340327989478737
   178   1      6.7961173802009398      13.742801785636402      16.052133755973614
   179   1      10.910443111156042      9.6558171886662194       11.99437189409889
   180   1    0.052237781245132009       1.436199699599598       14.71126567352951
   181   1      4.1417705330819103      8.2801584671678938       7.894850265828552
   182   1      9.5749949743836851       11.04308187500726      16.073054279029861
   183   1      4.1314699107581987      13.728509209792605      13.297396724409282
   184   1       9.571131510954956      11.040355354205076      5.2081954613068433
   185   1       5.485757907175639      9.6664847864781223      6.5857464914233219
   186   1    0.028534905111119224      15.115092509285546      6.5610179892959763
   187   1      13.638717997769504       4.228658063722321      3.7868159256534284
   188   1      8.2354186067216233      15.084825305492927      3.8295792775353164
   189   1      13.639302043639304      4.1819217398111164      9.2835804205979002
   190   1       6.855673997659153      8.2791548816816203       16.06759734378636
   191   1      13.647110736918535      15.083517042744575      3.8101595090120099
   192   1      10.937780351501829      12.385208576300784      14.725619574189636
   193   1      1.4001274448898329      13.737254323283082      5.1500376337068019
   194   1    0.049331559871288899      1.4894514202170939      3.7891151195608757
   195   1       12.28201837861468     0.11743730464636482      13.372028052471933
   196   1      12.263500230902878     0.11555856292706235      7.9279023950103351
   197   1      2.7885313857056531      15.089840312694946      9.2833974195586961
   198   1      6.8539028785589835      11.017713842652483      13.359487614237537
   199   1      4.0955233475866635      11.008440167649837      16.069030202986937
   200   1      12.305985674291719      11.005378793882301      7.9097877256535867
   201   1      9.5422971663629141      8.3329786022228518      7.9255379826474268
   202   1      6.8651905384026577      13.709640634558923      10.635892881860741
   203   1      12.276260659748232      2.8169401068700779      10.642660026672161
   204   1      6.8114539380370047      8.3191376885183672      5.1813225374275476
   205   1      5.4904258937900181      4.2046250628849293      11.985350332230041
   206   1    0.030281552080962948      4.2099067843674902      1.0800202993116557
   207   1      14.985864573313961      5.5464470869163733      10.621648976506094
   208   1      6.8636423301427953      11.019500049604289      2.4402913589603088
   209   1      9.5663890584921774    0.095963953276248404      10.635770232228083
   210   1      10.906237980893479      1.4889076491770652      9.2586523694650396
   211   1      12.309145362447339      8.2940938016213295      16.106805316435839
   212   1      6.8502477248238165      5.5648104624726784      7.9100982433743638
   213   1      1.4087151093479093      2.8409541262167011      16.048297548018809
   214   1      13.637793258475654      15.097091242168517      9.2872511488895952
   215   1      4.1126650938653029      13.718262125006959      2.4418288597125581
   216   1    0.058482566229367094       9.647821600708653      11.986119325958612


Velocities

     1                       0                       0                       0
     2                       0                       0                       0
     3                       0                       0                       0
     4                       0                       0                       0
     5                       0                       0                       0
     6                       0                       0                       0
     7                       0                       0                       0
     8                       0                       0                       0
     9                       0                       0                       0
    10                       0                       0                       0
    11                       0                       0                       0
    12                       0                       0                       0
    13                       0                       0                       0
    14                       0                       0                       0
    15                       0                       0                       0
    16                       0                       0                       0
    17                       0                       0                       0
    18                       0                       0                       0
    19                       0                       0                       0
    20                       0                       0                       0
    21                       0                       0                       0
    22                       0                       0                       0
    23                       0                       0                       0
    24                       0                       0                       0
    25                       0                       0                       0
    26                       0                       0                       0
    27                       0                       0                       0
    28                       0                       0                       0
    29                       0                       0                       0
    30                       0                       0                       0
    31                       0                       0                       0
    32                       0                       0                       0
    33                       0                       0                       0
    34                       0                       0                       0
    35                       0                       0                       0
    36                       0                       0                       0
    37                       0                       0                       0
    38                       0                       0                       0
    39                       0                       0                       0
    40                       0                       0                       0
    41                       0                       0                       0
    42                       0                       0                       0
    43                       0                       0                       0
    44                       0                       0                       0
    45                       0                       0                       0
    46                       0                       0                       0
    47                       0                       0                       0
    48                       0                       0                       0
    49                       0                       0                       0
    50                       0                       0                       0
    51                       0                       0                       0
    52                       0                       0                       0
    53                       0                       0                       0
    54                       0                       0                       0
    55                       0                       0                       0
    56                       0                       0                       0
    57                       0                       0                       0
    58                       0                       0                       0
    59                       0                       0                       0
    60                       0                       0                       0
    61                       0                       0                       0
    62                       0                       0                       0
    63                       0                       0                       0
    64                       0                       0                       0
    65                       0                       0                       0
    66                       0                       0                       0
    67                       0                       0                       0
    68                       0                       0                       0
    69                       0                       0                       0
    70                       0                       0                       0
    71                       0                       0                       0
    72                       0                       0                       0
    73                       0                       0                       0
    74                       0                       0                       0
    75                       0                       0                       0
    76                       0                       0                       0
    77                       0                       0                       0
    78                       0                       0                       0
    79                       0                       0                       0
    80                       0                       0                       0
    81                       0                       0                       0
    82                       0                       0                       0
    83                       0                       0                       0
    84                       0                       0                       0
    85                       0                       0                       0
    86                       0                       0                       0
    87                       0                       0                       0
    88                       0                       0                       0
    89                       0                       0                       0
    90                       0                       0                       0
    91                       0                       0                       0
    92                       0                       0                       0
    93                       0                       0                       0
    94                       0                       0                       0
    95                       0                       0                       0
    96                       0                       0                       0
    97                       0                       0                       0
    98                       0                       0                       0
    99                       0                       0                       0
   100                       0                       0                       0
   101                       0                       0                       0
   102                       0                       0                       0
   103                       0                       0                       0
   104                       0                       0                       0
   105                       0                       0                       0
   106                       0                       0                       0
   107                       0                       0                       0
   108                       0                       0                       0
   109                       0                       0                       0
   110                       0                       0                       0
   111                       0                       0                       0
   112                       0                       0                       0
   113                       0                       0                       0
   114                       0                       0                       0
   115                       0                       0                       0
   116                       0                       0                       0
   117                       0                       0                       0
   118                       0                       0                       0
   119                       0                       0                       0
   120                       0                       0                       0
   121                       0                       0                       0
   122                       0                       0                       0
   123                       0                       0                       0
   124                       0                       0                       0
   125                       0                       0                       0
   126                       0                       0                       0
   127                       0                       0                       0
   128                       0                       0                       0
   129                       0                       0                       0
   130                       0                       0                       0
   131                       0                       0                       0
   132                       0                       0                       0
   133                       0                       0                       0
   134                       0                       0                       0
   135                       0                       0                       0
   136                       0                       0                       0
   137                       0                       0                       0
   138                       0                       0                       0
   139                       0                       0                       0
   140                       0                       0                       0
   141                       0                       0                       0
   142                       0                       0                       0
   143                       0                       0                       0
   144                       0                       0                       0
   145                       0                       0                       0
   146                       0                       0                       0
   147                       0                       0                       0
   148                       0                       0                       0
   149                       0                       0                       0
   150                       0                       0                       0
   151                       0                       0                       0
   152                       0                       0                       0
   153                       0                       0                       0
   154                       0                       0                       0
   155                       0                       0                       0
   156                       0                       0                       0
   157                       0                       0                       0
   158                       0                       0                       0
   159                       0                       0                       0
   160                       0                       0                       0
   161                       0                       0                       0
   162                       0                       0                       0
   163                       0                       0                       0
   164                       0                       0                       0
   165                       0                       0                       0
   166                       0                       0                       0
   167                       0                       0                       0
   168                       0                       0                       0
   169                       0                       0                       0
   170                       0                       0                       0
   171                       0                       0                       0
   172                       0                       0                       0
   173                       0                       0                       0
   174                       0                       0                       0
   175                       0                       0                       0
   176                       0                       0                       0
   177                       0                       0                       0
   178                       0                       0                       0
   179                       0                       0                       0
   180                       0                       0                       0
   181                       0                       0                       0
   182                       0                       0                       0
   183                       0                       0                       0
   184                       0                       0                       0
   185                       0                       0                       0
   186                       0                       0                       0
   187                       0                       0                       0
   188                       0                       0                       0
   189                       0                       0                       0
   190                       0                       0                       0
   191                       0                       0                       0
   192                       0                       0                       0
   193                       0                       0                       0
   194                       0                       0                       0
   195                       0                       0                       0
   196                       0                       0                       0
   197                       0                       0                       0
   198                       0                       0                       0
   199                       0                       0                       0
   200                       0                       0                       0
   201                       0                       0                       0
   202                       0                       0                       0
   203                       0                       0                       0
   204                       0                       0                       0
   205                       0                       0                       0
   206                       0                       0                       0
   207                       0                       0                       0
   208                       0                       0                       0
   209                       0                       0                       0
   210                       0                       0                       0
   211                       0                       0                       0
   212                       0                       0                       0
   213                       0                       0                       0
   214                       0                       0                       0
   215                       0                       0                       0
   216                       0                       0                       0
