(written by ASE)

216 atoms
1 atom types

0.0      16.331106185913086  xlo xhi
0.0      16.331106185913086  ylo yhi
0.0      16.331106185913086  zlo zhi

Atoms # atomic

     1   1       4.838483231510736      14.566537160173425      16.146136912127758
     2   1       14.37921028789367      13.190345010114015      6.6365424208345303
     3   1      3.4824211957637772      7.7935416692529884      1.1900169432291676
     4   1     0.77119965765303533      2.2900504260030914      9.3538469791935768
     5   1      6.1701399371783054      2.3251815151289179      9.3507797649673421
     6   1      10.299194331559988      3.7084362398688882      5.2632953220735885
     7   1     0.73792699031729114      13.223670667444821      3.9336348365185074
     8   1      4.8523762226386111     0.95233217594055475      2.5291658623202693
     9   1     0.74615333723154009      13.197491784740805      14.804502756184434
    10   1      4.8562839762124668      9.1034801425471414      10.736046041023883
    11   1       14.37123611495133      15.946543129762631       14.81291691034869
    12   1      6.2029788896176115      5.0580893456045715      1.1935926423907972
    13   1       7.573096962631098      11.842841193179197      10.740323203610387
    14   1      10.296264368113157       3.678042006099588      10.750117652846939
    15   1     0.76056059291539668      13.203862751770544      9.3813925292329259
    16   1      8.8800825973485189      5.0451050325091273      14.792969797075443
    17   1        6.21674971781772      15.937959602296132      6.6319158041359287
    18   1      2.1644272698104032      14.542138643962517      8.0117397460957136
    19   1      4.8301600911611899      9.1123313577039653      16.162362679800594
    20   1     0.74899405116889284       5.034448628909729      12.101290251253886
    21   1      11.650170301190769      2.2968509100995789       3.926885943140519
    22   1      8.9593814253206574      13.213413848561345      1.1740393950509969
    23   1      15.735242147937356      3.6875804485632102      5.2734187838167941
    24   1      6.1918299406680148      2.3174755165817942       3.901846193235059
    25   1       14.38573408025934      10.463760936293625      14.804560187361631
    26   1      2.1339537031437885     0.96136341106912226      16.170373842314689
    27   1       15.74897890679506      6.4069700506774439      8.0223766814994519
    28   1      10.266452720098982      9.1273004533469475      5.2748905794086909
    29   1      6.2098949661258303      13.180975940952635      3.9376389576608801
    30   1      3.4946224006887974      5.0414255435293853      14.771501244311366
    31   1      15.707905881001352      11.795844968855931      2.5310481934881466
    32   1      12.981440563174488      11.811052549895749      10.706605262137032
    33   1      2.1387290081867434      6.3992679457694521       16.15450726285178
    34   1      10.269684440578544      14.551444441488002      10.718790405800632
    35   1     0.77516119211740175      15.917357384238926      1.1851433237981297
    36   1      6.2146476393913304      15.899837954964482      1.1812619739646379
    37   1      10.263777790015297      11.836499428442949      13.465739185691177
    38   1      11.634824495961766      7.7829699523047111      3.9336095278641494
    39   1      13.037767893677596      3.6646963146222049      13.450707791822083
    40   1      6.2057613814823185      7.7610419501230581      14.819922540556945
    41   1      11.644012510903508      15.912497149192404      6.6660070482610649
    42   1     0.78665259879628024      5.0479785381885449      1.1652858859011417
    43   1      14.351300682595479      15.916313888951549       3.942368512444034
    44   1      7.5524441272651757      9.1304494339949542      13.424380950831051
    45   1      8.9394567004724195      2.3263646947201551      6.6089686419114742
    46   1     0.77331962248418762      10.494568382515808      1.1789212884651903
    47   1      14.376907200347091      13.197137463579793      1.1817138794563959
    48   1      14.391927886708572      2.3241044372040278      6.6124296003949325
    49   1      11.640495581357527      13.228384891023893       14.81986900301888
    50   1      7.5453557572253658      9.1153421141627859      8.0132139752120679
    51   1      7.5708177236242022      14.547722122477808      2.5590239906515819
    52   1      7.5873053385286653     0.98231830765833195      10.703300535923745
    53   1     0.75817135860302187      2.3396626891181711      3.9017415516833864
    54   1      15.750320265476034      9.1301291821763471      10.739800482556916
    55   1      6.2064013984146413      2.3373053339761896       14.78849503230299
    56   1      4.8317379884194338      3.6706397114047604      16.154953084532394
    57   1      11.665080992246772      5.0037779467620567      12.098175339948284
    58   1      14.378201835358482      13.216339918369044      12.070422453625156
    59   1     0.78938721106728593      10.472712412658097      6.6471988244339286
    60   1      14.383007559457155      2.3288296116431582       12.08971348870466
    61   1      13.040999614157158      11.856609101149957      16.114332694287782
    62   1      10.302859219392985     0.96599903180821656      13.472192892552471
    63   1      13.019757865872521      11.838457928926346      5.2932383804084679
    64   1      2.1268667932186531      6.4142151396923168      5.2761759670271431
    65   1     0.76750447244054243      10.482648006313184        12.0987126621485
    66   1      2.1513383151632866      9.1163272048631825      13.447714556739356
    67   1      3.4513107757466344      7.7669223186221643      6.6231653368916454
    68   1      3.4827032412484016       10.49606451335228      3.9051414287029615
    69   1      4.8760295936606326      11.870091800054297      13.413495309227756
    70   1      7.5662504849223637       11.87721034579738      16.169281676538162
    71   1      14.358994513520315      5.0486516510534898      3.9206914066339493
    72   1      2.1322137331566751      3.6857017676820192      2.5473579177547663
    73   1      8.9459970408044001      15.911005885404848      9.3675993126078083
    74   1      7.5779099873031441      6.4212378045717742      10.756093415504779
    75   1      7.5280621590205783      11.832591188164201      5.2486036482187615
    76   1      4.8905986178828016       14.56421265761162      5.2572314658303867
    77   1      15.748861124211317      3.7070783332216024      10.726395656435216
    78   1      13.006470822334563      0.9497323200863832      16.168551619200912
    79   1      15.714985490353115      11.844797746843028      13.465762547525969
    80   1      15.773143804658048      9.1312408161485337      16.126389347860027
    81   1      15.744715371945517     0.95411162986199116      2.5551542000592633
    82   1      14.394861743794536      7.7594908216338467      1.1670744047011823
    83   1      0.7771420201876964      2.3380555895664372      14.810087208109508
    84   1      6.2472008960593257      13.197456741988617      9.3530886929726194
    85   1      8.9075113382139079      2.3496435463281671       1.209546828734176
    86   1      2.1297841023383057      9.1279438772135109      8.0326758437084891
    87   1      8.9097871702865632      10.481980247202046      14.800186657206609
    88   1       7.580337184597056      14.580262238113733        7.98508486600781
    89   1      3.4894479976348123      5.0467160256999932       3.938750348280621
    90   1      15.710708327766611      14.560726877178695      10.733253328356454
    91   1      8.8892618516022139      5.0192206062644686      9.3723797280521239
    92   1      4.8443008150788387      0.9700236553941437      8.0195041492298174
    93   1      11.658346943367974      7.7485988528669623       14.80355757528514
    94   1      13.027171354779853      14.562673696744696      8.0387377531321249
    95   1      14.374420138351525       7.762620820791085      12.101508295045278
    96   1      8.9080291922184642      7.7722760724286672      1.1523815140841265
    97   1       14.39712102790088      2.3692239274656686      1.2028793367492909
    98   1      3.4858315369385195      2.3437532003787851      1.1920370118813395
    99   1      0.7646900405673307      7.7630194320972237      14.800297625921871
   100   1      15.775008857802277      11.870071358448854      8.0179651883628935
   101   1      14.360249238730603      5.0509615524685501      9.3532317842107204
   102   1      8.9420440236756349      13.184741089993281      12.077873905514025
   103   1      8.9181682285181978      5.0582777003975821      3.9113466727171442
   104   1      13.006947793128234      6.3696402722042649      5.2863305778834047
   105   1      8.8878873969886172      15.912315121562983      3.9141337882783205
   106   1      15.693465346870539      14.572539204895406      16.156065691914364
   107   1      15.766586916359756       3.684413459834218      16.159973932193111
   108   1      6.2124487066915322       5.036257224286544      6.6347065699837913
   109   1       2.127174634062527      11.829430526598799      5.2543973832471806
   110   1      11.650693022244241      2.3178093961373634      9.3727934272098992
   111   1      14.355482451023249      10.476095985063807       9.370695729127533
   112   1      15.726021037062992      1.0002655505324043      8.0045647425852167
   113   1      3.4924718951257034      15.932701242648363       9.372569542959809
   114   1      15.728411731490041      9.0979268397351234      5.3068081994883869
   115   1      6.2065357289646954      7.7600719472742981      3.9379655366430768
   116   1        8.94949742238407      2.3368602423529126      12.072123000516058
   117   1      13.035467726360366      14.535368578921748       13.49054458719138
   118   1      7.5736065426524988       14.58252249562986      13.409021517865085
   119   1      11.659432295276019      15.914796343099852      1.2025706441718569
   120   1      13.031843721738255      9.1087015126231563       2.556351494092354
   121   1      13.000773454874661      3.6893768763177377      2.5381608987725315
   122   1      15.734039013445567      6.4087956807254614      2.5304680412574783
   123   1      4.8328968327660959      6.4137522833405001      2.5456247616361338
   124   1      14.358568160035361      15.935952431323585      9.3713839298441144
   125   1      2.1180683855425571      11.884650116768853      16.165784215187841
   126   1      4.8447325223175994     0.95598623458971588      13.438939267545607
   127   1      10.280802727119976      9.1092174198081466      10.736427617658819
   128   1      10.259896805210474      11.817553953836409      8.0102226869489073
   129   1      3.5066308704767835      10.485818401976417      9.3801631126769962
   130   1      13.040403887369962     0.99475386098860952      5.2892079772019542
   131   1      14.364942047294448      10.453325983419859      3.9468807534931329
   132   1      11.665682559492666      2.3387815099121099      14.806027115904612
   133   1         10.298575242938      6.4039729219555852      2.5155064895403143
   134   1      10.277865949804664      6.3965482388357486       13.41626076642126
   135   1      2.1279076116291264       0.972611100273582      10.737844902302868
   136   1      2.0929037958324272      9.1216887459479494      2.5791777101512707
   137   1      15.725711492751998      6.4010809214902906      13.462583391174689
   138   1      2.1237022380141184      3.6724848096484379      7.9908182496296831
   139   1      11.640279484385701      5.0355772975531181      1.1790422346307281
   140   1      11.684501490827415      7.7677424163643423      9.3762422180710701
   141   1      4.8538679731310594      14.579698633849375      10.716665452244342
   142   1      4.8444662947419488      3.6844881690350633      10.740849818302991
   143   1      8.9172386221754323      10.489240910773447      3.9107239338084696
   144   1      13.019301336684293      3.6385361700565113       7.965083241786715
   145   1      14.371787064888508       7.709009790287439      6.6596458153291564
   146   1      4.8667822007221275       11.83578299884266      2.5692749690763605
   147   1      3.4889333072120507      13.196769514681819      12.057099393925228
   148   1      3.4586461485188806      7.7639792141432622      12.080799001911942
   149   1     0.76940237816494772      7.7712121355358477      3.8951454836413291
   150   1      3.4924872263297857      13.213835334997384      6.6181946198347532
   151   1      6.2228286619125583       10.50158277341211      12.061909985072816
   152   1      7.5883639216676784      6.4044859089112265      5.2692613506335988
   153   1      3.4939514779958643      15.932415060172161      14.808308788435966
   154   1      2.1256093911314622      11.811027241241391      10.722358926065112
   155   1      7.5510005605569859      6.3750675184493844       16.17826722224504
   156   1      6.1681249789274943      10.498482463253254      6.6173993440420418
   157   1      13.007614578829589     0.94579274818024572      10.744393029913113
   158   1      13.032422900559141      14.527645545703422      2.5712436903624791
   159   1       7.546594421174234     0.95737991404652689      5.2305897267745536
   160   1      10.296451262791493      14.544178910867686      5.2938769372261163
   161   1       11.66135964664636      5.0432969238372038       6.661579493863087
   162   1      3.4812180612719885      10.509381732593511      14.815484765356246
   163   1      11.652151190099175      10.461064591194713      6.6592160549099617
   164   1      0.7652897826698819      7.7878175330240538      9.3900938392831677
   165   1      13.026508462717629       6.369809645506507      10.772481742611376
   166   1      15.721271770731732      14.565819757163354      5.3168002509108874
   167   1       11.64802295920947      10.474519061215346      12.103514492608042
   168   1      13.041336413942076      9.1200563377418575       8.018812054874104
   169   1      6.2018069042388788      13.218811405808083      14.817032486911216
   170   1     0.78041377214458407      15.936513115358593      12.097713943711142
   171   1      4.8717047339947612      6.3980180876080794      7.9813425920970644
   172   1      2.1192048414642102      14.553357191711598      13.444710614149017
   173   1      8.9379985326174847       10.47034508006584      9.3644259967152266
   174   1      15.761487222506616     0.96559086891858215      13.484804389701026
   175   1      10.284847244768343      6.4102076116157036      8.0057586296840668
   176   1      8.9463104787545262      7.7712350106657482      12.094748937512122
   177   1      13.032868722239755      6.3983344457875546      16.158625759643655
   178   1      8.9032448831350166      15.924415578575463      14.793766046277938
   179   1      14.368774361610122      5.0079037441273044      14.826471641576973
   180   1      11.635362791571765      15.898968700028263      12.083040764642192
   181   1      6.2018205319758408       7.747145065356051      9.3621822871654103
   182   1       7.562198666700624      3.6626173546781615      2.5194144864666157
   183   1      2.1064911362884402      14.546728271089364       2.564114680464229
   184   1      2.1105996556300397     0.97597191922561422      5.2738904008566578
   185   1       11.62683864210203      13.214734765636877      9.3791935965331277
   186   1       8.905729998311017      13.174506659534813      6.6330668612043269
   187   1     0.76407934760472074      15.913922221114717      6.6385831744445909
   188   1       7.563036285818896      3.6479578033461735      13.424832612970363
   189   1      7.5621349083598375      3.6806592616536307       7.972329304211371
   190   1      4.8546384269743044      6.4113465010618143      13.418852956673391
   191   1      10.310768173879865       3.681331887813684      16.135388521303867
   192   1      4.8688623774283997      9.1223565050590878       5.276952261329086
   193   1      13.033544268629157      9.1228996677180021      13.450445944590456
   194   1      7.5678532041300741     0.94397910324018142      16.131480281025119
   195   1      10.291791550160269      14.566322036611382      16.174326859443454
   196   1      7.5531289210475165       9.104548946488876      2.5375218552499916
   197   1      11.666074843635215      13.184120054551727       3.906838568659623
   198   1      3.4697695454616735      5.0308825421697065       9.365236847064466
   199   1      6.2191642607844528      5.0101260386618947      12.088326379763885
   200   1      6.1829685047084695      10.493564797029535       1.170043182863111
   201   1      3.5219584242723556      15.944210839922562      3.9074639844452008
   202   1      10.300035357612501      9.1121619844017232      16.155246080877077
   203   1      3.4967858039315161      2.3325239451220909      6.6473555434089917
   204   1      8.9271498805859437      7.7215161591794299      6.6639127571129393
   205   1       11.68318933443993         10.490400241825      1.1785801083362486
   206   1      4.8611524852421439       3.709524268653837      5.2504842759195185
   207   1      10.282744679637062     0.98284644330372117      2.5466899152911822
   208   1      3.4779303697299042      13.192493325505097      1.1931110479006577
   209   1      10.263031184711735     0.98746253500904402      8.0024981936159065
   210   1      4.8369140949405391      11.874086673803731      8.0006078318173195
   211   1      6.2274119618758164      15.941155306613723      12.083342521674922
   212   1     0.78378961811014136      5.0461855173682579      6.6108575435953867
   213   1      2.1277258273521511      6.4034224587232984      10.730756532263058
   214   1      3.4895385247446313      2.3069193741900449      12.088719637316217
   215   1      2.1359209643152326      3.7007368118377997      13.412073157534792
   216   1      10.293113440645584      11.851545423458788      2.5227043681807118


Velocities

     1                       0                       0                       0
     2                       0                       0                       0
     3                       0                       0                       0
     4                       0                       0                       0
     5                       0                       0                       0
     6                       0                       0                       0
     7                       0                       0                       0
     8                       0                       0                       0
     9                       0                       0                       0
    10                       0                       0                       0
    11                       0                       0                       0
    12                       0                       0                       0
    13                       0                       0                       0
    14                       0                       0                       0
    15                       0                       0                       0
    16                       0                       0                       0
    17                       0                       0                       0
    18                       0                       0                       0
    19                       0                       0                       0
    20                       0                       0                       0
    21                       0                       0                       0
    22                       0                       0                       0
    23                       0                       0                       0
    24                       0                       0                       0
    25                       0                       0                       0
    26                       0                       0                       0
    27                       0                       0                       0
    28                       0                       0                       0
    29                       0                       0                       0
    30                       0                       0                       0
    31                       0                       0                       0
    32                       0                       0                       0
    33                       0                       0                       0
    34                       0                       0                       0
    35                       0                       0                       0
    36                       0                       0                       0
    37                       0                       0                       0
    38                       0                       0                       0
    39                       0                       0                       0
    40                       0                       0                       0
    41                       0                       0                       0
    42                       0                       0                       0
    43                       0                       0                       0
    44                       0                       0                       0
    45                       0                       0                       0
    46                       0                       0                       0
    47                       0                       0                       0
    48                       0                       0                       0
    49                       0                       0                       0
    50                       0                       0                       0
    51                       0                       0                       0
    52                       0                       0                       0
    53                       0                       0                       0
    54                       0                       0                       0
    55                       0                       0                       0
    56                       0                       0                       0
    57                       0                       0                       0
    58                       0                       0                       0
    59                       0                       0                       0
    60                       0                       0                       0
    61                       0                       0                       0
    62                       0                       0                       0
    63                       0                       0                       0
    64                       0                       0                       0
    65                       0                       0                       0
    66                       0                       0                       0
    67                       0                       0                       0
    68                       0                       0                       0
    69                       0                       0                       0
    70                       0                       0                       0
    71                       0                       0                       0
    72                       0                       0                       0
    73                       0                       0                       0
    74                       0                       0                       0
    75                       0                       0                       0
    76                       0                       0                       0
    77                       0                       0                       0
    78                       0                       0                       0
    79                       0                       0                       0
    80                       0                       0                       0
    81                       0                       0                       0
    82                       0                       0                       0
    83                       0                       0                       0
    84                       0                       0                       0
    85                       0                       0                       0
    86                       0                       0                       0
    87                       0                       0                       0
    88                       0                       0                       0
    89                       0                       0                       0
    90                       0                       0                       0
    91                       0                       0                       0
    92                       0                       0                       0
    93                       0                       0                       0
    94                       0                       0                       0
    95                       0                       0                       0
    96                       0                       0                       0
    97                       0                       0                       0
    98                       0                       0                       0
    99                       0                       0                       0
   100                       0                       0                       0
   101                       0                       0                       0
   102                       0                       0                       0
   103                       0                       0                       0
   104                       0                       0                       0
   105                       0                       0                       0
   106                       0                       0                       0
   107                       0                       0                       0
   108                       0                       0                       0
   109                       0                       0                       0
   110                       0                       0                       0
   111                       0                       0                       0
   112                       0                       0                       0
   113                       0                       0                       0
   114                       0                       0                       0
   115                       0                       0                       0
   116                       0                       0                       0
   117                       0                       0                       0
   118                       0                       0                       0
   119                       0                       0                       0
   120                       0                       0                       0
   121                       0                       0                       0
   122                       0                       0                       0
   123                       0                       0                       0
   124                       0                       0                       0
   125                       0                       0                       0
   126                       0                       0                       0
   127                       0                       0                       0
   128                       0                       0                       0
   129                       0                       0                       0
   130                       0                       0                       0
   131                       0                       0                       0
   132                       0                       0                       0
   133                       0                       0                       0
   134                       0                       0                       0
   135                       0                       0                       0
   136                       0                       0                       0
   137                       0                       0                       0
   138                       0                       0                       0
   139                       0                       0                       0
   140                       0                       0                       0
   141                       0                       0                       0
   142                       0                       0                       0
   143                       0                       0                       0
   144                       0                       0                       0
   145                       0                       0                       0
   146                       0                       0                       0
   147                       0                       0                       0
   148                       0                       0                       0
   149                       0                       0                       0
   150                       0                       0                       0
   151                       0                       0                       0
   152                       0                       0                       0
   153                       0                       0                       0
   154                       0                       0                       0
   155                       0                       0                       0
   156                       0                       0                       0
   157                       0                       0                       0
   158                       0                       0                       0
   159                       0                       0                       0
   160                       0                       0                       0
   161                       0                       0                       0
   162                       0                       0                       0
   163                       0                       0                       0
   164                       0                       0                       0
   165                       0                       0                       0
   166                       0                       0                       0
   167                       0                       0                       0
   168                       0                       0                       0
   169                       0                       0                       0
   170                       0                       0                       0
   171                       0                       0                       0
   172                       0                       0                       0
   173                       0                       0                       0
   174                       0                       0                       0
   175                       0                       0                       0
   176                       0                       0                       0
   177                       0                       0                       0
   178                       0                       0                       0
   179                       0                       0                       0
   180                       0                       0                       0
   181                       0                       0                       0
   182                       0                       0                       0
   183                       0                       0                       0
   184                       0                       0                       0
   185                       0                       0                       0
   186                       0                       0                       0
   187                       0                       0                       0
   188                       0                       0                       0
   189                       0                       0                       0
   190                       0                       0                       0
   191                       0                       0                       0
   192                       0                       0                       0
   193                       0                       0                       0
   194                       0                       0                       0
   195                       0                       0                       0
   196                       0                       0                       0
   197                       0                       0                       0
   198                       0                       0                       0
   199                       0                       0                       0
   200                       0                       0                       0
   201                       0                       0                       0
   202                       0                       0                       0
   203                       0                       0                       0
   204                       0                       0                       0
   205                       0                       0                       0
   206                       0                       0                       0
   207                       0                       0                       0
   208                       0                       0                       0
   209                       0                       0                       0
   210                       0                       0                       0
   211                       0                       0                       0
   212                       0                       0                       0
   213                       0                       0                       0
   214                       0                       0                       0
   215                       0                       0                       0
   216                       0                       0                       0
