(written by ASE)

216 atoms
1 atom types

0.0      16.331106185913086  xlo xhi
0.0      16.331106185913086  ylo yhi
0.0      16.331106185913086  zlo zhi

Atoms # atomic

     1   1      2.9558653944523599      13.716519721495388      1.4843260526809274
     2   1      2.9705470908569112      5.5326879396336608      4.1998626555215992
     3   1      13.893165368226278      10.959486416252957      9.6325157052807526
     4   1      11.143718818832554      10.947774349743895      12.358121502269228
     5   1      2.9994422735603905       13.71203716944467      6.9015785429107837
     6   1      9.8003432327874407      1.4734484417083422    0.091462815182486779
     7   1      13.894328592916963      13.683471485952737      1.4774352848270667
     8   1      11.149439548127248      10.936248204503386      6.8914930441491151
     9   1     0.24522706568738606    0.098915278504958515      1.4833006871507592
    10   1      13.888113371452505    0.074149779201095001      15.075511720689178
    11   1        12.5461287879873      12.308969175276616      2.8365224348271454
    12   1      13.913637149372562      10.981692813632549      15.080080906210583
    13   1      12.505955192833085      4.1733056031168871      0.1176521392273786
    14   1      7.1061946330513024      9.6209360225021783      5.5612244208321044
    15   1      15.272608706960909      4.1476012576820835       2.847264255135002
    16   1      1.6218260249884509      15.030676466084174      5.5436684886907983
    17   1      11.158827112074505    0.069197572139607644      6.9380979577396147
    18   1      7.0974436791021276      15.035046102600063      10.986997896949902
    19   1      5.7083222136000131      8.2505259265537916      15.104558268613914
    20   1      9.7538084047013172      6.8763020110756088      5.5721363444995404
    21   1      2.9838811014168982       8.271281943356712      6.9299782600347157
    22   1     0.29025464477217255      13.664590256391875      9.6201465871681648
    23   1       5.727164020064663      5.5151393080657272      1.5220209814989545
    24   1      15.231764432466207      15.058486783584499      2.8549247467747705
    25   1      0.2756448285962847      5.5525046159959857      1.4695472586505218
    26   1      15.240877494854658      6.8733725343336687      5.5529932677070519
    27   1      7.0579597447791684      15.016994218174318     0.10732490022991303
    28   1      8.4612993202766802      10.980769047748481      4.2079745659482342
    29   1      11.170959691609823      2.8018383841441619      9.6476317858009679
    30   1      15.234935801539223      9.6175135137051484      8.2680862390391212
    31   1      2.9770596890100762      10.974275431086085      15.128080716020122
    32   1      9.7875652825659927      6.8928090941757318      11.001212600011058
    33   1      9.7829756554391452      15.035883235013443      2.8368431733506441
    34   1      8.4229362673188461       13.66738491587887      12.385543429266136
    35   1      5.7161445346162054      10.974402947767658       1.480543747292856
    36   1      1.6569235314767639      12.335001073103399      2.8628074191975088
    37   1      9.8026112775818319      15.046496321877498       8.276738878600213
    38   1      1.6315683968016117      1.4652840888296481      8.2812691277302974
    39   1        2.99719880736302      2.8196785519421041       1.468249825086005
    40   1      13.903304404526011      2.7841768370414002      6.8867369639493745
    41   1       5.719097859897829      13.645247630593872      15.061036143806177
    42   1       13.86848164294895     0.06542819485021667      4.2149612146657205
    43   1      1.6304779344922053      1.4257519707224304      2.7966632510328395
    44   1      7.0846394468165386      4.1431245460900641     0.10342378561496801
    45   1       7.070877379304477      4.1537103774801949      5.5479699865218777
    46   1      8.4687468785264173      5.5197707918132437      9.6594061505361424
    47   1      13.888596182704873      2.7827208593584771      1.4720758122380886
    48   1      2.9928045922501099      2.8209632095032191      6.9323918295916656
    49   1      8.4428970083290551      8.2393336608688514      1.4409728144705412
    50   1      8.4406348039933619     0.10462661591619948      9.6360141400408565
    51   1      15.270994793540694      1.4618502641438909      11.023620493215731
    52   1      5.7227233246346145      8.2899071661446442      4.2025687347183407
    53   1      1.6219052362095425       9.594900231036263      11.039574679559109
    54   1      8.4477504295070958      2.7948935920473446      1.4725212688900342
    55   1      1.6204277218351706       12.29227617090794      13.742532151126511
    56   1      13.913073545108205      2.8064591603840654      12.366992185621712
    57   1      7.0846506410290431      4.1549592622317846      10.992613497988032
    58   1      8.4352499010738029      2.7938398759572465      6.9172197780089277
    59   1      15.246334430098159      6.8405676512367677      0.1113629234098843
    60   1      4.3446831561021781      12.329627851101236      5.5638097972157539
    61   1      11.148119604461499       2.795200946186327      15.075273235292343
    62   1      15.248160546851068      9.5850678188181746      13.738063226812756
    63   1      12.502135532844591      15.053963348322895      11.008598833444466
    64   1      8.4347067384148886      13.657587546412969      6.9402637945067909
    65   1     0.31366393329110664         2.7830316204317      4.1718265069516178
    66   1      11.178357605960628      5.5473012540009563      12.356762622212159
    67   1      4.3859669251139053      4.1657095998752425      8.2643979893713322
    68   1      9.7929803611888246       4.160246337468152      2.8418333586031963
    69   1      12.523714080914147      12.310305666908675      13.718178411765621
    70   1      8.4324873641096474      8.2544176188662277      12.365143680443794
    71   1      11.140149325158291      8.2416912593632787      4.1922734661484355
    72   1      1.6427252547056952      15.034445508763952    0.098324221042815019
    73   1      1.6225216479546276      6.8497761077839527      8.2763991585859458
    74   1      7.0925153053707959      15.062812616660153      5.5634121593193981
    75   1      11.184224346722772      8.2272030281530988      9.6365952656813079
    76   1       7.086408619097142      9.6123223193324066      10.993625844162352
    77   1       1.634186017384323      15.063730542085523       11.00024308386719
    78   1     0.26140524274754995      5.5088160381153557      6.9212978782948085
    79   1     0.25570970043099095      8.2391798621231374      9.6538178049719363
    80   1       4.340685362123395      12.313818702815524      11.010057001299401
    81   1      7.0708720255506705      12.319664028562443      8.2721064214429134
    82   1      11.175679755647593      2.8143274750125045      4.2071315930761557
    83   1      4.3493141531448032      6.8637562190874064      11.002814832513877
    84   1     0.27273460711661457      2.7494570135488914      15.096181104021412
    85   1      1.6246749520708477      9.6220379223765349      5.5566450145079784
    86   1      9.7962957949097245      4.1705508534309956      13.692372345008494
    87   1      13.901886146472179      8.2400569043376208      1.4849006078053435
    88   1      1.6557993648536211      12.308731663289564      8.3237779329539308
    89   1      4.3546922421958811      15.061480992077009      2.8288736241047729
    90   1       8.444586847712344      5.5180790056103888      15.077807020957493
    91   1      4.3610598022913791      15.018316108659633      13.724868657204183
    92   1      13.891150409975467      8.1962242618091068      6.9255555726856528
    93   1      7.0940036489290037      12.350705093132547      2.8518529088520665
    94   1      11.174330609688354      8.2554328852698973      15.102127664385762
    95   1      12.523350999065087      1.4592276548360417      13.731418731633994
    96   1      11.146553388120651    0.067803504839836215      1.4641343701997016
    97   1      15.232532452784994      15.042847982010812      13.721963029001927
    98   1      13.901467580265489      5.4956720858154995      9.6582906229248238
    99   1      12.521773101806843      9.6100873704706373    0.099540336866631662
   100   1      7.0952174909284054       6.883072562821269      13.737013891066681
   101   1      15.275131785118447      15.068469100909169      8.3048421924452214
   102   1      5.7029295234021902      5.5200525939454224       6.899466730386564
   103   1      1.6102126378961401       4.167591687690674     0.13622649374938511
   104   1      13.883085709923307    0.072272520410758823      9.6651813907786845
   105   1      5.7239215920774882      10.954255312079113      12.346305280913384
   106   1      5.6875666835019842      2.8186978415857311      15.079287577237437
   107   1      2.9721412927290203      13.675999592458425      12.360021598165645
   108   1      4.3652050678522869      6.8922347824037615     0.12521703898455083
   109   1      5.7062094276660105      2.7937255003077439      9.6632920023898805
   110   1      13.879056766831468      10.968072863948805      4.2209131287838773
   111   1      1.6725106206557285      4.1313735431896816      5.5691435961217053
   112   1      12.530662279945204      15.073699231673231       5.578729248959803
   113   1      9.8157026657534061      12.336318096539799      5.5644619817703642
   114   1      9.7949787714733247      9.5848429611583015       13.71919367816929
   115   1     0.25659103173233078      10.996500323251553      12.365327654892781
   116   1      4.3752983538922194      6.8678192315216506      5.5409575424451418
   117   1       2.992149000761259      10.957020769272617       9.667843666535191
   118   1      9.8322078020339632      12.324326661423015     0.10725448772068802
   119   1      2.9549253239544271       2.796121305136154      12.388685596045661
   120   1      5.7179813588767274      8.2504967242603016       9.645938052778547
   121   1      9.7892677762764606      9.6050324534675156      2.8339102896744635
   122   1      4.3576324264454342      4.1327806070310089      2.8697933378576579
   123   1      15.249366601572206      4.1427663312899199      8.2906956280688746
   124   1      12.538220806910203      9.6009850155897993        5.55497805025459
   125   1      8.4583664366004996      10.995624254446852       9.640478197305697
   126   1      7.0805233835491208      6.9067454020389505      2.8430021804001342
   127   1      11.167103042049575      13.714665375858772      4.1895036286109075
   128   1      15.274831974905283      4.1468687668203756      13.701169049217469
   129   1     0.28957800329676431      0.0876560680831453      6.9420626557857759
   130   1     0.29846696850173515      5.5355667990668849      12.364642374405548
   131   1     0.26958337545848465      8.2342106051809196      4.2010750374063264
   132   1       4.333546374774869      1.4166189534334279      11.014164790583663
   133   1      2.9845863368046821      8.2826727846373842      12.364859444787157
   134   1        15.2288101337748       1.460790464242649      0.1264333905560493
   135   1      8.4488893189532064      2.7977812121686156      12.385251406331236
   136   1      1.6300727526700314      9.6134933313013562     0.14421287994259657
   137   1      8.4256588944818986    0.063179298851400389      15.098651618050667
   138   1      12.527030488044829      6.8734791227049072      13.738366930665052
   139   1      3.0068350775098338    0.098627019928203552      9.6322158950675885
   140   1      15.242114698688852      12.331837491308647      11.000942965501167
   141   1      8.4457773278769537      5.5204614260542826      4.1745145780673738
   142   1      9.7857985438098467      9.6141990533940316      8.2590491026137443
   143   1      9.8131211830088887      1.4258337371442025      10.987006657637949
   144   1      5.7122251001249538    0.066929641416675345      12.386523652917617
   145   1      3.0216338264407909    0.087215014589514972      15.077881973510785
   146   1      5.7385480474768542      5.5606087391443566      12.391719714339274
   147   1       1.630093559304143      1.4399495174361618      13.736166051145688
   148   1      11.138646380453338      5.5198330900393557      1.4716063853702366
   149   1       7.079925223237467      1.4456847262013781      2.8279318501397199
   150   1      15.242405748213969       1.400888894692585      5.5359138196545246
   151   1      5.7298447906070464    0.080037288573531207      1.4810810694930723
   152   1     0.25767361550630596      10.974210212630624      6.9250990434974256
   153   1      4.3470397811868224      1.4310005962723693       5.574033033461717
   154   1      1.6245228567922538      4.1613088142462971      10.990475890104562
   155   1      12.517747078944353      1.4180892889106502      2.8231677393092696
   156   1      4.3543199129538834      1.4403802512651396     0.10229768738178713
   157   1      5.7163762061445595      2.7940652203220111      4.1890787352406278
   158   1      5.7188827363357859      10.965322007902046      6.9197418827566821
   159   1      4.3784556085233817      4.1734613486821672      13.723157402805668
   160   1      7.0420026382064407      1.4724579972541392      13.747065320485945
   161   1      1.6263074819531624      6.8891656213579608       13.73361377069466
   162   1      11.180475745648437     0.09567030292186729      12.348541203184936
   163   1      13.874857477027604      5.5025667473084923      4.2035835144171187
   164   1      8.4052182624486704      8.2216010548519307      6.9280966589241757
   165   1      9.7769268870475798      4.1218389943651914      8.3039203733807199
   166   1     0.28664776607843123      13.695676097811997      4.1707231469625867
   167   1      15.260224987701577      12.329364057050043       5.554916725438261
   168   1      4.3699562810031125      9.6328310900504448       8.295110041434782
   169   1      3.0024693346330764      5.5142812473420122      9.6314683163542441
   170   1      7.0859116934029203      6.8745245648118498      8.2748348890646639
   171   1      2.9551292533039657      5.5394872069679195      15.083874284134936
   172   1      12.511402393978756      4.1743096753080522      11.017239792088162
   173   1      9.7805625725870868      6.8809534497236768     0.11174497154018415
   174   1      13.884527329811931      5.5188119831769882      15.103042669581782
   175   1      15.239391098116016      12.353291442925979     0.10511261356465429
   176   1      11.176826432371968      10.972302329455943      1.4753854055002904
   177   1      5.7185065134546562      13.655552146556715      9.6851022219877905
   178   1      12.522634569464799      6.8654231833407948      2.8387140669535711
   179   1       12.53287970743088      15.040265525856512      0.1319633999761507
   180   1      8.4628781909447071      10.955038906954428      15.085478463457321
   181   1      11.115692404360402      5.5195250058430361      6.8925769359424862
   182   1     0.24187842956716921    0.076879562447005334      12.361718251417415
   183   1      5.7453278466154529      13.693198769914261      4.2041232701417925
   184   1      4.3383876283306222      12.318275946211884     0.11844859375849914
   185   1      5.7112818660452263    0.077809031904020109      6.9212443407567434
   186   1      4.3446836428070696      9.5884105080129984      13.744555870065369
   187   1      7.0693384184375532      1.4386407679829176      8.3127151307701297
   188   1      9.8196936458637083      12.354869340184223      11.007834706764811
   189   1      8.4337888129895191     0.11119450070313341      4.1510271734133539
   190   1      12.539805518036928      1.4247283086593825      8.3072533284777137
   191   1      15.259732442351378      9.5984570703833469       2.851379101640191
   192   1     0.27937186256011515      8.2329510129217169      15.090294895063607
   193   1      1.6385270599878368      6.8833353834626791      2.8568684027589768
   194   1      11.163214269966488      13.668972547234944      9.6556468419541943
   195   1     0.27623991658331093      10.987269478279359      1.4914398530513182
   196   1      7.0805525858426108       12.29935188662057      13.751038779220153
   197   1      13.845122728386286      13.692959311107643      12.364445745629382
   198   1      15.252007462313486      6.8864064913280458      11.038252789073795
   199   1      3.0056217222153236      8.2396091358374406      1.4783074599926351
   200   1       11.16318896131213      13.677512271261207      15.076525040273282
   201   1      9.8292028860338405      15.043965456441697      13.721919225561692
   202   1      12.519051448053574      12.341298060989629      8.2754403499496902
   203   1       9.786376749220949      1.4161176473951826      5.5618021395383153
   204   1      13.884047438788912      8.2319941511050274      12.376512133299457
   205   1      7.1040833072319742      9.6153369694303592     0.12573636070854555
   206   1      12.518785707182815      4.1515596285646552      5.5798632713569987
   207   1     0.27156995273031015      13.714372379514089      15.047078420927733
   208   1      2.9670958664712828     0.11132521899032088      4.2133838041123681
   209   1      8.4467916208708402      13.685250879036062      1.4693276330682323
   210   1      13.860854977299141      13.688208097956817       6.950560036486479
   211   1      3.0033600045845219      10.983446898061516       4.180363797453424
   212   1       12.49844338953767      6.8307513002800988      8.2756486596432524
   213   1     0.27954449070131915       2.796668604786646       9.640454835470905
   214   1      4.3675933287548787      15.039775900735663      8.2760720928988576
   215   1      4.3439024814562117      9.6202293269997199      2.8452524604659857
   216   1      12.517948574769434      9.5751137303772111      10.984969310962128


Velocities

     1                       0                       0                       0
     2                       0                       0                       0
     3                       0                       0                       0
     4                       0                       0                       0
     5                       0                       0                       0
     6                       0                       0                       0
     7                       0                       0                       0
     8                       0                       0                       0
     9                       0                       0                       0
    10                       0                       0                       0
    11                       0                       0                       0
    12                       0                       0                       0
    13                       0                       0                       0
    14                       0                       0                       0
    15                       0                       0                       0
    16                       0                       0                       0
    17                       0                       0                       0
    18                       0                       0                       0
    19                       0                       0                       0
    20                       0                       0                       0
    21                       0                       0                       0
    22                       0                       0                       0
    23                       0                       0                       0
    24                       0                       0                       0
    25                       0                       0                       0
    26                       0                       0                       0
    27                       0                       0                       0
    28                       0                       0                       0
    29                       0                       0                       0
    30                       0                       0                       0
    31                       0                       0                       0
    32                       0                       0                       0
    33                       0                       0                       0
    34                       0                       0                       0
    35                       0                       0                       0
    36                       0                       0                       0
    37                       0                       0                       0
    38                       0                       0                       0
    39                       0                       0                       0
    40                       0                       0                       0
    41                       0                       0                       0
    42                       0                       0                       0
    43                       0                       0                       0
    44                       0                       0                       0
    45                       0                       0                       0
    46                       0                       0                       0
    47                       0                       0                       0
    48                       0                       0                       0
    49                       0                       0                       0
    50                       0                       0                       0
    51                       0                       0                       0
    52                       0                       0                       0
    53                       0                       0                       0
    54                       0                       0                       0
    55                       0                       0                       0
    56                       0                       0                       0
    57                       0                       0                       0
    58                       0                       0                       0
    59                       0                       0                       0
    60                       0                       0                       0
    61                       0                       0                       0
    62                       0                       0                       0
    63                       0                       0                       0
    64                       0                       0                       0
    65                       0                       0                       0
    66                       0                       0                       0
    67                       0                       0                       0
    68                       0                       0                       0
    69                       0                       0                       0
    70                       0                       0                       0
    71                       0                       0                       0
    72                       0                       0                       0
    73                       0                       0                       0
    74                       0                       0                       0
    75                       0                       0                       0
    76                       0                       0                       0
    77                       0                       0                       0
    78                       0                       0                       0
    79                       0                       0                       0
    80                       0                       0                       0
    81                       0                       0                       0
    82                       0                       0                       0
    83                       0                       0                       0
    84                       0                       0                       0
    85                       0                       0                       0
    86                       0                       0                       0
    87                       0                       0                       0
    88                       0                       0                       0
    89                       0                       0                       0
    90                       0                       0                       0
    91                       0                       0                       0
    92                       0                       0                       0
    93                       0                       0                       0
    94                       0                       0                       0
    95                       0                       0                       0
    96                       0                       0                       0
    97                       0                       0                       0
    98                       0                       0                       0
    99                       0                       0                       0
   100                       0                       0                       0
   101                       0                       0                       0
   102                       0                       0                       0
   103                       0                       0                       0
   104                       0                       0                       0
   105                       0                       0                       0
   106                       0                       0                       0
   107                       0                       0                       0
   108                       0                       0                       0
   109                       0                       0                       0
   110                       0                       0                       0
   111                       0                       0                       0
   112                       0                       0                       0
   113                       0                       0                       0
   114                       0                       0                       0
   115                       0                       0                       0
   116                       0                       0                       0
   117                       0                       0                       0
   118                       0                       0                       0
   119                       0                       0                       0
   120                       0                       0                       0
   121                       0                       0                       0
   122                       0                       0                       0
   123                       0                       0                       0
   124                       0                       0                       0
   125                       0                       0                       0
   126                       0                       0                       0
   127                       0                       0                       0
   128                       0                       0                       0
   129                       0                       0                       0
   130                       0                       0                       0
   131                       0                       0                       0
   132                       0                       0                       0
   133                       0                       0                       0
   134                       0                       0                       0
   135                       0                       0                       0
   136                       0                       0                       0
   137                       0                       0                       0
   138                       0                       0                       0
   139                       0                       0                       0
   140                       0                       0                       0
   141                       0                       0                       0
   142                       0                       0                       0
   143                       0                       0                       0
   144                       0                       0                       0
   145                       0                       0                       0
   146                       0                       0                       0
   147                       0                       0                       0
   148                       0                       0                       0
   149                       0                       0                       0
   150                       0                       0                       0
   151                       0                       0                       0
   152                       0                       0                       0
   153                       0                       0                       0
   154                       0                       0                       0
   155                       0                       0                       0
   156                       0                       0                       0
   157                       0                       0                       0
   158                       0                       0                       0
   159                       0                       0                       0
   160                       0                       0                       0
   161                       0                       0                       0
   162                       0                       0                       0
   163                       0                       0                       0
   164                       0                       0                       0
   165                       0                       0                       0
   166                       0                       0                       0
   167                       0                       0                       0
   168                       0                       0                       0
   169                       0                       0                       0
   170                       0                       0                       0
   171                       0                       0                       0
   172                       0                       0                       0
   173                       0                       0                       0
   174                       0                       0                       0
   175                       0                       0                       0
   176                       0                       0                       0
   177                       0                       0                       0
   178                       0                       0                       0
   179                       0                       0                       0
   180                       0                       0                       0
   181                       0                       0                       0
   182                       0                       0                       0
   183                       0                       0                       0
   184                       0                       0                       0
   185                       0                       0                       0
   186                       0                       0                       0
   187                       0                       0                       0
   188                       0                       0                       0
   189                       0                       0                       0
   190                       0                       0                       0
   191                       0                       0                       0
   192                       0                       0                       0
   193                       0                       0                       0
   194                       0                       0                       0
   195                       0                       0                       0
   196                       0                       0                       0
   197                       0                       0                       0
   198                       0                       0                       0
   199                       0                       0                       0
   200                       0                       0                       0
   201                       0                       0                       0
   202                       0                       0                       0
   203                       0                       0                       0
   204                       0                       0                       0
   205                       0                       0                       0
   206                       0                       0                       0
   207                       0                       0                       0
   208                       0                       0                       0
   209                       0                       0                       0
   210                       0                       0                       0
   211                       0                       0                       0
   212                       0                       0                       0
   213                       0                       0                       0
   214                       0                       0                       0
   215                       0                       0                       0
   216                       0                       0                       0
