(written by ASE)

216 atoms
1 atom types

0.0      16.331106185913086  xlo xhi
0.0      16.331106185913086  ylo yhi
0.0      16.331106185913086  zlo zhi

Atoms # atomic

     1   1      11.676192464919723      2.3296574966636001      9.6586001672358179
     2   1       4.887770862463185      11.877342729527868     0.14775565047641059
     3   1       10.31189246217923      14.618297251974695      2.8432803322456266
     4   1      4.8857043134938749      9.1903452847625431      8.3164685988933797
     5   1      10.300280656877817      9.1855181456486434      2.8572881857278958
     6   1      4.8445334600169758       1.024177726880481      11.015215099739521
     7   1      2.1602919816997712      9.1600956023460185     0.11743892446108184
     8   1      6.2630742893907154      7.8317562772189149      15.123887266674956
     9   1      14.390683869005898      2.3769287092505635      1.4800804042361477
    10   1     0.79142753881056649      7.8025461964506349      15.117421878896266
    11   1      13.042246552089182      3.7368286564194477     0.18098097055192852
    12   1     0.81191872731439929        2.35954555734574      4.1980642809475057
    13   1      13.039485961944592      14.606449881505796      5.6148685472683724
    14   1      2.1427014935111686      6.4172385504783165      13.727621460070509
    15   1      8.9667228819040474      2.3238484304310987      1.5169772587083372
    16   1      4.9020512706846944      9.1599632186155304      13.743531842973653
    17   1      4.8563195056695463      3.7080067228021392      2.8877033478075305
    18   1      14.406707167443869      10.499772231215729      4.2192743934141959
    19   1      13.047924451353424      6.4641218592667542        2.88455801744621
    20   1      10.350733459340518      6.4592168473702145       11.00841193876613
    21   1      2.1689399975643937      3.7115338731508416      5.5729140989161579
    22   1      4.8837652812061378      14.609333121283044      13.766079907187077
    23   1      14.404626990737597       13.23482983719714      1.4935669967796201
    24   1      13.039915235658896      14.614326713469836     0.14836885301111735
    25   1      14.405274308243293      2.3347026795688919      12.387590510039786
    26   1      11.688346459470267      7.8236497205460864      9.6710053015103767
    27   1      4.9088408039211231      14.627490133965352      2.8467575953429503
    28   1      7.5693576089497014      6.4445504821697455      13.766554931161181
    29   1      14.429416817681272      10.512047901989149      15.090828323624692
    30   1     0.82174104040598905       13.24128257064865      15.114532798660321
    31   1      8.9603188189416869      2.3398048069464892       6.897722380055427
    32   1      6.2560467574623431      13.249807693528169      15.121447901758756
    33   1      3.4901714844560274      2.3548084586367679      1.4855543741508512
    34   1      3.5114546026564426      10.514527176706451      15.107275055318269
    35   1      4.8623843353225311      3.7520995090951601      8.2762589875771937
    36   1      15.771000356315881      9.1588632655607398      2.8676878524970277
    37   1       2.162584848443629     0.98575140228675195      2.8470586223183432
    38   1      10.350438516176268      9.1604538171461627      8.3196526222935745
    39   1      13.042785821108964      3.7358365084981244      5.6043055910081421
    40   1      14.401591899034202      13.255586827409843      12.377876853815224
    41   1      3.5249779414192233      2.3515268509058274       12.38687505384928
    42   1      7.6157250105531489      14.621996209150097       11.03187014112666
    43   1      8.9541483743272465      2.3570081213939034      12.362825018340686
    44   1     0.82024174598772248      5.0730915371801757      6.9359145995963445
    45   1      8.9371467990573592      15.978086473780763      4.2156810512002494
    46   1      11.678446881977152      10.503560742091167      12.361403840057505
    47   1      3.5178530685125509      15.976906701123767       4.217728618678791
    48   1      2.1359674446323709      3.7160998950904514     0.14820948757820673
    49   1      7.6157332845363044      11.884711441585182      13.721060678133085
    50   1      15.760765925857413      6.4633577325870988      10.997987693399978
    51   1      15.745461977249079      1.0024052877497738      5.6058430917603914
    52   1      14.379119760783851      15.942900630354643      15.129526229547878
    53   1      11.665361334264276      7.8166436036329401      4.2182484195029133
    54   1       7.603142715698084      9.1757548455251481     0.13591255388483958
    55   1      11.668116083950167      5.0831512405825947      1.4904584126376079
    56   1      8.9558226391540074      15.986730352653808      15.113817342469815
    57   1      8.9573469988741863      7.7810416275245871      12.396445618835742
    58   1     0.77292946767553872      5.0876897636958347      1.5023262247119504
    59   1      13.036945362410961      9.1371601210389599       11.02943369643981
    60   1      14.377676194075661      2.3589473970340862      6.9087618204044361
    61   1      15.771151234832246      11.903735762384144      11.027872347147877
    62   1      13.021954851752753      3.7293501924091004      11.054446434223792
    63   1      14.404755480828953      5.1062229992592734      4.2046708131447303
    64   1      6.2117113487809092      15.955207450241119      12.376377802749403
    65   1      15.750382563702146      6.4323395431468953      5.6121843697917484
    66   1      8.9478143968692621      13.214308412151922      12.360003103379768
    67   1      7.5744957524892698     0.95896894467916383      8.2653957343989077
    68   1      7.5958348417522075      9.1708731954634004      11.042978693570262
    69   1      2.1447390835394344       1.019559384165035      13.751847682749826
    70   1      6.2313669258241475      5.0917255206561549      6.9599957842179947
    71   1      13.068047751797394      11.868695930425474      13.776119655688944
    72   1      2.1546795442434359      14.612652448643075      11.029561213121383
    73   1       11.66567087857527      5.0787183324308103       6.968724836447052
    74   1      6.2448549784822944      7.7935265814013519      9.6630204210604234
    75   1       11.68788019618421      7.8017095507421459      15.112636596403036
    76   1      4.8673526188549658      3.7134086603929006      13.731161751451282
    77   1      3.4977482628544578      13.272057894347995      1.5078334122354988
    78   1      2.1528144910992069      11.932215785815174      8.2993502144495324
    79   1      15.761188385703235      14.608341216714166      2.8519736116651586
    80   1      8.9517878556034702      15.961736109655703      9.6473008264747477
    81   1     0.78790805406390518       13.24569114355586      9.6410729506831103
    82   1      4.9134674206197246      11.895820967438567      11.001344983741546
    83   1      10.308398894468041     0.96776911666049159      5.5843346291952116
    84   1       14.42870914876903      10.516094366457082      9.6845035749712451
    85   1      13.045911439922179     0.98024445811564931      13.742380299200363
    86   1      14.403525090863241      7.8106050560440963      1.4894027497279438
    87   1     0.76699458822858446      15.965581078298555      12.405910082155856
    88   1      2.1446726483217446      11.901604968369156       13.71586851035056
    89   1      7.5981496102161827      3.7107254563260597      11.024240555247502
    90   1      2.1040892476488864      14.600352442625081      5.5705039362934485
    91   1      3.5342776551335646      13.240807546674546      6.9097746532836481
    92   1      4.9062836564211807      9.1682041058384129      2.8529757370367577
    93   1      7.5800913986268483      14.612201759913546     0.17107252590407107
    94   1     0.79532464571492056      2.3569154041120726      9.6561880577935426
    95   1      7.6066917677669039      9.1429966860978311      5.5753086869823392
    96   1      4.8554541443724588      14.581235647896733      8.2896784148456391
    97   1      15.762310727183035     0.99666752378387713      11.020934855624432
    98   1      4.8669136110428326     0.99760589081468964      5.5681283297180357
    99   1      2.1421473799921955      6.4287831905047028      8.3179861447450776
   100   1      2.1866485116891852      9.1736707751797439      5.5697816662344621
   101   1      15.766597623867369      3.7251504159003446      8.3070576731113306
   102   1      11.676586695881838      13.243769632644216      15.097745373542693
   103   1      8.9632799315015745      5.0854056576400239      9.6574719852973203
   104   1      4.8825684738779387     0.98931621142643422     0.11884261939198826
   105   1      8.9469052321319396      5.0837970979736156      4.2052334439993047
   106   1       2.149966537426593      6.4276345669607622      2.8663185082847917
   107   1      11.660701621633052      2.3329717136222712      15.104308102299683
   108   1      10.330148762659405     0.97618357501530539      11.071615435976355
   109   1      6.2104702513075836      13.284603199631306       4.218692781068853
   110   1      2.1449203811115183      9.1679150031328618      11.019447485476007
   111   1      8.9613340853453565      13.219127763987558      1.5276966905911848
   112   1      3.5065851202169824      15.973548437372415      9.6548632470788789
   113   1      8.9908225613115746      10.527749001788948      15.116069812707678
   114   1     0.79028950109801599      10.496216365278428      1.4774984347867388
   115   1      15.765463601470174      6.4722790332482987     0.13794469890213179
   116   1       10.32234493642909      6.4654004330167254      5.6139949119881294
   117   1      14.389989827830618      7.7982865552402245      6.9561678502463451
   118   1      3.5138175549046764      15.966372460452135      15.114052907637301
   119   1      11.696123030226659      10.528028370396669      1.4925522170808421
   120   1      3.5339593501345234      5.0779225699332073       15.08242877060718
   121   1      13.047252798603154      14.588068984573397      11.024428423335621
   122   1       10.30744787311005      9.1747230311551675      13.748435881460409
   123   1      13.058627091917515      9.1357623045905711     0.14444278716571901
   124   1      3.5156789577622192      5.0786759891052498      4.2379176242831136
   125   1      8.9682482150340093      13.249424170073667      6.9292404154192013
   126   1      11.710286142569316      15.967388700265587      12.403659558737559
   127   1      10.313166655585178       14.58452090591436      13.739478564637238
   128   1       4.884884215751697      11.850997393750959      5.5885022831811284
   129   1        11.6875200345645      13.266002312087949      4.2197070740627396
   130   1      10.327030931124455      11.864858749060886      5.5995446437594865
   131   1      6.2280033083189892      2.3628118338725983      9.6655084564657727
   132   1      15.745942841681881      14.619921872902523      13.766702889448197
   133   1      15.742432726004381      14.613859476773996      8.2879282240558041
   134   1      2.1067113702518441      11.870538595144694       2.866814947274122
   135   1       6.212107039857699       15.97619416516261      1.5054135155149595
   136   1      13.030936503820499     0.98768495914445964      2.8778823731543923
   137   1      6.2605833337560171      10.533919446403388      12.421875949416631
   138   1      7.5812551100224255     0.96385241988425463      2.8561833656241902
   139   1      3.5101341722858024      5.0888817039751189       9.660583976373573
   140   1      6.2692228322850383      10.510621856657053        1.48966751718892
   141   1      3.5169451205374571      7.8134678542159008      12.397361597441545
   142   1      0.7707288923467317      13.234494984231787      4.1946549131825464
   143   1      7.5996462277575461      11.907881514649944      8.3143056823555526
   144   1      6.2343363123671907      2.3325327058101379      15.115461431593303
   145   1      10.327598429027944      3.7049835553685853      8.3115723476848871
   146   1      4.8773631650633433      6.4372995526961745      5.5867078022461669
   147   1      3.5334483099984482      13.233603340870559      12.364672550108821
   148   1      10.335589149936595      3.6980363297473104      13.724462745324672
   149   1      2.1311115899298727      3.7170290147283254      11.026652664689777
   150   1      13.038993416594394      1.0057687227405978      8.3043477002754571
   151   1      10.339519778640351      6.4449641813275207      0.1238501206920084
   152   1      7.5938851019568574      3.7164680873408713      5.5766529658926629
   153   1       15.77769936244249      3.7037699567216293      2.8931393547406969
   154   1      3.5398913093521287      10.523283971114324      9.6595151724318384
   155   1      4.8817240408911857      6.4397394043172653     0.12214713267188504
   156   1      14.419968902327469      13.242145011716389      6.9528154269536913
   157   1      0.8007677098690138      5.0715958930485954      12.371340407122375
   158   1      3.5171502666492245      10.523007522735952        4.15578179349842
   159   1      13.069426100050123      9.1570410424469628      5.5897837771604486
   160   1       2.128907303476268      14.643069557542276     0.13158133663632299
   161   1     0.78043032011089508      10.528329154019616      12.381453161357967
   162   1      7.5963833581649283      14.598654815963528      5.5762611684550052
   163   1      6.2429816513549099      15.943832183516975      6.9337244275845933
   164   1      14.399301465814801      15.944741348254297      9.6713411278855119
   165   1      11.671253383680778      10.530967094531547      6.9216638803732167
   166   1      8.9506285245519166      10.532300665934258      9.6656106644929878
   167   1      14.368666313124209      5.0858154631586672      15.092160921617619
   168   1      14.460473456807904      15.947468842466265      4.2263710374371612
   169   1      11.680748996113948      5.1108121396812294      12.412942967838035
   170   1      15.784033339900475      9.1213665473097763      13.733443423982635
   171   1      13.028429973629272      6.4074557821591611      8.3254054741111077
   172   1       15.78477799838447      11.862822375794849     0.15057983165698019
   173   1      7.6347191556488383      3.6714972854235839     0.14405228253792934
   174   1      15.735115604665566      11.873113264020731      5.5916030800448766
   175   1       15.75279077950529       9.151832326698127      8.3290752289930197
   176   1      6.2516372111453506      13.222317627846451      9.6545994530276857
   177   1      8.9571094868871342      10.508181518331071      4.2415177803655411
   178   1      14.342027007592833      7.8183670256537425      12.381388916312289
   179   1      7.6225875495233026      6.4525100539653408      2.8378698773192639
   180   1      7.5718252027496078      1.0206636567257377      13.701274177474033
   181   1      13.026582441861137       11.87730768677568      2.8848940871737909
   182   1      15.769067164486842     0.98355587652119425      0.1326543992458582
   183   1      10.337330580038383      14.614566172276454      8.2862851083420992
   184   1      2.1637955268612359     0.97782571731922729      8.2803667768614559
   185   1      4.8577762134098066      6.4295020536294487      11.011042091999798
   186   1      15.773961468875768      3.6957680416004735      13.745197347112367
   187   1      10.300868596386749      11.909201458315692     0.16819234324192323
   188   1     0.78077813159398346      10.504449465223047      6.9429158494605758
   189   1     0.77329528723961261      15.966347151797777      6.9447244448373908
   190   1      6.2660670377685506      5.0793169794473556      12.382657269259539
   191   1        10.3404503583929       3.726439453805483      2.8657957872313204
   192   1      11.692067805070678      15.971258977562798      6.9370257468636396
   193   1      3.4991614105069289      2.3674876077652414      6.9382663576320738
   194   1      10.328042303888992      11.896401119669235      11.002390425848489
   195   1      11.673830972786163      13.251166573585238      9.6625298225297911
   196   1      6.2389877510152587      2.3514708798433048      4.2385649417888089
   197   1      8.9612523189235844      5.0473448484198116      15.106569333225593
   198   1      8.9566062340293229      7.8084849695367211      1.4746386785205061
   199   1      0.8016199909721422      7.7740194493500212      9.6774648488303683
   200   1       10.31016660663397     0.99932383740546271      0.1916952920334154
   201   1      6.2539013623006099        10.5021502713156      6.9299621987732962
   202   1     0.80899630779338594      2.3589714889262154      15.093199549856081
   203   1      3.5079554378390014      7.7811272875854911      1.4709695320197085
   204   1      6.2168733408601611      7.7888503208038173      4.2053930832037167
   205   1      11.665362307674059      2.3432711191837541      4.2424600410354856
   206   1      14.381203831129255      5.0603724782505992      9.6849270082268504
   207   1     0.79629829885036685      15.983261120187194      1.5280664646325022
   208   1      3.4749132861074941       7.803690439650552      6.9441696012610805
   209   1      8.9757882472131314      7.8082596251719565      6.9822265168421609
   210   1      6.2667693529269854      5.0475190887709687      1.5015316789765762
   211   1      7.5808005276537642      11.857599058899268      2.8725945678606877
   212   1      7.6022987694162225      6.4467815373923827      8.3349964807030119
   213   1      13.018836046808019      6.4934117596372403      13.750243503427441
   214   1      13.035323661712482      11.875252818723766      8.3244145429520131
   215   1      0.7931321010168233      7.7991660309791655      4.2443168201965591
   216   1      11.689288720140212      15.971249243464968      1.4655789103176744


Velocities

     1                       0                       0                       0
     2                       0                       0                       0
     3                       0                       0                       0
     4                       0                       0                       0
     5                       0                       0                       0
     6                       0                       0                       0
     7                       0                       0                       0
     8                       0                       0                       0
     9                       0                       0                       0
    10                       0                       0                       0
    11                       0                       0                       0
    12                       0                       0                       0
    13                       0                       0                       0
    14                       0                       0                       0
    15                       0                       0                       0
    16                       0                       0                       0
    17                       0                       0                       0
    18                       0                       0                       0
    19                       0                       0                       0
    20                       0                       0                       0
    21                       0                       0                       0
    22                       0                       0                       0
    23                       0                       0                       0
    24                       0                       0                       0
    25                       0                       0                       0
    26                       0                       0                       0
    27                       0                       0                       0
    28                       0                       0                       0
    29                       0                       0                       0
    30                       0                       0                       0
    31                       0                       0                       0
    32                       0                       0                       0
    33                       0                       0                       0
    34                       0                       0                       0
    35                       0                       0                       0
    36                       0                       0                       0
    37                       0                       0                       0
    38                       0                       0                       0
    39                       0                       0                       0
    40                       0                       0                       0
    41                       0                       0                       0
    42                       0                       0                       0
    43                       0                       0                       0
    44                       0                       0                       0
    45                       0                       0                       0
    46                       0                       0                       0
    47                       0                       0                       0
    48                       0                       0                       0
    49                       0                       0                       0
    50                       0                       0                       0
    51                       0                       0                       0
    52                       0                       0                       0
    53                       0                       0                       0
    54                       0                       0                       0
    55                       0                       0                       0
    56                       0                       0                       0
    57                       0                       0                       0
    58                       0                       0                       0
    59                       0                       0                       0
    60                       0                       0                       0
    61                       0                       0                       0
    62                       0                       0                       0
    63                       0                       0                       0
    64                       0                       0                       0
    65                       0                       0                       0
    66                       0                       0                       0
    67                       0                       0                       0
    68                       0                       0                       0
    69                       0                       0                       0
    70                       0                       0                       0
    71                       0                       0                       0
    72                       0                       0                       0
    73                       0                       0                       0
    74                       0                       0                       0
    75                       0                       0                       0
    76                       0                       0                       0
    77                       0                       0                       0
    78                       0                       0                       0
    79                       0                       0                       0
    80                       0                       0                       0
    81                       0                       0                       0
    82                       0                       0                       0
    83                       0                       0                       0
    84                       0                       0                       0
    85                       0                       0                       0
    86                       0                       0                       0
    87                       0                       0                       0
    88                       0                       0                       0
    89                       0                       0                       0
    90                       0                       0                       0
    91                       0                       0                       0
    92                       0                       0                       0
    93                       0                       0                       0
    94                       0                       0                       0
    95                       0                       0                       0
    96                       0                       0                       0
    97                       0                       0                       0
    98                       0                       0                       0
    99                       0                       0                       0
   100                       0                       0                       0
   101                       0                       0                       0
   102                       0                       0                       0
   103                       0                       0                       0
   104                       0                       0                       0
   105                       0                       0                       0
   106                       0                       0                       0
   107                       0                       0                       0
   108                       0                       0                       0
   109                       0                       0                       0
   110                       0                       0                       0
   111                       0                       0                       0
   112                       0                       0                       0
   113                       0                       0                       0
   114                       0                       0                       0
   115                       0                       0                       0
   116                       0                       0                       0
   117                       0                       0                       0
   118                       0                       0                       0
   119                       0                       0                       0
   120                       0                       0                       0
   121                       0                       0                       0
   122                       0                       0                       0
   123                       0                       0                       0
   124                       0                       0                       0
   125                       0                       0                       0
   126                       0                       0                       0
   127                       0                       0                       0
   128                       0                       0                       0
   129                       0                       0                       0
   130                       0                       0                       0
   131                       0                       0                       0
   132                       0                       0                       0
   133                       0                       0                       0
   134                       0                       0                       0
   135                       0                       0                       0
   136                       0                       0                       0
   137                       0                       0                       0
   138                       0                       0                       0
   139                       0                       0                       0
   140                       0                       0                       0
   141                       0                       0                       0
   142                       0                       0                       0
   143                       0                       0                       0
   144                       0                       0                       0
   145                       0                       0                       0
   146                       0                       0                       0
   147                       0                       0                       0
   148                       0                       0                       0
   149                       0                       0                       0
   150                       0                       0                       0
   151                       0                       0                       0
   152                       0                       0                       0
   153                       0                       0                       0
   154                       0                       0                       0
   155                       0                       0                       0
   156                       0                       0                       0
   157                       0                       0                       0
   158                       0                       0                       0
   159                       0                       0                       0
   160                       0                       0                       0
   161                       0                       0                       0
   162                       0                       0                       0
   163                       0                       0                       0
   164                       0                       0                       0
   165                       0                       0                       0
   166                       0                       0                       0
   167                       0                       0                       0
   168                       0                       0                       0
   169                       0                       0                       0
   170                       0                       0                       0
   171                       0                       0                       0
   172                       0                       0                       0
   173                       0                       0                       0
   174                       0                       0                       0
   175                       0                       0                       0
   176                       0                       0                       0
   177                       0                       0                       0
   178                       0                       0                       0
   179                       0                       0                       0
   180                       0                       0                       0
   181                       0                       0                       0
   182                       0                       0                       0
   183                       0                       0                       0
   184                       0                       0                       0
   185                       0                       0                       0
   186                       0                       0                       0
   187                       0                       0                       0
   188                       0                       0                       0
   189                       0                       0                       0
   190                       0                       0                       0
   191                       0                       0                       0
   192                       0                       0                       0
   193                       0                       0                       0
   194                       0                       0                       0
   195                       0                       0                       0
   196                       0                       0                       0
   197                       0                       0                       0
   198                       0                       0                       0
   199                       0                       0                       0
   200                       0                       0                       0
   201                       0                       0                       0
   202                       0                       0                       0
   203                       0                       0                       0
   204                       0                       0                       0
   205                       0                       0                       0
   206                       0                       0                       0
   207                       0                       0                       0
   208                       0                       0                       0
   209                       0                       0                       0
   210                       0                       0                       0
   211                       0                       0                       0
   212                       0                       0                       0
   213                       0                       0                       0
   214                       0                       0                       0
   215                       0                       0                       0
   216                       0                       0                       0
