(written by ASE)

216 atoms
1 atom types

0.0      16.331106185913086  xlo xhi
0.0      16.331106185913086  ylo yhi
0.0      16.331106185913086  zlo zhi

Atoms # atomic

     1   1      7.0285744502499483      15.754357969255921      7.2414075790736661
     2   1      4.2914502952992279      2.1266073795114835      12.688385813904347
     3   1      12.412641210805305      4.8418414952620878      7.2585707403675315
     4   1      5.6290219255132001      6.1934535881860597      11.342599091826742
     5   1      12.459341518554538      2.1202128072945072      15.459230830557772
     6   1      2.9059564847059107      11.680346004463786      14.094048918553881
     7   1      4.2556774857739583      15.746089826559114      15.447674509613989
     8   1      15.172721288668527      2.1102952217204063      7.2889907694960812
     9   1      8.3689314925579765     0.74204128927947721      14.085014702357853
    10   1      13.807465397521128      11.638092232603299      3.1921477215961147
    11   1        8.37351333240656      14.387672139137294      11.370581702858658
    12   1     0.17036870500237811      11.699917381560795      11.360114627462053
    13   1      8.3685917725437093      6.1717879199409253      8.6518452587088177
    14   1      7.0140696710734574      7.5314243164110621       4.536809425317017
    15   1      6.9961521171977665      4.8473913911398654      7.2828938173202573
    16   1      13.786951759754174      8.8936752915583384      5.9576061318628604
    17   1      13.772777939903904      14.357735894670896      5.9061623982410651
    18   1      12.451798566146067      10.311581944458453      12.718963535417743
    19   1     0.17118204971418649     0.76464635880331855     0.46308574191592911
    20   1      8.3348991397247119      8.9352642245370362      5.9307259074101921
    21   1      2.9094872853412994      3.4508002223154506       11.34421397865674
    22   1      2.8944554047673137     0.74377785233235016      3.2202692868745544
    23   1      11.066706530440683      3.4800438857212441       8.646916884977486
    24   1      9.7432702703905534      12.986389378511262      1.8224171873524853
    25   1      15.130539549131981      7.5556451853365729      12.710980601787355
    26   1      9.7041878676030819      7.5746174287121448      12.702635559717692
    27   1      1.5390376446204783       12.98754676274325      10.014690987233507
    28   1       9.704328038611834          12.95625066481      7.2613357108561445
    29   1      11.072544068909338      8.9328774237491189      3.2386214682183549
    30   1      1.5573258242710466       4.859351677143593      7.2825234348978256
    31   1      11.082022159966414      8.9435683833958137      8.6631475196992369
    32   1      5.6301038704870052     0.78772791241593865     0.48353924120972636
    33   1      12.425596321607259      12.982205663263926      15.428386394763834
    34   1      13.816748806621604      6.2120656699419214      8.6520194990599748
    35   1       9.726086667491245      7.5813096209702735       1.852480705148011
    36   1      1.5385231975501625       10.28937165343973      7.2834321129302566
    37   1       12.43927078223885      15.746672899019131      12.742420764368489
    38   1      15.176296622801488      10.263400107019493      4.5779359886487896
    39   1      4.2925229928800945      2.0815397233207875      7.2862111978607231
    40   1      12.446906208576706       2.110270156418494      4.5360754743406346
    41   1       4.256933184394029      7.5740372764814765      7.3010527768221323
    42   1      11.058384850205812      14.328958981256051      8.6312936579603274
    43   1      2.9255806692836472      8.9207818337855542     0.47091435967665518
    44   1      1.5514510528781926      7.5646594466320494      15.417925159825927
    45   1      15.113338424856579      10.275001204813293      15.405525866010066
    46   1      8.3535292295615591      11.660076692552366      14.074297460647017
    47   1      8.3362901423046196     0.77288475166363213      3.1771686485028567
    48   1      9.6931289590584129      4.7956016103402135      4.5863657173695742
    49   1      11.080333293992908      0.7672993871668865      11.371173536006722
    50   1      2.9067298587785046      8.9304156704079105      11.349814978548125
    51   1      2.8877938749173495      8.9205744975017751      5.9283955643896888
    52   1      13.818118394186286      11.633275800997012      8.6399608986681642
    53   1      2.8872300273005465      6.1813979080235981      3.2528673203925678
    54   1      15.126143630551951      2.1258388724878046      1.8467600975295397
    55   1      2.8699933735680645      14.358753107894131      11.339010129956819
    56   1       9.707946202775247      7.5643450352721402      7.2825808660750226
    57   1      2.9041366951165912      14.351027154446456     0.48045328884516891
    58   1     0.16886471084000299       11.63555260647945      5.9040476654874965
    59   1     0.19948190107819386      6.2065245347521909     0.42984264190234356
    60   1      2.8684748543065837      3.4726386707970676     0.49579732976894064
    61   1      8.3730928193803038      6.1984530208315505      3.1990275385899167
    62   1      12.413229150314237      10.297870494255108       1.836975747419487
    63   1      2.9303099807143553      6.1686082768847541      14.063095460864247
    64   1      5.6417064283954801      3.4803249577960855       8.646972369335117
    65   1     0.17069806732817305      6.2168421917471051      11.342912529776868
    66   1      11.086002432569103     0.77865500318103642     0.47068810274021899
    67   1      8.3370756839995011      3.4782197157879011      5.8982441963612473
    68   1      12.442193931817201      10.291766241505911       7.290517076035826
    69   1        15.1343864645944      2.0863831670485524      12.700171859556917
    70   1      5.6310505115009732      8.9254561475635228      3.2107921692272612
    71   1      15.185568350984568      10.242872841515577      10.011253877289732
    72   1      1.5120508317965715      4.8583193760687209      1.8433468361254484
    73   1     0.18504948883525785      8.8965410099594919      3.1859575654335686
    74   1      13.800125887757304     0.75218105563654802      8.6448892723994959
    75   1      9.7204983219270389      2.1301065443289247      12.730946209846479
    76   1      6.9945630257270182      4.8316732566688643      1.8573085743192479
    77   1      1.5499496899641372      2.1205615313492672      4.5647355785815193
    78   1       4.265039254361966      7.5633502104739136      1.8616763856917942
    79   1      8.3706378799075765      8.9015774321767367     0.47011409515880587
    80   1      9.7202393949247607      15.723702374959885      9.9891097781362532
    81   1      12.418960587116544      7.5623826411496111      4.5563034163362772
    82   1      12.434090295373721      12.986449729917808      4.5769572251119826
    83   1      11.079384219454482       6.215851747292902      11.404844753810494
    84   1      8.3544783040999846      14.359733331545613     0.46971575762416862
    85   1      4.2808917193830212      12.962182624027605      1.8215560847231984
    86   1      11.065857717109907      11.639044227371073      11.376346235593587
    87   1      2.8971992035931464      14.360420558852411      5.9271607940799527
    88   1      13.820133352437097      3.4668556432762614      11.348102750739827
    89   1      6.9775497695397348      15.741171186925612      1.7830257269589112
    90   1       11.08897619945617      3.4869421975009232      3.2042941722208411
    91   1      15.157932273835399      15.697029000086104      15.441679278760489
    92   1      4.2810372441455797      4.8201797206560855      15.430866642890919
    93   1     0.15605167223778338       11.64596614433799     0.47206273986815006
    94   1      8.3566198056225858      3.4892956590037727      11.378490657345537
    95   1      12.447231327444229      15.738173084793971      7.2937405225322323
    96   1      9.7095065786573969      15.729501950447002      4.5663845347539223
    97   1      12.466613863043335      15.712684349626102      1.8047513815819229
    98   1      5.6136600590227772      8.9384998386557299      8.6574968759089188
    99   1      5.6256641484667398     0.75600819871274894      11.329659555581316
   100   1      9.7198412703235135      15.746511312995153      15.457976105347484
   101   1      11.102284658009353      14.388716607834453      3.1838348020492901
   102   1      11.076851407199115      6.1945700892071613       0.479236769968864
   103   1      5.5943193800443396      0.7494473559372139      5.9135087218733702
   104   1      11.076957508865462      14.360406931115449      14.097136574385559
   105   1      13.795420424866279     0.73952192224673752      3.2029878562920544
   106   1      6.9959501346677939      2.1320533638949257      9.9804600588045105
   107   1      13.811043651883438      11.680803507061796      14.067383330958364
   108   1      6.9791597893208177       13.01526460631419      15.455457894238862
   109   1      12.427138202703532      13.012109785207485       9.995910018880295
   110   1      8.3592966825258372      6.1827295326067429      14.086208102751812
   111   1       2.880917464857788     0.75971378724229766      8.6380169993315121
   112   1      1.5266078100726759      15.706694959231299      12.727256013359124
   113   1      6.9997897495568395      10.270549801875632      12.714448860844186
   114   1      1.5222452307777132      2.1345737651755599       15.41961305238965
   115   1     0.16757564251580881      14.365502731329457       3.194474170977486
   116   1     0.17052507415830043      3.5086465587849318      3.1988771467784431
   117   1      11.077938705926726      11.653292999774635      5.9133704976841841
   118   1      1.5252435762618006      4.8438447725955029      12.710501684174119
   119   1      15.175858588399137      7.5313191881544981      7.2783494537483193
   120   1      12.430215151027596      2.1195847146320261      9.9975764964287919
   121   1      1.5501033670336284      12.969445234418572      15.458092914521444
   122   1      1.5498841064800075      2.0990895716509499      9.9785784576939704
   123   1      8.3489824324651636      8.9171626962123582      11.366033932352479
   124   1      12.430224885125426      7.5555580651609944      10.033777606258582
   125   1      1.5216664169854965      12.988552295049089      4.5522535449341035
   126   1     0.16237225010172374      14.344303813075271      8.6401010696769163
   127   1      9.7294507717012948      4.8401886454505529      10.007891719899249
   128   1      5.6240030246720494      3.4502412417475625      14.116673882140162
   129   1      4.2369028445843355      10.297849079239882      10.026518889506747
   130   1     0.17109257206178974     0.76614036030589006      11.375904307552105
   131   1     0.17807912952210891     0.75443157905484526      5.9205751901930626
   132   1      7.0096372496265644      13.006198267595323      10.008522489438633
   133   1      1.5296409549565055      10.315971049170003      12.715366786269556
   134   1      13.777174831893717      3.4646725284854369      5.9151455104234856
   135   1      15.145140695876989      4.8629055962613279      4.5811054109022393
   136   1      5.6547238374235462      6.2070019922507527     0.47215810360782839
   137   1      4.2667198463523164      7.5500266640690938      12.685034364021476
   138   1      2.8925470348877411     0.76248849182874068      14.085528662723277
   139   1      8.3787259417945279      11.660099080977375      3.1965504540446261
   140   1      13.804544194762343       3.513082630518511     0.48826088703839332
   141   1       12.40572318747752      4.8313788002095066      12.714480983367025
   142   1      11.088299679656984       8.945940583036986      14.076166407430378
   143   1      2.9112362593689056      3.4886751102671099      5.9293241973226714
   144   1      4.2580292438096876      4.8105468574435122      9.9845873162844327
   145   1      13.758604120053633      14.372820826078055      11.385508941880971
   146   1      7.0109606002265537      10.275977534825643      7.2591104960922053
   147   1      8.3421607767058958      14.362313840880347      5.9453864321519632
   148   1      15.138901139167956      13.016372346647245      12.695466396665893
   149   1      4.2844753274991376      10.283442614451474      15.408299110481835
   150   1      8.3585656517788038      11.668064493231668      8.6463669084500907
   151   1      13.798758247012188      6.2036992128570319      14.077590505942908
   152   1      15.137444918132587      12.989436151132054      7.2565825508857529
   153   1      13.817514880120825     0.76161363978626895      14.073073884549785
   154   1       6.996971728235053      2.0921511067177221      15.459173399380575
   155   1     0.18945352930316517      8.9078909680292782      8.6383187563642423
   156   1      4.2448225065788279      13.021081703177401       12.71641612201563
   157   1      6.9795608341514139      4.8390517028240083      12.701136508651871
   158   1      5.6402618882775073      8.8946681695369989      14.061206072475443
   159   1      11.121091908426706      11.618292104207285     0.45881980396098498
   160   1      5.6417969555052991      3.4670982656646743       3.173013648844119
   161   1      9.6884186291184733      10.314988878698955      10.004728138104497
   162   1      12.403130997225389      4.8454557657863688      1.8617013293174836
   163   1      4.2648168302265503      12.964651191237294      7.2810389849787498
   164   1     0.19225396841074627       6.181218800623526      5.8996157307454951
   165   1     0.17294434728819752      8.9280931146656712      14.108633517332578
   166   1      2.8801131850245838       11.62988833495217      3.2106592987918816
   167   1      9.6790359322201311      10.291281483433977      4.5665373600898533
   168   1      9.7319436741555592      2.1222406632249431      1.8037952498225707
   169   1      2.9182808259684805      6.1925775193813593      8.6474892499298903
   170   1       8.327813689914251      3.4600227933044891     0.50716894620639863
   171   1      8.3469158834958534     0.73094058495225056      8.6563755078389022
   172   1      9.7146938793910067      10.280332570194787      15.430859829022438
   173   1      1.5517013408686466      15.722606315544226      1.8355158760974319
   174   1      11.066397959539472      6.1779739391118937      5.9278494815014255
   175   1      5.6247067999451588      14.365446273562043      3.1710660992207806
   176   1       2.894163868537305      11.614298203867634      8.6313627700549205
   177   1      7.0093374394134003      7.5798115433142357       9.994095583044782
   178   1      13.787612704996832      8.9268033467031955      11.375547066161744
   179   1     0.19442631485584627      3.4765415573220082      8.6166341066283394
   180   1      6.9830135186517168      7.5611566315279219      15.445501858978332
   181   1       5.604168340228739      11.666645261768053      5.9213456440363075
   182   1      4.2581119836412427      2.0917892416308916      1.8328314552683622
   183   1      15.141593590627735      15.724790647097279       4.563203918287968
   184   1      15.137490668392388      4.8441509099722566      15.445393810492419
   185   1      9.7044662628010201      4.8324510110854817      15.455226222710507
   186   1      15.175425421045702       15.70349633468436      10.001196607411771
   187   1      11.067923292669434     0.73849990281269839      5.9284364476005749
   188   1       4.234064381657106      15.716076682719859      9.9900023949072647
   189   1      4.2932730051178964      4.8148780442729731      4.5803972552851064
   190   1       9.711630558803904      2.0889013781571748      7.2705042576022265
   191   1      1.5398800091114424      15.714342066486552      7.2683729768823468
   192   1      5.6281332023813206      14.365422911727251      14.079182030938114
   193   1      13.794085880053785      14.365334331436998     0.45858828452790945
   194   1      13.796748155810292      6.1953867800150988      3.2075609354525909
   195   1     0.18417326793527877      3.4779826905057405      14.055125181561039
   196   1      1.5594253474967559      7.5434765896392832      9.9837910670819383
   197   1      6.9978984143484695      10.278721577003921      1.8270495228335619
   198   1      5.6310101149949787      6.2017923030921338       5.923296843946332
   199   1      15.124153980955498      12.983318270645896        1.82696860814535
   200   1      13.823234636005736      8.9353966082675242     0.48151305832735503
   201   1      1.5496910063143048      7.5307945202814608      4.5665037774523398
   202   1       12.42113615798155      7.5467185309215665      15.442687731295678
   203   1       6.996119507970036      13.006213842151851      4.5823927453402575
   204   1       15.16744735446423      4.8266173662559595       9.963146992404063
   205   1      4.2309937604966308      15.730320588074505      4.5446658156756143
   206   1      4.2742297028281655      10.262285552817957      4.5842806736143871
   207   1      15.155370259286542      7.5465734928638994       1.836096271680546
   208   1      6.9957379313350998      2.0818701959421162      4.5555592445571733
   209   1      5.6362475463324131      14.338977314742692      8.6617526234801971
   210   1      1.5586881112623558      10.264083440687159      1.8350593469092047
   211   1       6.996054289514575      15.732199268955696      12.706399735348555
   212   1      5.6276586651121079      11.647119634930846     0.46736253947376483
   213   1      5.6276275159990519      11.636359563189558      11.370943811297934
   214   1      9.7022858248870989      13.047228463358579      12.693595503062966
   215   1     0.18535784680307898      14.338940325170938      14.086031915581088
   216   1      11.079842695462276      3.4443642801826968      14.097876365820639


Velocities

     1                       0                       0                       0
     2                       0                       0                       0
     3                       0                       0                       0
     4                       0                       0                       0
     5                       0                       0                       0
     6                       0                       0                       0
     7                       0                       0                       0
     8                       0                       0                       0
     9                       0                       0                       0
    10                       0                       0                       0
    11                       0                       0                       0
    12                       0                       0                       0
    13                       0                       0                       0
    14                       0                       0                       0
    15                       0                       0                       0
    16                       0                       0                       0
    17                       0                       0                       0
    18                       0                       0                       0
    19                       0                       0                       0
    20                       0                       0                       0
    21                       0                       0                       0
    22                       0                       0                       0
    23                       0                       0                       0
    24                       0                       0                       0
    25                       0                       0                       0
    26                       0                       0                       0
    27                       0                       0                       0
    28                       0                       0                       0
    29                       0                       0                       0
    30                       0                       0                       0
    31                       0                       0                       0
    32                       0                       0                       0
    33                       0                       0                       0
    34                       0                       0                       0
    35                       0                       0                       0
    36                       0                       0                       0
    37                       0                       0                       0
    38                       0                       0                       0
    39                       0                       0                       0
    40                       0                       0                       0
    41                       0                       0                       0
    42                       0                       0                       0
    43                       0                       0                       0
    44                       0                       0                       0
    45                       0                       0                       0
    46                       0                       0                       0
    47                       0                       0                       0
    48                       0                       0                       0
    49                       0                       0                       0
    50                       0                       0                       0
    51                       0                       0                       0
    52                       0                       0                       0
    53                       0                       0                       0
    54                       0                       0                       0
    55                       0                       0                       0
    56                       0                       0                       0
    57                       0                       0                       0
    58                       0                       0                       0
    59                       0                       0                       0
    60                       0                       0                       0
    61                       0                       0                       0
    62                       0                       0                       0
    63                       0                       0                       0
    64                       0                       0                       0
    65                       0                       0                       0
    66                       0                       0                       0
    67                       0                       0                       0
    68                       0                       0                       0
    69                       0                       0                       0
    70                       0                       0                       0
    71                       0                       0                       0
    72                       0                       0                       0
    73                       0                       0                       0
    74                       0                       0                       0
    75                       0                       0                       0
    76                       0                       0                       0
    77                       0                       0                       0
    78                       0                       0                       0
    79                       0                       0                       0
    80                       0                       0                       0
    81                       0                       0                       0
    82                       0                       0                       0
    83                       0                       0                       0
    84                       0                       0                       0
    85                       0                       0                       0
    86                       0                       0                       0
    87                       0                       0                       0
    88                       0                       0                       0
    89                       0                       0                       0
    90                       0                       0                       0
    91                       0                       0                       0
    92                       0                       0                       0
    93                       0                       0                       0
    94                       0                       0                       0
    95                       0                       0                       0
    96                       0                       0                       0
    97                       0                       0                       0
    98                       0                       0                       0
    99                       0                       0                       0
   100                       0                       0                       0
   101                       0                       0                       0
   102                       0                       0                       0
   103                       0                       0                       0
   104                       0                       0                       0
   105                       0                       0                       0
   106                       0                       0                       0
   107                       0                       0                       0
   108                       0                       0                       0
   109                       0                       0                       0
   110                       0                       0                       0
   111                       0                       0                       0
   112                       0                       0                       0
   113                       0                       0                       0
   114                       0                       0                       0
   115                       0                       0                       0
   116                       0                       0                       0
   117                       0                       0                       0
   118                       0                       0                       0
   119                       0                       0                       0
   120                       0                       0                       0
   121                       0                       0                       0
   122                       0                       0                       0
   123                       0                       0                       0
   124                       0                       0                       0
   125                       0                       0                       0
   126                       0                       0                       0
   127                       0                       0                       0
   128                       0                       0                       0
   129                       0                       0                       0
   130                       0                       0                       0
   131                       0                       0                       0
   132                       0                       0                       0
   133                       0                       0                       0
   134                       0                       0                       0
   135                       0                       0                       0
   136                       0                       0                       0
   137                       0                       0                       0
   138                       0                       0                       0
   139                       0                       0                       0
   140                       0                       0                       0
   141                       0                       0                       0
   142                       0                       0                       0
   143                       0                       0                       0
   144                       0                       0                       0
   145                       0                       0                       0
   146                       0                       0                       0
   147                       0                       0                       0
   148                       0                       0                       0
   149                       0                       0                       0
   150                       0                       0                       0
   151                       0                       0                       0
   152                       0                       0                       0
   153                       0                       0                       0
   154                       0                       0                       0
   155                       0                       0                       0
   156                       0                       0                       0
   157                       0                       0                       0
   158                       0                       0                       0
   159                       0                       0                       0
   160                       0                       0                       0
   161                       0                       0                       0
   162                       0                       0                       0
   163                       0                       0                       0
   164                       0                       0                       0
   165                       0                       0                       0
   166                       0                       0                       0
   167                       0                       0                       0
   168                       0                       0                       0
   169                       0                       0                       0
   170                       0                       0                       0
   171                       0                       0                       0
   172                       0                       0                       0
   173                       0                       0                       0
   174                       0                       0                       0
   175                       0                       0                       0
   176                       0                       0                       0
   177                       0                       0                       0
   178                       0                       0                       0
   179                       0                       0                       0
   180                       0                       0                       0
   181                       0                       0                       0
   182                       0                       0                       0
   183                       0                       0                       0
   184                       0                       0                       0
   185                       0                       0                       0
   186                       0                       0                       0
   187                       0                       0                       0
   188                       0                       0                       0
   189                       0                       0                       0
   190                       0                       0                       0
   191                       0                       0                       0
   192                       0                       0                       0
   193                       0                       0                       0
   194                       0                       0                       0
   195                       0                       0                       0
   196                       0                       0                       0
   197                       0                       0                       0
   198                       0                       0                       0
   199                       0                       0                       0
   200                       0                       0                       0
   201                       0                       0                       0
   202                       0                       0                       0
   203                       0                       0                       0
   204                       0                       0                       0
   205                       0                       0                       0
   206                       0                       0                       0
   207                       0                       0                       0
   208                       0                       0                       0
   209                       0                       0                       0
   210                       0                       0                       0
   211                       0                       0                       0
   212                       0                       0                       0
   213                       0                       0                       0
   214                       0                       0                       0
   215                       0                       0                       0
   216                       0                       0                       0
