(written by ASE)

8 atoms
1 atom types

0.0       5.443702220916748  xlo xhi
0.0       5.443702220916748  ylo yhi
0.0       5.443702220916748  zlo zhi

Atoms # atomic

     1   1      4.5663166916318119      3.5291767664459428     0.94962575944240513
     2   1      1.8106217443799721      3.3650601967100897       3.689457452584918
     3   1      3.1817165119090873      4.8372971106950331      4.9481331209928783
     4   1       4.544951319680905     0.72319068240445716      3.6613869093829976
     5   1      3.2887886709360998      2.1121325132385778      2.2981782214411197
     6   1       1.988705771499923     0.75709641183843246     0.92462713537036478
     7   1     0.59275421382004012      4.8383490422312434      2.2753084446266598
     8   1     0.46735806123916745      2.0435385951172123      5.0717250179295377


Velocities

     1                       0                       0                       0
     2                       0                       0                       0
     3                       0                       0                       0
     4                       0                       0                       0
     5                       0                       0                       0
     6                       0                       0                       0
     7                       0                       0                       0
     8                       0                       0                       0
