(written by ASE)

8 atoms
1 atom types

0.0       5.443702220916748  xlo xhi
0.0       5.443702220916748  ylo yhi
0.0       5.443702220916748  zlo zhi

Atoms # atomic

     1   1      2.9997437125925046      3.0393673323762584      1.0803124349070998
     2   1     0.24915904517440524      3.1403349140059049      3.7689422041464127
     3   1     0.15501451877980976     0.41574365492837728     0.96503743251671636
     4   1       4.303209860063248       4.415786002633979      5.1431668086891875
     5   1      1.5604429307518757      4.4524485097713864      2.3444096714947449
     6   1      1.6450710175219569      1.7768294983065118       5.116836397760153
     7   1      2.9208319749400005     0.29649876285707677      3.7659846606693748
     8   1      4.3249269574260154      1.6348928822987574      2.4327422315371621


Velocities

     1                       0                       0                       0
     2                       0                       0                       0
     3                       0                       0                       0
     4                       0                       0                       0
     5                       0                       0                       0
     6                       0                       0                       0
     7                       0                       0                       0
     8                       0                       0                       0
