(written by ASE)

8 atoms
1 atom types

0.0       5.443702220916748  xlo xhi
0.0       5.443702220916748  ylo yhi
0.0       5.443702220916748  zlo zhi

Atoms # atomic

     1   1      1.2185307065527056      4.6478228909016934     0.53768975922637452
     2   1      2.5981430532842182      3.3497533274254749      4.6381848358888647
     3   1      5.3206255822402682      3.3659262069723184      1.9297625627189348
     4   1      2.5576530987682986     0.59726024951334011       1.957569960801834
     5   1      4.0367106953018776      4.7712736434156966      3.2982927198648895
     6   1       1.189481643137853      2.0054300877049371      3.2728215053294036
     7   1      3.9700363413286368        1.91357394638014     0.58089621661477864
     8   1      5.3415532442459721     0.67278188470385558      4.6776332419065625


Velocities

     1                       0                       0                       0
     2                       0                       0                       0
     3                       0                       0                       0
     4                       0                       0                       0
     5                       0                       0                       0
     6                       0                       0                       0
     7                       0                       0                       0
     8                       0                       0                       0
