(written by ASE)

64 atoms
1 atom types

0.0      10.887404441833496  xlo xhi
0.0      10.887404441833496  ylo yhi
0.0      10.887404441833496  zlo zhi

Atoms # atomic

     1   1      6.9012315615909756       4.507999060889631      6.0809449539643197
     2   1      9.6225388604347017      1.7445290027690561      6.1294551563864843
     3   1      0.1743472285301273      8.6474009221272468      10.176482373339752
     4   1      2.9895206382830111     0.37055038699737608      10.186930954255558
     5   1      5.5465903401043306      3.0734662025403168      4.8520238277320402
     6   1      9.5626462526176397      9.8641761652025366      3.4459223231547469
     7   1    0.099920577980606495      3.1896949031934412      4.8280672388631274
     8   1      4.2161026607384429      4.4382987002826155      3.5568680042913456
     9   1      8.3025627091524257      8.5212736171017696      2.0162109258363756
    10   1      4.1931636095924034      7.2262641296027255      6.0946135745363108
    11   1      5.5293512523440427     0.44009346080236256      2.1129002091098528
    12   1      1.5106598327663079      1.7555364831515874      8.9388638304424148
    13   1     0.22653006561204592       5.868424283475747      7.6276568036813046
    14   1       7.019899302761587      7.1559450048255826      8.8224057295437319
    15   1      4.3092514902928087      4.4271473174829623      8.8037259952625391
    16   1      8.2500336220888357      5.8776937406399838       10.26071931160061
    17   1      9.7181757254670629      7.1825638695287353      6.1887598246774473
    18   1      4.1945108087714118      9.9916435310684051      3.4738150568311141
    19   1      4.1850138981812393      1.7781406813224976     0.73745859895034727
    20   1      2.8796749102333195      5.8152559906359897      4.7931432416489201
    21   1    0.082585391350654458      8.5421590980156452      4.7624084757931371
    22   1      1.4781651419714734      4.5194054770598768      6.2602068069560914
    23   1      9.6759784101419086      1.6909924365506441     0.73273399219564084
    24   1      8.3231996460944515       5.768937907109148      4.8101341099072954
    25   1      8.2946034615943631      3.2031600811148451      7.4364382335058963
    26   1      5.6379357657480682       8.501162970397786      10.151932328955809
    27   1      5.6260815810645681     0.40972932073227852      7.4238410126663439
    28   1      5.6112182621840248      3.1070592240723727      10.244777454649011
    29   1     0.12576802554789257      3.1270491679597399      10.258904875712119
    30   1      4.1845904649132706      7.2379794411531293     0.76230926473105143
    31   1      6.8787633163237274      4.4461369205541246     0.75504714083293578
    32   1      2.8145502246798628      3.1263168393116132      7.5479851574360168
    33   1      7.0555819106888293      9.9225541473530257       6.132596674317881
    34   1      8.3044219218922422     0.36869624410032742      4.7552896053722691
    35   1      4.1377934637592091      1.7515307395426163       6.128749109803266
    36   1      9.6720912602949625      4.4615171200445332      3.3851675987147019
    37   1        8.27288474188191     0.39355218251751012       10.24734790549104
    38   1    0.077846761410852228     0.43229543424431682      7.5560573205322044
    39   1      4.3080454355364566      9.9263608286555609      8.8098351152390251
    40   1       1.524260476886468      4.4477475893220912     0.68640658015810629
    41   1      8.3437723379889235      8.5253710234679829      7.5122194852048665
    42   1      6.9155731328125967      7.1754930206585641      3.4391275982010825
    43   1      9.7030417986589441      7.1986712061482763     0.64332715275009278
    44   1       2.854910066750989      8.5500086747349542      7.5606161231490319
    45   1      9.6762042412181586      4.5464893071829522      9.0057987337751797
    46   1      5.5382404307419506      8.6096183447668295      4.7397760487376956
    47   1      1.5968714950646046      7.2437770699899602       8.974188872498928
    48   1       2.836414306924155      3.1204994178086167       2.116558120946209
    49   1      9.5833513282464651      9.9310604512251075      8.8375253796746165
    50   1     0.10104854701864863     0.34608957184614653      2.1729404507483139
    51   1      2.7871224564234183     0.35524148977565417      4.8433121343897483
    52   1      8.3349461067588209       3.088269170012552      2.0434983608450068
    53   1      1.5411528685189211      10.025275488992918     0.70721897421864099
    54   1     0.18532366119554844       5.865911588282529      2.0702108351250246
    55   1      1.4461230867389503      1.7381541419140518      3.5100414763730043
    56   1       1.416390608518995      9.8641476118480682      6.1597866061104014
    57   1      5.6242113363468889      5.8761791149734108      7.5021706512516175
    58   1      7.0234223973390613      1.8179022008295362       3.465852240103743
    59   1       3.009664380920583      5.7920310814753293       10.31542948558166
    60   1      2.8252431314583362      8.6162128717692781      2.0771767179705307
    61   1      6.8726470580086243      9.8979392089816542     0.68836305276158072
    62   1      5.5284440343997971      5.8337008086826927      2.1543707117758117
    63   1      6.9880155888583886      1.8309330757400772      8.8605160215406613
    64   1      1.5134006303253358      7.1563064643355574      3.4581243396108619

Velocities

     1                       0                       0                       0
     2                       0                       0                       0
     3                       0                       0                       0
     4                       0                       0                       0
     5                       0                       0                       0
     6                       0                       0                       0
     7                       0                       0                       0
     8                       0                       0                       0
     9                       0                       0                       0
    10                       0                       0                       0
    11                       0                       0                       0
    12                       0                       0                       0
    13                       0                       0                       0
    14                       0                       0                       0
    15                       0                       0                       0
    16                       0                       0                       0
    17                       0                       0                       0
    18                       0                       0                       0
    19                       0                       0                       0
    20                       0                       0                       0
    21                       0                       0                       0
    22                       0                       0                       0
    23                       0                       0                       0
    24                       0                       0                       0
    25                       0                       0                       0
    26                       0                       0                       0
    27                       0                       0                       0
    28                       0                       0                       0
    29                       0                       0                       0
    30                       0                       0                       0
    31                       0                       0                       0
    32                       0                       0                       0
    33                       0                       0                       0
    34                       0                       0                       0
    35                       0                       0                       0
    36                       0                       0                       0
    37                       0                       0                       0
    38                       0                       0                       0
    39                       0                       0                       0
    40                       0                       0                       0
    41                       0                       0                       0
    42                       0                       0                       0
    43                       0                       0                       0
    44                       0                       0                       0
    45                       0                       0                       0
    46                       0                       0                       0
    47                       0                       0                       0
    48                       0                       0                       0
    49                       0                       0                       0
    50                       0                       0                       0
    51                       0                       0                       0
    52                       0                       0                       0
    53                       0                       0                       0
    54                       0                       0                       0
    55                       0                       0                       0
    56                       0                       0                       0
    57                       0                       0                       0
    58                       0                       0                       0
    59                       0                       0                       0
    60                       0                       0                       0
    61                       0                       0                       0
    62                       0                       0                       0
    63                       0                       0                       0
    64                       0                       0                       0
