(written by ASE)

64 atoms
1 atom types

0.0      10.887404441833496  xlo xhi
0.0      10.887404441833496  ylo yhi
0.0      10.887404441833496  zlo zhi

Atoms # atomic

     1   1     0.87859312527348976      9.7944858631635725      7.0158635456834304
     2   1      7.6663933226569156      8.4626808358528933     0.14745058714172554
     3   1      2.2735322961907514      3.0245903224989945    0.090174423780282176
     4   1       3.556306346830155      7.1269568606414282      6.9427150430544202
     5   1     0.83851159729094604      4.3160153906024448      6.9017513624302751
     6   1      3.5831043189386094      1.5894487585476043      1.5254092626989149
     7   1      9.1813661720626669      7.2000884908337071      6.9487923649770664
     8   1      5.0114067055549469      3.1156070600964085      2.7816428081249853
     9   1      2.2999590746911167     0.19513133286801754      2.8711040368437466
    10   1      9.0326025463425026      1.6428323371906544      1.5068502312343384
    11   1      6.4157700246789773      9.8417241434321454      1.5670695802781012
    12   1      7.6304556813590807     0.29257062840119552      8.2735473094935514
    13   1      5.0344359593435115      3.0636402794338835      8.2963348331789462
    14   1      10.430029022680401     0.35851368797423433     0.11046889284334149
    15   1      6.4635066907709984       4.413063375391431      1.4842864295706022
    16   1      3.7004079884934811      4.3396238232288056      9.6314929328200378
    17   1      4.9750089658862464     0.25859785536645852     0.13974990156482203
    18   1      7.7255682029730224     0.34095901264133488      2.9248936896131283
    19   1      9.0072406781758332      9.8077631729913719      9.6893790185458215
    20   1       6.453521452925429      4.4437468749971458      6.9616095764340002
    21   1      9.0727608925826644      4.3595190218945277      4.1642439285649857
    22   1      10.428530620510685      3.0323185474618128      8.2702760035872984
    23   1      7.7938386245670586      3.0345560921483354      5.6051805255937097
    24   1      3.6061721846496937      7.0346120675912971      1.5086072359439555
    25   1      7.7244351539525269       3.015019757233091    0.086684932120673075
    26   1      2.2482346730716358      8.4200033050207708      5.6057016243127578
    27   1      3.5761583909942374      1.6429884072304191      6.9543180880065734
    28   1      2.2854736010523737      5.7295673738763639      2.8469884577056348
    29   1      6.3956561332756223      7.1240022373938245      4.2525127302647547
    30   1       0.881478798659451      1.6202656152974839      4.1851871651276724
    31   1      2.3285852726603906      8.4011704209292475     0.11138862315953801
    32   1      10.508705195158541      8.4450543309876593      2.7992650948810365
    33   1      4.9840431823460563       5.695937362771474     0.13726212971865071
    34   1      4.9449890073019844      8.4722708693150253      8.2812424385227814
    35   1      7.7631333854755553      8.4313857104156682      5.5218540499764686
    36   1      10.409412851814352      2.9858583461025034      2.8344661894215619
    37   1     0.95179427314980103      7.1153687413063835      4.1847906628644864
    38   1      6.3094347368792114       9.785357874891929      6.8946136727530529
    39   1      2.2702358438643699       5.667286667321946      8.2076520078393855
    40   1      10.507855732863106      8.4446377115883706      8.4761184338296403
    41   1      3.6737531076273058      4.4829989767028735      4.2632049881033538
    42   1      2.2756377816128577      3.0476065974900735      5.5503470530365462
    43   1      4.9845814779717728      8.3950450774559044      2.8672483605807031
    44   1     0.98139120405351576      1.6496801129790413      9.6610573356125542
    45   1     0.98703446631775194      9.8674961415993607      1.4066436938422555
    46   1      3.6727787244060721      9.7578953883522104      4.2578557767196514
    47   1      9.1090807594664511      9.7768918052920526      4.1750516977012069
    48   1      3.6525408854867294      9.7702661291756385      9.7117512207116761
    49   1      9.0833405593530756      7.0906116851025445       1.470675240177485
    50   1      1.0655006256290775      7.0521425293551374      9.6993785330686251
    51   1      10.441530184072292     0.21154498938759048      5.5628326562177222
    52   1      6.2393907626087639      1.6193609931127355      9.6709296579199986
    53   1      5.0229406384104891     0.32251309950859408      5.5592829551054024
    54   1       9.102614073619236      1.6314805942048167      6.9495620076679643
    55   1      6.3874431502267157      1.7544516179167573      4.2537440936762039
    56   1      7.7404516389896685      5.8030676019172347       2.884120797312022
    57   1      9.1094668786916486      4.3880457698280679      9.6696590336461554
    58   1      6.3051848296425419      7.0784531476180064      9.6699517055294564
    59   1      4.9969632507730637      5.7997177742861936      5.6188166991719868
    60   1      7.7841175052503218        5.85389387075071      8.2921290538537278
    61   1      10.436160206612612      5.7784130782135321      5.5863658118186663
    62   1      10.488424526207496      5.7292162974043777     0.14664746320918898
    63   1      2.2860290935847587      0.2632190576080724      8.3274858939640808
    64   1      0.8987405181978545      4.2860671398742909      1.4462129649115383

Velocities

     1                       0                       0                       0
     2                       0                       0                       0
     3                       0                       0                       0
     4                       0                       0                       0
     5                       0                       0                       0
     6                       0                       0                       0
     7                       0                       0                       0
     8                       0                       0                       0
     9                       0                       0                       0
    10                       0                       0                       0
    11                       0                       0                       0
    12                       0                       0                       0
    13                       0                       0                       0
    14                       0                       0                       0
    15                       0                       0                       0
    16                       0                       0                       0
    17                       0                       0                       0
    18                       0                       0                       0
    19                       0                       0                       0
    20                       0                       0                       0
    21                       0                       0                       0
    22                       0                       0                       0
    23                       0                       0                       0
    24                       0                       0                       0
    25                       0                       0                       0
    26                       0                       0                       0
    27                       0                       0                       0
    28                       0                       0                       0
    29                       0                       0                       0
    30                       0                       0                       0
    31                       0                       0                       0
    32                       0                       0                       0
    33                       0                       0                       0
    34                       0                       0                       0
    35                       0                       0                       0
    36                       0                       0                       0
    37                       0                       0                       0
    38                       0                       0                       0
    39                       0                       0                       0
    40                       0                       0                       0
    41                       0                       0                       0
    42                       0                       0                       0
    43                       0                       0                       0
    44                       0                       0                       0
    45                       0                       0                       0
    46                       0                       0                       0
    47                       0                       0                       0
    48                       0                       0                       0
    49                       0                       0                       0
    50                       0                       0                       0
    51                       0                       0                       0
    52                       0                       0                       0
    53                       0                       0                       0
    54                       0                       0                       0
    55                       0                       0                       0
    56                       0                       0                       0
    57                       0                       0                       0
    58                       0                       0                       0
    59                       0                       0                       0
    60                       0                       0                       0
    61                       0                       0                       0
    62                       0                       0                       0
    63                       0                       0                       0
    64                       0                       0                       0
