(written by ASE)

64 atoms
1 atom types

0.0      10.887404441833496  xlo xhi
0.0      10.887404441833496  ylo yhi
0.0      10.887404441833496  zlo zhi

Atoms # atomic

     1   1      8.1266811839657862      5.2057502456949578      7.1728161436771529
     2   1      1.3496434110448661      3.8719909359528799      8.3388968527134466
     3   1      6.6618577591046346      1.1132745246463855     0.22188018833973722
     4   1       2.697147267324226      5.3642547833980245      7.1519890673519626
     5   1      9.3824064472353257      9.3079185327057985     0.31232754203558244
     6   1      4.0546817872403551      6.6228220788469798      8.4781307963797872
     7   1      3.9863325194515937      1.2648688260981658      3.0355746032810202
     8   1      6.6993684306577279      3.9186746970988793      2.9804695493864699
     9   1      5.4198676327442001      7.9404899509964366      7.0998785465072842
    10   1      9.3678546194944374      9.3462306450036294      5.7615036519093792
    11   1      5.3905501515738479      7.9885757467408212      1.6694161591405958
    12   1      10.780739492577595       10.78335017769183      4.3908770944995581
    13   1      10.779015908271504      10.768109175804454      9.8270626448525036
    14   1      2.6470448909205118      5.2393533257950651      1.6186567311141715
    15   1      1.2243141398297865      3.8784657335485235      3.0187570019690781
    16   1      8.0651208006718207      2.4900700667360951      9.8445217232301729
    17   1      5.3386661107452937      5.1867395520778814      4.3531298843622892
    18   1      10.844039034734635      5.2577669947278025      9.7676541461816555
    19   1      5.2561472408015959      10.749587782852586      4.3786410087000434
    20   1      9.5430878537466697      6.6328280827685262      8.4661954942120019
    21   1      3.9447984206779552      3.9197662139674208      5.7610195427631652
    22   1      6.7318387862072768      6.5712456355188351     0.26591572725564916
    23   1      2.6323903684445185      10.722319978275152        7.02691434280257
    24   1      1.2703270593807474      1.1971478943426774      0.3589648228630864
    25   1      1.3092192428087017      1.1594601433213896      5.7069771279127508
    26   1      5.3199918924530323      10.559665145606118      9.7609759059354246
    27   1       6.807562282257436      9.3126973259400074      8.4134314909139221
    28   1      1.3023201196527623      6.6140224541517227       0.279938385087803
    29   1      1.3496443033371932      6.5510441372324522      5.6760213980297749
    30   1      5.3192400956086772      5.2379902275891368      9.8262625019875145
    31   1      10.820328069608138      7.9790914904781971      7.0409470186440331
    32   1      3.9470255823264893      9.3188466801886989     0.29128473376093567
    33   1      7.9838371877788177      2.5544986020394163      4.4483384490776245
    34   1      1.2769811266166613      9.4390816111557001      3.0162751314198886
    35   1      10.733750405220746      2.6212853848458764      1.6740708426238484
    36   1      3.9711233156180583       6.588101848753297      2.9459397831458887
    37   1      1.2745140194496116      9.4616802933376789      8.4252013134137655
    38   1      2.5816019003587201      8.0011794569791164      4.2777256667302765
    39   1       2.577462475135647      2.5497394392364043      4.3293274187135182
    40   1      3.9798074290156933      1.1224504533512416      8.4887831444161179
    41   1      6.7917469685813217      6.5342255625106986      5.7242564499452442
    42   1       5.311313943984203      2.5887611672867621      7.2176092184994332
    43   1      8.0604075503649142      5.2184730364001837       1.609797241715512
    44   1      6.7091518482023957      9.3234917918088058       3.040714856025204
    45   1      10.849697141498496      2.4667212100594469      7.0606975037177904
    46   1      2.6251808086762196      8.0038719085175103      9.7909627685860983
    47   1      6.7456040988205359      3.9204839414683761      8.5658830419396281
    48   1      9.3841371698800344      1.1943684037436455      3.0271860819961205
    49   1      8.0096013986675416      10.700531173056277      7.0689325507224225
    50   1       3.928605423995009      9.2699088263893827      5.7412398553950652
    51   1      9.3785381166447337      1.2655730880967297      8.4112296379204849
    52   1      8.0032041493868746      10.704732409802375      1.6723240587172512
    53   1      9.4936976888549793      3.8624395144132677      5.7806772294349003
    54   1      2.6941879392625339      10.818422133197373      1.6338988686463267
    55   1      5.4050471438953593      2.5153745037238906      1.6379164554080035
    56   1        3.98558850988573      3.8833331070755719      0.3062624688530633
    57   1       10.82355070502382      8.0151472388331513        1.70788450371316
    58   1      8.0823417181156287      7.9508950529406661      9.8284182802498776
    59   1      2.5643035968349039      2.5071122012445386      9.8551416242727896
    60   1      8.0799133851060674      7.9191054353192385      4.4062508045912239
    61   1      10.849446650707023      5.2073674038616673       4.350441326463141
    62   1      6.5908533538202505      1.2414375540574838      5.7830763601501189
    63   1      9.4543952943089948      6.5714513494589823      3.0240134149507583
    64   1      9.4039785065361912      3.8952839838003399     0.25401587342849652

Velocities

     1                       0                       0                       0
     2                       0                       0                       0
     3                       0                       0                       0
     4                       0                       0                       0
     5                       0                       0                       0
     6                       0                       0                       0
     7                       0                       0                       0
     8                       0                       0                       0
     9                       0                       0                       0
    10                       0                       0                       0
    11                       0                       0                       0
    12                       0                       0                       0
    13                       0                       0                       0
    14                       0                       0                       0
    15                       0                       0                       0
    16                       0                       0                       0
    17                       0                       0                       0
    18                       0                       0                       0
    19                       0                       0                       0
    20                       0                       0                       0
    21                       0                       0                       0
    22                       0                       0                       0
    23                       0                       0                       0
    24                       0                       0                       0
    25                       0                       0                       0
    26                       0                       0                       0
    27                       0                       0                       0
    28                       0                       0                       0
    29                       0                       0                       0
    30                       0                       0                       0
    31                       0                       0                       0
    32                       0                       0                       0
    33                       0                       0                       0
    34                       0                       0                       0
    35                       0                       0                       0
    36                       0                       0                       0
    37                       0                       0                       0
    38                       0                       0                       0
    39                       0                       0                       0
    40                       0                       0                       0
    41                       0                       0                       0
    42                       0                       0                       0
    43                       0                       0                       0
    44                       0                       0                       0
    45                       0                       0                       0
    46                       0                       0                       0
    47                       0                       0                       0
    48                       0                       0                       0
    49                       0                       0                       0
    50                       0                       0                       0
    51                       0                       0                       0
    52                       0                       0                       0
    53                       0                       0                       0
    54                       0                       0                       0
    55                       0                       0                       0
    56                       0                       0                       0
    57                       0                       0                       0
    58                       0                       0                       0
    59                       0                       0                       0
    60                       0                       0                       0
    61                       0                       0                       0
    62                       0                       0                       0
    63                       0                       0                       0
    64                       0                       0                       0
