(written by ASE)

64 atoms
1 atom types

0.0      10.887404441833496  xlo xhi
0.0      10.887404441833496  ylo yhi
0.0      10.887404441833496  zlo zhi

Atoms # atomic

     1   1      8.5472000629590639      1.5328062038559125      4.9504822833377773
     2   1      5.7815104682334777      9.7537019388846034      10.420127498078614
     3   1     0.39691831476289252      9.7063332217012999      4.9177510539587672
     4   1       7.137470984484537     0.14311069019592715      3.5137433538858431
     5   1      4.5189398627000799      2.7976375536763385      3.6366051934639358
     6   1      9.8488371733941449      8.3509548045174711      8.9693562172551538
     7   1      1.6282149665224637      2.9696212215081061     0.92970330530196321
     8   1        1.71667585442502      5.6284112752132387       8.945789316780747
     9   1      1.7813636412081166      8.3895524503599859      0.9205528474871727
    10   1      5.7780697890200372      7.0516746437057805       7.604012030421984
    11   1      1.7296535162658699      8.3554526067861161      6.2694788598798254
    12   1      1.7016470558765349      0.2917028943924258      3.5780974233385905
    13   1     0.27307304736406834      1.5743208344333226      2.2322426855147484
    14   1      3.1892594645377983      4.2455226744089316      2.2468345852928735
    15   1      7.1008584457174493      8.3728149931225175      6.2381733514046118
    16   1      7.1279030149781306       5.646559527737395      8.9719454873535369
    17   1      8.4461756990904178      7.0562607017973278      10.335128055465475
    18   1      8.4943776550722987        1.58042865653006      10.391282120666801
    19   1      8.5056510385683168      9.7759508424743444      7.7073011944518726
    20   1      4.3945650198050998     0.27635370206038523     0.76903958240219339
    21   1      1.7711593861549773     0.31498791160894157      9.0765234459737485
    22   1     0.31610406791333467      1.6376744008348965      7.6097493078505067
    23   1      4.4769995275651411      3.0165068029550071      9.0062036722567314
    24   1      8.5361161699063359      4.2979297607761566      7.6695562556041637
    25   1       9.937458998385523     0.19077078138278303     0.81059152702237469
    26   1      1.7898681604955442      5.5522919258397678       3.612302719642031
    27   1      5.8023927044479819       4.323884111048045      10.364950087388081
    28   1      1.7416222388371807      2.9553107994004506      6.2082371060641321
    29   1      4.3636495241943294      8.4061172895908953      8.9804453018268759
    30   1      5.7367952661961112      9.6725682311025594      4.9382315963910912
    31   1      3.0533659388743217      7.0289267053527169      10.372823674882738
    32   1     0.39519931359466298      7.0244717331157744      7.6606794070638671
    33   1      9.8362393036147182      2.9280803088657876      9.0099279381952329
    34   1      3.0519178295448626      1.6871742365653404      10.407268105529852
    35   1      4.4078793192057333      8.3770869643149126       3.526065099748763
    36   1     0.39534272930687919      9.6651151566464364      10.294557632405144
    37   1      8.5894492934741606      9.8152220879063634      2.2104329519849273
    38   1      8.4664505275825945      7.0594320709629415      4.9132234004559052
    39   1      5.7754162738741002      6.9326207833099716      2.1951982772613263
    40   1      4.5082330037143095      0.2177246004579203      6.3567041662617498
    41   1      9.8088825942745075      2.9190503105151606      3.6207408848273133
    42   1      9.8519507869109475       5.695153443403342     0.83250265740755225
    43   1      5.9304622865171837      1.5256925249540387      2.0922597029985184
    44   1      4.4431508237226183      5.7138948269725915     0.81084818274265302
    45   1      7.2103780814803144      2.8602472727470172      6.3768771111936644
    46   1       3.077258931635555       1.549078371203521      4.9443154077124802
    47   1       7.127627215531561      8.4094009253547597      1.0068771008536572
    48   1      7.2327723476018946      3.0825896482328403     0.80974076684719165
    49   1      2.9929421737701603      9.8334709261110334      7.6370132187886952
    50   1      9.8620748978896131     0.20330815779830402      6.2444687171250166
    51   1     0.40556576305763059      6.9618749928425814      2.2787449057309175
    52   1      9.8875925116261101      8.3608757973154866      3.5197528615916269
    53   1      3.0825526586600063      4.3109179678899636       7.611861607141293
    54   1      3.0977631603732902      9.8244201616844293      2.2464504128872989
    55   1      7.1033640025720501      5.6220159727521946      3.5914548772408637
    56   1      5.7798563204939342        4.23720358969058      5.0269942413351885
    57   1      5.8577291054077136      1.5215109186391373      7.6757477909446834
    58   1     0.29015403714748444      4.3578350229207672       10.36246270084996
    59   1     0.32249160337525851      4.2455846481669255      4.9466794956744877
    60   1      3.1053431025748353      7.0431637972545786      4.8709621645531342
    61   1      4.4145624265010213      5.6971956571877058      6.2865978937633713
    62   1      9.8433004183867752      5.6932442622932058       6.322242214238031
    63   1      8.5365224062676361      4.3329332531249634      2.2761267578081288
    64   1      7.1112849626775301     0.25292238946096113      9.0195711847270559

Velocities

     1                       0                       0                       0
     2                       0                       0                       0
     3                       0                       0                       0
     4                       0                       0                       0
     5                       0                       0                       0
     6                       0                       0                       0
     7                       0                       0                       0
     8                       0                       0                       0
     9                       0                       0                       0
    10                       0                       0                       0
    11                       0                       0                       0
    12                       0                       0                       0
    13                       0                       0                       0
    14                       0                       0                       0
    15                       0                       0                       0
    16                       0                       0                       0
    17                       0                       0                       0
    18                       0                       0                       0
    19                       0                       0                       0
    20                       0                       0                       0
    21                       0                       0                       0
    22                       0                       0                       0
    23                       0                       0                       0
    24                       0                       0                       0
    25                       0                       0                       0
    26                       0                       0                       0
    27                       0                       0                       0
    28                       0                       0                       0
    29                       0                       0                       0
    30                       0                       0                       0
    31                       0                       0                       0
    32                       0                       0                       0
    33                       0                       0                       0
    34                       0                       0                       0
    35                       0                       0                       0
    36                       0                       0                       0
    37                       0                       0                       0
    38                       0                       0                       0
    39                       0                       0                       0
    40                       0                       0                       0
    41                       0                       0                       0
    42                       0                       0                       0
    43                       0                       0                       0
    44                       0                       0                       0
    45                       0                       0                       0
    46                       0                       0                       0
    47                       0                       0                       0
    48                       0                       0                       0
    49                       0                       0                       0
    50                       0                       0                       0
    51                       0                       0                       0
    52                       0                       0                       0
    53                       0                       0                       0
    54                       0                       0                       0
    55                       0                       0                       0
    56                       0                       0                       0
    57                       0                       0                       0
    58                       0                       0                       0
    59                       0                       0                       0
    60                       0                       0                       0
    61                       0                       0                       0
    62                       0                       0                       0
    63                       0                       0                       0
    64                       0                       0                       0
