(written by ASE)

216 atoms
2 atom types

0.0      16.628772735595703  xlo xhi
0.0      16.628772735595703  ylo yhi
0.0      16.628772735595703  zlo zhi

Atoms # atomic

     1   1      8.3143863677978516      8.3143863677978516      8.3143863677978516
     2   2      9.7001170987134628      6.9286556368822403      9.7001170987134628
     3   2      6.9286551413061943      9.7001180898655548      9.7001170987134628
     4   2      6.9286551413061943      6.9286556368822403      6.9286546457301483
     5   2      9.7001170987134628      9.7001180898655548      6.9286546457301483
     6   2      12.485938372052942      10.187129590616905      9.8184537204283515
     7   1       6.029408618229013      6.1766006507970133      3.3323888732042519
     8   2       15.24321842975246       12.99475422767523       15.61980765824319
     9   2      7.1893940531047065      1.6669000129975871      1.6878302956174309
    10   1      2.5887244851534774      6.1064295605667667      6.0590534817233674
    11   1      16.507054302943061      14.193160186667455     0.70439395101539048
    12   2      9.5447926632309645      4.6900801592264543      1.2934120994025875
    13   1       8.394557687059887      14.624310355516172      14.049693894813117
    14   1      14.556833712247908      6.2164553719906053      11.688419735085745
    15   1      13.766585175875207      11.904843741276864      0.4632090452100357
    16   2      12.366034738880671       10.21186180876748      4.5029144672138273
    17   1      10.437375670793926      9.3261673082436118       16.53308096572573
    18   2      15.976606552913836      15.183541162295796      2.3836333119817823
    19   2      12.753106391895926      12.750091307232196       1.566186323265697
    20   1     0.54447750789086058      5.6539651615565845      3.2674798094301991
    21   2      10.123623502629016      12.987799313445976       9.843335602544812
    22   1      10.670628448354364      8.7754217545232223      5.9998118256111184
    23   2      4.2111609197298776      10.148424110273936      7.1623385744505867
    24   1      8.3186344456639745      5.7015850638146048     0.59148004628960393
    25   1      8.7034363603886504      5.8944384821069207      11.240760936993411
    26   2      7.1416393541621801      4.3254997294818622      10.316756425811263
    27   2      6.8279763896855457       10.33794230177682      15.921409292912813
    28   1      10.787351474463549      6.2347109067962947      8.4222346180756631
    29   1      2.6653573914472304      8.7754435598692453      13.900473965064975
    30   1      3.2635127231821457     0.64172736884938786      11.961665499556602
    31   1      16.516361221086527      5.6306483085933223       14.55844631670152
    32   1      11.250387997262578      6.4649619802462439      3.1380199833633355
    33   2      12.621064119053472      1.6721082694527922      12.671851743397383
    34   2      15.673249587889359      12.639749318291024      10.344051763271636
    35   1      5.7870942326678687      11.708637255457461      8.6470963020256022
    36   1      2.9612494944911418      6.5015870323481977     0.48966258480930946
    37   1      10.658112179737145      0.9375768523533452      8.5267853053435374
    38   2      1.2735373937606767       2.096725011499359      6.6625308046160399
    39   1      0.1369494668497282      8.4357529414578494      11.444206797692459
    40   2      15.726563658915666      7.0876042199889753      10.173765886961064
    41   1      8.3518221823110252     0.24534813176035541      5.8753414591751607
    42   2       12.82122133711141      4.8670587900379587      4.5938006361659518
    43   2      8.2248788914056377      0.6735385191347234      9.1996536817700871
    44   1      16.297672432365289      8.1601155269891024      6.7117157360272586
    45   1      11.119376522595758      5.7823049857595379      13.875770490325067
    46   2      15.419671254379182       7.249388489230796      15.875783588663808
    47   2       15.53784532715099      15.936790982227876      13.279819480842662
    48   2      4.2921221872092019      7.1685501246108743      10.342392574669702
    49   2      6.8947706247384986      10.113034033678559      4.9056735799645139
    50   1      11.666070246564232     0.56388829240673033      3.2649526193837346
    51   1      5.4181814771293375     0.49647768464659237      8.9852199089796159
    52   2      12.816512373522528      1.8284206357829476      7.0548079884182471
    53   1       8.449510132494197      3.4699394737977514      14.171755266089576
    54   2      6.9177024151140358      4.6462910598038434      15.696137271996804
    55   1      2.5607078367581835     0.52212981583251405     0.10467788770080055
    56   2      4.2500923827498127      1.9483414902228162      15.217432616928136
    57   2      14.926378822821107      4.3523217918183263       2.146666935320809
    58   2       4.051079945358083      10.005944014751094      1.5602448620504674
    59   2      7.3398335955020002      7.1896576995611667      1.7108759445895316
    60   1      10.524915214707562      13.808983688912804      6.2523965291491095
    61   1      16.382173103964988     0.14245706672345548      13.606241546199044
    62   1      8.0689092159112761     0.39698704562267295     0.43046754381888519
    63   2      4.3729897908158364      15.582321294973326      1.6714327993021243
    64   1      13.713404910381314      5.8069598940469405      5.6182177746320576
    65   1      5.4118495019898774      11.703868822743061      14.395116345772294
    66   2      1.8527962869684416      6.9042049059257806      1.8656215472503277
    67   2      12.308903741148242      13.264684588398495      12.310294327533256
    68   2      1.2546776278609286      15.429035659343981      9.7053533552152658
    69   1      14.508133454209656      3.4863390763112534      2.9435321552713845
    70   1      2.5956112576764099      9.1351356274963109      8.2305363875465218
    71   1      6.0032759021725042      3.3598809543548782      11.584943456685551
    72   2      9.6631193734249337      16.077812101871359      12.803794901030642
    73   2      9.5636860044078276       4.544011597554686      7.3648002211223229
    74   1      2.9419294623386918      11.934448463111494     0.53817378058602117
    75   2      7.0734882318953396      16.162862862882093      15.570245097884936
    76   2      9.5889831792508176      1.8282252549268208      4.2985983749780416
    77   2      1.4365570101911089      2.0880254218002392      12.394919884296542
    78   1      13.838191949910652      11.643338173335223      5.4687718622069497
    79   1      3.3063820334634215      3.7349698263664095      2.8311194018220931
    80   2      1.4256662310046977      4.3018885043472892      9.8478998579282688
    81   1      2.5280612691533406     0.81085049986208446      5.3703831674947651
    82   1      11.355816845283925       11.32862161418484       14.32875474860748
    83   1      10.803486439368498     0.26242811372473085      13.899717716018813
    84   1      8.0602247412815586      6.0787397445737952      5.9791215256915393
    85   1      5.0072527932607045      14.301419765063429     0.21102224277671056
    86   2      10.006440581949164      7.6683271687305705      15.396325658005253
    87   2      15.227463076098729      1.9556775024314277      15.612354194511681
    88   1      11.315524530441735      3.2041070313986779       6.126664921676138
    89   2      9.7962955242605858      13.347922532233042      4.2557087460788807
    90   1      16.350712945414216       3.085304815988593      5.9370248184659431
    91   2      4.7137146764351883      12.553154342321022      10.711727560999407
    92   2      12.250502086433926      1.7106451300461174      1.4462707962683226
    93   1      10.901661045228821      14.836316796833444     0.38459566216904051
    94   1      1.3560744691721993      10.623588370070138      2.2551874345049896
    95   1      3.3967612281205106      6.2171551253675261      11.542886891119679
    96   1      7.9974441766249811      11.274231151986669      6.1002908600852379
    97   2      7.1109156216157317      2.0204772916873424      7.1078841829424846
    98   2      1.7022690276110097      16.010260131044106      15.593049525216657
    99   2      7.2937841737336839      13.088435941102716      1.8969597940937888
   100   2      2.0390275703463772      16.368330673848732      3.8445104688412357
   101   1      16.204755888352793      9.1264997193190993       16.55498245350168
   102   2      3.9914423239850976      2.1424490875934907      4.4175906438017591
   103   1      13.722735616174987       3.709009322985878      14.510239652405062
   104   2      4.0826092367672686      5.0248135304499328      7.5848686935555634
   105   2      10.010488447092712      15.446687086949623      1.6172652224306319
   106   2      12.516405396207574      4.4179281310890701      15.239366812723119
   107   1      7.8973383109134829      11.882525969622293      11.741860673579822
   108   2      1.0968797723329544      12.380773170488055      1.4831676718314952
   109   1      3.4884732745532574      12.157608338919545      11.628471883107977
   110   2      4.0342132624212468      4.3502958769423685      2.0444435970588586
   111   1      2.8381243692319913      2.9233017499224729      14.548638866751617
   112   1      13.538500265322227      9.0162439606099269      8.2149931404404697
   113   1       5.448387332707739      14.714620169526825        5.74631129754016
   114   2      1.4469913638391745      4.6342257653884644      15.227941802559144
   115   1      16.035749589392935      13.771772865924504      6.4723321872020279
   116   1      13.441243466299056      0.5670251648837592      6.1934437938716655
   117   1      0.5400331819105304      13.818461085216086      11.802056313580579
   118   2      15.489574237968554      2.5157073016911795      4.4899105517673661
   119   2      12.625048550463134      7.5113826951537703      7.4881238245878876
   120   2      15.261664761335851       10.53469986815935      12.940306278655726
   121   1      16.628567567112668      11.624002778325348      8.7923922606416909
   122   2      15.514857536682257      9.9974270448249172      7.4050310845348122
   123   2      14.602308761378936      5.4567387802345593       13.99715490472272
   124   1      9.9737702266941142      9.8573524754292521      10.792336969486087
   125   1      5.9219830943184206      2.9526666129508499      5.7047076884803118
   126   2      1.5392729510427614      13.264550782866081      7.2264185394997185
   127   1       13.87884306181013     0.90861489265034834      11.037859218792846
   128   2      14.467745988766637      14.017849169250667      5.3425977053249198
   129   1      8.5544771036406928       8.389525607889027      13.964578708916406
   130   1      5.7109752387337949      0.3710757281647048      14.094658500616788
   131   1      5.5447912453557819      3.8047372699072071    0.034803291326811703
   132   2      12.875135055153351      16.276855264977939      4.1179217557114498
   133   1      13.317853951219377      1.1516467484320572      16.094330642635896
   134   1      14.333617340770616      8.6739218333943882       2.816047695323789
   135   1      5.9783583385807333      11.641935693125106       3.580682879336166
   136   1      8.4856921396110465     0.42232408336386129       11.03368547733362
   137   1      3.0764451552266223      11.317893383941509      6.0048850375937946
   138   2      6.7678872985346743       4.943032580190561      4.6218537094006251
   139   2        4.14842594806953      7.1826348914136133      15.598306595912391
   140   1      8.8363429178552906         14.648937511545      8.8551420995834178
   141   2      1.4726399020987628      13.338686977040197      12.554897778850773
   142   1      5.5335163947337378      6.0965224998316216      14.322044648944939
   143   1      8.3426441139395138      3.3820800355464371      8.7088331835293502
   144   1      14.000461388101485       6.358381413494044     0.63881604542028469
   145   2      2.0773085898059662      11.116611208259201      3.2995824823245812
   146   2      9.7990360597948438      15.750176866354423      7.2580590877312261
   147   2      4.2075377632577329      13.242250851949166      4.5144257076098029
   148   2      1.1138224022988368      9.4327795918627544      9.1988181405565683
   149   2       12.44829045099209       15.77229541643851       15.82554010681838
   150   2      6.9332689542942489      15.765549635300658      4.6105000621872705
   151   1      0.3311201262722534     0.21035490317054695      3.2635080152097089
   152   2       9.296777666412936      5.1997791313626749      13.037465944773885
   153   2      7.0656174931331179      12.979718450440259      7.4224827949939254
   154   1       11.46529851420928      3.1329975679253721      11.115207736896991
   155   2      4.4324237304339249      12.789556010077604      15.645820444896572
   156   1       11.30853889049763      12.016341413557257      8.7717862086499281
   157   1      14.086549885352497       14.12171001466254      2.7782776147676032
   158   2      12.356470121193297      4.3656205750121444       9.687600830096244
   159   2      9.8500338083822498       1.927936518211709      9.6472986037331339
   160   2       1.652882148961055      7.8926551172789914      12.539950214151986
   161   2      4.5006724811818231      7.7466167857460277      4.5649219332386792
   162   1     0.31493659491479775      2.9620488586533043     0.50468299918685489
   163   1       1.443182861925834      2.4400831404390146      10.315119042555352
   164   2      4.4918556877478295      4.9855990935077443      12.733169367566234
   165   1      3.0843998941286372      3.7144752789849917      8.4303878351840922
   166   2       10.02328818520823      7.4708772826118093      4.6794084246523653
   167   2      4.4162392079243773      1.3929183180984523      9.8966199390083602
   168   2      4.6128832873923784      15.538881081087084      7.4691943063596682
   169   2       1.292176504425953      5.0389746159637525      4.3223880074891667
   170   2      12.349004763636685      10.396143743768562      15.346572796445344
   171   1      14.083720146129963       3.601083515056871      8.5097404628181721
   172   2      7.0230529621201185      13.234133316316047      12.379648212863685
   173   1      11.265554606573687      8.3135627204094362      12.083576215715084
   174   1      5.3948973321851099      6.2428304247335973      8.4864493798093008
   175   2      12.537990706466189      13.066052753410077      7.1918104819048949
   176   2      6.7613932700281794      1.9332370757054775      12.523559532007312
   177   1      13.666933753397871      14.798564804802936      8.5469661530878511
   178   2      15.044804648224272      10.215161354081602      2.0893020256946784
   179   1      11.096574077568221      3.1105953005549623      0.2516375028466129
   180   2       4.421279216311973      15.727428934691943      12.677138548655876
   181   2      1.3776024165034926      10.295945205336466      15.304887912913955
   182   1      5.9862672366984953      8.8969072664342548       10.98592384032645
   183   2      12.789793886579673      7.6519895132228157      13.214753319462034
   184   1      2.9997287443691221      14.310797055005423      14.198478708792891
   185   1      3.5558981301247172       10.85899194767012      4.2682235279679617
   186   2      9.4702907339349167      9.7371703285191415       1.272911852896641
   187   1     0.18974496400417351      11.540173116691903      14.138124484457421
   188   1      5.8808185656353089     0.57553420559320045      2.8831367981240987
   189   2      1.7872874522847439      7.6450365812977452      6.7641967437202766
   190   2      7.1440939423179088      7.6920439515629369      12.959165920661462
   191   2      15.382581351946101      7.6506435286819396      4.5897547533265879
   192   1      14.024652437209852      11.711638463991903      11.297070269641608
   193   1      14.260440581821513       14.20104777501524      13.841616380388359
   194   1       8.826380848179042      3.0340890139409566      3.2408443314750457
   195   1      16.305975313439603      5.2165464513022926      9.1942806462795943
   196   2      15.688380515725157      15.716687819471417      7.5824884418067313
   197   1      4.7080056403855224      13.195708332015101      12.453034104904191
   198   2       15.27578768749413      1.6873168788337978      10.040262655935067
   199   1      11.609372382295987      14.159414431392634      11.678074089549909
   200   2      12.953739362958004      6.8256863327770816      2.1541265937528919
   201   1      8.9430870247026633      14.104349985771933      2.9749781899048457
   202   2       9.763175185955788      2.2142089946271426      15.682843940139492
   203   2      1.3062267047994851      1.8496958393307921      1.4584879847417938
   204   1       3.314503533704908      14.749660369433741      3.5575013186334559
   205   1      11.837277894320323      12.233609881330722      3.6909381424692924
   206   2      9.6291555646898814      10.467695013286857      12.746259513244695
   207   2      3.9875252909176879       10.42463242834765      12.874988364643741
   208   1       3.079147779193363      8.5458937265243549      3.0309453272932956
   209   2      9.7046179203630345      12.923686640377809      15.679075579885875
   210   1      5.3056163340459079      9.2082350765822412     0.24384320668948334
   211   1      13.749298492239404      9.1852244896153934      14.218098564453157
   212   1      8.5207898263392963      11.395298397714896     0.29355443986153062
   213   2      12.885562966312818      15.568141873145805      10.056789125916339
   214   1      2.3384300863119734      14.830666238757203       8.410441890485572
   215   1      8.6024914844313116      8.7875970668208083      3.3684373225767104
   216   1    0.019198221109023805     0.37435046370302416      8.7408632545329965

Velocities

     1                       0                       0                       0
     2                       0                       0                       0
     3                       0                       0                       0
     4                       0                       0                       0
     5                       0                       0                       0
     6                       0                       0                       0
     7                       0                       0                       0
     8                       0                       0                       0
     9                       0                       0                       0
    10                       0                       0                       0
    11                       0                       0                       0
    12                       0                       0                       0
    13                       0                       0                       0
    14                       0                       0                       0
    15                       0                       0                       0
    16                       0                       0                       0
    17                       0                       0                       0
    18                       0                       0                       0
    19                       0                       0                       0
    20                       0                       0                       0
    21                       0                       0                       0
    22                       0                       0                       0
    23                       0                       0                       0
    24                       0                       0                       0
    25                       0                       0                       0
    26                       0                       0                       0
    27                       0                       0                       0
    28                       0                       0                       0
    29                       0                       0                       0
    30                       0                       0                       0
    31                       0                       0                       0
    32                       0                       0                       0
    33                       0                       0                       0
    34                       0                       0                       0
    35                       0                       0                       0
    36                       0                       0                       0
    37                       0                       0                       0
    38                       0                       0                       0
    39                       0                       0                       0
    40                       0                       0                       0
    41                       0                       0                       0
    42                       0                       0                       0
    43                       0                       0                       0
    44                       0                       0                       0
    45                       0                       0                       0
    46                       0                       0                       0
    47                       0                       0                       0
    48                       0                       0                       0
    49                       0                       0                       0
    50                       0                       0                       0
    51                       0                       0                       0
    52                       0                       0                       0
    53                       0                       0                       0
    54                       0                       0                       0
    55                       0                       0                       0
    56                       0                       0                       0
    57                       0                       0                       0
    58                       0                       0                       0
    59                       0                       0                       0
    60                       0                       0                       0
    61                       0                       0                       0
    62                       0                       0                       0
    63                       0                       0                       0
    64                       0                       0                       0
    65                       0                       0                       0
    66                       0                       0                       0
    67                       0                       0                       0
    68                       0                       0                       0
    69                       0                       0                       0
    70                       0                       0                       0
    71                       0                       0                       0
    72                       0                       0                       0
    73                       0                       0                       0
    74                       0                       0                       0
    75                       0                       0                       0
    76                       0                       0                       0
    77                       0                       0                       0
    78                       0                       0                       0
    79                       0                       0                       0
    80                       0                       0                       0
    81                       0                       0                       0
    82                       0                       0                       0
    83                       0                       0                       0
    84                       0                       0                       0
    85                       0                       0                       0
    86                       0                       0                       0
    87                       0                       0                       0
    88                       0                       0                       0
    89                       0                       0                       0
    90                       0                       0                       0
    91                       0                       0                       0
    92                       0                       0                       0
    93                       0                       0                       0
    94                       0                       0                       0
    95                       0                       0                       0
    96                       0                       0                       0
    97                       0                       0                       0
    98                       0                       0                       0
    99                       0                       0                       0
   100                       0                       0                       0
   101                       0                       0                       0
   102                       0                       0                       0
   103                       0                       0                       0
   104                       0                       0                       0
   105                       0                       0                       0
   106                       0                       0                       0
   107                       0                       0                       0
   108                       0                       0                       0
   109                       0                       0                       0
   110                       0                       0                       0
   111                       0                       0                       0
   112                       0                       0                       0
   113                       0                       0                       0
   114                       0                       0                       0
   115                       0                       0                       0
   116                       0                       0                       0
   117                       0                       0                       0
   118                       0                       0                       0
   119                       0                       0                       0
   120                       0                       0                       0
   121                       0                       0                       0
   122                       0                       0                       0
   123                       0                       0                       0
   124                       0                       0                       0
   125                       0                       0                       0
   126                       0                       0                       0
   127                       0                       0                       0
   128                       0                       0                       0
   129                       0                       0                       0
   130                       0                       0                       0
   131                       0                       0                       0
   132                       0                       0                       0
   133                       0                       0                       0
   134                       0                       0                       0
   135                       0                       0                       0
   136                       0                       0                       0
   137                       0                       0                       0
   138                       0                       0                       0
   139                       0                       0                       0
   140                       0                       0                       0
   141                       0                       0                       0
   142                       0                       0                       0
   143                       0                       0                       0
   144                       0                       0                       0
   145                       0                       0                       0
   146                       0                       0                       0
   147                       0                       0                       0
   148                       0                       0                       0
   149                       0                       0                       0
   150                       0                       0                       0
   151                       0                       0                       0
   152                       0                       0                       0
   153                       0                       0                       0
   154                       0                       0                       0
   155                       0                       0                       0
   156                       0                       0                       0
   157                       0                       0                       0
   158                       0                       0                       0
   159                       0                       0                       0
   160                       0                       0                       0
   161                       0                       0                       0
   162                       0                       0                       0
   163                       0                       0                       0
   164                       0                       0                       0
   165                       0                       0                       0
   166                       0                       0                       0
   167                       0                       0                       0
   168                       0                       0                       0
   169                       0                       0                       0
   170                       0                       0                       0
   171                       0                       0                       0
   172                       0                       0                       0
   173                       0                       0                       0
   174                       0                       0                       0
   175                       0                       0                       0
   176                       0                       0                       0
   177                       0                       0                       0
   178                       0                       0                       0
   179                       0                       0                       0
   180                       0                       0                       0
   181                       0                       0                       0
   182                       0                       0                       0
   183                       0                       0                       0
   184                       0                       0                       0
   185                       0                       0                       0
   186                       0                       0                       0
   187                       0                       0                       0
   188                       0                       0                       0
   189                       0                       0                       0
   190                       0                       0                       0
   191                       0                       0                       0
   192                       0                       0                       0
   193                       0                       0                       0
   194                       0                       0                       0
   195                       0                       0                       0
   196                       0                       0                       0
   197                       0                       0                       0
   198                       0                       0                       0
   199                       0                       0                       0
   200                       0                       0                       0
   201                       0                       0                       0
   202                       0                       0                       0
   203                       0                       0                       0
   204                       0                       0                       0
   205                       0                       0                       0
   206                       0                       0                       0
   207                       0                       0                       0
   208                       0                       0                       0
   209                       0                       0                       0
   210                       0                       0                       0
   211                       0                       0                       0
   212                       0                       0                       0
   213                       0                       0                       0
   214                       0                       0                       0
   215                       0                       0                       0
   216                       0                       0                       0
