(written by ASE)

216 atoms
2 atom types

0.0      16.628772735595703  xlo xhi
0.0      16.628772735595703  ylo yhi
0.0      16.628772735595703  zlo zhi

Atoms # atomic

     1   1      8.3143863677978516      8.3143863677978516      8.3143863677978516
     2   2      9.7001170987134628      6.9286556368822403      9.7001170987134628
     3   2      6.9286551413061943      9.7001180898655548      9.7001170987134628
     4   2      6.9286551413061943      6.9286556368822403      6.9286546457301483
     5   2      9.7001170987134628      9.7001180898655548      6.9286546457301483
     6   1      11.406772965483469      4.6288829600367762      5.8988446487317105
     7   1      2.8503056284421291      4.7074694271037743       8.835457819037174
     8   1      11.607789512405134      12.385541603202455      14.391175525054678
     9   2      7.0448994409549641      3.3969624319951777      10.007142317630269
    10   2      14.400826372974052      2.6287197021561042      2.9478193836451396
    11   1      8.7716811465281808      12.717850120832964      5.3864973182057838
    12   2      13.566465621596763      12.668022922866157      13.564408981005954
    13   1      2.7827935514865771      10.687154918335636      9.0140069303383825
    14   1      8.5391360515613997      13.204412629686658      11.027817856949241
    15   1      5.4149309938437682      4.4896701973850668      11.356084456348754
    16   2      7.0242661322806725      5.5357737436231673      1.2200089860944843
    17   2      1.2682521991243334      6.0292495383182541      1.2783905699789386
    18   2      1.0984845714638425      9.6782185843937896      8.3644821679815777
    19   2      1.3075878044097635      5.3595825831487218      13.345306881862371
    20   2      15.884680169841204      2.8865404144078752      7.2697868948592941
    21   1      3.1076634726669567      10.725004043271156        2.97645500652186
    22   1     0.24727404868228575      16.064840894443932      16.543649620482256
    23   2      1.9182079887471275     0.78386396822536142      1.3178565117644609
    24   2       3.971393051680991      2.8352668777508825      1.1847976885576941
    25   2     0.20555701465491438      9.9678163760777352       3.197364471505125
    26   2      12.849156958823187      13.836106565909176      9.7264520097967306
    27   2      7.0320892957424803      11.179717861954032      1.6525232280097555
    28   1      8.7153648758153395      4.4975032723677941       8.129816998690103
    29   1     0.41125898530327731      13.181636945765604       14.03861777018551
    30   2      15.119785303980734      6.1442791810783319      9.8027855881587129
    31   2       13.03098182778831      11.161942540336895      7.1070967126054256
    32   1      6.4747798372931129      9.1805631013269249      11.861739527949794
    33   2      4.4835671783788484      3.1299636513718951      7.1578154518789461
    34   2      9.3942703596339925      11.465040814665372       4.524959176467064
    35   2     0.43445367877120589      1.9876451308532808       16.50218378156319
    36   1       16.54127977583039      12.735250786959341      8.7692320097089578
    37   2      7.1977772174984693      3.1079298447916699      4.0881676176989572
    38   1      3.3814660168254704      16.071856268950796      3.1852924868131254
    39   2      13.023810842403009    0.079958221562264953      1.1608201088311318
    40   1      11.207738722745717       10.32019572357035      11.257829567168983
    41   2      12.258696931930217      11.566850966398988       1.270036025101831
    42   1      3.1251047760291044      13.298209316756811      11.072877613353739
    43   1      2.9595689961192306       15.83825460585399      8.9748356085121941
    44   2      12.913119967925468      11.777014855977313      12.140243354268478
    45   1     0.14337505940162387      7.3993919247076292      13.613509664489357
    46   2      1.3688058177933726        11.7226789071442      7.4689762528994379
    47   2      12.258812896724976      5.7489532134412684     0.91351898930733455
    48   1      8.2994913341599386      4.6863658167618496      14.081188743687107
    49   2      4.4129124059277274      5.8436275656888483      15.077065657665344
    50   1      7.8116155487844026      6.9052238102763113      16.238685997916718
    51   1       8.199147591946371      9.9721774452823411      14.294165522902404
    52   1     0.77926359773755394      10.008463523368846      6.1640521697368058
    53   2      2.0098170792563224     0.57306704219530502      13.279557816690385
    54   2      1.6697239292015809      8.8347759063979083      15.496937506859695
    55   2      12.279822347618165       5.834289921830532      12.433820621601626
    56   1      11.464803929315394      15.530622801856907      5.9689676680854973
    57   1       11.80782382760367      12.554206945842679      3.7709620278576494
    58   2      2.7776477376131652      1.9915209072148627      8.5164852528039319
    59   1      16.567577023134163      7.5933331324208666      7.8584137859581915
    60   2      15.607100097272223      8.6874698913393331      12.981299338026929
    61   1      5.2026281980510021      12.945990535903093      3.0312900004332732
    62   2      13.478100447990528       8.674285586212136      15.006575912037533
    63   2      6.2849509196094004      5.1190745722751672      13.377740351767443
    64   1      13.619286098881275      1.6162557340249748     0.55014491555266432
    65   2      9.7750402676485919     0.73671325258887066      3.8700358564533985
    66   2      7.0839602493228995      11.558426173617363      7.3237362943765447
    67   2      4.0872431205851854      14.267170504525893      6.8725395788919741
    68   1      8.1639805245716843      2.1210404501952667     0.19122473859071221
    69   2      2.0270846832143548      3.3674308076273292      10.476785860274276
    70   1      10.838577188032104      11.116976943381133      0.7811976452039886
    71   2      5.2532190787046602      7.8751072650669585      11.892674375891829
    72   2      4.2957701224836455      11.542138571290252      14.990225867128629
    73   2       3.792292612028632      6.9069726981425674      3.5142553705572368
    74   2      12.107470910347956      13.799869054275177      4.5920363854422703
    75   2      6.8919091686490219      14.509551792853244      5.0715384223689171
    76   2      10.084943792240438      2.9502189628597648      1.7466886236581161
    77   2      6.9787777025964033      14.447620645539473      15.641829075422265
    78   1      16.588012596966109      7.8996169695728895      2.7896121823031876
    79   2      4.2217731851784492      14.198859311196202      1.5785938129408237
    80   1      5.1955548411467589      13.517849611486326      13.868844319506479
    81   1      3.1274634702199364      4.6751122759097825      3.1437134087675531
    82   2      15.264482606733282      13.906643886837401      12.547542439176368
    83   2      6.7520085464454951      14.393987423539556      10.304059767513309
    84   2      4.2390311254035851      11.574817846914129      4.2018267449038831
    85   2      6.5267290918887966      2.4164206231836829      1.5888735468625441
    86   2       15.60802087756565      6.2042101834705363      15.844170792690875
    87   1      11.232844605234959      2.6615097390262576      3.3822728146283225
    88   1      8.2563212092187541      1.5758670296418416      5.8368976429844679
    89   2      4.5085561049212401      8.4703927159196155      6.9532203503292749
    90   2       6.995655535994274       11.41300136522932      13.205439463253924
    91   2      12.952154510762966      8.8831282700518841      9.7201849551192936
    92   1      5.1467519988669892      1.2245974008101825      8.7617696256086219
    93   1      11.654950511244579      15.592690728159369       11.35482073743151
    94   1      3.3981847703125823      7.7677863077020675      10.825106439950332
    95   1      5.7130313837485573      7.0891424880356908      8.6125041028642499
    96   1      2.4064600402355723      7.3466105979307486      6.1081680413360573
    97   1   0.0063047097456336854       13.23963321927431      3.0564543608959411
    98   2      15.446086448781898      11.648719138042452      15.919162351120349
    99   1      9.0098133658373172      8.2392481188587681      10.436771068017833
   100   1      1.6047228121769876      5.2218332565607852      15.445902094492794
   101   1      8.4558277359283238      4.4688327113798323      2.9719281671298745
   102   1      11.093559984056583      13.363900895107463      9.0024154066229585
   103   1      8.1127904924784389      13.053399705804168      14.204460311667845
   104   2      1.5959552046655574      8.8967258856014269      10.497231345627142
   105   2      1.5386169322518981     0.65005428536193222      7.1710022348863731
   106   2      9.7666541297985532      8.9854785996756164      12.589408703540585
   107   1      5.0759277394081437      1.4833815128953347       13.86374682429755
   108   1       13.76351557784642      15.085200042884026      8.6704339691827954
   109   2      8.8971857801720944      13.779866613907416      12.188314230728338
   110   1      11.135935700596065      1.6315303789141069      14.251290265708576
   111   1      13.484295148565252      4.7147841295424087      9.0068557679949208
   112   1       9.019814090445152      10.169860747718758      2.7248604639237328
   113   1      14.458308238547033      2.2510976931855566      11.050635169258157
   114   1       5.656514404737095      1.7328924060081476      3.3406226214201524
   115   1      6.4727271613106723      3.6549868260018457      6.4316265619374917
   116   2      10.362732997900821     0.46861804093736481      15.464835081753336
   117   1      14.303076971361179      4.4031322126603527      2.8640762000317181
   118   1       11.11347916764862      7.4355278432522027      8.5248872490874419
   119   1      6.1432122058513414      10.187979999111803     0.54993082670080184
   120   2      9.9313955013067243      11.697179537274451      15.541066571449846
   121   2      1.8984953364722514      14.572129171330971      15.497180339122224
   122   2       1.100752946920295      11.267464556654886      12.694300347128092
   123   2      14.858407594658956      6.3180509392963131      5.0038134955016176
   124   2      7.3940159157608605      9.0347289471249042       15.84081376055542
   125   1      14.261051131510158      7.0602930240951309      5.4194318154933399
   126   1      10.978090765343723      10.463668953489332      6.3219060253579755
   127   1       2.906607031873591      13.364376648111602     0.20426834658110593
   128   2      3.7238768521532393      2.3243257442554182      12.819975458931822
   129   2      9.9890111724121198      6.0288838031963223       4.242987308978627
   130   2      1.4079120952635265      14.267618505271457       4.258824432679944
   131   1     0.24175432268218344      10.852353210958199      11.486168212657503
   132   2      9.6425727905586882      11.868325733600841      10.188623256819483
   133   1      3.3713074512469916      12.977883827918049      5.7029439333326764
   134   1      13.874735727541065      12.578657676799139      5.5013609429904591
   135   2      15.832327516344094     0.65997497443834163      4.2670410835222583
   136   1      3.5212709928521235      1.4709035275276676      11.628567033708805
   137   1      8.1170241986392284      7.6045643723508647      5.5336744834924048
   138   1      8.0001787652466874      15.933812570191549      14.032179246196165
   139   2      6.9920274237616695       8.429291620970389      4.6341653051108551
   140   1      8.5785839048212438      15.749417643851984      2.8862200244941505
   141   2      1.4304050530503503      14.384719160327677      10.288525440776084
   142   2      1.3435226429736815      8.6578830102423581      5.0908857112038959
   143   1      5.5267245250236101      7.2520730246718585      3.0988189269743884
   144   1      14.474952655627249      15.911153842217345      2.4177918821029039
   145   2      15.337446267982614     0.50803219502608243      10.076950150618813
   146   2      15.491814241696375     0.25992223344824339      15.750124335293549
   147   1      2.7029086751791169      1.5589673908979478      6.1508059176038614
   148   2      12.828210941663883      0.1354074664959164      7.1416225045766168
   149   1     0.14532547636432724      1.7853970774573611      8.1561826354882214
   150   1      5.5161737110047397      9.9476186787478582      5.7203842455427321
   151   1        10.0009654577932     0.83419324667374894      1.8601050424945242
   152   1      11.791781039843272      15.314030299810156      13.207221554715261
   153   2      10.000992218899682     0.62831801025031098      10.114447416561688
   154   1       14.12099539400424      15.454153435658327      13.947889689992053
   155   2      6.8579691475641766      3.1309795822661499      15.541590890906491
   156   1      16.627014431784573      15.749426564220812      11.768174770469159
   157   2      7.5369861359931747     0.34670583805074529      7.4017132029069899
   158   1      14.085012608457873      10.119565725964549      8.9980077532700307
   159   2      1.8665963453327663      5.9921328747786902      7.2649495770745034
   160   1      5.7413708999378059        12.7919714477257      8.5546941659488311
   161   1      13.901974569332197      12.824214616429117      16.542199564971725
   162   1      11.378335820813163       4.874892360596732       11.71341559969278
   163   2      12.435481792507744      5.5859423934856522      6.8894030405845115
   164   1     0.82115959666452909       4.553221878369186      11.795923064435556
   165   2      6.7874144814743431     0.47705884701997547      12.808672360475157
   166   1     0.41882321028106162      4.4239082472358859      5.7902589812974838
   167   1      2.8212507482305114      7.5600571832376318    0.007545625873269679
   168   2      4.3574782605767268      8.8347263487933105      1.4769638030999204
   169   2      7.2167964349910108    0.076664522496811216      1.4734972486583047
   170   2      9.3928827467052542      14.762569134279374      1.0705421355814337
   171   1    0.086775837996656335      15.422202656822037      5.9216510583676154
   172   1      14.036108173088678      9.4165038833607468       3.143941621536726
   173   2      12.992246612882582      3.3827936650526453      9.7992888035782926
   174   1      2.7314315545053773       1.757024853249078      16.608812914767896
   175   2      12.566114647075437      3.3283697514713708      15.369311807738995
   176   2      4.4057488541831162     0.44096892412716926       4.266823030062028
   177   1     0.58062253264527897      14.098483356539646      12.012130999470628
   178   2      15.330804557814417      14.533386027208508      1.7576077745731595
   179   1       8.830065951656934      13.005055271366928     0.14760679874498095
   180   1      5.8095101283795429      15.313014368915901       5.283529500828763
   181   2      10.076126503230398      14.120218330764146      7.3426449984108331
   182   2      10.232469843063427      9.6310853378129195      2.3406948688420925
   183   1      14.504012243811303      7.1402680952429591      11.021434837477045
   184   1      5.7440712938123397      7.1941803265567614      14.072299100574355
   185   1     0.66815656327540296      2.2201167566712456      13.606224696613481
   186   2      12.988057012989884      8.6355146898310977      3.9998854530804238
   187   1      6.0946061072618249      4.6946067508304168     0.56774579440161688
   188   1      4.1588840893678025       5.416642713506576      13.079516563427205
   189   1      11.734425050585969      4.7577109266450179     0.81996030263326247
   190   2      4.2097956077232084      6.1242237140736506      9.9158740595466952
   191   1      5.0644254193809957      15.671829266941586    0.047735023024825907
   192   1      11.462639253146563      6.8912926720478254       14.41022051250161
   193   2      1.3754731740219484      2.9125244576505906      4.7666189060714714
   194   2      9.6942564163937277      6.1732565036387541      15.753044269356451
   195   1      8.5855041287272797       1.487767237008228      11.726817958280208
   196   1     0.16136360261254268      1.6512963056139256      2.5422188856348384
   197   1      8.1359814691260226      15.669856874278594      8.3386140895336212
   198   1      1.8577038526577496      11.005818245116188      14.965779100780537
   199   2      4.1972927196592309      14.819582184912861      12.657496887649586
   200   1       13.73600912499046      4.3714837352121094      14.381226340355624
   201   1      13.865285092344266      9.7238026602549326      14.054187778398045
   202   2      1.6745121849578197      11.426643582623001      1.8413036306741901
   203   2      3.4163843050250762      11.998990305035477      9.4681082170284299
   204   2      15.661208081124187      14.274093701888205      7.5429603052274388
   205   1      11.070143024732033      2.0942736445879291      8.6064679866242386
   206   2      15.636936748696371      8.6963962070794878      7.5005766594712213
   207   1      14.051685119365857      1.6093171738052376      5.5788095674558917
   208   1      12.691336802373144      6.0639780208922502      15.528179611950236
   209   2      9.9163438656382823      2.8048020836884575      12.712984555213552
   210   2      9.7486647193295539      3.4321951631959564      7.5412733643669299
   211   2      15.284495949774055      11.689214639063493      4.5845452579312678
   212   1      10.919814986945084      7.6341016958432419      3.1725891382385498
   213   2      12.327761400849795      3.1785033427712506       4.415684162752882
   214   1    0.027675769509418302      10.077398151364378     0.59817614592884638
   215   2      15.758639322915542      2.8862485201167942      13.358529841921154
   216   2      12.138929086594544    0.052074213321339435      13.095687209807465

Velocities

     1                       0                       0                       0
     2                       0                       0                       0
     3                       0                       0                       0
     4                       0                       0                       0
     5                       0                       0                       0
     6                       0                       0                       0
     7                       0                       0                       0
     8                       0                       0                       0
     9                       0                       0                       0
    10                       0                       0                       0
    11                       0                       0                       0
    12                       0                       0                       0
    13                       0                       0                       0
    14                       0                       0                       0
    15                       0                       0                       0
    16                       0                       0                       0
    17                       0                       0                       0
    18                       0                       0                       0
    19                       0                       0                       0
    20                       0                       0                       0
    21                       0                       0                       0
    22                       0                       0                       0
    23                       0                       0                       0
    24                       0                       0                       0
    25                       0                       0                       0
    26                       0                       0                       0
    27                       0                       0                       0
    28                       0                       0                       0
    29                       0                       0                       0
    30                       0                       0                       0
    31                       0                       0                       0
    32                       0                       0                       0
    33                       0                       0                       0
    34                       0                       0                       0
    35                       0                       0                       0
    36                       0                       0                       0
    37                       0                       0                       0
    38                       0                       0                       0
    39                       0                       0                       0
    40                       0                       0                       0
    41                       0                       0                       0
    42                       0                       0                       0
    43                       0                       0                       0
    44                       0                       0                       0
    45                       0                       0                       0
    46                       0                       0                       0
    47                       0                       0                       0
    48                       0                       0                       0
    49                       0                       0                       0
    50                       0                       0                       0
    51                       0                       0                       0
    52                       0                       0                       0
    53                       0                       0                       0
    54                       0                       0                       0
    55                       0                       0                       0
    56                       0                       0                       0
    57                       0                       0                       0
    58                       0                       0                       0
    59                       0                       0                       0
    60                       0                       0                       0
    61                       0                       0                       0
    62                       0                       0                       0
    63                       0                       0                       0
    64                       0                       0                       0
    65                       0                       0                       0
    66                       0                       0                       0
    67                       0                       0                       0
    68                       0                       0                       0
    69                       0                       0                       0
    70                       0                       0                       0
    71                       0                       0                       0
    72                       0                       0                       0
    73                       0                       0                       0
    74                       0                       0                       0
    75                       0                       0                       0
    76                       0                       0                       0
    77                       0                       0                       0
    78                       0                       0                       0
    79                       0                       0                       0
    80                       0                       0                       0
    81                       0                       0                       0
    82                       0                       0                       0
    83                       0                       0                       0
    84                       0                       0                       0
    85                       0                       0                       0
    86                       0                       0                       0
    87                       0                       0                       0
    88                       0                       0                       0
    89                       0                       0                       0
    90                       0                       0                       0
    91                       0                       0                       0
    92                       0                       0                       0
    93                       0                       0                       0
    94                       0                       0                       0
    95                       0                       0                       0
    96                       0                       0                       0
    97                       0                       0                       0
    98                       0                       0                       0
    99                       0                       0                       0
   100                       0                       0                       0
   101                       0                       0                       0
   102                       0                       0                       0
   103                       0                       0                       0
   104                       0                       0                       0
   105                       0                       0                       0
   106                       0                       0                       0
   107                       0                       0                       0
   108                       0                       0                       0
   109                       0                       0                       0
   110                       0                       0                       0
   111                       0                       0                       0
   112                       0                       0                       0
   113                       0                       0                       0
   114                       0                       0                       0
   115                       0                       0                       0
   116                       0                       0                       0
   117                       0                       0                       0
   118                       0                       0                       0
   119                       0                       0                       0
   120                       0                       0                       0
   121                       0                       0                       0
   122                       0                       0                       0
   123                       0                       0                       0
   124                       0                       0                       0
   125                       0                       0                       0
   126                       0                       0                       0
   127                       0                       0                       0
   128                       0                       0                       0
   129                       0                       0                       0
   130                       0                       0                       0
   131                       0                       0                       0
   132                       0                       0                       0
   133                       0                       0                       0
   134                       0                       0                       0
   135                       0                       0                       0
   136                       0                       0                       0
   137                       0                       0                       0
   138                       0                       0                       0
   139                       0                       0                       0
   140                       0                       0                       0
   141                       0                       0                       0
   142                       0                       0                       0
   143                       0                       0                       0
   144                       0                       0                       0
   145                       0                       0                       0
   146                       0                       0                       0
   147                       0                       0                       0
   148                       0                       0                       0
   149                       0                       0                       0
   150                       0                       0                       0
   151                       0                       0                       0
   152                       0                       0                       0
   153                       0                       0                       0
   154                       0                       0                       0
   155                       0                       0                       0
   156                       0                       0                       0
   157                       0                       0                       0
   158                       0                       0                       0
   159                       0                       0                       0
   160                       0                       0                       0
   161                       0                       0                       0
   162                       0                       0                       0
   163                       0                       0                       0
   164                       0                       0                       0
   165                       0                       0                       0
   166                       0                       0                       0
   167                       0                       0                       0
   168                       0                       0                       0
   169                       0                       0                       0
   170                       0                       0                       0
   171                       0                       0                       0
   172                       0                       0                       0
   173                       0                       0                       0
   174                       0                       0                       0
   175                       0                       0                       0
   176                       0                       0                       0
   177                       0                       0                       0
   178                       0                       0                       0
   179                       0                       0                       0
   180                       0                       0                       0
   181                       0                       0                       0
   182                       0                       0                       0
   183                       0                       0                       0
   184                       0                       0                       0
   185                       0                       0                       0
   186                       0                       0                       0
   187                       0                       0                       0
   188                       0                       0                       0
   189                       0                       0                       0
   190                       0                       0                       0
   191                       0                       0                       0
   192                       0                       0                       0
   193                       0                       0                       0
   194                       0                       0                       0
   195                       0                       0                       0
   196                       0                       0                       0
   197                       0                       0                       0
   198                       0                       0                       0
   199                       0                       0                       0
   200                       0                       0                       0
   201                       0                       0                       0
   202                       0                       0                       0
   203                       0                       0                       0
   204                       0                       0                       0
   205                       0                       0                       0
   206                       0                       0                       0
   207                       0                       0                       0
   208                       0                       0                       0
   209                       0                       0                       0
   210                       0                       0                       0
   211                       0                       0                       0
   212                       0                       0                       0
   213                       0                       0                       0
   214                       0                       0                       0
   215                       0                       0                       0
   216                       0                       0                       0
