(written by ASE)

64 atoms
1 atom types

0.0      10.887404441833496  xlo xhi
0.0      10.887404441833496  ylo yhi
0.0      10.887404441833496  zlo zhi

Atoms # atomic

     1   1       5.443702220916748       5.443702220916748       5.443702220916748
     2   1      6.8046277761459351       4.082776665687561      6.8046277761459351
     3   1       4.082776665687561       4.082776665687561       4.082776665687561
     4   1       4.082776665687561      6.8046277761459351      6.8046277761459351
     5   1      6.8046277761459351      6.8046277761459351       4.082776665687561
     6   1    0.027264197384304856      5.4931066624856726      5.4674534203154508
     7   1      6.8460080761693689      6.7797604001634681      9.5156681972386536
     8   1      10.846909295798582      10.836710556734374    0.010157554196483565
     9   1      9.5770215687127234      3.9941175266534117      9.4969274626092783
    10   1      9.4854334395560045      4.1057361584396403      4.1329702181436119
    11   1      5.4301036858511793      10.871609894233359   0.0079964899893046337
    12   1      4.0699341455755302      9.4768830077724715      4.0718245074293122
    13   1      8.1199094963776588      5.3613150857675294      2.7262217205116599
    14   1      5.4644189774633105    0.008050203705969039      5.4622060924920106
    15   1      1.3900773944966289       4.065511944802239      6.8168453671590328
    16   1      4.0579599070152881       9.481766929266314       9.607409476205703
    17   1      6.7715662363709157      1.3447498365703936      9.5135727703845987
    18   1       6.739347669492588      3.9982051989215108      1.3179469162953978
    19   1      9.4725286212160427       9.530674282891539      9.5351454786253385
    20   1       6.770340388948398      1.3219466572105318      4.1319705262672812
    21   1      4.0341204517936831       1.386020222402621        1.31101923978499
    22   1      8.1710401180121721      8.1412609161212686    0.031504611340391619
    23   1      2.6875745930037311      8.1416755887009344    0.017648853999615244
    24   1      2.7243991728747403      2.7405165680623327      5.4251230723160688
    25   1      8.1587070157014523      2.7067128033061039       5.417999983786018
    26   1      1.2999532736962891      9.5302557166726274      6.8215858729406591
    27   1       9.472637643114922      6.7147275396022224      1.3668743870567255
    28   1      5.4182744853528391      8.1254728579198741      8.2263856041301437
    29   1      5.4037262267812594      2.6988586840076749      2.7474991611096016
    30   1       8.139627534457702      10.861287207653163      2.7075596698420412
    31   1      8.1446405949865266      8.1819526909380897       5.457393554384339
    32   1      10.865202261914703      8.1183650194768688      2.6974073299788444
    33   1      4.1031621384283028      6.7479986869566346      1.3560251668860346
    34   1      6.7574225918109505      9.5219434458229557      6.8553515124792739
    35   1      10.871142008584002      10.844179854687354      5.3659348887325393
    36   1       1.352053979325369      6.7894081892744111      9.4743677168197564
    37   1      1.3565750623120039      1.3289931708354175      9.5529095587439201
    38   1      1.3388722258940575      9.5164832657207512       1.340484841481647
    39   1      5.4273469892652315      2.7338396256958504      8.1272418680171654
    40   1      1.2761888521476479      4.0497258334204673      1.3611139100276972
    41   1      10.818716102960423      2.7067071250822039      2.7191025256208547
    42   1      10.881170725401148      2.6785600069751183      8.1518814661037595
    43   1   0.0029432566601181875      8.1633774359766562      8.2056701454633298
    44   1      5.4142452176734253       5.423558153809239       10.83190515696532
    45   1      2.7293878981582793      8.2043696699552697      5.4834647138335981
    46   1      8.1992229278123432      5.3706799370932856      8.1318889264568952
    47   1       5.425024433455178       8.124389128329824      2.7172897120820494
    48   1      2.7279965710678198   0.0018758825412696772      8.1909839871684653
    49   1      4.0686485956845786      4.1001130944289912      9.5158232938686069
    50   1      8.1352763926006446    0.012300357463743139      8.1337773414910544
    51   1      2.6780927702656356        2.78795861545143      10.845072795954366
    52   1      9.5301953652643192      1.3353166032053849      6.7706713482842815
    53   1      2.7546722180099721      5.4337345044477843      8.1786826829115853
    54   1      4.0565247764833146      1.3536270095806273      6.7961954514195213
    55   1      1.3546731006579691      1.3733306898659521      4.0638045839930044
    56   1      9.4924069474450334      9.4925607461952382      4.0629408450203357
    57   1      10.863536433257423      5.4765755681282258      10.861799221213971
    58   1      9.4818110571777652      1.3167529480442042      1.3523339157636372
    59   1      6.7497099414051149      9.4758382145748783      1.3564580097821803
    60   1      2.6475225106679829   0.0054402644923517984      2.7379208085652067
    61   1      8.1996921113414487      2.6657512317365502      10.862001690454747
    62   1      9.4871115980708964      6.8200323108816292      6.8004200500010938
    63   1      1.3969759498301784      6.8502514940072956      4.0696005904801495
    64   1      2.6851188422844814      5.4337721429604926      2.6851618345511525

Velocities

     1                       0                       0                       0
     2                       0                       0                       0
     3                       0                       0                       0
     4                       0                       0                       0
     5                       0                       0                       0
     6                       0                       0                       0
     7                       0                       0                       0
     8                       0                       0                       0
     9                       0                       0                       0
    10                       0                       0                       0
    11                       0                       0                       0
    12                       0                       0                       0
    13                       0                       0                       0
    14                       0                       0                       0
    15                       0                       0                       0
    16                       0                       0                       0
    17                       0                       0                       0
    18                       0                       0                       0
    19                       0                       0                       0
    20                       0                       0                       0
    21                       0                       0                       0
    22                       0                       0                       0
    23                       0                       0                       0
    24                       0                       0                       0
    25                       0                       0                       0
    26                       0                       0                       0
    27                       0                       0                       0
    28                       0                       0                       0
    29                       0                       0                       0
    30                       0                       0                       0
    31                       0                       0                       0
    32                       0                       0                       0
    33                       0                       0                       0
    34                       0                       0                       0
    35                       0                       0                       0
    36                       0                       0                       0
    37                       0                       0                       0
    38                       0                       0                       0
    39                       0                       0                       0
    40                       0                       0                       0
    41                       0                       0                       0
    42                       0                       0                       0
    43                       0                       0                       0
    44                       0                       0                       0
    45                       0                       0                       0
    46                       0                       0                       0
    47                       0                       0                       0
    48                       0                       0                       0
    49                       0                       0                       0
    50                       0                       0                       0
    51                       0                       0                       0
    52                       0                       0                       0
    53                       0                       0                       0
    54                       0                       0                       0
    55                       0                       0                       0
    56                       0                       0                       0
    57                       0                       0                       0
    58                       0                       0                       0
    59                       0                       0                       0
    60                       0                       0                       0
    61                       0                       0                       0
    62                       0                       0                       0
    63                       0                       0                       0
    64                       0                       0                       0
