(written by ASE)

8 atoms
2 atom types

0.0      5.5429244041442871  xlo xhi
0.0      5.5429244041442871  ylo yhi
0.0      5.5429244041442871  zlo zhi

Atoms # atomic

     1   1      2.7714622020721436      2.7714622020721436      2.7714622020721436
     2   2      1.3857311010360718      4.1571933031082153      4.1571933031082153
     3   2      4.1571933031082153      4.1571933031082153      1.3857311010360718
     4   2      4.1571933031082153      1.3857311010360718      4.1571933031082153
     5   2      1.3857311010360718      1.3857311010360718      1.3857311010360718
     6   1      2.2600366283263895     0.15006475699119282     0.23936645831557968
     7   1      5.5348207444080799      5.1537660344321523      2.3558658407010569
     8   2      3.2270845899044787      5.2620857458278181      3.5121835504183707

Velocities

     1                       0                       0                       0
     2                       0                       0                       0
     3                       0                       0                       0
     4                       0                       0                       0
     5                       0                       0                       0
     6                       0                       0                       0
     7                       0                       0                       0
     8                       0                       0                       0
