(written by ASE)

8 atoms
2 atom types

0.0      5.5429244041442871  xlo xhi
0.0      5.5429244041442871  ylo yhi
0.0      5.5429244041442871  zlo zhi

Atoms # atomic

     1   1      2.7714622020721436      2.7714622020721436      2.7714622020721436
     2   2      1.3857311010360718      4.1571933031082153      4.1571933031082153
     3   2      4.1571933031082153      4.1571933031082153      1.3857311010360718
     4   2      4.1571933031082153      1.3857311010360718      4.1571933031082153
     5   2      1.3857311010360718      1.3857311010360718      1.3857311010360718
     6   1      2.7744630803086068    0.027403443514583126    0.043266123391765277
     7   1    0.087411440012310493      2.7625484406695477     0.10702279917065294
     8   1      5.5392234421267972    0.019486310089717462      2.8417461204642791

Velocities

     1                       0                       0                       0
     2                       0                       0                       0
     3                       0                       0                       0
     4                       0                       0                       0
     5                       0                       0                       0
     6                       0                       0                       0
     7                       0                       0                       0
     8                       0                       0                       0
