(written by ASE)

64 atoms
1 atom types

0.0      10.887404441833496  xlo xhi
0.0      10.887404441833496  ylo yhi
0.0      10.887404441833496  zlo zhi

Atoms # atomic

     1   1       5.443702220916748       5.443702220916748       5.443702220916748
     2   1      6.8046277761459351      6.8046277761459351       4.082776665687561
     3   1       4.082776665687561      6.8046277761459351      6.8046277761459351
     4   1      6.8046277761459351       4.082776665687561      6.8046277761459351
     5   1       4.082776665687561       4.082776665687561       4.082776665687561
     6   1      7.7501137047778457      9.8306973570883542      2.0688806706177161
     7   1      6.2699370114310682       9.317818759427837      2.3966932970508878
     8   1      9.3041520856754687      1.9526172516813176     0.12488071180635352
     9   1      7.3804652225294944      9.1869425124023678       3.185392756296892
    10   1      5.5316997657490674      4.0750841324178282      5.5370561154713869
    11   1      3.4793326681121926      5.4623190080301356     0.45130134192982041
    12   1      6.9845969736006737      8.1660530150783188      6.8563599650439073
    13   1      6.7069441547500901      6.7978048223077394    0.080617425413625377
    14   1      1.5353618913158016      10.365671059588408      5.5238988595203296
    15   1      8.6020646846301929     0.52547119480346538      5.1979363606687343
    16   1      10.477386058945967      8.4796207623311375      3.9832782839332879
    17   1      6.8944670123414653       1.847601258645966      2.6377944152475976
    18   1       2.107922353569208     0.83671435830912344      1.6045935550986172
    19   1      6.8129517279133438      8.9587265821144229      1.1459119010960777
    20   1      1.0743803943988084      3.2103175634582328        3.13823721586229
    21   1       9.387584987432092      2.1451500873371145      8.7181522408606611
    22   1      4.1487994840270233      6.7766123928333286      3.6915642358867728
    23   1     0.31978329336868683       10.41537531137925      5.2539784837417471
    24   1      1.2811332061672829      1.9458320985907989      9.6541623494483133
    25   1      9.6230216717011672      10.274308112568065      5.6035036649585663
    26   1      4.3571400083154117       4.752684436246966      5.3787527491293474
    27   1      7.2087511892154907     0.21897624324044074      3.7478821584063553
    28   1      9.2228425151874944       8.435198232177072      1.4869941311960417
    29   1     0.30435799255701568      7.9156498304886895      8.9559614493101094
    30   1      2.1816878357836913      8.4398375033383104     0.59704682941218579
    31   1      3.3646104813772126      0.4670056868874326      2.8559590780577651
    32   1      10.650329833321734      3.7976276178792148      1.5170132786054609
    33   1      5.8129509562025419      3.8521567376353403      1.7265616422348558
    34   1      3.5693558787620816      8.8513283308005839      3.0194679156013535
    35   1       9.500165672581943      6.8731480395915696      6.9559683421068712
    36   1      5.6152313063665815     0.62595357220086001     0.49368575473247844
    37   1      7.6329060783243676      4.0167999220791728     0.71897606127345171
    38   1      8.7694074589510365        1.18642992226156      4.9810356704986987
    39   1      3.1255017708295156      10.028016611021883      6.8429418352633888
    40   1       4.289131109490711      5.3241963738985021      3.2577936801907299
    41   1      1.8340221917766257      5.2196038141311192       10.25486262923522
    42   1      4.0861826266177275      3.7893344907558344      1.0260115797517528
    43   1      4.7308242476419196      8.1126718699597973      5.8205753507854752
    44   1      4.9747562038052138      6.7207730634710288      10.334609552505924
    45   1      7.5106101143166484      6.1575659338606101      5.2749327522822966
    46   1      10.105853704242577      6.2037431974347328      6.2614819738090546
    47   1      8.2483405379568353      1.2655837144871711      3.6826870628765391
    48   1      3.5607960373503715      4.6596423573019194       2.295234954641316
    49   1      3.0724337392003349     0.38047064973803302      7.4947428854505915
    50   1      0.7504674099051627      4.2731379862890435      9.5841268113962315
    51   1      5.9605127452755369      3.3467837785607628      9.4754546911091779
    52   1       1.724083989794849      5.9097319022332613      5.2921273876611963
    53   1      9.7126065234659791      1.8878095732564475      2.1105278471644482
    54   1      8.1201437636722744      9.8211456110788049      2.0575767869476067
    55   1     0.53056740075368225      4.5786277299868061      3.0306984690656691
    56   1      3.7640433570354617      8.2246107535739839      8.5609134603823804
    57   1      2.2498437194899168       7.759052202606199      9.7549524460223438
    58   1      3.5559169829055861      10.636340636451848      1.9484606295515761
    59   1      10.443489333552748      7.8465721276910472      7.2676574084236449
    60   1      4.0242854435290099      9.8471427913823959      1.8079865617854836
    61   1      9.8579093528366002      6.2767125926584413      8.4698470788845839
    62   1      1.6142418309144659      2.1782630555971707      9.2671722469395377
    63   1     0.84014741247904112      2.4358190177160992      7.4826057629819047
    64   1      3.4997700560428768      8.6067500305225053     0.71431797085585913

Velocities

     1                       0                       0                       0
     2                       0                       0                       0
     3                       0                       0                       0
     4                       0                       0                       0
     5                       0                       0                       0
     6                       0                       0                       0
     7                       0                       0                       0
     8                       0                       0                       0
     9                       0                       0                       0
    10                       0                       0                       0
    11                       0                       0                       0
    12                       0                       0                       0
    13                       0                       0                       0
    14                       0                       0                       0
    15                       0                       0                       0
    16                       0                       0                       0
    17                       0                       0                       0
    18                       0                       0                       0
    19                       0                       0                       0
    20                       0                       0                       0
    21                       0                       0                       0
    22                       0                       0                       0
    23                       0                       0                       0
    24                       0                       0                       0
    25                       0                       0                       0
    26                       0                       0                       0
    27                       0                       0                       0
    28                       0                       0                       0
    29                       0                       0                       0
    30                       0                       0                       0
    31                       0                       0                       0
    32                       0                       0                       0
    33                       0                       0                       0
    34                       0                       0                       0
    35                       0                       0                       0
    36                       0                       0                       0
    37                       0                       0                       0
    38                       0                       0                       0
    39                       0                       0                       0
    40                       0                       0                       0
    41                       0                       0                       0
    42                       0                       0                       0
    43                       0                       0                       0
    44                       0                       0                       0
    45                       0                       0                       0
    46                       0                       0                       0
    47                       0                       0                       0
    48                       0                       0                       0
    49                       0                       0                       0
    50                       0                       0                       0
    51                       0                       0                       0
    52                       0                       0                       0
    53                       0                       0                       0
    54                       0                       0                       0
    55                       0                       0                       0
    56                       0                       0                       0
    57                       0                       0                       0
    58                       0                       0                       0
    59                       0                       0                       0
    60                       0                       0                       0
    61                       0                       0                       0
    62                       0                       0                       0
    63                       0                       0                       0
    64                       0                       0                       0
