(written by ASE)

64 atoms
1 atom types

0.0      10.887404441833496  xlo xhi
0.0      10.887404441833496  ylo yhi
0.0      10.887404441833496  zlo zhi

Atoms # atomic

     1   1       5.443702220916748       5.443702220916748       5.443702220916748
     2   1      6.8046277761459351      6.8046277761459351       4.082776665687561
     3   1       4.082776665687561      6.8046277761459351      6.8046277761459351
     4   1      6.8046277761459351       4.082776665687561      6.8046277761459351
     5   1       4.082776665687561       4.082776665687561       4.082776665687561
     6   1      2.5504237463338342      7.0378866181969215       5.871444449650653
     7   1      1.9305714662722266      4.5229889230456592       10.73642922902178
     8   1      7.5736448890049815      6.4059619474190868      8.8012191405281897
     9   1      10.562427682650934      7.9083317355264171      2.8135745435788806
    10   1      4.4226284246684031      4.1447698918776723      9.9717223748077117
    11   1      6.6796685628941646     0.30699893449288851      8.9380559002989344
    12   1      5.7916047279779264       1.046313258131228      3.9871540773324341
    13   1      7.9605486825104776      2.7429481457712654      8.5350707277688684
    14   1      1.6020946498777278      10.438707944559042      3.9913572608981553
    15   1      3.0314019198893902     0.98777604235908711      0.3124939545545935
    16   1      1.8784265516142113      10.157592382539292      5.4499735758618044
    17   1      9.2684954353431976      6.4654762232894427       8.462622431264208
    18   1      7.4159492548552066     0.75634347934929735     0.83839397693873252
    19   1      4.7441943558717412      2.1804980045241962      7.7739667877368106
    20   1      9.2850090083240389      10.248258368134657      10.690863915749105
    21   1      1.8110601032650493      10.585091258820341      2.9717640209729836
    22   1      7.2017309576555135       8.063143480874885      10.077145902084112
    23   1      10.730878197337177      9.3147336992655028        6.93088357126652
    24   1      1.4388009359024636      2.9755122976868336      9.9099731500103303
    25   1       2.045573670562959      2.1587195823433092      8.1732147155308894
    26   1      10.623215178554631      3.9856170632401984      1.2158769480543157
    27   1      1.4074047380798191      3.8659548217122506      6.8458335113431872
    28   1      8.0673375792823663      10.419276737903431      8.4270819411694333
    29   1      10.807850253705453      10.181806925008232     0.33686598661927292
    30   1      7.4231440512413656     0.24588187852991261      1.9913550685366772
    31   1      5.6078723281922294     0.15776766647582008      4.8249046303858165
    32   1      9.1731869338872229      4.3207750401103624      9.6059136697954841
    33   1      4.2387821359347697      1.3966599161114033      10.011285643183157
    34   1        7.02910905745739      9.5864071861144566       5.504184715079532
    35   1      4.4934579406566684      6.8537272159739473      9.9183606978854186
    36   1      10.828144550393858      1.5066964324841337     0.79402855349360379
    37   1      4.1332940391408783       7.285032773557532      7.2176903359837183
    38   1      2.4797493269755222      7.4450146228844005      3.8801075514304557
    39   1      4.5397153483052648     0.45633322171499913      9.5891450634440503
    40   1       9.886216110152759       8.022465982735298      8.4452360341524582
    41   1      10.772794521696767      2.8889184098025851      9.0620391079797855
    42   1      2.0640734862640073       5.738592829647871      10.458436365677073
    43   1      8.9443499681395906       3.301528334078057      4.3734751228308255
    44   1       7.573291216773498      1.7735319103353504      5.1545206607296166
    45   1     0.82329387612156069      9.7594567376897317      8.7093143287128214
    46   1      6.2991931677833009      2.5555542649799037     0.77761621513315049
    47   1      7.5147412655563244      10.437107009889189      2.4162017275515382
    48   1      3.4387288246483365      4.1115792130676709      4.4842446167915568
    49   1      8.9335165658783353      4.0206212045288794      9.7508602311751247
    50   1      4.1412438770707638      2.9116676460353972     0.13317154736080283
    51   1      7.8274173694218803      10.003011659786068     0.89939172936169598
    52   1      1.9407070959336608      3.0885267991426417      2.7285747764958046
    53   1      8.8576619839735713      3.1548653267309419      8.1941417285967191
    54   1      7.3513122476172725       10.65125067900334      3.5653879359007874
    55   1      7.0621498311564324      9.5655210562607067      8.9668376816030673
    56   1      9.8960696132038493      2.3679027550584522      7.5526490883124779
    57   1      10.535146899276015      3.9478474646772668      5.3881860636118404
    58   1      5.7579195569837225      1.0694033500330065      4.3347678061495571
    59   1      4.7127603573014198      2.2498808712977194      7.5705468500451616
    60   1      1.1972257671275912       1.865561967546455      4.1057024135661777
    61   1      9.0964205914590934      7.0263166691783567     0.35125217245725082
    62   1      1.1437466320880532     0.83618960930328257      2.7228712439407445
    63   1      5.8898678526815047      5.9744117395028979      4.0866754964522443
    64   1      2.2525645621478105      4.1912725987987471      8.1895284150304519

Velocities

     1                       0                       0                       0
     2                       0                       0                       0
     3                       0                       0                       0
     4                       0                       0                       0
     5                       0                       0                       0
     6                       0                       0                       0
     7                       0                       0                       0
     8                       0                       0                       0
     9                       0                       0                       0
    10                       0                       0                       0
    11                       0                       0                       0
    12                       0                       0                       0
    13                       0                       0                       0
    14                       0                       0                       0
    15                       0                       0                       0
    16                       0                       0                       0
    17                       0                       0                       0
    18                       0                       0                       0
    19                       0                       0                       0
    20                       0                       0                       0
    21                       0                       0                       0
    22                       0                       0                       0
    23                       0                       0                       0
    24                       0                       0                       0
    25                       0                       0                       0
    26                       0                       0                       0
    27                       0                       0                       0
    28                       0                       0                       0
    29                       0                       0                       0
    30                       0                       0                       0
    31                       0                       0                       0
    32                       0                       0                       0
    33                       0                       0                       0
    34                       0                       0                       0
    35                       0                       0                       0
    36                       0                       0                       0
    37                       0                       0                       0
    38                       0                       0                       0
    39                       0                       0                       0
    40                       0                       0                       0
    41                       0                       0                       0
    42                       0                       0                       0
    43                       0                       0                       0
    44                       0                       0                       0
    45                       0                       0                       0
    46                       0                       0                       0
    47                       0                       0                       0
    48                       0                       0                       0
    49                       0                       0                       0
    50                       0                       0                       0
    51                       0                       0                       0
    52                       0                       0                       0
    53                       0                       0                       0
    54                       0                       0                       0
    55                       0                       0                       0
    56                       0                       0                       0
    57                       0                       0                       0
    58                       0                       0                       0
    59                       0                       0                       0
    60                       0                       0                       0
    61                       0                       0                       0
    62                       0                       0                       0
    63                       0                       0                       0
    64                       0                       0                       0
