(written by ASE)

64 atoms
1 atom types

0.0      10.887404441833496  xlo xhi
0.0      10.887404441833496  ylo yhi
0.0      10.887404441833496  zlo zhi

Atoms # atomic

     1   1       5.443702220916748       5.443702220916748       5.443702220916748
     2   1      6.8046277761459351      6.8046277761459351       4.082776665687561
     3   1       4.082776665687561      6.8046277761459351      6.8046277761459351
     4   1      6.8046277761459351       4.082776665687561      6.8046277761459351
     5   1       4.082776665687561       4.082776665687561       4.082776665687561
     6   1      2.2087560913497839      7.7190820489295788      4.5533557399927247
     7   1     0.69618618518101272      1.0310705527766828      10.714083633390771
     8   1      8.0471140170402577      1.8692193926779055       6.580581933490123
     9   1      1.1752713200058054      10.877111606487517      2.9332861045372738
    10   1      4.2922638667338049      9.3152178084117168      7.0851145154275059
    11   1      3.3990688642316229       8.619352442881052      8.7994092472188186
    12   1      4.9557971009081427      2.5922780969354307      6.7123277599471294
    13   1      9.4517249067263265      1.4851378386856595      6.5395423269006869
    14   1      10.514634558789851      5.0700984501346511      5.7809536778213442
    15   1      10.461638883956653      10.283181067469116      8.3947400757149921
    16   1      7.9310232161104182      1.4306716660973393     0.59833018913106173
    17   1       9.659440826385719      7.5082654945508693      9.1947245993747515
    18   1      2.2674653573060937      7.3536620589020458      5.1194730404693587
    19   1       5.616297514580026      2.5726379316403012      4.9410515646147815
    20   1      9.0600747669803354      3.3450465665173112      7.0776958347847199
    21   1      4.1135578307443552      0.9881145456210092       10.01130576031926
    22   1      10.866497545903769      9.7231634773407905      9.2744870972024387
    23   1      6.1325512485266813        7.12448050608117      5.1913392379067886
    24   1      8.1413478740644223      6.9580670136602976      1.1710173568949216
    25   1     0.40592969665087608      4.9499972007817519      8.2149168897319669
    26   1       5.212364565363572      7.4316133655406134      2.4047703271961325
    27   1      2.4649085587556101     0.96228373727768712      4.0618493281517942
    28   1      9.9040003074074434      2.4813332269736748      7.2076966619197833
    29   1      8.9849022208834413      8.5265696154157808      2.5465049606680168
    30   1      3.1924509508395147      9.5417886761183581      1.4578953427633223
    31   1      9.0726259130888138      10.039707262857064      7.1442050335599561
    32   1     0.74635937714850797      1.8999739511998541      6.0079022285348174
    33   1       7.590288249960679      2.8446383219509244      4.2723657478386485
    34   1      8.7705333696329149      4.9704783921539502      9.1625060324964238
    35   1      5.4318311637965166       3.745825019004883      1.0406934388199502
    36   1       8.740866434340262      1.9431292640144164      3.8110648913860246
    37   1      1.4604936980199454      6.3762982568258053     0.84670300308903279
    38   1      7.3607251204937256      1.1408341899322778      3.4121336462505951
    39   1      8.3176985827801673      4.6236946574360331      5.2886098090726534
    40   1      7.3493453108583253     0.77394094415515724      7.0055136036285148
    41   1      0.3845126528624796      3.6927157796936854      6.2906797255726019
    42   1      9.3402863557552109      9.7293322997857103      6.5868338202389509
    43   1      5.6830130762352837      7.8891529664819018     0.41769599054015316
    44   1     0.53521316131366348      8.5241425802859681      8.5885265009729324
    45   1      7.5507139496073705      7.6398263731437055       2.008183377356545
    46   1      8.4566015671106243    0.025290484780498446      4.9821570386014571
    47   1      2.8763305985912098      5.1268657635171735      8.8033859507684156
    48   1      8.1885712287158867      8.2040043168060492      10.207390730611905
    49   1      1.5508313200389239      8.2967319843820064      1.7660509314646333
    50   1     0.54061996611120833       9.850534151165391      8.7206941383482217
    51   1      6.4732219696288666      7.0851294410446144      9.2307375176980031
    52   1       3.748549917536991     0.58953721606951603      7.8974937906860418
    53   1      9.7345672977515392      10.089024746482835      5.5109959879999906
    54   1      10.328493294190821      3.4512166991190725      5.1609815061179631
    55   1      4.5196689466488351       8.491293892789713      10.673664413321148
    56   1      7.9400577570401651        8.56845089702216      8.4344980260527223
    57   1      4.6548015903097166      10.621562328694836      10.785367082821097
    58   1       9.460059890471598      10.870221162902396      10.465646087680341
    59   1       1.579460438237632      5.6130067404775446       1.845868751416603
    60   1      2.8305332893134789      1.6132801020207808     0.05164782671431567
    61   1      6.7724195923055959      2.4649651787596412      1.5166581462592603
    62   1      3.8226416542732693      6.8229161996829362      3.5076043826751402
    63   1       9.698073514981445      3.2762693228814612      1.5546019851784365
    64   1      3.0791233358943657      1.0683302468333977      5.0896373808093927

Velocities

     1                       0                       0                       0
     2                       0                       0                       0
     3                       0                       0                       0
     4                       0                       0                       0
     5                       0                       0                       0
     6                       0                       0                       0
     7                       0                       0                       0
     8                       0                       0                       0
     9                       0                       0                       0
    10                       0                       0                       0
    11                       0                       0                       0
    12                       0                       0                       0
    13                       0                       0                       0
    14                       0                       0                       0
    15                       0                       0                       0
    16                       0                       0                       0
    17                       0                       0                       0
    18                       0                       0                       0
    19                       0                       0                       0
    20                       0                       0                       0
    21                       0                       0                       0
    22                       0                       0                       0
    23                       0                       0                       0
    24                       0                       0                       0
    25                       0                       0                       0
    26                       0                       0                       0
    27                       0                       0                       0
    28                       0                       0                       0
    29                       0                       0                       0
    30                       0                       0                       0
    31                       0                       0                       0
    32                       0                       0                       0
    33                       0                       0                       0
    34                       0                       0                       0
    35                       0                       0                       0
    36                       0                       0                       0
    37                       0                       0                       0
    38                       0                       0                       0
    39                       0                       0                       0
    40                       0                       0                       0
    41                       0                       0                       0
    42                       0                       0                       0
    43                       0                       0                       0
    44                       0                       0                       0
    45                       0                       0                       0
    46                       0                       0                       0
    47                       0                       0                       0
    48                       0                       0                       0
    49                       0                       0                       0
    50                       0                       0                       0
    51                       0                       0                       0
    52                       0                       0                       0
    53                       0                       0                       0
    54                       0                       0                       0
    55                       0                       0                       0
    56                       0                       0                       0
    57                       0                       0                       0
    58                       0                       0                       0
    59                       0                       0                       0
    60                       0                       0                       0
    61                       0                       0                       0
    62                       0                       0                       0
    63                       0                       0                       0
    64                       0                       0                       0
