(written by ASE)

8 atoms
1 atom types

0.0       5.443702220916748  xlo xhi
0.0       5.443702220916748  ylo yhi
0.0       5.443702220916748  zlo zhi

Atoms # atomic

     1   1       2.009719904743875      0.4184421902780926      3.9108270671991932
     2   1     0.69345309378299191      4.5622257746643413      2.4837263549950563
     3   1     0.70107172902454096      1.8586358322682486      5.2618296828107418
     4   1      2.1018945133119757       3.181411510168175      1.1793795149974287
     5   1       3.439352455867521       1.754896952905483      2.5461118653391708
     6   1      4.7551192586552702      3.1793008332270745      3.8790124653926057
     7   1      4.8342775934600013     0.49046900033440721      1.1122625029124436
     8   1      3.4100615812320143      4.5290655960284312      5.2419828301656537

Velocities

     1                       0                       0                       0
     2                       0                       0                       0
     3                       0                       0                       0
     4                       0                       0                       0
     5                       0                       0                       0
     6                       0                       0                       0
     7                       0                       0                       0
     8                       0                       0                       0
