(written by ASE)

8 atoms
1 atom types

0.0       5.443702220916748  xlo xhi
0.0       5.443702220916748  ylo yhi
0.0       5.443702220916748  zlo zhi

Atoms # atomic

     1   1      1.9027267541465562      4.1746538975582723      3.7385812276582158
     2   1      1.8914230327114154      1.4050987302365598     0.95438476001044847
     3   1      3.2177904305805214      0.1250672110424107      2.3769212347263107
     4   1      4.6115633754262149       1.453969743228825      3.6990267199710729
     5   1     0.54346682478093911      2.7703554724216701      2.3495330518021973
     6   1      4.5833669378886839      4.1203622897961338        1.04161266215187
     7   1      3.2453372793038966      2.8250344972887547      5.0645419024611158
     8   1     0.47109834788081528    0.068796681413021865      5.0948499903495588

Velocities

     1                       0                       0                       0
     2                       0                       0                       0
     3                       0                       0                       0
     4                       0                       0                       0
     5                       0                       0                       0
     6                       0                       0                       0
     7                       0                       0                       0
     8                       0                       0                       0
