(written by ASE)

8 atoms
1 atom types

0.0       5.443702220916748  xlo xhi
0.0       5.443702220916748  ylo yhi
0.0       5.443702220916748  zlo zhi

Atoms # atomic

     1   1       2.721851110458374       2.721851110458374       2.721851110458374
     2   1       1.360925555229187       1.360925555229187       1.360925555229187
     3   1       4.082776665687561       1.360925555229187       4.082776665687561
     4   1       1.360925555229187       4.082776665687561       4.082776665687561
     5   1       4.082776665687561       4.082776665687561       1.360925555229187
     6   1      3.3982615830280167     0.29206913983397342      2.9565645512375625
     7   1     0.10737109723597449      3.0300284386454734      3.4667360962125144
     8   1      2.9941985213667692      3.4770746818196301     0.24602687603307238

Velocities

     1                       0                       0                       0
     2                       0                       0                       0
     3                       0                       0                       0
     4                       0                       0                       0
     5                       0                       0                       0
     6                       0                       0                       0
     7                       0                       0                       0
     8                       0                       0                       0
