(written by ASE)

8 atoms
1 atom types

0.0       5.443702220916748  xlo xhi
0.0       5.443702220916748  ylo yhi
0.0       5.443702220916748  zlo zhi

Atoms # atomic

     1   1      5.0888748764571119      1.5596353250783324    0.090514498693462286
     2   1      1.0685839823242418      2.9829841913993107      4.2418470789610012
     3   1      2.4080002631854001      4.2962379745239048     0.19637902117317907
     4   1      3.7825644255173927      2.8927377454326688      1.5717172876577052
     5   1      0.9405558512895098     0.22278953561794523      1.5203345528820336
     6   1      3.6779264399588101       0.239976809585146      4.2251991754261837
     7   1      2.3374392460701188      1.5639094053253189      2.7965236483821343
     8   1      5.0974996118562501      4.3311441258915693      2.9067376498104807

Velocities

     1                       0                       0                       0
     2                       0                       0                       0
     3                       0                       0                       0
     4                       0                       0                       0
     5                       0                       0                       0
     6                       0                       0                       0
     7                       0                       0                       0
     8                       0                       0                       0
