(written by ASE)

8 atoms
1 atom types

0.0       5.443702220916748  xlo xhi
0.0       5.443702220916748  ylo yhi
0.0       5.443702220916748  zlo zhi

Atoms # atomic

     1   1      4.1707047739533323     0.89722646035367148     0.92531403822729175
     2   1       2.657408947417693      5.0413426264254895      5.1801278281687644
     3   1      2.8470069524920518      2.1212510918820442      2.4670635258431304
     4   1      1.4167403871112327      3.4826429104109025      1.0567295542882889
     5   1       4.012374152136573      3.6488734017872275      3.8457199030223421
     6   1      1.2482028333643527     0.70845625920644295      3.6088542531500991
     7   1      5.3672726782833706      4.8115228412382578      2.2748965300414596
     8   1     0.12332978606556289       2.275456402917996      5.0465753531017583

Velocities

     1                       0                       0                       0
     2                       0                       0                       0
     3                       0                       0                       0
     4                       0                       0                       0
     5                       0                       0                       0
     6                       0                       0                       0
     7                       0                       0                       0
     8                       0                       0                       0
