(written by ASE)

8 atoms
1 atom types

0.0       5.443702220916748  xlo xhi
0.0       5.443702220916748  ylo yhi
0.0       5.443702220916748  zlo zhi

Atoms # atomic

     1   1    0.091328614045119494      3.7481336226076394      3.0577070221633278
     2   1      4.1892352520634404      2.2885857544544592      1.7248424382729155
     3   1      2.8584626880927431      1.0194269490823871      3.1439693017718184
     4   1      4.1900856877686863      5.1180064363534825      4.4725542894263128
     5   1      1.4686552525838152      2.4324151658405242      4.4544456222344877
     6   1     0.16479285634202423     0.90814268356638195     0.36893071418865375
     7   1      1.5528206452235338      5.1057966326188762       1.760569174111609
     8   1      2.8604578537362215      3.6918027212905713     0.41781665279802738

Velocities

     1                       0                       0                       0
     2                       0                       0                       0
     3                       0                       0                       0
     4                       0                       0                       0
     5                       0                       0                       0
     6                       0                       0                       0
     7                       0                       0                       0
     8                       0                       0                       0
