(written by ASE)

64 atoms
1 atom types

0.0      10.887404441833496  xlo xhi
0.0      10.887404441833496  ylo yhi
0.0      10.887404441833496  zlo zhi

Atoms # atomic

     1   1      4.1565903316877097      7.5209328008968441      1.3852846490551229
     2   1      5.6301335616395818     0.61572287284784366      5.5230201949305524
     3   1       2.906115965410919      6.1691877980691174      8.2644439809371306
     4   1      4.2758366027562431      10.126921537261126      9.5850742636126824
     5   1      6.9029973269888956      7.5060565032188151      4.1994897999568366
     6   1       4.208483782144441      2.0122035598777188      1.4423384693921406
     7   1      9.6991987767234491      7.4270889567371228      1.5558828302552996
     8   1      6.8952742935450715      10.188802496852986      1.4761741944371778
     9   1      2.8510891087712196      3.3611691532238979    0.053255124036841739
    10   1    0.085027788104053759      8.7943559524177886      8.2812242682063015
    11   1      5.5547098758113407       6.142995935803242      5.5708898936968012
    12   1      7.0390767739263538      1.9626229311329269       9.660575173285963
    13   1      1.4957512503295334      4.7070211330532743      6.9846664101672218
    14   1      2.8467155784884994      6.0527634420438972      2.8775087489329678
    15   1      8.1978672924149691       6.052477259559339      8.2059556790080137
    16   1      9.7469315491762245      10.224725212533713      9.6993175327204426
    17   1      4.3005787333429737      7.5137769409031421      6.9373372783162495
    18   1      7.0179232808443999      2.0440519065577689      4.2375916557354003
    19   1      1.5307905966063942       10.19484153132305      1.4608942561573457
    20   1      9.7349027996665427       10.24669312515789      4.2654074900366652
    21   1      5.5080433115720098     0.66655960583679175      0.1480437384661899
    22   1       9.657116972695917      7.3841862437686245      6.9455632401626417
    23   1      5.5588403781111424      8.7906420695172756      2.8452781766669659
    24   1      1.5702422473234634      2.0380303934643109      9.5860723331393274
    25   1      8.2620747014561289      6.1584828859029699      2.8734898642915425
    26   1       9.794888205885627      2.0432872931508967       1.511909690964174
    27   1      7.0171815425680961      7.4185969295422751       9.732095485770401
    28   1      1.4411343614554113      7.4441859266649431      4.2488218847297787
    29   1      5.5645283361092197      3.3110382234657152      2.8788423203746163
    30   1      9.6446261779957467      4.7879994197354279      4.2325743770973929
    31   1      1.4908538633332995      7.4346568935509936      9.6312112929145997
    32   1    0.073895690986289342      3.3991980032666049      8.2486663057737246
    33   1      4.2224295000427503      1.9738601362309538      6.8971847725349562
    34   1     0.23254026281644613      6.0231503687608097     0.10170077215104367
    35   1      2.8352682791061738     0.65940082561365543      2.7966385107398821
    36   1      6.9336396189125935      4.6788623340284516      1.5560033708369474
    37   1       1.494187305232515      2.1132933044386988      4.1145059319006805
    38   1      5.6128172500342544      6.1090005715491316    0.047462590391992521
    39   1      2.8801243010962594      3.3615617618478382       5.614457770036438
    40   1      0.1566121783312342     0.74132976865288924     0.12851710723000309
    41   1      5.7617074190299036      8.8840835709549424      8.3181716599485185
    42   1      2.9172725397295665     0.60487405826457419       8.211659860502948
    43   1      8.3651536089667502      3.4227347280368576      5.5592667316085453
    44   1     0.14429782429906979      3.4176720236076505      2.8652421629593618
    45   1      8.3304852940630099     0.73064464915290728      2.8530540987105439
    46   1      4.2385816135136167      10.156472961256156      4.1308092483622545
    47   1      9.6675285640388893      2.0980943214081833      6.8745354730427835
    48   1      8.3995344435061838      8.8415643814521445      5.5393689371833261
    49   1      6.8691882084787039      4.6716311970093329      6.8944125013920257
    50   1     0.21404332678608995      6.0933059606896336      5.5695537264956556
    51   1     0.22282317909455251     0.80091713137658616      5.5834747846787423
    52   1       2.805801866234674      8.8575873558880289      5.6008546923917493
    53   1      6.9602798986315975      10.207809945770691      6.9640580265796643
    54   1      2.7738996575450585      8.8865222870024922     0.10367803110986618
    55   1      1.5279089790946472      4.6870915405742153      1.5375739651122586
    56   1      8.3566518476737883      8.8618632207196697     0.14643950839853836
    57   1      8.3799825340339567     0.61386418737167503      8.1986284988875013
    58   1      9.6688361778855665       4.785544480191021      9.5782136712617785
    59   1      4.2476920804086546      4.7919274527944538      9.6081349909851497
    60   1      4.2511340575018437      4.7076519026110759      4.2536736836998443
    61   1      5.5483625949009934      3.3836286378028433      8.3726644390716842
    62   1      8.4238735824309856      3.4310690628422549     0.15584414785033651
    63   1      1.4210133317134392      10.176156605522863      6.9064801872941644
    64   1     0.12921428158837767      8.8200805779741813      2.8375674730807532

Velocities

     1                       0                       0                       0
     2                       0                       0                       0
     3                       0                       0                       0
     4                       0                       0                       0
     5                       0                       0                       0
     6                       0                       0                       0
     7                       0                       0                       0
     8                       0                       0                       0
     9                       0                       0                       0
    10                       0                       0                       0
    11                       0                       0                       0
    12                       0                       0                       0
    13                       0                       0                       0
    14                       0                       0                       0
    15                       0                       0                       0
    16                       0                       0                       0
    17                       0                       0                       0
    18                       0                       0                       0
    19                       0                       0                       0
    20                       0                       0                       0
    21                       0                       0                       0
    22                       0                       0                       0
    23                       0                       0                       0
    24                       0                       0                       0
    25                       0                       0                       0
    26                       0                       0                       0
    27                       0                       0                       0
    28                       0                       0                       0
    29                       0                       0                       0
    30                       0                       0                       0
    31                       0                       0                       0
    32                       0                       0                       0
    33                       0                       0                       0
    34                       0                       0                       0
    35                       0                       0                       0
    36                       0                       0                       0
    37                       0                       0                       0
    38                       0                       0                       0
    39                       0                       0                       0
    40                       0                       0                       0
    41                       0                       0                       0
    42                       0                       0                       0
    43                       0                       0                       0
    44                       0                       0                       0
    45                       0                       0                       0
    46                       0                       0                       0
    47                       0                       0                       0
    48                       0                       0                       0
    49                       0                       0                       0
    50                       0                       0                       0
    51                       0                       0                       0
    52                       0                       0                       0
    53                       0                       0                       0
    54                       0                       0                       0
    55                       0                       0                       0
    56                       0                       0                       0
    57                       0                       0                       0
    58                       0                       0                       0
    59                       0                       0                       0
    60                       0                       0                       0
    61                       0                       0                       0
    62                       0                       0                       0
    63                       0                       0                       0
    64                       0                       0                       0
