(written by ASE)

64 atoms
1 atom types

0.0      10.887404441833496  xlo xhi
0.0      10.887404441833496  ylo yhi
0.0      10.887404441833496  zlo zhi

Atoms # atomic

     1   1      9.6209736174579348      10.756243959143092      4.1878014194112154
     2   1     0.15531327447443211      1.3259275788693117    0.092975694423844679
     3   1      8.3326605405216014      6.8401280319685043       2.852185168218881
     4   1      4.2453786097568411      8.0196826796145047      6.8131198033407827
     5   1      2.8383082379472455      1.2176597481239355       8.278364390180343
     6   1      7.0409749230586272      8.0852288516163071      4.1807179162134958
     7   1      4.2381101586949512      8.1384756661808524      1.5390535480256204
     8   1      9.7082437006911846      10.808420022915072       9.570641840808662
     9   1     0.13215134290063357      6.7886184294474106    0.089946909516233298
    10   1      2.7964217648218721      4.0745805550753857      5.5462236890753616
    11   1      2.8629040325923256      4.0586396715335979      0.2011293421704039
    12   1      1.4743574872591267      5.3696487716330523      6.8547149024626037
    13   1      6.9873952023385755      8.1020467773981864      9.6119501085060506
    14   1      5.5619150552354881      3.9569991392543216      2.8334395665404486
    15   1      2.8780710553340327      6.6417198569259313      8.2662220761926619
    16   1       8.263303793578018      9.5156117394695912      5.6530041496288845
    17   1      4.2300285859705866      5.3421862850933337      4.1906262546839628
    18   1      4.1488948781885426      2.6093664684099167      6.8823461133696355
    19   1      1.4343044315135671      5.3587884383670144      1.5096601408899772
    20   1    0.018266488862266117      3.9606753836421262      2.8054196406487222
    21   1      6.8929666633521265      5.4476575094504938      1.5269271330648593
    22   1     0.18205085461583614      1.2234977734679404      5.6465037189082068
    23   1      9.6617750631135095      5.2976920470831601      9.6459078342474527
    24   1      2.8829371309813325      9.4216673096293562      5.5567066638045048
    25   1      6.9942506031704852      10.764484846606592      1.5076990445898986
    26   1      5.5853352952983073       9.438945333782101      2.9991431187388571
    27   1      8.3005659211592615       1.249243408452763      8.3094077269463469
    28   1      1.4131283877709819      2.6700863123317191      4.2174362321800913
    29   1      2.7922094960979109      1.2754093131236672       2.805050393860256
    30   1      1.5543302416060811      7.9780155481666384      4.1757483346562481
    31   1      2.8414494314087051       9.561782513644971     0.20532520488316841
    32   1    0.054676520364757231      9.3558226252853842      2.9025208385073995
    33   1      1.5497998301087534       2.584944589651144      9.6856865506611598
    34   1      1.6275395823483052      10.727510199389656      6.9484004052930004
    35   1      8.3125005743871725      6.6408003091240744      8.3155953686476209
    36   1     0.12734812316396926      9.4690606865278824      8.2250669583056037
    37   1      5.5628501775943278      1.2831737164844768      5.5734077804090134
    38   1      4.1631452733578271      10.817335807847826      4.2076109580135324
    39   1     0.17951552764450263        3.92427375033418      8.2421236939612186
    40   1      5.6149678367776232       6.770218388252033     0.13161707273007472
    41   1      5.5626249954579521       1.303576953954277     0.15526683471467884
    42   1      9.6200469313174608      5.4063703322990193      4.2753232913156864
    43   1      6.9447786718546354      2.6505752860715717      4.1469071753536184
    44   1      4.2276726097570076      10.782132766487678      9.6498988144742839
    45   1      8.3045854547405611      3.8790144122122285      5.5100141419702027
    46   1      8.3694320695578881      1.3155442975283549      2.7935359292009423
    47   1      9.6265084256456817      2.6364822588218004      6.9698186658436612
    48   1      6.8844305082458277   0.0013949970228930852      7.0053338472833389
    49   1      5.4724547999265383      3.9513997615490837       8.357995153213551
    50   1      1.6038733940731333       8.134424334545713      9.6287459703322043
    51   1      4.2838441963349396      5.3276386754616283      9.7508453055580162
    52   1      5.6999938859256076       6.645407782231473      5.6005873291635453
    53   1      9.5750130998018221      8.0904813709587415      6.8646144802447679
    54   1       2.890732521221139      6.7019038387465457      2.8336793498239956
    55   1      9.6191526921707009      8.1397015136033701      1.4403621230050163
    56   1    0.094480423757334897      6.7031523990646633      5.6417327129524892
    57   1      7.0224872749802216      5.2855344830084334      6.9846858783634502
    58   1      8.3023271439780615      3.9823983214637622     0.15806262992805209
    59   1      5.5399270254752082       9.331613923275313      8.2527169884689897
    60   1      1.3647479733236736      10.791786396057489      1.4622479447350969
    61   1       4.201201378875254      2.6156660522395043      1.5183695629427092
    62   1      6.9246290887581949      2.6260641780800853      9.7084546061503261
    63   1      9.6917865854794059      2.7269855227436892      1.4093228421132267
    64   1      8.2542569227906597      9.5368061157636248    0.029797468534396021

Velocities

     1                       0                       0                       0
     2                       0                       0                       0
     3                       0                       0                       0
     4                       0                       0                       0
     5                       0                       0                       0
     6                       0                       0                       0
     7                       0                       0                       0
     8                       0                       0                       0
     9                       0                       0                       0
    10                       0                       0                       0
    11                       0                       0                       0
    12                       0                       0                       0
    13                       0                       0                       0
    14                       0                       0                       0
    15                       0                       0                       0
    16                       0                       0                       0
    17                       0                       0                       0
    18                       0                       0                       0
    19                       0                       0                       0
    20                       0                       0                       0
    21                       0                       0                       0
    22                       0                       0                       0
    23                       0                       0                       0
    24                       0                       0                       0
    25                       0                       0                       0
    26                       0                       0                       0
    27                       0                       0                       0
    28                       0                       0                       0
    29                       0                       0                       0
    30                       0                       0                       0
    31                       0                       0                       0
    32                       0                       0                       0
    33                       0                       0                       0
    34                       0                       0                       0
    35                       0                       0                       0
    36                       0                       0                       0
    37                       0                       0                       0
    38                       0                       0                       0
    39                       0                       0                       0
    40                       0                       0                       0
    41                       0                       0                       0
    42                       0                       0                       0
    43                       0                       0                       0
    44                       0                       0                       0
    45                       0                       0                       0
    46                       0                       0                       0
    47                       0                       0                       0
    48                       0                       0                       0
    49                       0                       0                       0
    50                       0                       0                       0
    51                       0                       0                       0
    52                       0                       0                       0
    53                       0                       0                       0
    54                       0                       0                       0
    55                       0                       0                       0
    56                       0                       0                       0
    57                       0                       0                       0
    58                       0                       0                       0
    59                       0                       0                       0
    60                       0                       0                       0
    61                       0                       0                       0
    62                       0                       0                       0
    63                       0                       0                       0
    64                       0                       0                       0
