(written by ASE)

64 atoms
1 atom types

0.0      10.887404441833496  xlo xhi
0.0      10.887404441833496  ylo yhi
0.0      10.887404441833496  zlo zhi

Atoms # atomic

     1   1     0.65204922913037322      7.8539317548052736      1.4686231300600383
     2   1      1.9701764290345949     0.92693728020532262      8.1327013991794956
     3   1      7.5001141607900195      6.3760263510184814      8.2080225525076003
     4   1      8.8180416088891889      10.514280237618493      6.8549595527952079
     5   1      4.7913460026670975      9.0814424102208022       8.215682638783619
     6   1      4.8460107508569479     0.88659317492614775      5.5880186616784613
     7   1      6.0526420902874065       7.777112199307453      1.5107615540916015
     8   1      8.7758851767761143      10.549546226146447      1.4347985992278325
     9   1      8.7568141317507298      7.7499670443662581      9.6126353890132918
    10   1      6.1586522592101574      4.9394457628958719      4.1896846429263803
    11   1      10.113538450233818      9.0228606609497888      8.1590386239772101
    12   1      10.164892307185085      1.0077713400004171      5.5077422034703432
    13   1      6.0173189950505162      5.0764467044548098      9.5103189858549513
    14   1      4.6257504989577569      6.2999641083539473      5.4601521977899097
    15   1     0.56451243160879372      5.1022245430808937      9.6250619386659082
    16   1      6.2044200417236084      10.459779671216836      4.2139251429902913
    17   1        4.74767948746657      3.6122715705280655      8.3124700742130813
    18   1      3.2986898710679498      10.285639900652768      6.7855249330667107
    19   1      4.7805852816717618      9.1366250124303292      2.8058755209104049
    20   1      7.4769457093984215      9.1127693337118671      5.4846925080757387
    21   1      10.103764766787265      6.5302086246888962  0.00075536601366366085
    22   1     0.68694114437954568      7.7399117210142663      6.9373723210694607
    23   1      10.168040314515224      3.6156025789027524       2.763236277530865
    24   1       3.333304972901999      7.7139216790492924       9.611614606591047
    25   1      3.3927186630918413      4.9546783285648814      6.8372701007621686
    26   1      6.1045812910052746      10.362495147843674      9.4820368882540151
    27   1      4.8487664740330843     0.80530680403867905    0.082372949729154321
    28   1      2.0911365503111057       6.317760635466243      2.7822910990593925
    29   1      10.130729516443409     0.99660113794440974    0.064896958356011503
    30   1      7.4060490281331681      9.0966483693549662     0.12830012809922575
    31   1      7.5307415270966089      0.9704092756785343      2.7743951231390724
    32   1     0.55396139931033517      10.526973501559439      9.4880330926923762
    33   1      3.4122455883789087       2.274490455915128      4.1473526725773127
    34   1      1.9369247498764111      8.9585695386648467      5.3968104745410415
    35   1      1.9893573071337016     0.97696567746336882      2.7995519263054689
    36   1      8.8719438527267585      5.0654228383404529      1.3958291108373544
    37   1      3.3655517686648579      10.485762574843193      1.4550377360269238
    38   1      8.7989770532625471      4.9261567721503354      6.9177204748565941
    39   1     0.67007239849376177      10.428063383801202      4.1327781319408246
    40   1     0.58002367639506502       2.248803306636475      1.4438636403316707
    41   1     0.60233118736720215      2.3196334715646145      6.8659298813699365
    42   1      1.8786697418320983      3.6551862888842379      10.863601327244851
    43   1      8.8027357130143855       7.796144956880255      4.1147986037839814
    44   1      2.0378537195835378      9.2144679461098917      10.880851446983002
    45   1      6.1032340918262662      7.6903735978312397       6.783822114836596
    46   1      3.3828791122480482      2.1879569194391877      9.6938560547384895
    47   1      2.0533351536943343      6.3274064777575632      8.2085910238374709
    48   1      7.4188396330552564      3.6457010592118024      5.4766372174162825
    49   1      4.8118417951864672      3.5869528568630358      2.6922850853161719
    50   1      8.7483701261065789      2.3476141365939469      9.5437926024501394
    51   1      10.120456798233533      6.4939296410171892      5.5499998702038056
    52   1      3.4213842841584778       4.938733551383848      1.2796334250003341
    53   1      4.7156835069651208      6.4540165940495058    0.086967697531205701
    54   1        6.11561326886806      2.3026523374043535      6.8941788830372843
    55   1      1.9755691193898741      3.6367353059087293      5.5128441687619443
    56   1      6.1785189045214111      2.2609553547222703      1.3266289206384414
    57   1      7.4336672602427143      6.3515476900207091      2.8675309738959527
    58   1      8.8208768271999247       2.339730166061301      4.1398859703838298
    59   1      10.127634073243087      9.2165328727898554      2.8496208823056577
    60   1      10.245205106026162      3.7176986669737744      8.1637045016732941
    61   1      7.4581167189461439     0.92506322296588195      8.2292266628997481
    62   1      3.3732459242842765      7.6925021206188831      4.1124786437334251
    63   1      0.6869831632364054      5.0170070566699962      4.1899273464393616
    64   1      7.4920140932792378      3.7316563902597579      0.0676739647320872

Velocities

     1                       0                       0                       0
     2                       0                       0                       0
     3                       0                       0                       0
     4                       0                       0                       0
     5                       0                       0                       0
     6                       0                       0                       0
     7                       0                       0                       0
     8                       0                       0                       0
     9                       0                       0                       0
    10                       0                       0                       0
    11                       0                       0                       0
    12                       0                       0                       0
    13                       0                       0                       0
    14                       0                       0                       0
    15                       0                       0                       0
    16                       0                       0                       0
    17                       0                       0                       0
    18                       0                       0                       0
    19                       0                       0                       0
    20                       0                       0                       0
    21                       0                       0                       0
    22                       0                       0                       0
    23                       0                       0                       0
    24                       0                       0                       0
    25                       0                       0                       0
    26                       0                       0                       0
    27                       0                       0                       0
    28                       0                       0                       0
    29                       0                       0                       0
    30                       0                       0                       0
    31                       0                       0                       0
    32                       0                       0                       0
    33                       0                       0                       0
    34                       0                       0                       0
    35                       0                       0                       0
    36                       0                       0                       0
    37                       0                       0                       0
    38                       0                       0                       0
    39                       0                       0                       0
    40                       0                       0                       0
    41                       0                       0                       0
    42                       0                       0                       0
    43                       0                       0                       0
    44                       0                       0                       0
    45                       0                       0                       0
    46                       0                       0                       0
    47                       0                       0                       0
    48                       0                       0                       0
    49                       0                       0                       0
    50                       0                       0                       0
    51                       0                       0                       0
    52                       0                       0                       0
    53                       0                       0                       0
    54                       0                       0                       0
    55                       0                       0                       0
    56                       0                       0                       0
    57                       0                       0                       0
    58                       0                       0                       0
    59                       0                       0                       0
    60                       0                       0                       0
    61                       0                       0                       0
    62                       0                       0                       0
    63                       0                       0                       0
    64                       0                       0                       0
