(written by ASE)

64 atoms
1 atom types

0.0      10.887404441833496  xlo xhi
0.0      10.887404441833496  ylo yhi
0.0      10.887404441833496  zlo zhi

Atoms # atomic

     1   1      6.4801078706348676      7.0943320574018003      8.2718302145862026
     2   1      2.5147755322199288     0.36879853324801104      1.3784057241527705
     3   1      5.0990885411384284     0.39073910927998412      9.5861352803071327
     4   1       9.198824601500462      7.1484549407966256      5.5584250565916022
     5   1      7.9059157323744671      8.4778679757307032       9.642602783467737
     6   1      6.4901515130691223      1.6612022026818778      2.8807605866429924
     7   1      6.4395426390935313      9.8596842033927601       5.480407558085858
     8   1      6.5694831148202866      7.1841102932491481       2.895979524574642
     9   1      7.9098528505917329      2.9748825015388434      9.5964735414443112
    10   1       7.914892517655403      5.7821697911457477      1.4792487093265549
    11   1       1.079238439415164       1.756433480292813      8.2644005019655538
    12   1      10.805199334319013     0.39432348811683582      4.2116593694192375
    13   1        10.5638138182224      5.7242992799769468      9.6035969544442992
    14   1      2.5211739171453758      8.4250241528280867      4.0850868916400032
    15   1      10.713766950732122      3.1211366767651612      6.7945893252306746
    16   1      5.1256687939190613      3.1735638802684889      6.8517369173795259
    17   1      6.4627201756433692      4.4794632277978508      5.5765668197170157
    18   1      3.7334474643127749       7.142353608098631      5.5107091565755582
    19   1      1.0878362438095195      7.1643942019887277      2.7967592135564985
    20   1      7.8578675751427909     0.36072142198528212      1.4311358203424192
    21   1      10.594966825827157       3.010409039426321      1.4871956270270061
    22   1      6.4561548509352633      9.9182172821732024    0.025342445599025876
    23   1      7.7847022000770494     0.33543063301421761      6.8420975644869486
    24   1      5.0479767387602692      8.4642045466777063      6.9293047005523931
    25   1     0.98611159269903936      9.9634334657935142     0.06314338592994817
    26   1      5.2785992625719871      8.5947744940825146      1.4710702823259538
    27   1      9.2746266192754092      9.9312817397222375      2.9387842476221238
    28   1      10.599623618365001     0.37260359220086059      9.5156195267480825
    29   1      3.7624060817326495      4.3675613337564982      8.2811197888865422
    30   1      7.8452353115500273      5.8195902600563159      6.9077462689888876
    31   1      7.8726037018079751      8.5965324722019432       4.250514644391842
    32   1      9.2353144906313105      4.4178995998045139      2.8797962619898101
    33   1      5.1302091017494718      5.7453327191821586      9.5845674415708686
    34   1      3.8695992680462155      9.8609963598185573      2.8195016359206306
    35   1      7.8264731619048007      3.1142682971357658      4.2117336730348427
    36   1      3.7672182953703839      1.7264857162695648      5.5218611883150857
    37   1      2.4688474615575302      5.8091585515772408      6.9439700927712806
    38   1      3.8515960535839611      7.1736714464314559       0.118186785466599
    39   1      5.1319667553989632      0.3136054466036402      4.2255440869693643
    40   1      10.681678820768525      8.5507140723782982      6.8895707609900114
    41   1      2.4214128769769871      5.8071254229511169      1.4091901339089361
    42   1      9.2331424888720903      1.6568419756665804    0.060055456236607352
    43   1      2.4185456983774429      3.0303512862329285       9.662428545566911
    44   1      1.1057129961137733      9.7560141116566683      5.5500394555361368
    45   1       3.791599615387014      4.4820541202459196      2.7785411999958569
    46   1      3.7523212316163779      9.9103333116405565      8.3077438451086891
    47   1      1.0403294646679626      4.4783253117282982    0.065619132109074219
    48   1      1.1710691098498955      1.7347040530724342      2.7311452273378336
    49   1      5.2438667026206929      3.0451847538792549      1.4397310289772776
    50   1      9.2147664584520612      7.1633364299936488    0.080101974499420692
    51   1      1.2092971033165227      4.5005836249462163      5.5536216036421706
    52   1      2.3582596707615977     0.40259033317530779      6.8868763626319947
    53   1       1.105825262712024      7.1032608211320394      8.2472451274490481
    54   1      5.1600953787196318      5.8185571477764597       4.120381109052488
    55   1      10.561688540134128      8.5451331894594773      1.5145597991757711
    56   1      2.4256812790000737      3.0886948745700806      4.1779203364154682
    57   1      6.6638772599933986       4.411262891710237     0.10709871486343037
    58   1      9.2669412243442935      4.4151815151410858        8.20476682115833
    59   1      9.2582331001713101       1.715288096503869      5.5365726552650472
    60   1      3.9807253544678645      1.7233453339829481     0.09813306295721258
    61   1      10.544943944558042      5.8129652328797761      4.1868205467912389
    62   1      2.4798606201639615      8.4383008137160118      9.6814132815890162
    63   1      9.2313695851355533      9.9422994409077887      8.1513019627960261
    64   1      6.4646858145225679       1.674246218624873      8.1820766384540775

Velocities

     1                       0                       0                       0
     2                       0                       0                       0
     3                       0                       0                       0
     4                       0                       0                       0
     5                       0                       0                       0
     6                       0                       0                       0
     7                       0                       0                       0
     8                       0                       0                       0
     9                       0                       0                       0
    10                       0                       0                       0
    11                       0                       0                       0
    12                       0                       0                       0
    13                       0                       0                       0
    14                       0                       0                       0
    15                       0                       0                       0
    16                       0                       0                       0
    17                       0                       0                       0
    18                       0                       0                       0
    19                       0                       0                       0
    20                       0                       0                       0
    21                       0                       0                       0
    22                       0                       0                       0
    23                       0                       0                       0
    24                       0                       0                       0
    25                       0                       0                       0
    26                       0                       0                       0
    27                       0                       0                       0
    28                       0                       0                       0
    29                       0                       0                       0
    30                       0                       0                       0
    31                       0                       0                       0
    32                       0                       0                       0
    33                       0                       0                       0
    34                       0                       0                       0
    35                       0                       0                       0
    36                       0                       0                       0
    37                       0                       0                       0
    38                       0                       0                       0
    39                       0                       0                       0
    40                       0                       0                       0
    41                       0                       0                       0
    42                       0                       0                       0
    43                       0                       0                       0
    44                       0                       0                       0
    45                       0                       0                       0
    46                       0                       0                       0
    47                       0                       0                       0
    48                       0                       0                       0
    49                       0                       0                       0
    50                       0                       0                       0
    51                       0                       0                       0
    52                       0                       0                       0
    53                       0                       0                       0
    54                       0                       0                       0
    55                       0                       0                       0
    56                       0                       0                       0
    57                       0                       0                       0
    58                       0                       0                       0
    59                       0                       0                       0
    60                       0                       0                       0
    61                       0                       0                       0
    62                       0                       0                       0
    63                       0                       0                       0
    64                       0                       0                       0
