(written by ASE)

8 atoms
1 atom types

0.0       5.443702220916748  xlo xhi
0.0       5.443702220916748  ylo yhi
0.0       5.443702220916748  zlo zhi

Atoms # atomic

     1   1       2.721851110458374       2.721851110458374       2.721851110458374
     2   1       4.082776665687561       4.082776665687561       4.082776665687561
     3   1       1.360925555229187       1.360925555229187       4.082776665687561
     4   1       4.082776665687561       1.360925555229187       1.360925555229187
     5   1       1.360925555229187       4.082776665687561       1.360925555229187
     6   1      5.4324064489950672      5.4167618065058889      2.7028232199346292
     7   1    0.044705944504472406      2.7163005654786758      5.4289106098923128
     8   1      2.7165698755265026    0.012101480206568316       5.428102030808958

Velocities

     1                       0                       0                       0
     2                       0                       0                       0
     3                       0                       0                       0
     4                       0                       0                       0
     5                       0                       0                       0
     6                       0                       0                       0
     7                       0                       0                       0
     8                       0                       0                       0
