(written by ASE)

8 atoms
1 atom types

0.0       5.443702220916748  xlo xhi
0.0       5.443702220916748  ylo yhi
0.0       5.443702220916748  zlo zhi

Atoms # atomic

     1   1     0.67693627610277929      3.6268688240601534      2.4802707501645074
     2   1      1.9356714847442049      5.0162260575312985      3.9115564756178856
     3   1      4.7106285898144051      5.0260068793164692      1.1795209027725377
     4   1      3.3777404818535501      3.6770773021333127      5.2398403551707133
     5   1      3.3143624179717222     0.91078354438477049      2.5523043740895019
     6   1      4.7097074196628625      2.3161011295939318      3.8722651130497638
     7   1     0.61047797854893204     0.94256764601726672       5.257210204315669
     8   1      2.0374940446582173      2.3008103215712055      1.1399050702672753

Velocities

     1                       0                       0                       0
     2                       0                       0                       0
     3                       0                       0                       0
     4                       0                       0                       0
     5                       0                       0                       0
     6                       0                       0                       0
     7                       0                       0                       0
     8                       0                       0                       0
