(written by ASE)

8 atoms
1 atom types

0.0       5.443702220916748  xlo xhi
0.0       5.443702220916748  ylo yhi
0.0       5.443702220916748  zlo zhi

Atoms # atomic

     1   1     0.63505114141589658    0.057249201937604077      1.5351214590923803
     2   1      4.6288378304096511      4.2822117880811845       2.893240673835237
     3   1      3.2646305862362226     0.18307496285493663      4.2586903133979774
     4   1      3.3079239610090383      2.8498480112616562      1.5592148120397979
     5   1       1.944204881856038      4.1498468729841136     0.15213675434856633
     6   1      0.5245957343543175      2.8873976192072064      4.2232228290390594
     7   1      1.8862964077045916      1.5178705281793867      2.8921261196011585
     8   1       4.691088361259915      1.4751332948788303      0.2022634457181951

Velocities

     1                       0                       0                       0
     2                       0                       0                       0
     3                       0                       0                       0
     4                       0                       0                       0
     5                       0                       0                       0
     6                       0                       0                       0
     7                       0                       0                       0
     8                       0                       0                       0
