(written by ASE)

8 atoms
1 atom types

0.0       5.443702220916748  xlo xhi
0.0       5.443702220916748  ylo yhi
0.0       5.443702220916748  zlo zhi

Atoms # atomic

     1   1      1.3729103390623862     0.97687247347392514      3.6678944784422924
     2   1      1.3797598994354274      3.7635676841076133     0.98858843396420326
     3   1      5.4350220011583588      5.0613754003445592      5.0398273518190422
     4   1      2.7548211497111197      5.1726653440844643      2.2699446320957861
     5   1    0.030362449277520964      2.3745367051582633       2.333784578933134
     6   1      4.1230813478693733      1.0788290394719766     0.88946530169223337
     7   1      2.6926467070611153      2.4067362905452683      5.0174042078730565
     8   1      4.0602347657445819      3.7547907723079561      3.6299396075452535

Velocities

     1                       0                       0                       0
     2                       0                       0                       0
     3                       0                       0                       0
     4                       0                       0                       0
     5                       0                       0                       0
     6                       0                       0                       0
     7                       0                       0                       0
     8                       0                       0                       0
