(written by ASE)

64 atoms
1 atom types

0.0      10.887404441833496  xlo xhi
0.0      10.887404441833496  ylo yhi
0.0      10.887404441833496  zlo zhi

Atoms # atomic

     1   1       5.443702220916748       5.443702220916748       5.443702220916748
     2   1       4.082776665687561      6.8046277761459351       4.082776665687561
     3   1       4.082776665687561       4.082776665687561      6.8046277761459351
     4   1      6.8046277761459351       4.082776665687561       4.082776665687561
     5   1      6.8046277761459351      6.8046277761459351      6.8046277761459351
     6   1       4.097157173301639      7.3830337265519006      10.518504836200066
     7   1      9.5724614682161473      5.5123139848846563      5.4036749605311911
     8   1     0.67297255135066791      9.9085740356413794       1.937485920632696
     9   1      7.1281580483487232      9.1195585426766002      1.1251392546028427
    10   1     0.65936914923604206      8.3433122396180579      5.3528447980584701
    11   1      5.3585557934220844      7.4773662224369559      5.0978286243725108
    12   1      5.0965164679467136      9.0025955665557262      3.5764728023633268
    13   1      1.3516994959190427      7.3000602742262686      7.0369806981324245
    14   1      6.8736756277093605      8.5428210166874123      6.5102582661338602
    15   1       10.85448891353019      1.6651729035376377      7.2657709402091086
    16   1      9.5807133876575108      1.8382417610741726      1.7291028907825421
    17   1      4.1420271474990216     0.11636260534030818      3.0992180835714294
    18   1      10.140937340665857      10.884252540864111      8.2411827311435104
    19   1        5.09225001274325       5.516619700950514    0.084186969890538421
    20   1      10.786020565274498      5.5002132030489292      10.713345788753713
    21   1      5.8468385964375216      4.4670814549965598      1.6085097450049375
    22   1      2.8588118177451065      0.1556695019066705      5.3489608929108954
    23   1      4.3293442911502495      8.8368628120629751      9.1552508847019567
    24   1      8.7291245162550126      6.2195831708260698      3.5225452498706602
    25   1      0.9384229481577151      2.4866538850029087      5.2358607313916821
    26   1      5.2691870386354083     0.27442059129238494      8.7909937949291361
    27   1      10.237777340225136      7.3596336036251842      4.4167233962823786
    28   1      8.5154571690085845      1.0096142481258923      3.8284162457445632
    29   1      5.5352669882379928      1.6788090771159148      7.3461122924046549
    30   1      7.6744025385852979       4.192694750533235      8.7626987185307144
    31   1      2.6143332919726987      1.8977174250220088      10.388210039301953
    32   1     0.70842348774279174      6.3323760593148108      8.9599232272425979
    33   1      4.1170273877822012      3.4674901643464295     0.26364658730899748
    34   1      2.0875076785341236      5.3926497965370856      8.0381625404144188
    35   1      3.7567755549134461      10.037588474167535      7.3740978244830444
    36   1      10.114315880203208      3.5555831033402683      6.3903471561641254
    37   1      8.8723805892621499      4.5307787972965343      7.3066171627160088
    38   1      1.7800182266137625      10.560185595385292     0.15640817799794249
    39   1      7.3275896015730382      5.3182433239617808      2.7579019917642711
    40   1       5.115471677204539      3.3410971184424341       5.931096949714231
    41   1      8.4982544218812563      2.6837547706687417      10.757406859397804
    42   1      10.085130458297272    0.087631897632218347      2.6670617658126616
    43   1      2.5064708864137799      6.2111787505142502      2.4541405371866887
    44   1       6.673265473154629      1.8271187693940192      9.4934764003578493
    45   1      8.8095411454759756      8.2438706401027844       10.82858128692925
    46   1      8.6226289403062992      10.023215753831948      7.2751357915348649
    47   1      7.9592151110688292      7.1807929126118211      1.7470747938958624
    48   1      6.4575831675985569     0.15480629019764969     0.25139654930218569
    49   1      2.6174045621627045      1.8137927890756487      3.9647419653643112
    50   1      7.8103755593833739      10.508147755806533      5.5244504584134688
    51   1      5.8035264024083517      9.9720500894442239      2.1316018451118026
    52   1     0.85642071547142962      0.9898970212206919       9.174567877939694
    53   1      6.6587791883410432      1.8571825314197952      5.0735186877420517
    54   1      2.1275252048215663      9.1491229454691165       6.284778266355886
    55   1      10.706708431719562      9.0455527904736641      3.6259703668042107
    56   1      5.4934525474386646      6.9181150303001573      9.5172399296141634
    57   1      9.4684474383466863      9.1889710984493718      8.9657195581996803
    58   1      3.8533034143931957      1.8413691645633037      1.8502776489224715
    59   1      1.6581091930060836      4.1348755056145023      3.3194494576462148
    60   1      10.181792648330998      3.7143952385437444       0.894399597143817
    61   1     0.71136667342511117      4.7141471418127594      1.6250325653789872
    62   1      2.4014814999132739      8.2954269662948263      1.1183631055530796
    63   1      2.9438537659200108      3.6373505009095481      8.9496790623871902
    64   1      10.089407621008661      7.2413454922810274       9.959792913098795

Velocities

     1                       0                       0                       0
     2                       0                       0                       0
     3                       0                       0                       0
     4                       0                       0                       0
     5                       0                       0                       0
     6                       0                       0                       0
     7                       0                       0                       0
     8                       0                       0                       0
     9                       0                       0                       0
    10                       0                       0                       0
    11                       0                       0                       0
    12                       0                       0                       0
    13                       0                       0                       0
    14                       0                       0                       0
    15                       0                       0                       0
    16                       0                       0                       0
    17                       0                       0                       0
    18                       0                       0                       0
    19                       0                       0                       0
    20                       0                       0                       0
    21                       0                       0                       0
    22                       0                       0                       0
    23                       0                       0                       0
    24                       0                       0                       0
    25                       0                       0                       0
    26                       0                       0                       0
    27                       0                       0                       0
    28                       0                       0                       0
    29                       0                       0                       0
    30                       0                       0                       0
    31                       0                       0                       0
    32                       0                       0                       0
    33                       0                       0                       0
    34                       0                       0                       0
    35                       0                       0                       0
    36                       0                       0                       0
    37                       0                       0                       0
    38                       0                       0                       0
    39                       0                       0                       0
    40                       0                       0                       0
    41                       0                       0                       0
    42                       0                       0                       0
    43                       0                       0                       0
    44                       0                       0                       0
    45                       0                       0                       0
    46                       0                       0                       0
    47                       0                       0                       0
    48                       0                       0                       0
    49                       0                       0                       0
    50                       0                       0                       0
    51                       0                       0                       0
    52                       0                       0                       0
    53                       0                       0                       0
    54                       0                       0                       0
    55                       0                       0                       0
    56                       0                       0                       0
    57                       0                       0                       0
    58                       0                       0                       0
    59                       0                       0                       0
    60                       0                       0                       0
    61                       0                       0                       0
    62                       0                       0                       0
    63                       0                       0                       0
    64                       0                       0                       0
