(written by ASE)

64 atoms
1 atom types

0.0      10.887404441833496  xlo xhi
0.0      10.887404441833496  ylo yhi
0.0      10.887404441833496  zlo zhi

Atoms # atomic

     1   1       5.443702220916748       5.443702220916748       5.443702220916748
     2   1       4.082776665687561      6.8046277761459351       4.082776665687561
     3   1       4.082776665687561       4.082776665687561      6.8046277761459351
     4   1      6.8046277761459351      6.8046277761459351      6.8046277761459351
     5   1      6.8046277761459351       4.082776665687561       4.082776665687561
     6   1      7.1371581954651333      2.7163274964834585      10.161622948098454
     7   1      5.5520985417572319      4.5750390924820294      0.9529279711101708
     8   1      4.3637637376122029      3.4618346533420663       9.999965536016191
     9   1      9.3667650494455188      6.3999612004016058      10.464568847489033
    10   1      9.8562565029768052      3.6672452140980738      1.1472397131963419
    11   1     0.63328874239357447      5.8237214112959919      6.9963194234896946
    12   1      4.0623013147742313    0.098452534029384253      4.1178872331156242
    13   1      3.7480456912546742      7.8197572831458615      4.3910295953700142
    14   1      8.9336515453721859       8.240261885461905      5.2579678416188926
    15   1      8.9598168011032158      4.4967775925835554       3.189044340969474
    16   1      3.4166136026726974     0.41352265820864886      2.4786691665547806
    17   1      10.546008205951864      1.9581514109291902      8.4514606654265663
    18   1     0.30305102765021275     0.35121493953196392      3.7802340824288478
    19   1      7.1189573788111602       7.463965614033043      9.0145010174892946
    20   1      7.9998828751103019       1.840261099727968      6.9610320199458897
    21   1      5.6722906426925306      2.6912884759042441      8.7873207952407029
    22   1       9.507150861388709      0.1226390098487613      4.7251336938843451
    23   1      5.2494446653100795      2.5237312269549506       1.967001003994767
    24   1      3.5019102597482572      10.619938032189509      4.8913917652053271
    25   1      4.4148872209080992      5.0377721592371927      1.8408005309984645
    26   1    0.031229301133649079      5.1398143852986493      7.1340958481983989
    27   1    0.040626231889518749      1.4533981894345516      7.7370979177193817
    28   1      9.3997681846318528      9.2243532472148217      8.8794066612809956
    29   1      9.6247751072414758      3.9571023206943323      4.9823267363785817
    30   1      7.4064954987666738      6.9856216496621641      5.3707110862072511
    31   1      2.7949817672408415      2.6612191978895368      6.8888880762422673
    32   1      5.6045822030296222      7.7171683252403227      6.2395737636533113
    33   1      8.2410847412224939      1.3747838284794369      2.9816769020225706
    34   1      2.9307889839010386      4.2806082576518349      6.2231958191061949
    35   1      7.1749342834268077      10.348455333663594      5.7944957551178504
    36   1      4.7297551191990408      5.4982027873184052      7.4793013611420633
    37   1      2.2059492641585479      1.1545367176127002      10.876611273844446
    38   1      10.518941572735457     0.26713739712772622      10.278482742779318
    39   1      9.5128225958899293       7.109516601520113      10.530880119602614
    40   1      7.5425632647863949      1.0923457269959016      4.7779609688201674
    41   1      4.3677410901016742       8.743224681843401       4.519288343412569
    42   1      6.3665109456418918      7.4173775715185002      7.7618004629737811
    43   1       9.518539107242475      5.7727445884116833      8.0741650756996819
    44   1      6.2547615524709954      10.231910923761632      6.3587781780999535
    45   1      4.8187981061688276      3.3024248445143769      7.7936880705162253
    46   1      4.7749696804696669      1.0697248186232287      1.2384349903766676
    47   1       8.671683603282986      2.0451781417095845         9.6799375923149
    48   1      5.8544902464951747      2.6252041705116937      9.2169858328221039
    49   1      10.034223071979511      1.0406698336320233       10.68162495875896
    50   1      5.1057031852769796      10.678316663279873     0.10164644371594367
    51   1      10.472839586186751      4.0853403026609101      1.4289941565223216
    52   1      5.6343880114553713      10.405809937632341       6.383358722657988
    53   1      8.8894684740317302      8.5539386546136029      8.8051264075112385
    54   1      10.201160258878929      7.0268922788468444      7.4654133988925651
    55   1      1.4668727769841325      5.6889048013538854      10.069110079620884
    56   1      2.8961206689972983       4.933525808892739      2.0186937697953766
    57   1       5.070139657816668      2.6484602287863197     0.33186635103409756
    58   1      9.8738031882375026      5.8177544091519735      8.0935443671653502
    59   1      9.0732514911276212      10.143227449482197      7.6680766726908018
    60   1      9.4145309178318826      9.9301752972365875      1.4331723559028831
    61   1      6.3211481016099924      8.9662244334218713      3.2515768361951132
    62   1     0.40627529769267312      2.2147604075365734      10.478705353710382
    63   1      8.9440060300062214      2.6896550942406776      9.5475850070754404
    64   1      2.6556936370949984      5.9055851764366025      5.8756963037069454

Velocities

     1                       0                       0                       0
     2                       0                       0                       0
     3                       0                       0                       0
     4                       0                       0                       0
     5                       0                       0                       0
     6                       0                       0                       0
     7                       0                       0                       0
     8                       0                       0                       0
     9                       0                       0                       0
    10                       0                       0                       0
    11                       0                       0                       0
    12                       0                       0                       0
    13                       0                       0                       0
    14                       0                       0                       0
    15                       0                       0                       0
    16                       0                       0                       0
    17                       0                       0                       0
    18                       0                       0                       0
    19                       0                       0                       0
    20                       0                       0                       0
    21                       0                       0                       0
    22                       0                       0                       0
    23                       0                       0                       0
    24                       0                       0                       0
    25                       0                       0                       0
    26                       0                       0                       0
    27                       0                       0                       0
    28                       0                       0                       0
    29                       0                       0                       0
    30                       0                       0                       0
    31                       0                       0                       0
    32                       0                       0                       0
    33                       0                       0                       0
    34                       0                       0                       0
    35                       0                       0                       0
    36                       0                       0                       0
    37                       0                       0                       0
    38                       0                       0                       0
    39                       0                       0                       0
    40                       0                       0                       0
    41                       0                       0                       0
    42                       0                       0                       0
    43                       0                       0                       0
    44                       0                       0                       0
    45                       0                       0                       0
    46                       0                       0                       0
    47                       0                       0                       0
    48                       0                       0                       0
    49                       0                       0                       0
    50                       0                       0                       0
    51                       0                       0                       0
    52                       0                       0                       0
    53                       0                       0                       0
    54                       0                       0                       0
    55                       0                       0                       0
    56                       0                       0                       0
    57                       0                       0                       0
    58                       0                       0                       0
    59                       0                       0                       0
    60                       0                       0                       0
    61                       0                       0                       0
    62                       0                       0                       0
    63                       0                       0                       0
    64                       0                       0                       0
