(written by ASE)

64 atoms
1 atom types

0.0      10.887404441833496  xlo xhi
0.0      10.887404441833496  ylo yhi
0.0      10.887404441833496  zlo zhi

Atoms # atomic

     1   1       5.443702220916748       5.443702220916748       5.443702220916748
     2   1       4.082776665687561      6.8046277761459351       4.082776665687561
     3   1       4.082776665687561       4.082776665687561      6.8046277761459351
     4   1      6.8046277761459351       4.082776665687561       4.082776665687561
     5   1      6.8046277761459351      6.8046277761459351      6.8046277761459351
     6   1      8.6907332332925193      5.3762384315864438      8.3154461124765362
     7   1      6.1871017832986581      10.820019823167854        2.44382839587945
     8   1     0.62218647623065593      2.3628003030619453      1.8114811030084894
     9   1      5.1022018301852938      3.2880667253259617     0.19840172620257235
    10   1       6.235755401433039      10.467014052935326      7.4752986999974951
    11   1     0.47429174044341238      2.9609857786010423      6.4553891018836111
    12   1      7.7559989404977046       6.003212340063385       1.768400580514438
    13   1      7.3937373408382996      1.2075261463996085      7.6833806217459824
    14   1      9.7317664732541402      6.8287534138520982      2.0991060186721882
    15   1      9.2917060678266239      1.0694600511545218     0.93633344288001297
    16   1      2.8673570580096452      5.3208458973275867       3.615940676577253
    17   1      2.3321844554381244    0.041179017125865691       4.978018749023164
    18   1      5.2540570054665352      8.7654774790723877       3.127877215239323
    19   1      2.3363435110923945      3.4188365462120487      7.6726296348487608
    20   1   0.0027229517124851554      10.259695933418868      4.1138219492731878
    21   1      5.0856418580034415      3.4467013754738218      5.5777083049558769
    22   1      10.302806956087011      8.7077179366220889       3.012566764508307
    23   1     0.54929333144217551      7.7488099845704141      6.8272991395938334
    24   1       2.301028365368964      8.8905917889541115      6.0969250983685015
    25   1       7.623713196065296      3.3589335553569981      8.7799572744872307
    26   1      9.0578540947305441       4.989008221324184      3.4333903207725598
    27   1      5.9202070896839132      7.7316838123482512      9.6592500380626802
    28   1      8.8188930180042462      9.3232095029634934      4.8124819743724458
    29   1      10.481337453840467      8.6954529729981687      8.3778663411039247
    30   1      4.1625180729693341      9.7097070601076894      1.7092654477656311
    31   1      8.1564253431034786      10.769270778179418      6.3157099854635135
    32   1     0.69593188186777866      7.7063835934696385      1.4794513408022993
    33   1      6.0650563100824115      5.0135368506922759      1.0943006583671746
    34   1      10.531320100837377       3.195241067828988     0.11043896049164026
    35   1      9.3441890801591398      9.9517765588317957      10.254257817272389
    36   1     0.63060517321970977      4.8460464425500334       4.901742356200117
    37   1      2.2417423540993866      6.9287011864693113      10.647177283412475
    38   1      6.8247559442265242      8.0209727720845763      5.0264825522443175
    39   1      3.9583054552212502      9.9995404803985366      6.4079308309976568
    40   1      7.7044588378025196      10.577692695313658     0.97092534511355666
    41   1      5.9396142855641756      1.9314261200866554      4.0020329707699602
    42   1     0.62076716360811801      5.0210444360978386      10.272002429194742
    43   1      1.3972413662387595      1.5225119083952166      8.1341829289124803
    44   1      9.7870295440080781      3.5931067536908472       5.062043483945132
    45   1      9.8837670110672207      7.0743966244638727      7.6473735438815993
    46   1      2.5384762765434061      9.0710035634031101      1.0729347997113621
    47   1      4.2136736787890072      1.4538365483196287      10.124025318602207
    48   1      1.9448327311844054      6.9217237849410367      5.0526539729041531
    49   1      6.7639567674050909      6.6207876523411073     0.40779479040830324
    50   1      2.6846663689571386     0.48982050660628929      9.5940886874063267
    51   1      1.2331996679409016      1.0153513633194464      3.2995880038539553
    52   1      2.5276440099269308      5.1136692467037221       8.952945176774449
    53   1      3.7606494014929694      6.7770977998592912      8.8226607629143246
    54   1      3.9398366263991988      4.3722054719667938      1.6335610954417632
    55   1      4.0602221114170334      1.3078344862344693       5.189880745539341
    56   1      2.3098463226156696      3.1980590892330554      2.5235813218439915
    57   1       6.041510824623856      2.1903351218434608      9.4218353850567951
    58   1      5.0248647451377337      8.8143296728082987      8.1195155898739699
    59   1      3.2689606375473659      10.792321122513897     0.32138627625501748
    60   1     0.32644048362774569       10.40617204608219      9.0083646420380887
    61   1      7.4545105600647616       1.501274053129606       2.418581552305497
    62   1      9.3076420843193546      4.1749212607864763      9.6440791216817274
    63   1      9.4969904097770836      1.6598488385740637       6.337014681536175
    64   1      7.3284182977924957      8.4860764162004898      10.466330719247708

Velocities

     1                       0                       0                       0
     2                       0                       0                       0
     3                       0                       0                       0
     4                       0                       0                       0
     5                       0                       0                       0
     6                       0                       0                       0
     7                       0                       0                       0
     8                       0                       0                       0
     9                       0                       0                       0
    10                       0                       0                       0
    11                       0                       0                       0
    12                       0                       0                       0
    13                       0                       0                       0
    14                       0                       0                       0
    15                       0                       0                       0
    16                       0                       0                       0
    17                       0                       0                       0
    18                       0                       0                       0
    19                       0                       0                       0
    20                       0                       0                       0
    21                       0                       0                       0
    22                       0                       0                       0
    23                       0                       0                       0
    24                       0                       0                       0
    25                       0                       0                       0
    26                       0                       0                       0
    27                       0                       0                       0
    28                       0                       0                       0
    29                       0                       0                       0
    30                       0                       0                       0
    31                       0                       0                       0
    32                       0                       0                       0
    33                       0                       0                       0
    34                       0                       0                       0
    35                       0                       0                       0
    36                       0                       0                       0
    37                       0                       0                       0
    38                       0                       0                       0
    39                       0                       0                       0
    40                       0                       0                       0
    41                       0                       0                       0
    42                       0                       0                       0
    43                       0                       0                       0
    44                       0                       0                       0
    45                       0                       0                       0
    46                       0                       0                       0
    47                       0                       0                       0
    48                       0                       0                       0
    49                       0                       0                       0
    50                       0                       0                       0
    51                       0                       0                       0
    52                       0                       0                       0
    53                       0                       0                       0
    54                       0                       0                       0
    55                       0                       0                       0
    56                       0                       0                       0
    57                       0                       0                       0
    58                       0                       0                       0
    59                       0                       0                       0
    60                       0                       0                       0
    61                       0                       0                       0
    62                       0                       0                       0
    63                       0                       0                       0
    64                       0                       0                       0
