(written by ASE)

8 atoms
1 atom types

0.0       5.443702220916748  xlo xhi
0.0       5.443702220916748  ylo yhi
0.0       5.443702220916748  zlo zhi

Atoms # atomic

     1   1      4.6580728962159696       4.884208000797031      1.4497504984012153
     2   1      1.8890548888751937      2.3004123591933023      1.3085143318702634
     3   1     0.52780210571440023     0.95339537005462205      2.6856662230684378
     4   1      4.5614580787930663      2.2145459329081234      4.1574102672188644
     5   1      1.8593512884796439      5.0996586348179846      4.0545075468841105
     6   1      3.2561401813910607     0.77826182919057629      0.1328599953830345
     7   1     0.53646086989819608       3.678659417546811      5.3609549241373031
     8   1      3.1903269706309914      3.6374760707752216      2.7781683840380822

Velocities

     1                       0                       0                       0
     2                       0                       0                       0
     3                       0                       0                       0
     4                       0                       0                       0
     5                       0                       0                       0
     6                       0                       0                       0
     7                       0                       0                       0
     8                       0                       0                       0
