(written by ASE)

8 atoms
1 atom types

0.0       5.443702220916748  xlo xhi
0.0       5.443702220916748  ylo yhi
0.0       5.443702220916748  zlo zhi

Atoms # atomic

     1   1     0.04585737170500126      2.5618360029629486      1.6635541230212425
     2   1      2.8137335338480796      5.3066866782106388      1.6537939050770802
     3   1      4.1031381276529544      1.2328406419554554       3.052225427045272
     4   1    0.046005836980614223      5.2962514005622552      4.3617040024512335
     5   1      1.4338860275296241      1.1902946025653591     0.32516047000509651
     6   1      2.7205587466987424      2.5974449562144599      4.3900639728370834
     7   1      4.1587951049105811      3.9022033052098664     0.27610448886929007
     8   1      1.4492912112051926      3.9754102124275619      2.9660572437185522

Velocities

     1                       0                       0                       0
     2                       0                       0                       0
     3                       0                       0                       0
     4                       0                       0                       0
     5                       0                       0                       0
     6                       0                       0                       0
     7                       0                       0                       0
     8                       0                       0                       0
