(written by ASE)

8 atoms
1 atom types

0.0       5.443702220916748  xlo xhi
0.0       5.443702220916748  ylo yhi
0.0       5.443702220916748  zlo zhi

Atoms # atomic

     1   1      2.3687325869226896      3.0770762550609447      4.5735299828043878
     2   1      3.7972103495400518      4.4232030609270794      0.5108201198205542
     3   1      5.1326620944742558      3.0570963697416289      1.9225298033501304
     4   1      3.7214303957208301      1.7056615601738088      3.2124791821794645
     5   1      5.1065325304363114     0.38804722556398019      4.6322807809126516
     6   1      2.3945467661817332     0.33973444281919463      1.8702103238659333
     7   1       1.072411997525144        1.75953297936735     0.51438405705136603
     8   1      1.0250253533778135      4.4723576606444055      3.2379649978621217

Velocities

     1                       0                       0                       0
     2                       0                       0                       0
     3                       0                       0                       0
     4                       0                       0                       0
     5                       0                       0                       0
     6                       0                       0                       0
     7                       0                       0                       0
     8                       0                       0                       0
