(written by ASE)

8 atoms
1 atom types

0.0       5.443702220916748  xlo xhi
0.0       5.443702220916748  ylo yhi
0.0       5.443702220916748  zlo zhi

Atoms # atomic

     1   1      1.4203390831840608      4.4897550897340182      4.1716983009008572
     2   1   0.0011275854727502282      3.1411331100512712    0.035505343409786727
     3   1      2.7585720221844667      3.1815464896620256      2.7466273103885044
     4   1     0.08504903581509371     0.44008397005670119      2.8146121984378567
     5   1      2.7553850784618703     0.45376743512831652    0.092568880100468931
     6   1      4.0728112205081572      1.8142301745509144      4.1215388177882062
     7   1       4.153785289081128      4.5707307806566746      1.4743402903524583
     8   1      1.3821426444188205      1.8264282973677837      1.4196267094370683

Velocities

     1                       0                       0                       0
     2                       0                       0                       0
     3                       0                       0                       0
     4                       0                       0                       0
     5                       0                       0                       0
     6                       0                       0                       0
     7                       0                       0                       0
     8                       0                       0                       0
