(written by ASE)

8 atoms
1 atom types

0.0       5.443702220916748  xlo xhi
0.0       5.443702220916748  ylo yhi
0.0       5.443702220916748  zlo zhi

Atoms # atomic

     1   1       2.721851110458374       2.721851110458374       2.721851110458374
     2   1       4.082776665687561       4.082776665687561       4.082776665687561
     3   1       1.360925555229187       1.360925555229187       4.082776665687561
     4   1       1.360925555229187       4.082776665687561       1.360925555229187
     5   1       4.082776665687561       1.360925555229187       1.360925555229187
     6   1    0.047155053729696306      2.5784083050024122   0.0049390116728184053
     7   1      2.7183723060273195      5.3610091106168056    0.013440964352344764
     8   1      5.4005305223703601      5.4258534541445727      2.7873038351182799

Velocities

     1                       0                       0                       0
     2                       0                       0                       0
     3                       0                       0                       0
     4                       0                       0                       0
     5                       0                       0                       0
     6                       0                       0                       0
     7                       0                       0                       0
     8                       0                       0                       0
