(written by ASE)

8 atoms
1 atom types

0.0       5.443702220916748  xlo xhi
0.0       5.443702220916748  ylo yhi
0.0       5.443702220916748  zlo zhi

Atoms # atomic

     1   1       2.721851110458374       2.721851110458374       2.721851110458374
     2   1       4.082776665687561       4.082776665687561       4.082776665687561
     3   1       1.360925555229187       1.360925555229187       4.082776665687561
     4   1       1.360925555229187       4.082776665687561       1.360925555229187
     5   1       4.082776665687561       1.360925555229187       1.360925555229187
     6   1      2.9572452891656837      3.4645141260829746      5.0358892601919649
     7   1      3.4242671995499734     0.30344450828710912      2.2414599030191056
     8   1     0.24205090254083395      3.0234219062553507      1.9482579980758317

Velocities

     1                       0                       0                       0
     2                       0                       0                       0
     3                       0                       0                       0
     4                       0                       0                       0
     5                       0                       0                       0
     6                       0                       0                       0
     7                       0                       0                       0
     8                       0                       0                       0
