(written by ASE)

8 atoms
1 atom types

0.0       5.443702220916748  xlo xhi
0.0       5.443702220916748  ylo yhi
0.0       5.443702220916748  zlo zhi

Atoms # atomic

     1   1      4.5502826852180647      3.9353316857919367     0.41797316898395565
     2   1       3.209411967863673      5.2696604402736966      4.5345179888521443
     3   1       4.595550784028319      1.1784520176821118      3.1436376934960606
     4   1      1.8680405933962732      1.2326483935176995     0.40438258343184685
     5   1     0.55951113311519052      5.2564509446627596      1.8382526308170668
     6   1      1.9059576635456352      3.9014849287690367      3.1569597801751854
     7   1      3.2310599531298294      2.4995215515350679      1.8231211375334766
     8   1     0.47680670692619032      2.5799115742211853      4.4851281484303911

Velocities

     1                       0                       0                       0
     2                       0                       0                       0
     3                       0                       0                       0
     4                       0                       0                       0
     5                       0                       0                       0
     6                       0                       0                       0
     7                       0                       0                       0
     8                       0                       0                       0
