(written by ASE)

8 atoms
1 atom types

0.0       5.443702220916748  xlo xhi
0.0       5.443702220916748  ylo yhi
0.0       5.443702220916748  zlo zhi

Atoms # atomic

     1   1      1.1376769352089298      4.7567980661100364     0.15739057157074932
     2   1      5.1295990982676472       3.285579987727715      1.3675692394271124
     3   1      3.7846566076720762      1.9097395228979792    0.048224719575908459
     4   1      2.4985594981714456     0.64412494320803759      1.5220454828605767
     5   1     0.99722436357617283      1.9431156362770565      2.8007492203735183
     6   1      5.1301857399139976     0.45569198800172472      4.0920406068628665
     7   1      3.7695369575411917      4.5842167246540555      2.7848709595295986
     8   1      2.3314759753303775      3.2522432974460003      4.1755640357319521

Velocities

     1                       0                       0                       0
     2                       0                       0                       0
     3                       0                       0                       0
     4                       0                       0                       0
     5                       0                       0                       0
     6                       0                       0                       0
     7                       0                       0                       0
     8                       0                       0                       0
