(written by ASE)

8 atoms
1 atom types

0.0       5.443702220916748  xlo xhi
0.0       5.443702220916748  ylo yhi
0.0       5.443702220916748  zlo zhi

Atoms # atomic

     1   1      2.5587475358662743      1.8149662346033182      2.8464303694137527
     2   1      3.9027101272516802     0.55614354075509098      1.4116226850276803
     3   1      2.4864632589148385      4.5510581683678311    0.070240886963549798
     4   1      5.2354025798404393      1.9799064712746031    0.040385503080295537
     5   1      5.2655545976891176      4.6517969986917933       2.770016401337358
     6   1       1.115428680559063     0.52050631806030623      4.1962814412183889
     7   1      3.8979702704099282      3.3170993218915044      4.0942791249592005
     8   1       1.230612263544657      3.1190808352434374      1.5411304800932584

Velocities

     1                       0                       0                       0
     2                       0                       0                       0
     3                       0                       0                       0
     4                       0                       0                       0
     5                       0                       0                       0
     6                       0                       0                       0
     7                       0                       0                       0
     8                       0                       0                       0
