(written by ASE)

8 atoms
1 atom types

0.0       5.443702220916748  xlo xhi
0.0       5.443702220916748  ylo yhi
0.0       5.443702220916748  zlo zhi

Atoms # atomic

     1   1      3.4335090767695533     0.38745360781398119      3.5017908548113894
     2   1      4.8545066716910412      4.5533829954674445      4.9560501874591125
     3   1      3.5277578594108263      3.0227995729159147     0.72566509014509251
     4   1      2.1564396943299897      4.3308793584228624      2.0391361870100866
     5   1     0.69963489502539744     0.45739168320869439     0.88340014739222994
     6   1     0.78673682171372405      3.2255274162316425       3.635220031302282
     7   1      2.1150566363120902      1.6009826914031464      4.7726912525710645
     8   1      4.8112609939989852      1.8164855650839797       2.267123852697253

Velocities

     1                       0                       0                       0
     2                       0                       0                       0
     3                       0                       0                       0
     4                       0                       0                       0
     5                       0                       0                       0
     6                       0                       0                       0
     7                       0                       0                       0
     8                       0                       0                       0
