(written by ASE)

8 atoms
1 atom types

0.0       5.443702220916748  xlo xhi
0.0       5.443702220916748  ylo yhi
0.0       5.443702220916748  zlo zhi

Atoms # atomic

     1   1     0.50660180784401376      2.7188166676062338      3.1139211143030252
     2   1     0.36400412489807721      5.3930342934125974     0.43085413878353762
     3   1      1.8648247718492712      4.1438143279127928      1.7499200707746496
     4   1      4.4850441107166716      4.0599323597631667      4.4259415871965473
     5   1      4.5553401981282775      1.4804348091817729      1.7316636075264569
     6   1      3.1140771843427899      2.6908162099107358     0.33124462607579375
     7   1      1.7225231271622334      1.2536538471908329      4.4904234978045281
     8   1      3.1931595931822301    0.092626280860286236      3.0666714775866524

Velocities

     1                       0                       0                       0
     2                       0                       0                       0
     3                       0                       0                       0
     4                       0                       0                       0
     5                       0                       0                       0
     6                       0                       0                       0
     7                       0                       0                       0
     8                       0                       0                       0
