(written by ASE)

8 atoms
1 atom types

0.0       5.443702220916748  xlo xhi
0.0       5.443702220916748  ylo yhi
0.0       5.443702220916748  zlo zhi

Atoms # atomic

     1   1      1.2003560908461566      1.1341364814898185      2.7554827439129497
     2   1      5.2344768671097768      5.1928418581856874      1.3617042830783248
     3   1      1.1531294103778365      3.8739951867545983    0.012589543830141214
     4   1      5.2886954691360586      2.5287463965383665      4.1270739504458902
     5   1       3.876212289835081      3.9745649682413102      2.8604254067425074
     6   1      2.6249132832130471      5.3124836581075954      4.2375076180216809
     7   1      2.4865972649988777      2.6619429280843292      1.5465877399660286
     8   1      3.8802947705841859      1.3160518496275273     0.20011650926161906

Velocities

     1                       0                       0                       0
     2                       0                       0                       0
     3                       0                       0                       0
     4                       0                       0                       0
     5                       0                       0                       0
     6                       0                       0                       0
     7                       0                       0                       0
     8                       0                       0                       0
