(written by ASE)

216 atoms
2 atom types

0.0      16.628772735595703  xlo xhi
0.0      16.628772735595703  ylo yhi
0.0      16.628772735595703  zlo zhi

Atoms # atomic

     1   1      8.3143863677978516      8.3143863677978516      8.3143863677978516
     2   2      9.7001170987134628      6.9286556368822403      9.7001170987134628
     3   2      6.9286551413061943      9.7001180898655548      9.7001170987134628
     4   2      6.9286551413061943      6.9286556368822403      6.9286546457301483
     5   2      9.7001170987134628      9.7001180898655548      6.9286546457301483
     6   2      6.8356865618088705      4.6620226258073671      9.7145740431267313
     7   2      4.6139661210528402      15.333021765044123      1.3695779252730063
     8   2       13.12335819391069      15.130729605380111      15.546075854122591
     9   1      11.095865403822472      5.2287430733698557      13.785628181017955
    10   2      15.471563022153532       4.349813681449632      7.1295066614045481
    11   1      6.8534400780799842      9.4315684040063843      1.0689694249995227
    12   1      2.7298623129557882      13.613141947063241      8.7031201828713165
    13   1      2.5889281669083744      5.2155582726666125      11.045116434410147
    14   2      12.432523203513256      9.3585006717873966      4.3823021602958079
    15   2      1.4115761367594644      1.2344908332040632      1.5708640655636827
    16   2      12.570106016549744      14.883850468859464      9.6132049540740354
    17   1     0.56439935520414508      16.439073163259991      7.8925778074158188
    18   2       12.85671944928481      4.3172840697916399      15.318158448273152
    19   1      13.780816137611509      5.5460173004935314      16.559035274405687
    20   1      8.8205984668745714      8.7386123481321647      2.6240206500881413
    21   2      15.322739553242172      10.126666339551321      12.621552757034806
    22   2       15.49170521496626      12.354751463465846      4.2646028493760468
    23   1     0.37750207956742088      11.288194502658143      13.630119391246353
    24   2      2.1596165851902356      12.090002845879326      7.8102031570533654
    25   1      8.5734190112700617     0.25404813960176398      5.2897504669339241
    26   2      6.8917565312268607      10.021404996233514      14.994010085815717
    27   2       9.944162531403208      15.416657160867544      1.5897650881692584
    28   2      1.5671302717392734      1.6198523771786597      7.1341844037025339
    29   1       14.25179377097129      13.966910889788778      14.270420492235417
    30   1     0.53761873541452587      8.5978756891390731      11.138549368662552
    31   2      12.421283538790476      1.2721705950258695      1.7347639489457833
    32   2      12.716417906060087      10.025706596312602      9.5334350514092421
    33   1      3.1470347594276973      5.8185786744448933      5.7388147186926517
    34   1     0.52954902286984407      8.3983181180967676       5.191238869362337
    35   1      16.395353444483817      13.710032019812388      11.104612321033983
    36   1      14.282139874570703      8.8106720786736332       14.19873145257634
    37   2      7.5216475617941114      15.366566316444278      9.9499716738141615
    38   1      2.9196999032203053      14.139186999499998      3.3858295639103062
    39   1      2.8686300483182094       8.311994222223916      8.3920461076588708
    40   2      15.536331837906573      7.0670298848641551      15.422126338110957
    41   1      10.747513107279474      8.3921937893205723      11.227446790942167
    42   2      1.6140677657819822      6.8377486537361847      7.0296366898909355
    43   1       6.236052431152757      8.3208001129848981      5.2919196032871696
    44   2       10.13394833397092      4.3363077474685952       12.54687440266639
    45   2      1.4371436483355353      9.6685419665200243      9.6876345292673705
    46   1      9.0428355800850113      10.965201823539928      5.6805344801095998
    47   2      1.7666526568823144      7.4308614992032744      12.015019216666587
    48   2      15.815095346073349      7.0327191728969183      4.1071511537161882
    49   1     0.37800242553284136     0.23105539337257142      13.494194775659707
    50   2      9.9416529343063758      9.6924822541491267      1.6592195754370209
    51   2      7.0521170104885869      7.2421644772085756       1.348880315606749
    52   1      3.1378457883831743      11.220927983633374      11.327821754446632
    53   1      5.5433629951912735      2.8985261688678747         11.634432671789
    54   2      10.290561267172961      15.376828705204389      6.9979490619350599
    55   1      8.9399688602213701      2.8607850795103786      14.255394626521365
    56   1      11.665936441031818       3.187435357635934     0.49013462099310345
    57   1      16.616612290579496      2.6907958054633241      5.7465665192038387
    58   1      16.140406329934649      5.2019953474402882       14.06244506647613
    59   1      11.374554575582351     0.41683297688041421      13.564833194101311
    60   2      12.481887533453119      14.921863133890156      3.9811985193267105
    61   1      2.8561222044937722      5.4546841219479347      16.584458325564356
    62   2      6.9404686830902165      1.6084393847337992      7.4391133359448531
    63   2      15.386756084557419      7.0680958689390536      9.6944804167665097
    64   2      12.622426953179911      12.624811665113157      1.6593366552778832
    65   2      1.8660098310823514      4.5071590760476283      9.8424227514681206
    66   1      11.714662469024461      10.701450304957916      8.3209844672740019
    67   2      9.5940360726156086     0.99859583000748842       15.07448965337835
    68   2      1.8644085009837852      4.2734989349773969       15.49205013589426
    69   2      4.3142065425461169      1.5109780366976509      15.421943966126037
    70   2      4.3129765227999997      4.2391956566508497      1.6225209302922394
    71   2      12.679026693391052      6.6772940150257227      6.7828269340167253
    72   1      8.2176320828853022      5.5855826052762723     0.21648545762081994
    73   1      14.308965405939489      10.865931994617995     0.24976239795614674
    74   1      13.994325165500186      11.089868933666139      11.723915864954961
    75   1      3.1703679664004767      3.1544173557846307      14.213395547776827
    76   2      4.2411507041522327      1.1989263138405022      4.3636486779251982
    77   2       1.229462223065525      1.2705775658260734       12.81035632787939
    78   2      9.6658866700656745      1.9005576761875886      10.242557789055354
    79   2      15.135447489337821      10.057691074320019      1.1099068559595651
    80   2      4.4835508243693312      6.8947973858449814      4.5607075545436828
    81   1       8.031527419187114      2.5286180488409968       2.955112776313797
    82   2      15.492253322073111      12.986561364483123       9.753065434617838
    83   2      10.267145299000504      12.320665743023483      15.515747591260833
    84   1      5.7706183114432861      13.535588260476061      11.504538225529814
    85   2      15.424883723230778      15.906991003431131      1.1487737701995115
    86   1      8.1583998427179267     0.34527238433775409      10.725835619876307
    87   2      15.490593142319085      12.530854411404107       15.50145517809483
    88   1      13.680474873278172       13.81778908409774      2.9446157322959152
    89   1      14.040582233631767      16.065841958056808     0.25431376836240815
    90   1      11.010689757648151      5.7270824513801699      8.4447674697341881
    91   2      4.4110391284739308      4.0591727021889028      12.301212400914665
    92   1      11.762457805202757      8.3480617512741446      5.5819108823516217
    93   1      2.8748064125792325      8.0571685238060127      2.2186064886711279
    94   2      6.9048496503615979        12.6741660835321       12.60335223117022
    95   2      12.761355750757275       3.891930158376681      9.8083241460485624
    96   1     0.41608292253482659       11.67348307305997      2.7427445644829618
    97   2      7.3150661914521606      12.366592757508442      1.4048208157827275
    98   2      15.376285553857997      1.7104122093045078      10.119055282637191
    99   1      5.7782784303859671     0.56098415483029385      14.166285097694072
   100   1      2.9552431128138892      10.880674390833747      16.618706594949799
   101   2      12.502246788573984      3.9642617123793684      4.3843751548961336
   102   2      4.4158149948290202      12.232842729611548      4.1275535239530541
   103   1      5.7784171916788409      2.5224211181740657    0.034968078105475087
   104   2      1.4032425299702993      12.542998997986842      1.6883408628387997
   105   2      4.5918242788945918      4.0862353666956892       6.840662145310489
   106   1      8.6543614468596388      5.7948192720725729      5.7746047251571326
   107   1      5.6374441429118178       5.465462405371909      14.314475220418672
   108   2       12.95261242302945      6.8153213597754529       12.44711494461103
   109   2      15.479288061558236      4.0514709548583596      1.5266868062030596
   110   2      9.7582838503819858      9.5266535887960799      12.926319140334044
   111   1      14.428552861594426       2.470988501606314      14.157916800581688
   112   2      1.9046062846952054      15.283565257959708      15.193892754744184
   113   1      8.6217941714221524      11.311106965567888      11.035508206030727
   114   2      4.5023960946697343      6.6530350719990565      9.6040288680067079
   115   1       14.33206916120298      5.5900645950360968      5.6214385233548683
   116   1      14.173698915341902      2.8197422147465545      8.3840366076037753
   117   2      7.3491033454420176      7.1095433715444187       12.70090736697307
   118   2      6.9436458211209811      4.4576361617730527      15.132798139796023
   119   2       10.27977158549993      14.788595797062044       12.78761335197737
   120   2      2.1849283795265819      15.120384950996367      4.3960078114233738
   121   1      8.6303676370175708       13.87520949824102      13.505955786382856
   122   2      9.9526130941392239      1.2611783466440443      4.4476299858287121
   123   1      13.528749311041565      13.141747038672747      9.0826917880067413
   124   2      10.038447856454695      7.2934199253398901      15.256095477731151
   125   1      14.262484337435126      8.6974121379737426      8.2904936554691631
   126   2      15.676718620211204      4.2710324529965646      13.265418040946543
   127   2      7.0250734256595706      4.2916850891366494      4.2961224770523359
   128   1      6.0216701982710674      5.3506736125701764      3.2744106882212236
   129   2      13.132189359050017      12.359115506126727      6.9630431631366037
   130   1     0.27083537550372938      8.1397607320526504      16.239827805126652
   131   2      12.776756271962086      7.1069966062441381      1.2561561789941038
   132   1      2.9998142312370533      2.9296867516988527      2.7686505544984357
   133   1      11.022914627550335      14.037052741032312      5.3068775750829218
   134   1      11.423394586065569      10.882541721374992      14.073162394046449
   135   1      2.9742873568967525      8.4566147106893368      13.607677725580288
   136   2      4.3626154018693342         10.194707939512      7.0890869835185413
   137   1      8.6359835047705928      5.6157894520067657      11.328114144313759
   138   1       14.60436341966556     0.15666942887128243      6.0342266085480105
   139   1      8.6904076661398904      13.871663156056002      8.8288854895154145
   140   1      16.618181284341063      13.818816908817098     0.23469093924586559
   141   1      13.949184134624147      11.588555214908638      6.1926117216904686
   142   1      2.7417387928976495      13.770396155668777      14.220615099614633
   143   2      1.7373182717807651      7.4076383101127021      1.4946361687935052
   144   2      1.5754382324680591      12.284323169267736      12.759531039755984
   145   1      3.5859984280053254       10.98876150876572       6.037405728882959
   146   1      5.6351099797352617      13.801915783345066       6.037811110088569
   147   2      4.9146975241857263      15.579108971043297      6.7141569436297459
   148   1      16.410778744490926      14.640781320980295      5.2985578444230441
   149   1      11.391363523909831      2.6544339042417846      5.4531790574962997
   150   1      5.8036068265198537      3.0831421221239452       5.970231882578787
   151   1      5.8669181531216736      8.1303358668102419      11.382154729823469
   152   1     0.16092463064306628     0.39704561651660697      2.1047404584670062
   153   1      3.7297717292201469     0.29336516078546993      5.3004539183749557
   154   1      8.5088841074107222      2.6199980593229384      8.4938978877803493
   155   1      11.453942884691742      16.594984360780927      7.9055247316169925
   156   2      15.513602738133841      10.034657690855056      7.1152375403127053
   157   1     0.39354167705702281      5.8248739769569511      3.2202856069956738
   158   1      0.4527143861518752      10.675314615445131      8.0966178637939947
   159   1      5.9619736033486106      10.826138229278058      8.1287881828186528
   160   2       9.701505702794293      12.937490415562479      4.5973415270144642
   161   1      8.7882373510722118      11.498925331233067      16.497413366544606
   162   2      7.0840271520891065      9.5087989750115867       3.939243051274218
   163   1      8.9204183852075403      16.275252572045247      16.115617616114832
   164   1      5.7651630103291609     0.28107487484521698      7.9115871133874407
   165   2      1.7385278490149858      9.9039237387739831      15.568502652507277
   166   2      4.3489999455821362      9.7070839067678207      1.2799335459980909
   167   1      3.0627977342844588       16.15135756939867      11.145913628705785
   168   2      12.379919788536881      1.4179389615077866      12.694316205561563
   169   2      1.5704287020072911      4.3281515569038902       4.086195720612011
   170   2      10.297139543607273      6.4836481706358882      3.9374656677853181
   171   2      12.634890690736256      12.253943366497197      12.213173316346683
   172   1      11.334752881025679      13.691350785183204    0.057163705751463567
   173   2       10.21223150849778      4.4371341807509452     0.99083387018735891
   174   1      9.2332904103147939      3.6232590563862459      7.6202399382611929
   175   1      11.220742638192178      14.003359516818364      11.432505256094828
   176   1        13.6644657846889      6.1302315824790412      11.231661169637164
   177   1      8.0953932953843832      14.073018676993115      3.0423663728489032
   178   2      15.959309957757114      15.869561135830509      6.5946135942429009
   179   1      11.713133121346573     0.12185025588087228      2.2996718271201075
   180   1      11.399368068204467      8.1801818966667952       16.34212064792905
   181   2      4.0104550989890413      12.592513983044682      10.098479956360279
   182   2      15.502226294422371      1.4240119981632233      15.058715467834872
   183   2        7.02958068979774      12.485242583284389      6.7905499911172456
   184   2      15.421711045384427      1.3338864145476634      4.6728712810298703
   185   2      6.7678431922665823      1.9688366570742915      1.7560250285763175
   186   2      15.560626957984596      15.213799053359025       12.45533952467008
   187   1      14.141695605444738     0.21490754349042618      11.595733138358582
   188   1      11.183828169679373      11.295779789617882      2.2236234527725856
   189   2      12.536690314921543      1.4998018057087563      7.0025945917900572
   190   2      1.9787494169339652      15.318277386524187       10.01880322199213
   191   1       3.308596019448828      2.4030385832141405      8.6081489805721958
   192   1      13.981191409129679      2.9960270390936898      2.4806762699411138
   193   2      9.5427945006135815      12.457590431070912      10.207216278912483
   194   2      7.0256616744261464      15.439713340830622       15.45745397212454
   195   2      12.760010757368491        9.77431970007774      15.212725635643437
   196   2      3.5493815529081303      5.8817556999382532      14.357410937890108
   197   1      0.2440543065983185      3.0796386472669042     0.38765147698904912
   198   2       4.267250216613661      1.7192780647670531      9.5202507462820449
   199   1      11.573248853152563      2.5524592212609036      11.319433634292409
   200   1      5.6888561930736614      11.190330127402603      3.2686473865945231
   201   1     0.30566170337330334      3.0716792003924525      11.173712471428871
   202   2      4.0395310411826131       9.691486146296711      12.317891508318098
   203   1      5.8251371278373654       16.40477038050949      3.1653547191193638
   204   1     0.18504227254962302       5.302761320445029      8.3709068158416358
   205   2      6.8397795243726023      1.4139133972863078      12.427575372270212
   206   2      4.1390907820914435      15.039689312277687      12.493820013488175
   207   1       5.612570190012093      5.5599499254501552       9.014287426380406
   208   1      14.198956444101213      8.2537704793101057      2.8742518629837832
   209   2      7.1697152238949684      15.446616715151094      3.8162898909030218
   210   1      5.2654969752437637      13.941981432371904     0.27778424989992345
   211   1      2.7597864335520512       16.55600135785221      16.432206461566921
   212   1      12.984384794489188      4.4380073857439584      7.0484115883928098
   213   1      8.5951192951713438      8.5621089747487531      13.578769783666303
   214   1      10.996992035737321      5.7774131546096896      3.0676667689361921
   215   2      1.3013766259315105      9.7036792993319523      4.3640585193152219
   216   1      6.0610422283958769      11.561283665098472      14.498504411636304

Velocities

     1                       0                       0                       0
     2                       0                       0                       0
     3                       0                       0                       0
     4                       0                       0                       0
     5                       0                       0                       0
     6                       0                       0                       0
     7                       0                       0                       0
     8                       0                       0                       0
     9                       0                       0                       0
    10                       0                       0                       0
    11                       0                       0                       0
    12                       0                       0                       0
    13                       0                       0                       0
    14                       0                       0                       0
    15                       0                       0                       0
    16                       0                       0                       0
    17                       0                       0                       0
    18                       0                       0                       0
    19                       0                       0                       0
    20                       0                       0                       0
    21                       0                       0                       0
    22                       0                       0                       0
    23                       0                       0                       0
    24                       0                       0                       0
    25                       0                       0                       0
    26                       0                       0                       0
    27                       0                       0                       0
    28                       0                       0                       0
    29                       0                       0                       0
    30                       0                       0                       0
    31                       0                       0                       0
    32                       0                       0                       0
    33                       0                       0                       0
    34                       0                       0                       0
    35                       0                       0                       0
    36                       0                       0                       0
    37                       0                       0                       0
    38                       0                       0                       0
    39                       0                       0                       0
    40                       0                       0                       0
    41                       0                       0                       0
    42                       0                       0                       0
    43                       0                       0                       0
    44                       0                       0                       0
    45                       0                       0                       0
    46                       0                       0                       0
    47                       0                       0                       0
    48                       0                       0                       0
    49                       0                       0                       0
    50                       0                       0                       0
    51                       0                       0                       0
    52                       0                       0                       0
    53                       0                       0                       0
    54                       0                       0                       0
    55                       0                       0                       0
    56                       0                       0                       0
    57                       0                       0                       0
    58                       0                       0                       0
    59                       0                       0                       0
    60                       0                       0                       0
    61                       0                       0                       0
    62                       0                       0                       0
    63                       0                       0                       0
    64                       0                       0                       0
    65                       0                       0                       0
    66                       0                       0                       0
    67                       0                       0                       0
    68                       0                       0                       0
    69                       0                       0                       0
    70                       0                       0                       0
    71                       0                       0                       0
    72                       0                       0                       0
    73                       0                       0                       0
    74                       0                       0                       0
    75                       0                       0                       0
    76                       0                       0                       0
    77                       0                       0                       0
    78                       0                       0                       0
    79                       0                       0                       0
    80                       0                       0                       0
    81                       0                       0                       0
    82                       0                       0                       0
    83                       0                       0                       0
    84                       0                       0                       0
    85                       0                       0                       0
    86                       0                       0                       0
    87                       0                       0                       0
    88                       0                       0                       0
    89                       0                       0                       0
    90                       0                       0                       0
    91                       0                       0                       0
    92                       0                       0                       0
    93                       0                       0                       0
    94                       0                       0                       0
    95                       0                       0                       0
    96                       0                       0                       0
    97                       0                       0                       0
    98                       0                       0                       0
    99                       0                       0                       0
   100                       0                       0                       0
   101                       0                       0                       0
   102                       0                       0                       0
   103                       0                       0                       0
   104                       0                       0                       0
   105                       0                       0                       0
   106                       0                       0                       0
   107                       0                       0                       0
   108                       0                       0                       0
   109                       0                       0                       0
   110                       0                       0                       0
   111                       0                       0                       0
   112                       0                       0                       0
   113                       0                       0                       0
   114                       0                       0                       0
   115                       0                       0                       0
   116                       0                       0                       0
   117                       0                       0                       0
   118                       0                       0                       0
   119                       0                       0                       0
   120                       0                       0                       0
   121                       0                       0                       0
   122                       0                       0                       0
   123                       0                       0                       0
   124                       0                       0                       0
   125                       0                       0                       0
   126                       0                       0                       0
   127                       0                       0                       0
   128                       0                       0                       0
   129                       0                       0                       0
   130                       0                       0                       0
   131                       0                       0                       0
   132                       0                       0                       0
   133                       0                       0                       0
   134                       0                       0                       0
   135                       0                       0                       0
   136                       0                       0                       0
   137                       0                       0                       0
   138                       0                       0                       0
   139                       0                       0                       0
   140                       0                       0                       0
   141                       0                       0                       0
   142                       0                       0                       0
   143                       0                       0                       0
   144                       0                       0                       0
   145                       0                       0                       0
   146                       0                       0                       0
   147                       0                       0                       0
   148                       0                       0                       0
   149                       0                       0                       0
   150                       0                       0                       0
   151                       0                       0                       0
   152                       0                       0                       0
   153                       0                       0                       0
   154                       0                       0                       0
   155                       0                       0                       0
   156                       0                       0                       0
   157                       0                       0                       0
   158                       0                       0                       0
   159                       0                       0                       0
   160                       0                       0                       0
   161                       0                       0                       0
   162                       0                       0                       0
   163                       0                       0                       0
   164                       0                       0                       0
   165                       0                       0                       0
   166                       0                       0                       0
   167                       0                       0                       0
   168                       0                       0                       0
   169                       0                       0                       0
   170                       0                       0                       0
   171                       0                       0                       0
   172                       0                       0                       0
   173                       0                       0                       0
   174                       0                       0                       0
   175                       0                       0                       0
   176                       0                       0                       0
   177                       0                       0                       0
   178                       0                       0                       0
   179                       0                       0                       0
   180                       0                       0                       0
   181                       0                       0                       0
   182                       0                       0                       0
   183                       0                       0                       0
   184                       0                       0                       0
   185                       0                       0                       0
   186                       0                       0                       0
   187                       0                       0                       0
   188                       0                       0                       0
   189                       0                       0                       0
   190                       0                       0                       0
   191                       0                       0                       0
   192                       0                       0                       0
   193                       0                       0                       0
   194                       0                       0                       0
   195                       0                       0                       0
   196                       0                       0                       0
   197                       0                       0                       0
   198                       0                       0                       0
   199                       0                       0                       0
   200                       0                       0                       0
   201                       0                       0                       0
   202                       0                       0                       0
   203                       0                       0                       0
   204                       0                       0                       0
   205                       0                       0                       0
   206                       0                       0                       0
   207                       0                       0                       0
   208                       0                       0                       0
   209                       0                       0                       0
   210                       0                       0                       0
   211                       0                       0                       0
   212                       0                       0                       0
   213                       0                       0                       0
   214                       0                       0                       0
   215                       0                       0                       0
   216                       0                       0                       0
