(written by ASE)

64 atoms
1 atom types

0.0      10.887404441833496  xlo xhi
0.0      10.887404441833496  ylo yhi
0.0      10.887404441833496  zlo zhi

Atoms # atomic

     1   1       5.443702220916748       5.443702220916748       5.443702220916748
     2   1       4.082776665687561       4.082776665687561      6.8046277761459351
     3   1       4.082776665687561      6.8046277761459351       4.082776665687561
     4   1      6.8046277761459351      6.8046277761459351      6.8046277761459351
     5   1      6.8046277761459351       4.082776665687561       4.082776665687561
     6   1      7.5276181794816921      8.7381246633714227      9.8083939425491735
     7   1     0.64399365455972202      10.720625596263403      5.7469868669217021
     8   1      1.4349360122462116       6.762094309965903       3.550174189488132
     9   1    0.044302263343927173      1.7547900400611951      10.134200046891067
    10   1      2.0887598080215497      9.5603587395607974        3.76561865858028
    11   1      10.383690173077582       6.919520634067851      3.6913332132915286
    12   1      9.9968480288601427      10.370282426335052      8.0378224959202953
    13   1      1.2801342443483108       6.029751385162001      7.6804214559192587
    14   1      2.7523065076982789     0.11658334629441924      9.1138621484601572
    15   1      7.8875715000082778      9.1581250394051494      6.7326499610501287
    16   1      4.4993496657752701     0.92277433091180683      1.7765749516408249
    17   1      9.2079733558480825     0.94155465087351331      7.3865938107022089
    18   1      2.7905764389042815      5.3757887162535667     0.78874618291695242
    19   1      3.3823408166223317      5.2109106155752443      1.4616832048095034
    20   1      7.4080847525187892      2.2336129220592937      4.1151370259284192
    21   1      1.8661904658146966      8.9633295126427015      9.8894796287805207
    22   1      9.2217302322429759      10.441940314072838      10.349595521022707
    23   1     0.26110744781590256      1.5188827121482973      9.5465700651120642
    24   1      9.6526957453324371      1.6181168131387693     0.95259368595743155
    25   1      5.6751946486299403     0.67825638204203642      3.5286475559784662
    26   1      3.5775266807191599     0.74268832427969755      1.1507669447655147
    27   1      8.6333241183743326     0.54884316996313487      6.4575799228991855
    28   1      8.4369743806129804      5.7255134464817274      1.1091900970776578
    29   1      4.3591436101772558      0.7272986340436276      6.2190244335943135
    30   1      10.673289326073814      4.7975450008161715      5.0392043695397319
    31   1      1.7157697721255545      7.1556620670403959      4.7586653905982814
    32   1      9.8089818820752726      0.5840471036156103      8.0813144462946411
    33   1      7.4519615242385839      7.2325212078705476      2.5497240269143902
    34   1       10.66645598919763      3.6337488846072858      1.5680962031592145
    35   1      9.7260291958256175       2.999640855622431      1.4893478361200607
    36   1      1.7783738129723332       8.582275912103853      8.9216727642328237
    37   1     0.14659941123943554      9.3234217063023834      10.607395322299396
    38   1      3.5029209836024506      7.9620821274334048      6.1887416543609675
    39   1      8.9870424245888216      5.8639167471089877      4.2296989245144516
    40   1      2.2631077260502934      10.627942705538771     0.25506385048734792
    41   1      3.0564847439101186      8.4235276974779936      3.1107205428430689
    42   1      7.0375472226426723      2.0999473692191941      7.3624428643409487
    43   1      3.4286014689702995      7.3298076780633323       6.827625556350597
    44   1      7.8036291804503435      6.4478834632976714     0.13562713584508401
    45   1      10.124892302274247      1.7801840307516414       8.852036324203425
    46   1      3.0349623285096357     0.76499628139799825     0.80450292976941284
    47   1     0.75458615016974306      7.2860295452044284      6.0470625052483342
    48   1      8.0424734479992708     0.24619582347346736      2.8820980517238866
    49   1      6.0776794885169352      2.4535074963393271      2.8283840004498586
    50   1      2.1497223554563334       5.357176147249362      7.2363207508344658
    51   1      7.3062725756427653      5.4356131853838292      4.5951948405072756
    52   1      9.8920040048914757      6.9889526580368511      8.7526998529477851
    53   1      8.4277672216766746      10.665155513689569     0.70914145859619993
    54   1     0.19476466155967742      6.8240142059502205      2.3464945530758428
    55   1      9.6803516159546916      10.482378353398815      8.8012197894680639
    56   1      3.2331553799838844      8.5948841649212682      2.1008636723216796
    57   1      3.0042431372108354      9.0936625969933971      4.4350874213147335
    58   1      1.1677549739119399      9.3306242899670337      6.7353514977467626
    59   1      3.7482037081140618   0.0096605397655040726     0.36999096026700329
    60   1      1.4212987030231545     0.19206077245599928      4.9783399742609333
    61   1     0.97183418540748789      5.9081322654431574     0.94650046500786544
    62   1      3.1189088661767528      9.4824846567672694      7.4402533510267972
    63   1     0.45604083374289317      5.9496455981408189      4.0681949867124558
    64   1      7.7331556079831216      4.0246890841308129       10.18819379125091

Velocities

     1                       0                       0                       0
     2                       0                       0                       0
     3                       0                       0                       0
     4                       0                       0                       0
     5                       0                       0                       0
     6                       0                       0                       0
     7                       0                       0                       0
     8                       0                       0                       0
     9                       0                       0                       0
    10                       0                       0                       0
    11                       0                       0                       0
    12                       0                       0                       0
    13                       0                       0                       0
    14                       0                       0                       0
    15                       0                       0                       0
    16                       0                       0                       0
    17                       0                       0                       0
    18                       0                       0                       0
    19                       0                       0                       0
    20                       0                       0                       0
    21                       0                       0                       0
    22                       0                       0                       0
    23                       0                       0                       0
    24                       0                       0                       0
    25                       0                       0                       0
    26                       0                       0                       0
    27                       0                       0                       0
    28                       0                       0                       0
    29                       0                       0                       0
    30                       0                       0                       0
    31                       0                       0                       0
    32                       0                       0                       0
    33                       0                       0                       0
    34                       0                       0                       0
    35                       0                       0                       0
    36                       0                       0                       0
    37                       0                       0                       0
    38                       0                       0                       0
    39                       0                       0                       0
    40                       0                       0                       0
    41                       0                       0                       0
    42                       0                       0                       0
    43                       0                       0                       0
    44                       0                       0                       0
    45                       0                       0                       0
    46                       0                       0                       0
    47                       0                       0                       0
    48                       0                       0                       0
    49                       0                       0                       0
    50                       0                       0                       0
    51                       0                       0                       0
    52                       0                       0                       0
    53                       0                       0                       0
    54                       0                       0                       0
    55                       0                       0                       0
    56                       0                       0                       0
    57                       0                       0                       0
    58                       0                       0                       0
    59                       0                       0                       0
    60                       0                       0                       0
    61                       0                       0                       0
    62                       0                       0                       0
    63                       0                       0                       0
    64                       0                       0                       0
