(written by ASE)

64 atoms
1 atom types

0.0      10.887404441833496  xlo xhi
0.0      10.887404441833496  ylo yhi
0.0      10.887404441833496  zlo zhi

Atoms # atomic

     1   1       5.443702220916748       5.443702220916748       5.443702220916748
     2   1       4.082776665687561       4.082776665687561      6.8046277761459351
     3   1       4.082776665687561      6.8046277761459351       4.082776665687561
     4   1      6.8046277761459351      6.8046277761459351      6.8046277761459351
     5   1      6.8046277761459351       4.082776665687561       4.082776665687561
     6   1      3.8422406118863819      7.1298595686990893       6.293215782601294
     7   1      9.2760464997203371      2.1787364572354591      3.0971628909895799
     8   1      4.4218519681088253      3.3531476074379043      1.3835539264104142
     9   1      2.0488560084470748     0.45720150326678777      7.2250006436674994
    10   1      4.4089448784793035      1.5674350956622902       2.830987547225476
    11   1      9.0431744258344224      6.3646218816678584      3.5753167159772943
    12   1      7.9467645506408644      1.0210351843258252      6.4333154120599261
    13   1      6.3619521430250643      3.4919727189834475      7.4979168503757023
    14   1       5.137879571063479      5.4117344692998302      2.8104635258215751
    15   1      1.5592037800619352      5.8619822573437546      9.8169080336997467
    16   1      4.3920653034093675      1.7348670992158475      2.4134242648896134
    17   1      1.9661387251368154      8.6394702279236526     0.78740287737718972
    18   1      9.0636965004187005      2.9500748280248104      10.376948336723672
    19   1     0.16044908603635122      7.5950125322454483      6.8071677268138728
    20   1      9.1869645763580934      6.0365412430666083      3.9833026191785734
    21   1       0.381660440438786      3.6203774784977156      5.2094797031524536
    22   1      1.7273403700839935      8.0706614493184361      9.1683438956054601
    23   1      8.4352787007214829      8.2665069607974715      6.0685372235680575
    24   1      6.4435959175482935      5.2070296306571038      4.4846187306290801
    25   1      6.0693042704994582      6.4195332270099357       0.750112520911415
    26   1      2.5092833918289159      10.176235127247651      3.3546589884051059
    27   1      3.2489865926869186     0.14900697817301989      4.1787263197393258
    28   1      7.4840574414806724      7.1098605396534822      1.5727442350087557
    29   1      7.7249095290006267      1.8604033822508228        9.34746298182489
    30   1      1.4459730193930227      1.6673419850674236      1.2717389091947311
    31   1      7.2381643890172995      6.9745818845208873      6.2614592609134547
    32   1     0.56755827146747606      7.2653932572022768      7.2385680296191026
    33   1      9.0917553627028838      5.6338896256319231      1.9328153381225235
    34   1      6.7843957776854609      5.1209922087150517      5.0345803484655391
    35   1      6.8774076809263534       4.768641867755548      7.5141552728498482
    36   1      5.4421927867691693      10.669479400071907      2.3583824826328055
    37   1       5.086069509380593      1.4772601953167879      1.8568540056084402
    38   1       10.25069448842271      1.3774741709632394      3.2072114127499844
    39   1      4.7238228353382965     0.03569639282972803      9.3065531632103102
    40   1      8.7768981719198678      6.0656539837066248      8.6735519011810425
    41   1      1.8105222943442385     0.11621982842828071      1.1131343536335407
    42   1      8.4079167998622779      10.348159417080922       6.394428987973356
    43   1      6.1783612121319607      8.5257895896868945      10.177370123087769
    44   1      6.5152499116468334       8.699709369633581      5.2581122307409203
    45   1       9.920830563046934      2.1128520253241874      2.8872616663035444
    46   1      7.0263815631657849      10.383151552981928      6.2851351832867408
    47   1       5.081933815561797      2.3054163345638869     0.81816368194542832
    48   1      6.1382158446892845      9.4929260993444586     0.62169076728418915
    49   1      6.9859084810865966      5.8981171763633711      8.0010976905549569
    50   1      7.0922366305477453      1.1996575070714925      9.1826562645327385
    51   1      3.3061805840367811      7.9435574897821652      6.8236592358389885
    52   1      7.0288371516500661       2.111596975607327      7.9855283250911953
    53   1      9.6038740517706174     0.51621220179470129      9.3743595927942351
    54   1      1.7202056006362056      4.1054045501638825     0.73773585851163404
    55   1      9.4334157171133484      4.4953966485310843      1.8661265452370799
    56   1      7.8000736388791552      5.8742945935784974      1.7831485503323279
    57   1      8.0602368791779782       10.51956195925527      5.7368634048829108
    58   1      6.4395952032233481      5.1570268665240917      6.4372259237423464
    59   1      7.0104007698217288      6.0685274894699432      9.4299458356055652
    60   1      8.7490138744618662      7.7015171933524016      5.7750600058831196
    61   1      10.454627737554915      7.4868790320540484      8.5668045365611079
    62   1      8.8220851532458369      8.1389162963554895      3.0541715977282422
    63   1      4.9513823629434057      6.5366370230835287      9.3652290087630945
    64   1        6.90011214030784      7.0223977212775708      9.0197970158033058

Velocities

     1                       0                       0                       0
     2                       0                       0                       0
     3                       0                       0                       0
     4                       0                       0                       0
     5                       0                       0                       0
     6                       0                       0                       0
     7                       0                       0                       0
     8                       0                       0                       0
     9                       0                       0                       0
    10                       0                       0                       0
    11                       0                       0                       0
    12                       0                       0                       0
    13                       0                       0                       0
    14                       0                       0                       0
    15                       0                       0                       0
    16                       0                       0                       0
    17                       0                       0                       0
    18                       0                       0                       0
    19                       0                       0                       0
    20                       0                       0                       0
    21                       0                       0                       0
    22                       0                       0                       0
    23                       0                       0                       0
    24                       0                       0                       0
    25                       0                       0                       0
    26                       0                       0                       0
    27                       0                       0                       0
    28                       0                       0                       0
    29                       0                       0                       0
    30                       0                       0                       0
    31                       0                       0                       0
    32                       0                       0                       0
    33                       0                       0                       0
    34                       0                       0                       0
    35                       0                       0                       0
    36                       0                       0                       0
    37                       0                       0                       0
    38                       0                       0                       0
    39                       0                       0                       0
    40                       0                       0                       0
    41                       0                       0                       0
    42                       0                       0                       0
    43                       0                       0                       0
    44                       0                       0                       0
    45                       0                       0                       0
    46                       0                       0                       0
    47                       0                       0                       0
    48                       0                       0                       0
    49                       0                       0                       0
    50                       0                       0                       0
    51                       0                       0                       0
    52                       0                       0                       0
    53                       0                       0                       0
    54                       0                       0                       0
    55                       0                       0                       0
    56                       0                       0                       0
    57                       0                       0                       0
    58                       0                       0                       0
    59                       0                       0                       0
    60                       0                       0                       0
    61                       0                       0                       0
    62                       0                       0                       0
    63                       0                       0                       0
    64                       0                       0                       0
