(written by ASE)

64 atoms
1 atom types

0.0      10.887404441833496  xlo xhi
0.0      10.887404441833496  ylo yhi
0.0      10.887404441833496  zlo zhi

Atoms # atomic

     1   1       5.443702220916748       5.443702220916748       5.443702220916748
     2   1       4.082776665687561       4.082776665687561      6.8046277761459351
     3   1       4.082776665687561      6.8046277761459351       4.082776665687561
     4   1      6.8046277761459351      6.8046277761459351      6.8046277761459351
     5   1      6.8046277761459351       4.082776665687561       4.082776665687561
     6   1      3.7236367912933872      1.9788198214551187      10.435793555583643
     7   1       8.914012677956805      4.2768499223699337       3.001459834090042
     8   1      10.090932629713222      3.3038369376808134      2.2697423250899789
     9   1      1.6258213517961764      6.5320924971439354      3.4136774742115108
    10   1      10.704187949247853      7.9239705375567269      4.6331987063648228
    11   1      6.6799988732901738      7.1455911691314213      3.7241024056531842
    12   1      3.2567735467083594      2.3391626681412419      8.2000964008831261
    13   1       6.697757112949887      2.0309897202982938       2.331843599769158
    14   1     0.13575303018069462      5.6136096056207521      9.0935016599045753
    15   1      3.1369078625298243      7.1408772698846406      7.9289634809494487
    16   1      3.5599777241689026      10.157874671384604       4.744004865428451
    17   1      7.6063469160896489      1.4731465654537175      3.5103578345617166
    18   1       10.15368316873662      9.6739628028923903      2.8610165909679779
    19   1      5.6880339240425997      3.7604959272127019     0.12716593329426473
    20   1      6.5302800080750671      2.4579013059931185      3.9687212646734054
    21   1      10.664509818514659      10.551723419424661      3.4080141759286562
    22   1      0.4865816071350082      6.1028732812561657      5.4144194580296698
    23   1      5.0673394822591433      8.2895151240401219      6.6159167096447504
    24   1        1.90917770320182      9.2271307098767466       5.460736243676763
    25   1      7.0271667804136655      2.2355138291860328      5.9026772768599471
    26   1      7.0910620493752958      1.9535304723194002      8.3853706818101159
    27   1      9.7926182142053904      8.9436848047684521      1.4071261806387838
    28   1      7.2723959673856484      4.3141461192945769     0.19830304678293942
    29   1      0.7415884523102747       3.365738663348651      8.6908850852231012
    30   1      5.4852415112093809      2.6700528919281936      4.4860580792702365
    31   1      8.7285372256687879      9.0811659618343583      1.9680503397714801
    32   1      6.2448580810495855      9.3482936248639703       1.534987128538404
    33   1      1.1437811881363587      2.7349674831973516      10.460974369525388
    34   1       7.441232601297088      9.7241751746047953      2.0050399126055254
    35   1      2.4409801987712285       7.583485413258586      7.4332876304162596
    36   1      3.3992791207508901      3.0667087916294236      9.4911467062091788
    37   1      3.8283993733078319      5.1069608307533372      3.7057390295607036
    38   1      1.3873794269693036      4.1300902229815506      8.3223346092420343
    39   1      6.8914572292045477      9.7318553780169168      2.1235827328503376
    40   1     0.56165746119063442      6.7520532632911454      7.7383808718508362
    41   1      9.1371396217506344      10.277445736860216      8.0218306705983764
    42   1      1.3616160272554225      7.4452897733910959      9.0732527890073698
    43   1      8.0932594825605406      3.2751748857834855      9.0301638302949527
    44   1     0.59705384607457646      7.6447686992262334      3.7412594025193755
    45   1     0.56610537620644408      6.6185896929869159     0.22029154296875397
    46   1      1.7569261878923612      1.1188502160462122      10.686732764509429
    47   1     0.52686771341291916      5.8851111234030213      5.4137364488119886
    48   1      9.2983265524240437      7.4806505071406946      8.7554513580147386
    49   1      2.8777533992655719      5.1786404579769112      1.0817490255537905
    50   1       4.330177529948827      4.7028503964812671      2.3314109191079808
    51   1      5.4534103614359992      5.3046788582396118      4.7628166589740601
    52   1     0.46446054470050058       7.929568292912279      1.0507507901090491
    53   1      5.3719920935190828      0.5583760561575879     0.25620075258834696
    54   1      9.7948265565975703      9.7844013375172381      6.3448778859928439
    55   1      6.7559462535969601       3.064969308296412      4.4283160581965433
    56   1      1.5307357611870174      3.1547095811611143      3.4608790893771868
    57   1      3.6744954948434838      8.1911520625959042      7.2129070001703894
    58   1       1.207692680594846      7.1767896025273785      5.0047683751109844
    59   1      6.0036659490355078      2.7712792383327098      3.5957820083225727
    60   1      3.2123020215937856      8.6762962679093789      4.0234992528713178
    61   1      9.3710259886600511     0.72110069042184932      5.5655828634049271
    62   1      0.4665768998655011     0.11709356513088753      1.2489661488914763
    63   1     0.45637605174670171      1.1723755880517928      1.3281588775095443
    64   1      7.1440960116610768      8.0153912402258811      10.454380491462814

Velocities

     1                       0                       0                       0
     2                       0                       0                       0
     3                       0                       0                       0
     4                       0                       0                       0
     5                       0                       0                       0
     6                       0                       0                       0
     7                       0                       0                       0
     8                       0                       0                       0
     9                       0                       0                       0
    10                       0                       0                       0
    11                       0                       0                       0
    12                       0                       0                       0
    13                       0                       0                       0
    14                       0                       0                       0
    15                       0                       0                       0
    16                       0                       0                       0
    17                       0                       0                       0
    18                       0                       0                       0
    19                       0                       0                       0
    20                       0                       0                       0
    21                       0                       0                       0
    22                       0                       0                       0
    23                       0                       0                       0
    24                       0                       0                       0
    25                       0                       0                       0
    26                       0                       0                       0
    27                       0                       0                       0
    28                       0                       0                       0
    29                       0                       0                       0
    30                       0                       0                       0
    31                       0                       0                       0
    32                       0                       0                       0
    33                       0                       0                       0
    34                       0                       0                       0
    35                       0                       0                       0
    36                       0                       0                       0
    37                       0                       0                       0
    38                       0                       0                       0
    39                       0                       0                       0
    40                       0                       0                       0
    41                       0                       0                       0
    42                       0                       0                       0
    43                       0                       0                       0
    44                       0                       0                       0
    45                       0                       0                       0
    46                       0                       0                       0
    47                       0                       0                       0
    48                       0                       0                       0
    49                       0                       0                       0
    50                       0                       0                       0
    51                       0                       0                       0
    52                       0                       0                       0
    53                       0                       0                       0
    54                       0                       0                       0
    55                       0                       0                       0
    56                       0                       0                       0
    57                       0                       0                       0
    58                       0                       0                       0
    59                       0                       0                       0
    60                       0                       0                       0
    61                       0                       0                       0
    62                       0                       0                       0
    63                       0                       0                       0
    64                       0                       0                       0
