(written by ASE)

8 atoms
2 atom types

0.0      5.5429244041442871  xlo xhi
0.0      5.5429244041442871  ylo yhi
0.0      5.5429244041442871  zlo zhi

Atoms # atomic

     1   2      2.7714622020721436      2.7714622020721436      2.7714622020721436
     2   1      1.3857311010360718      4.1571933031082153      1.3857311010360718
     3   1      1.3857311010360718      1.3857311010360718      4.1571933031082153
     4   1      4.1571933031082153      4.1571933031082153      4.1571933031082153
     5   1      4.1571933031082153      1.3857311010360718      1.3857311010360718
     6   2      5.5048744046270315      2.8830586623777776     0.23022419505123182
     7   2   0.0037526129161380428      5.4575898408042178      2.9479526955392998
     8   1      2.7339166989841601     0.34282952432139524      5.4784737463646138

Velocities

     1                       0                       0                       0
     2                       0                       0                       0
     3                       0                       0                       0
     4                       0                       0                       0
     5                       0                       0                       0
     6                       0                       0                       0
     7                       0                       0                       0
     8                       0                       0                       0
