(written by ASE)

216 atoms
1 atom types

0.0      16.331106185913086  xlo xhi
0.0      16.331106185913086  ylo yhi
0.0      16.331106185913086  zlo zhi

Atoms # atomic

     1   1       15.98278609621309      8.3235423677864446      7.3613949359752269
     2   1        6.52212540141619      15.168139448819943     0.57267279324818787
     3   1      6.5525829068213852      4.2538815447243223      11.442183779676611
     4   1      7.8717152355159783      2.9819661610212904      10.035639739173462
     5   1      6.4550044165342797       4.263261808098207      5.9983710734602482
     6   1      9.1869325100633432      12.435665272402616     0.53554791753433051
     7   1      3.7676475402065819      15.137563674126113      3.3562042596034587
     8   1       10.59719010888864      5.6592375385873197      15.579248363162606
     9   1      9.2690503327670513      1.5813151433444261        11.4512832143281
    10   1      11.949457793301463       6.971441136446515      8.7480152250399215
    11   1      5.1425151229037738      11.104697740861411      4.6868255006143613
    12   1       13.22820870385317     0.14696314281776957      7.3548565424628123
    13   1      16.017850263416335       5.619723915265979      4.6601190298079587
    14   1      3.7487884557182838      1.5364130884930631      0.5065534470329851
    15   1      5.1372543297315474      2.8929368855058328      12.808667140560374
    16   1      9.1691765422116305      12.432121087382711       5.992480970863312
    17   1      2.3981378483074707      5.6526918445015326      1.9665397531186528
    18   1      14.663815840247366      4.2750274121453344      8.7346863248812951
    19   1      15.966310162226023       11.13551978823034      15.537485189832751
    20   1      1.0035803758721897      4.2649574879401939      0.5683923454036659
    21   1      10.538659952046601      13.833072888682523      1.8518926439628558
    22   1      2.4373224591221572      13.766683421252537       10.08465773561602
    23   1      3.7787507388963775      15.140134449363018      8.7867666685011727
    24   1      5.1071920286982504      5.6310295831906387       10.14895631883212
    25   1      7.8050717081326297      11.061844348574596      12.851497171012397
    26   1      1.0519657776320201      1.5682209566197258      3.2807044066619255
    27   1      6.4592012728136865      9.7395528184292743     0.56112097432465191
    28   1      9.2135669485458038       15.18824230765847      14.181804730720728
    29   1      6.5148107136018325      9.7110533268025847      11.435747594191412
    30   1      5.1394011850079551     0.14540650847947312      15.492539939922267
    31   1      10.560546097607585      8.3556463958395852      7.3564402801797542
    32   1      1.0583726391475068      4.2877824872368819      5.9955681399900982
    33   1      6.4611612334117581       4.280594829399206      0.5408579895768213
    34   1      6.4611734010340456      12.458968702607649      14.186083840126798
    35   1       16.03324181890514     0.20827025525637488      4.6146929154646728
    36   1      6.5154575444026364      15.149611567010311       11.41258725522448
    37   1      2.3922263306953084      13.751196471604999      15.538854777397432
    38   1      11.972696005051034      4.2881241540707151     0.56185364770069413
    39   1      11.965454809675293      9.6475334714128849      11.480081542758171
    40   1       14.59984626953792      6.9731494706156809     0.60791783215673689
    41   1      16.017307100757421      11.135254047359581      4.6462343126632391
    42   1      5.1209867054380425      11.047634512562354      15.482187726880056
    43   1      9.1680834030253209      15.188465218498777      8.7523361910666608
    44   1      11.922945031041877      9.6555417136976303      6.0415125950428319
    45   1      3.7747028143137697      12.436682485625852     0.51260245877699617
    46   1      6.4838387611263215      6.9411768528832454      3.2999273030566201
    47   1      14.630703359659037       7.006987628197237      5.9747931416964093
    48   1        11.9323345418087      15.124916160815587      11.435649279803329
    49   1      10.611375609656307      5.6431976921830369      10.141881576529272
    50   1      3.7617372393566484      15.119102957591508      14.199842987409511
    51   1      11.921367133783633      12.470051946396893      8.7167415155316803
    52   1       2.365960814520605     0.11988429714078563      12.854403772624437
    53   1      1.0413298156380648      9.8168055390375457     0.53429994535441239
    54   1      2.4096111860672522     0.16648714223549632      7.4293759284004182
    55   1       1.000206415888087      6.9604114301953359      3.2686054097641204
    56   1      6.4909509797058149      12.453454336186951      8.7104055912541298
    57   1       10.51328413241356      8.3248691253206744      1.9069922613771553
    58   1      9.1892628530838465      4.2727647211047497      3.3280892648410543
    59   1      14.568390532400258      15.110137853490073       14.17763659002992
    60   1      2.4084024544692113     0.13005960816446382      1.9251360113511709
    61   1      13.266356633248961      2.8996410020338033      4.6937595852035656
    62   1      7.8336145164946629      13.727345011692137      15.524097885087144
    63   1       9.193750272183479      4.3039902468287323      14.232352927342163
    64   1      13.294284733333029      11.050662790397269       1.928911746223207
    65   1      9.2415943364277382      1.6023613579389036      5.9941260333965829
    66   1      10.579703775546818      11.078456559931283      4.6650435099001584
    67   1      1.0420064571134731      15.102826572609956     0.52545822094297279
    68   1       13.27207249549474      2.9486884441222969      10.074820456349016
    69   1       14.64597421233475      1.5284589921274971      6.0316149643692825
    70   1      14.592382163321872      12.409417277604007      11.374085004667677
    71   1      14.580487095773606      15.161327527158505       8.758093909933109
    72   1      9.1874600981657295      1.5547634446935206     0.61478505566147135
    73   1      3.7559152754445222      9.7378600588166364       3.270225406995479
    74   1      3.7162098903959304      6.9644126311083596      5.9862248661879676
    75   1      9.1425528112367829      9.7184210654501157      3.3193188426962195
    76   1      2.3907068380240446      8.3138530468064573      15.481978443776711
    77   1       13.23944964002726       13.76518242336715      10.107084123606569
    78   1      15.931938089378491      5.6275569437897843      15.560137408892956
    79   1      5.1193732787227191      5.6035580122947977      15.540564084976381
    80   1      13.323535697312195      8.3131015744539809      10.078619674732067
    81   1      9.2061875289808768      6.9489860328673672      6.0040708744446079
    82   1      13.321919837072414      11.018730082465936      7.3163002676630526
    83   1       5.147456637667176      8.3545425491456626      12.826127191838054
    84   1      5.1840578189177791     0.22486459541782722      10.066670096235953
    85   1      3.7688548116899483      9.6796345792366765      14.158096362045967
    86   1      15.944953551586991      13.766229812293659      12.768810876995417
    87   1      1.0263023154081026      12.461087815705241      8.7181237574235411
    88   1      10.605871950743222     0.19563735830212181      10.123852080528536
    89   1      7.7953580519080674      8.3131093617322449      15.521597195354616
    90   1      13.294804534157151      5.6068014136917554      7.3679162948164389
    91   1      16.012135374580339      8.3809316883628071      1.8435302021933211
    92   1      2.3534768340536232      2.9142080794364063      15.519680551491888
    93   1       6.444692113293172      1.5292315144665309      3.2956905369761103
    94   1      14.708379513522914      4.2183155847779403      14.169856125634396
    95   1      11.932317993842389      1.5713398832406824      3.2724219061708197
    96   1       14.67830212463798      12.485852333994558       5.999784464465165
    97   1      16.021845137165769        13.8411823655847      7.4130382186025372
    98   1      13.235025492563523      8.3847727633665272      15.568896150120395
    99   1      10.553797447582042       8.280381378008201      12.807890359553539
   100   1      1.0324216560089354      15.121491705198991      11.418059765024509
   101   1      7.8234122085590343      5.6127426203022992       7.380791586016187
   102   1       2.360459102427086      5.6092539196400253      12.845877676335135
   103   1      9.0849551809668583       9.695200375076638      8.7415965609308159
   104   1      5.0735514733026434      2.9091130092797357      1.9038100631203037
   105   1      14.650668967718161      6.9715929883726631      11.421001409388737
   106   1      11.946724458630797       12.42009460951374      3.2551925530117103
   107   1      5.1616893488093183     0.15605574839124969      4.6226670884070131
   108   1      7.8195662665063992      11.098063953190263      7.3404354765276594
   109   1       15.98722095118444      2.9361397319047455      7.3901153916226576
   110   1      1.0195808600183724       9.751782738942893      11.417916673786408
   111   1      14.599655481220452       9.733426177255069      14.211575495524016
   112   1      9.1316992921563269      15.186527159620823       3.263703074744484
   113   1      2.4138501423197738      2.9121356900083981      4.6470286150461675
   114   1      10.571818182894731     0.17194711938456919      15.523191640579171
   115   1      5.1169747970174058       13.76270704228898      1.8750273092467609
   116   1      16.021876286278825      5.6064821352829313      10.119323778218018
   117   1      11.873014949632648      15.191842950445789      5.9904222091722659
   118   1      5.1169227195940152       8.337067896721237      1.9778830189961809
   119   1      7.8717210759746763      11.073486329579282      1.8873937504824454
   120   1      7.8336544262957659      0.2174320641816152      7.3401351796096037
   121   1      1.0215283488035993      12.457036484188393      14.195588213248016
   122   1      6.4469168413522198      12.366765381142272      3.2204267359069547
   123   1      3.7133278673809116       12.45785317499633      6.0112458779551048
   124   1       7.821917537837237      2.9357491512293166      4.6748958770187983
   125   1      14.585761029977903       1.520840113755952     0.58979574055039308
   126   1      7.8452088004199823      0.1725350284744458      12.814833691535682
   127   1      14.656339079704139      9.6968532248881729      8.7350815292531934
   128   1      5.1576657594712856      13.802319953408187      12.776576740244195
   129   1      10.586985854133445      2.9546442518795857      1.9315343555310562
   130   1      10.534327305102465      13.793371397273063      7.3393004807206808
   131   1       11.97145198734836      4.2820963139894843      11.468889277073231
   132   1      7.7775548736818791      2.8931707472061987      15.565366566247235
   133   1      3.6867788456069093      7.0086979091859689      11.486833113013063
   134   1      3.7454338422536182       1.526637864099726      6.0374671039846817
   135   1      13.333602701287987      5.5648338243074704      1.9639695862628628
   136   1      13.269168814112049     0.16420495258019585      1.9366735941566304
   137   1      1.0581632343679388      9.7085088336298213      6.0389388995765785
   138   1      7.8425908148086023       8.360737329004678      4.6547964251145117
   139   1      14.559007835501916      1.5400409867543061      11.450969776377974
   140   1      6.4820642350919115      6.9729153655628693       14.13843153760979
   141   1      2.4370214321467643      11.136253739206722      7.3637603217479182
   142   1      2.3729413794269476      2.9177118679503167      10.095287370446385
   143   1      2.3607092687413171      13.809473541903458      4.6353257959300436
   144   1      7.8070321554355928      8.3793557379241292      10.111548180871409
   145   1      10.522336843395465      13.779219965847801      12.782701434598835
   146   1      1.0431033682626918      1.5526128174542038      8.7712943200003792
   147   1      13.278913619449668      8.3172190978360732      4.6901321736472141
   148   1      1.0518091803331799      6.9540326758873334      14.176286470660898
   149   1      11.948833837630559      1.5391016463137106      8.7393314363657737
   150   1      11.928024283289574      4.2506147814925725      6.0142464136112039
   151   1      5.1425379980336743      11.119055535160669      10.079383801411723
   152   1      3.8048972557251091      4.2824856779026845      3.2944689076984446
   153   1      11.916968294974254      15.141203253304752     0.54938597184757754
   154   1      9.1632932534831752      12.367361107929469      11.478284628298752
   155   1      7.8578319784859332      13.792066054754059      10.087998477991277
   156   1      15.993072117390057      2.8810204029423403      12.819368807714682
   157   1      13.309609123546807      2.9085535420069561      15.525456765144213
   158   1      9.1997532903152432      6.9435135230673382      11.442504031495218
   159   1      14.648739669528254      4.1888110475503026      3.3423280597943403
   160   1      15.999622191819867     0.20740385971139297      10.087144797611586
   161   1      11.922337623337285      9.7286155861074803     0.59517997425072622
   162   1      15.978613088473367      13.793636164734039      1.8808771370139254
   163   1      6.4780245844924593      15.133333235209193      5.9456716412183823
   164   1      1.0209855511733537      6.9669722121327595      8.7338696340733577
   165   1      14.641153887089331      9.7302820636559773      3.3102391195928362
   166   1      10.568332402461806      11.002049732424439      10.186040311335091
   167   1      13.286156761644975        13.7754694179539      15.572136631288004
   168   1      16.016099099216717      8.3785127650520508       12.83886231202905
   169   1      9.2039000159908255        9.71527889867059      14.182046136346912
   170   1       3.732352188179874      12.429795611411123      11.457196678759829
   171   1      10.581553254134519      2.9042581279870205      7.3748985631899018
   172   1      6.4705468505394492       1.557229943407421      14.168177967168504
   173   1      1.0047530304701482      1.5061939468084802       14.16898784410796
   174   1      7.8677116010784971     0.18936981606182712       1.931791700742437
   175   1      12.002931086320814      6.9521364736300484      14.182191174404579
   176   1      14.604716238682272      12.478257790867588     0.58491427300297971
   177   1      6.5409647743563823      6.9170022209224271      8.7183826844258192
   178   1      2.3948876330420319       11.12014575411763      1.9086767470066377
   179   1      6.5071636063465803      1.5993162887852321      8.7086446929566819
   180   1      6.4867516899019506      9.6822150885714109      5.9756166463728277
   181   1      10.615486319169918       5.574943658313714      4.6416505259950895
   182   1      5.1370581876602728      8.3392444409960262      7.3929338996493357
   183   1      3.7752613081767663      6.9990884078081876     0.53517351979654393
   184   1      5.1287579224406272      13.805765824040009      7.3398966942127686
   185   1      10.572596910721131      11.022650977071862      15.511254716410235
   186   1      9.1407782852023729      7.0240826508062923     0.57121395617402726
   187   1      5.1180187790096738      2.9128547964855898      7.3565541691243652
   188   1      3.8214250237831209      9.7142655790864865      8.7482488433878416
   189   1      13.327869317666114      11.066093282277393      12.766558406757554
   190   1      15.988486383902341     0.16095435707656058      15.542732841972906
   191   1       13.32791993497483      5.6201565959145228      12.773752878463711
   192   1       13.31263058751324      13.871468064163196      4.6703451862832708
   193   1      11.940086777320516       6.961470986744132      3.2324098970405828
   194   1      9.2137188004719519      4.3003380133229143      8.7157106745714827
   195   1      1.0301738094675414         12.456383326224       3.268800578425612
   196   1      10.592838967158627      3.0087974716323629      12.830971852328048
   197   1      3.7732383192952454      4.2783783753233138      14.176674861164315
   198   1      1.0811421540865638      15.149589178585302      6.0439996570383983
   199   1      10.517548640672885     0.20606783957469688       4.589698672466568
   200   1      2.4112813139024354       5.636013927984493      7.3856430603746617
   201   1      3.7784974090003516      4.1987320400586441      8.7277147640154453
   202   1      1.0136732360453422      4.2387036526828865      11.441537435580699
   203   1      2.3951034866614123      11.044007587710894      12.849819985956287
   204   1      7.7745626120089355      5.6039785253210539      1.9425842600352325
   205   1      16.037253240620885      2.8884044462037366      1.9392082315553409
   206   1      2.3944291570342386      8.3587058227875559      4.5889939237836757
   207   1      11.931225828065863      12.414039027253693      14.154720576918521
   208   1      11.939242831038655      1.5663613789055262      14.189918101262037
   209   1      7.8321130319043846      5.6305516389871855      12.844746574167289
   210   1      3.7403032426398681      1.5470557426792766      11.438026346493416
   211   1      15.986770262454911      11.074130726855628      10.049086421915831
   212   1      13.280648235682975     0.14923505083223709      12.862525903853793
   213   1      5.0842278318025933      5.6552485052965835      4.6473298853740062
   214   1       14.63043177832958      15.150160570127923      3.2602387093267851
   215   1      2.3711675834498749      8.3654797814674566      10.092066357474437
   216   1      7.7967704695032012      13.790481343627334      4.5978811551024705

Velocities

     1                       0                       0                       0
     2                       0                       0                       0
     3                       0                       0                       0
     4                       0                       0                       0
     5                       0                       0                       0
     6                       0                       0                       0
     7                       0                       0                       0
     8                       0                       0                       0
     9                       0                       0                       0
    10                       0                       0                       0
    11                       0                       0                       0
    12                       0                       0                       0
    13                       0                       0                       0
    14                       0                       0                       0
    15                       0                       0                       0
    16                       0                       0                       0
    17                       0                       0                       0
    18                       0                       0                       0
    19                       0                       0                       0
    20                       0                       0                       0
    21                       0                       0                       0
    22                       0                       0                       0
    23                       0                       0                       0
    24                       0                       0                       0
    25                       0                       0                       0
    26                       0                       0                       0
    27                       0                       0                       0
    28                       0                       0                       0
    29                       0                       0                       0
    30                       0                       0                       0
    31                       0                       0                       0
    32                       0                       0                       0
    33                       0                       0                       0
    34                       0                       0                       0
    35                       0                       0                       0
    36                       0                       0                       0
    37                       0                       0                       0
    38                       0                       0                       0
    39                       0                       0                       0
    40                       0                       0                       0
    41                       0                       0                       0
    42                       0                       0                       0
    43                       0                       0                       0
    44                       0                       0                       0
    45                       0                       0                       0
    46                       0                       0                       0
    47                       0                       0                       0
    48                       0                       0                       0
    49                       0                       0                       0
    50                       0                       0                       0
    51                       0                       0                       0
    52                       0                       0                       0
    53                       0                       0                       0
    54                       0                       0                       0
    55                       0                       0                       0
    56                       0                       0                       0
    57                       0                       0                       0
    58                       0                       0                       0
    59                       0                       0                       0
    60                       0                       0                       0
    61                       0                       0                       0
    62                       0                       0                       0
    63                       0                       0                       0
    64                       0                       0                       0
    65                       0                       0                       0
    66                       0                       0                       0
    67                       0                       0                       0
    68                       0                       0                       0
    69                       0                       0                       0
    70                       0                       0                       0
    71                       0                       0                       0
    72                       0                       0                       0
    73                       0                       0                       0
    74                       0                       0                       0
    75                       0                       0                       0
    76                       0                       0                       0
    77                       0                       0                       0
    78                       0                       0                       0
    79                       0                       0                       0
    80                       0                       0                       0
    81                       0                       0                       0
    82                       0                       0                       0
    83                       0                       0                       0
    84                       0                       0                       0
    85                       0                       0                       0
    86                       0                       0                       0
    87                       0                       0                       0
    88                       0                       0                       0
    89                       0                       0                       0
    90                       0                       0                       0
    91                       0                       0                       0
    92                       0                       0                       0
    93                       0                       0                       0
    94                       0                       0                       0
    95                       0                       0                       0
    96                       0                       0                       0
    97                       0                       0                       0
    98                       0                       0                       0
    99                       0                       0                       0
   100                       0                       0                       0
   101                       0                       0                       0
   102                       0                       0                       0
   103                       0                       0                       0
   104                       0                       0                       0
   105                       0                       0                       0
   106                       0                       0                       0
   107                       0                       0                       0
   108                       0                       0                       0
   109                       0                       0                       0
   110                       0                       0                       0
   111                       0                       0                       0
   112                       0                       0                       0
   113                       0                       0                       0
   114                       0                       0                       0
   115                       0                       0                       0
   116                       0                       0                       0
   117                       0                       0                       0
   118                       0                       0                       0
   119                       0                       0                       0
   120                       0                       0                       0
   121                       0                       0                       0
   122                       0                       0                       0
   123                       0                       0                       0
   124                       0                       0                       0
   125                       0                       0                       0
   126                       0                       0                       0
   127                       0                       0                       0
   128                       0                       0                       0
   129                       0                       0                       0
   130                       0                       0                       0
   131                       0                       0                       0
   132                       0                       0                       0
   133                       0                       0                       0
   134                       0                       0                       0
   135                       0                       0                       0
   136                       0                       0                       0
   137                       0                       0                       0
   138                       0                       0                       0
   139                       0                       0                       0
   140                       0                       0                       0
   141                       0                       0                       0
   142                       0                       0                       0
   143                       0                       0                       0
   144                       0                       0                       0
   145                       0                       0                       0
   146                       0                       0                       0
   147                       0                       0                       0
   148                       0                       0                       0
   149                       0                       0                       0
   150                       0                       0                       0
   151                       0                       0                       0
   152                       0                       0                       0
   153                       0                       0                       0
   154                       0                       0                       0
   155                       0                       0                       0
   156                       0                       0                       0
   157                       0                       0                       0
   158                       0                       0                       0
   159                       0                       0                       0
   160                       0                       0                       0
   161                       0                       0                       0
   162                       0                       0                       0
   163                       0                       0                       0
   164                       0                       0                       0
   165                       0                       0                       0
   166                       0                       0                       0
   167                       0                       0                       0
   168                       0                       0                       0
   169                       0                       0                       0
   170                       0                       0                       0
   171                       0                       0                       0
   172                       0                       0                       0
   173                       0                       0                       0
   174                       0                       0                       0
   175                       0                       0                       0
   176                       0                       0                       0
   177                       0                       0                       0
   178                       0                       0                       0
   179                       0                       0                       0
   180                       0                       0                       0
   181                       0                       0                       0
   182                       0                       0                       0
   183                       0                       0                       0
   184                       0                       0                       0
   185                       0                       0                       0
   186                       0                       0                       0
   187                       0                       0                       0
   188                       0                       0                       0
   189                       0                       0                       0
   190                       0                       0                       0
   191                       0                       0                       0
   192                       0                       0                       0
   193                       0                       0                       0
   194                       0                       0                       0
   195                       0                       0                       0
   196                       0                       0                       0
   197                       0                       0                       0
   198                       0                       0                       0
   199                       0                       0                       0
   200                       0                       0                       0
   201                       0                       0                       0
   202                       0                       0                       0
   203                       0                       0                       0
   204                       0                       0                       0
   205                       0                       0                       0
   206                       0                       0                       0
   207                       0                       0                       0
   208                       0                       0                       0
   209                       0                       0                       0
   210                       0                       0                       0
   211                       0                       0                       0
   212                       0                       0                       0
   213                       0                       0                       0
   214                       0                       0                       0
   215                       0                       0                       0
   216                       0                       0                       0
