(written by ASE)

216 atoms
1 atom types

0.0      16.331106185913086  xlo xhi
0.0      16.331106185913086  ylo yhi
0.0      16.331106185913086  zlo zhi

Atoms # atomic

     1   1     0.71380699098054379      6.4556789895138991      15.605084605623006
     2   1      4.7351148998343433      5.1203593428328986      5.9809781874575947
     3   1      14.371769543512414      1.0270097409678982      1.9397540710911585
     4   1        6.05080963188027      3.7929710390637865      7.4171260529862479
     5   1      6.0893756407778596      1.0257676700847895      15.506866585108469
     6   1      8.8395254787398017      3.8185162319990695      10.156114774376306
     7   1      7.4039436509999632      7.8625729708340373      6.0103221120710373
     8   1      3.3752986659067972      11.809059980069947      7.5307263815966508
     9   1      7.3235915936426181      2.3463183785094373     0.60894988987916321
    10   1       3.342682867660244      3.7634136943554211       4.595921194504399
    11   1      10.215655330573099      7.8176520561681286      14.181496159819517
    12   1      14.354044724773757      6.5269481601860662      1.9660459910062258
    13   1      2.0384865386760112       7.808304888726866      5.9671669627514916
    14   1      8.7935737231136955     0.95159256701980866      1.9854717216644531
    15   1      4.7490083776671099      13.285220341433728       14.18989960647616
    16   1      10.275639761630941      13.320035315732525      8.7278568818437634
    17   1      2.0704367679834377      10.517384134419558      8.8041858365679673
    18   1      6.0975561765941961      9.2246920489557169      1.9628468797543945
    19   1      1.9670782920810979      16.039739329206668      14.192482062630461
    20   1      6.0228391884706411      9.1656391710602065      7.5008203128335253
    21   1     0.73340233829345891      11.846968450659119      15.543343169906848
    22   1      3.3466083859626394      1.0546622444071545      12.775085476456638
    23   1      15.752041253972379      13.237131951333936         8.7563651341585
    24   1      13.032183441752522      15.923875336145898      14.185800577879945
    25   1      3.4648397116156673      9.2452621444900842      15.544687448817172
    26   1      6.0363895393549001      3.8176776394710146      1.9123261819593296
    27   1      14.395198543579454      6.4833063059750202      7.3593089188102567
    28   1      14.346857066936082      14.604630578621368      15.573766119264747
    29   1      8.8191403310642045       9.197389851362118      4.7103805572482997
    30   1      8.7980776901796389      14.554636252166461      4.6881858407861046
    31   1      1.9961868948795001      5.1095608214051822       3.237383534326824
    32   1      11.624249372079248      3.7953534595076803      1.9384181878402131
    33   1       7.545692557010284      2.3921185255618411      11.445728938106299
    34   1      10.194609237654845      2.3733572687567346      3.2904462917701949
    35   1      4.8173412577288559      10.596529163645982      6.0005471310301459
    36   1      12.947891021593591      2.3911502261802013     0.52134446952378966
    37   1       6.105565878993616      14.628976530703994      12.855985563521813
    38   1      14.327655585556613      9.2089208636515423      4.6701816534397267
    39   1      10.311219836019177      2.4650619610607691      8.8041984908951463
    40   1      8.9457244860651599      3.4713231074753423      15.373069463615479
    41   1      15.696156824920536      5.1651298656873337     0.57161500100462348
    42   1      4.7241017415494753      13.251587086611494      8.8340442082517256
    43   1      11.661026740500574       14.60320063965014      12.799129671506535
    44   1      8.8428769286226725      6.5033064700814407      2.0062232364471271
    45   1      8.8279146468481713      6.4425004811667463      7.3724484907660894
    46   1      3.3469179302736336      14.635383513895704      10.126236934496887
    47   1      13.040255929082946      7.8947227491469789     0.61040550253341763
    48   1      2.1424111740433887      5.2209865525603618      14.123385542593951
    49   1      2.0602899444054401      2.4385796178569024      11.411644994554536
    50   1      13.027278429855983       5.202125277900052      8.8121249667581196
    51   1     0.73162464867725419      3.7415621048417336      1.8766021645994329
    52   1      10.291416787393814      5.1013432960170917      11.501618234207058
    53   1     0.70288277801459742      14.656623315360775      1.8549138645768437
    54   1      8.7356373462392867      4.0041778434925561      15.743298087301469
    55   1      8.9270525396076437      11.913375439465199      12.762192663880796
    56   1      10.183581478223232      7.8527673273849814      3.3883759396365178
    57   1      7.4791108411481559      10.585100359383773      14.144196070344719
    58   1     0.69454680082353804      1.0942402344503961       10.13389377584997
    59   1      12.993594557725032      5.1662006164486343       14.21874952562473
    60   1      14.355309184081875      11.846929514267799      1.8700126670734107
    61   1      8.8405475590119522      14.628593980659275      15.585352615911802
    62   1      10.248284026499277      5.1884809929717335     0.66461968207385524
    63   1      6.0448163478463357      6.5403812151914735      4.6032563239241995
    64   1     0.73874550626857172      6.4824068753355277      4.6386178678161514
    65   1      13.042130716325005      7.8734162691117717      11.484408349243608
    66   1      14.350098521513473      6.4357474507971801      12.879014492168039
    67   1      10.356035622428521       15.99370580715879      11.358388771916793
    68   1      2.0057320295353804      5.1213892103833132       8.734393328536612
    69   1      7.4497158125211058      5.1363928620735919      3.3108258423395398
    70   1      4.7325947419061549        15.9499004201042      6.0493650917622972
    71   1        14.3180421905397      11.870467536230535      7.4382626730143215
    72   1      3.2919190607718747      6.5160411035675452      12.774919996793528
    73   1      11.596989031106318      11.881977133504734      10.167002362799167
    74   1      10.178851680087632      10.620680433772009      0.5766155287361201
    75   1      14.372719591460623       14.60734347168659      4.6303667597905473
    76   1      2.0071956728203446      15.970595112090791       8.787371155976416
    77   1      8.8836501442032159      6.5377247798936651      12.779359718813794
    78   1       15.80025229370483      5.1488087038557637      11.528713095516878
    79   1     0.68835956489034089      14.639523425702805      12.786572685305828
    80   1      7.4677900853718597        16.0207325297838      14.145703882098587
    81   1      2.0354897749828211      13.245609377134087     0.51355548779266513
    82   1      6.1685771277716981      9.2126879595117543      12.794582874410139
    83   1       14.37804219615407      9.1714552945136347      15.515508517161948
    84   1      3.4124836496747548      1.0807224927938677      7.4192154770854586
    85   1      14.264892069568305      3.7372572000764137       15.55737779215815
    86   1      10.243326450474456      15.989010078365595     0.54495616643947642
    87   1      4.7444455193092949      2.4227106048695362      14.178665484170551
    88   1      11.574474062825516      9.2491479963438223      1.9538461245196572
    89   1      10.243155130352648      10.481246296225663      11.439874851671334
    90   1      14.378578544944503      9.1837562739414125      10.023502292589228
    91   1      15.655302816328003      2.4387278194963642      8.7911810818670801
    92   1     0.70377016270802528      9.1706736464578853      1.8720733755840229
    93   1      15.735656820504914      10.570868134946522      6.0134891008000295
    94   1      7.5232846638056117      10.540655442101752      8.7290541758768541
    95   1      2.0856217172458003      7.8655958949151454     0.52779744632774594
    96   1      8.8533556849366732      14.616550954823992      10.062743361171329
    97   1      4.7246268961274041       10.57796234544503       11.40042839362502
    98   1       8.876591949866679     0.96508810276566237      12.762950950101754
    99   1      1.9992014233012299      15.930579209321422       3.271961970048352
   100   1      13.140506429224388      2.3450191198015773      11.495803084163413
   101   1      15.679525145368189      13.247255413077141      14.184510809917469
   102   1       11.65180562962621      11.903150743104561      4.5811643021941109
   103   1      14.337221283494159      1.0210850823236655      7.3502922239903228
   104   1      14.387815230375395      3.7880618901756691      4.5936283277605412
   105   1      14.398108065420843      3.8122701047740009       10.14621519688319
   106   1      15.691363755149041      7.8646005834120274      3.2617229158934151
   107   1      7.4465848399540846      5.1996552505756881      14.068547529058833
   108   1      8.7788051498860113      11.927665095079647      1.9362125629481568
   109   1       10.26570903502477      13.257693286180256      14.181457223428197
   110   1     0.69557186216314904       6.525832145869856      10.170896001931169
   111   1       4.751875556182938      5.1140312058336121      11.405634189144507
   112   1         3.3641268418273      6.5090583484891908      1.9276151643922503
   113   1      6.0527092410717955      14.596686581382301      7.4239501422699732
   114   1      12.982693341565209      16.024121942648208      8.6814086872283269
   115   1      1.9439815897787298      2.2523814142205367     0.51813617171713133
   116   1      2.0619931681732453      13.243492210856061      6.0857136731742116
   117   1      10.197959714127933      5.1944475082366353      6.0386468766416783
   118   1      15.673945560492029      7.8027228703262494       8.738011492700025
   119   1      11.589759516647973      9.1611536987801401      12.839856163417494
   120   1      6.0492696976035631      1.0130012182664032      10.102842977182036
   121   1      15.737282414842525      2.4312520323629201      3.2485882109864974
   122   1      13.002527539303628      13.280511958313355      11.452581742978623
   123   1      4.7894043969567406      10.520120389319572     0.58020345635814863
   124   1      6.0587930522155489      11.849781604931991      10.213068007369884
   125   1      8.8599670841828129      9.1652108707556863      10.043587630051661
   126   1      11.615597705927939      11.921710747437032      15.570960752270139
   127   1      11.608178376561909     0.95082326910068105      4.6581298669163971
   128   1      7.4210926978519751      13.253167904099087     0.57771122312311007
   129   1      5.9972657666516511      6.4873225947396804      15.542077737188947
   130   1      8.8416027352167248      3.7858303482481404      4.6770451658196635
   131   1      4.6105140672662515      2.3501416887846176      3.2090738576078195
   132   1      4.7808841411261369      2.3926081506826904      8.7584141617517162
   133   1      3.4047452852523463       11.92054849615613      12.801637175107544
   134   1      12.961898388370969      7.8048079140814366      6.0069531408120724
   135   1      13.071149035366034      15.988415324988182      3.2696099686601769
   136   1      13.019602120307241      5.1747719762928455      3.3094801033145416
   137   1      15.709759253228185      10.508237002688702     0.52363830967743041
   138   1      10.294265957828657      7.8434775911209158       8.736255461451492
   139   1      6.1130762221743566      3.7791581108905632      12.824728401979883
   140   1       5.996095241387593     0.99869306786607837      4.6749357868199013
   141   1      15.749852055370411      7.8726326742364563      14.141178500017418
   142   1     0.68444359817144118      11.950551905897555      4.6444111161396791
   143   1      10.331283758466384      2.2678211534935997      14.198786837794955
   144   1      10.252833743825022      13.217839942844648       3.273793927259959
   145   1      6.1491142858654939      6.5007902057923843      10.126280737937122
   146   1      7.4065825649216777      7.8413253820907016     0.53783445711459876
   147   1      14.395329953900159      1.0102635032517142      12.852317755459467
   148   1      11.732003888237841      1.0434211865568415      10.072660460040538
   149   1      8.8305506405405367     0.96343038590521246      7.5140917818149546
   150   1       6.064526435837422       11.88559335084858       4.721772371938755
   151   1      2.0506142511624148       2.352238170104755      5.9668656924236529
   152   1      4.6485476210125398      15.979291555092118      11.493269298498262
   153   1      11.700735045778515      3.7535971000463064      12.833913496692276
   154   1      7.4749329663595176      13.311582225176949      6.0804076164470757
   155   1       13.05115422501342      13.222754688839018      6.0219173694061396
   156   1      8.8874075059655979      9.1480000123824539      15.571950710019451
   157   1      8.8920759792848685      11.926021005956159      7.4112578521094292
   158   1      12.996860347546999      10.557995763976123      14.172775381573615
   159   1      3.3807495173391544      3.7717361046476299      10.075445385429703
   160   1      1.9855407120828232      13.306986757591403      11.504007955224324
   161   1      11.636829720114747      14.628457703289655      7.3910328303431356
   162   1     0.68432995257927587      9.2225252387787577      7.3436890987273387
   163   1      13.025959459600017      10.546135739180045      3.2748293919166258
   164   1      15.688234242696694      15.957915476257426      11.429665729867224
   165   1      7.4796248015135802       13.24668402153452      11.493345224461336
   166   1      7.4790378354144309      5.1297337657480853      8.7375909796737687
   167   1      3.4038760303161268      9.2547996135439234      4.6335668444521616
   168   1      7.4523410987058583      10.596207938417592      3.3300969225184929
   169   1      3.4229799273648496      11.947165413262496      1.9256489983068121
   170   1      10.289824288988825      10.598507132325039      6.0082589700359676
   171   1      13.022363683861613      13.271244123769407     0.53759615423209794
   172   1     0.70430906669913895      9.1303842155394932      12.794051392668621
   173   1      11.640529650699932      9.1900483947787279      7.3830596308105783
   174   1      4.7617483649070209      15.933967648776047       0.584522475565322
   175   1      10.292468069959455      15.908271577324399      5.9715195645961785
   176   1      7.4615203529595533      15.918230532814277      3.3363420763337786
   177   1     0.67797735865919151      11.907557369192205      10.111530659495315
   178   1      2.8167712202727273      8.5658114084480985      10.742385858940565
   179   1     0.70726014097063938      1.0153172034926072      4.6155023056992377
   180   1     0.64192974338455855      14.646279863006612      7.3659821295776169
   181   1      11.628919792218085      6.5618556084142483      10.138175805485389
   182   1      3.3667930112229385     0.94488054153735135      1.8961045512780714
   183   1      15.684533338701726      5.1111216839922236      5.9887411304770239
   184   1      4.7251797928841484       7.887669421859357      8.7680304769979784
   185   1      11.547451233839638      6.5110572454785824      15.558626676909739
   186   1      15.723927232619758       15.99112043077514      5.9790654372339986
   187   1       4.698162317652077      7.8669314131374222      3.2853487880890668
   188   1      11.665070284739159      3.8112504580263078      7.3486330470151984
   189   1      4.7383286122329196      13.277467132512129      3.3005566124813299
   190   1      13.010165885870833      2.3618143321974685        5.98789961771962
   191   1       15.63003017813196      10.524239859521231      11.508130345655331
   192   1      4.7411281387688291      7.8476681202367331      14.145669812756182
   193   1     0.64933404573706355      3.6712164567011882      12.909323552581327
   194   1      3.3830798603596577      3.7288303915849781      15.593095117325788
   195   1      6.1142949312226733      11.861057583858269      15.550797542025066
   196   1      15.718376850037089      13.298827636790293      3.1967186105846395
   197   1      4.6638457291621762      5.1049634070000707     0.56966002913168978
   198   1      8.9005865010176421      1.1505003996784779      7.2248484185501525
   199   1      6.0555540311626146      14.642535155571409      1.9294937235972185
   200   1      13.038364593874576      10.548376528500512      8.7606656585797964
   201   1      7.5268853065929306      7.8742767633599442      11.374803381087531
   202   1      3.4381422448497574      6.4465727409939291      7.3629606656111832
   203   1      14.343437478368401      11.912708653763843      12.853924855011201
   204   1      3.3343718949329855      14.631485007714787      4.6721192256127893
   205   1      14.326140959934264      14.652692686657019      10.131462198212034
   206   1      2.0148020185409337        10.5151657335241      14.163676920331909
   207   1      3.3775662239962969      14.633281922174206      15.491766079144782
   208   1      7.3826868148636891      15.957094891810357      8.8297271358641183
   209   1      11.629287741116059      14.592151465203301      1.9202511977076284
   210   1     0.70933916175279421      3.7492354941611268      7.3542457278239795
   211   1      15.731971491066474      16.033361548308449     0.49568453591033546
   212   1      11.604248721267936     0.99314195522607207      15.568417232507159
   213   1      2.0656176595002478      10.568333375871589      3.2675787057955006
   214   1      15.782198462459519      2.3504736215206208       14.24557183219531
   215   1      11.592648596883919      6.4986521112040236      4.6493526309030813
   216   1      7.3569537538402869      2.4541918940140022       5.928696348012636

Velocities

     1                       0                       0                       0
     2                       0                       0                       0
     3                       0                       0                       0
     4                       0                       0                       0
     5                       0                       0                       0
     6                       0                       0                       0
     7                       0                       0                       0
     8                       0                       0                       0
     9                       0                       0                       0
    10                       0                       0                       0
    11                       0                       0                       0
    12                       0                       0                       0
    13                       0                       0                       0
    14                       0                       0                       0
    15                       0                       0                       0
    16                       0                       0                       0
    17                       0                       0                       0
    18                       0                       0                       0
    19                       0                       0                       0
    20                       0                       0                       0
    21                       0                       0                       0
    22                       0                       0                       0
    23                       0                       0                       0
    24                       0                       0                       0
    25                       0                       0                       0
    26                       0                       0                       0
    27                       0                       0                       0
    28                       0                       0                       0
    29                       0                       0                       0
    30                       0                       0                       0
    31                       0                       0                       0
    32                       0                       0                       0
    33                       0                       0                       0
    34                       0                       0                       0
    35                       0                       0                       0
    36                       0                       0                       0
    37                       0                       0                       0
    38                       0                       0                       0
    39                       0                       0                       0
    40                       0                       0                       0
    41                       0                       0                       0
    42                       0                       0                       0
    43                       0                       0                       0
    44                       0                       0                       0
    45                       0                       0                       0
    46                       0                       0                       0
    47                       0                       0                       0
    48                       0                       0                       0
    49                       0                       0                       0
    50                       0                       0                       0
    51                       0                       0                       0
    52                       0                       0                       0
    53                       0                       0                       0
    54                       0                       0                       0
    55                       0                       0                       0
    56                       0                       0                       0
    57                       0                       0                       0
    58                       0                       0                       0
    59                       0                       0                       0
    60                       0                       0                       0
    61                       0                       0                       0
    62                       0                       0                       0
    63                       0                       0                       0
    64                       0                       0                       0
    65                       0                       0                       0
    66                       0                       0                       0
    67                       0                       0                       0
    68                       0                       0                       0
    69                       0                       0                       0
    70                       0                       0                       0
    71                       0                       0                       0
    72                       0                       0                       0
    73                       0                       0                       0
    74                       0                       0                       0
    75                       0                       0                       0
    76                       0                       0                       0
    77                       0                       0                       0
    78                       0                       0                       0
    79                       0                       0                       0
    80                       0                       0                       0
    81                       0                       0                       0
    82                       0                       0                       0
    83                       0                       0                       0
    84                       0                       0                       0
    85                       0                       0                       0
    86                       0                       0                       0
    87                       0                       0                       0
    88                       0                       0                       0
    89                       0                       0                       0
    90                       0                       0                       0
    91                       0                       0                       0
    92                       0                       0                       0
    93                       0                       0                       0
    94                       0                       0                       0
    95                       0                       0                       0
    96                       0                       0                       0
    97                       0                       0                       0
    98                       0                       0                       0
    99                       0                       0                       0
   100                       0                       0                       0
   101                       0                       0                       0
   102                       0                       0                       0
   103                       0                       0                       0
   104                       0                       0                       0
   105                       0                       0                       0
   106                       0                       0                       0
   107                       0                       0                       0
   108                       0                       0                       0
   109                       0                       0                       0
   110                       0                       0                       0
   111                       0                       0                       0
   112                       0                       0                       0
   113                       0                       0                       0
   114                       0                       0                       0
   115                       0                       0                       0
   116                       0                       0                       0
   117                       0                       0                       0
   118                       0                       0                       0
   119                       0                       0                       0
   120                       0                       0                       0
   121                       0                       0                       0
   122                       0                       0                       0
   123                       0                       0                       0
   124                       0                       0                       0
   125                       0                       0                       0
   126                       0                       0                       0
   127                       0                       0                       0
   128                       0                       0                       0
   129                       0                       0                       0
   130                       0                       0                       0
   131                       0                       0                       0
   132                       0                       0                       0
   133                       0                       0                       0
   134                       0                       0                       0
   135                       0                       0                       0
   136                       0                       0                       0
   137                       0                       0                       0
   138                       0                       0                       0
   139                       0                       0                       0
   140                       0                       0                       0
   141                       0                       0                       0
   142                       0                       0                       0
   143                       0                       0                       0
   144                       0                       0                       0
   145                       0                       0                       0
   146                       0                       0                       0
   147                       0                       0                       0
   148                       0                       0                       0
   149                       0                       0                       0
   150                       0                       0                       0
   151                       0                       0                       0
   152                       0                       0                       0
   153                       0                       0                       0
   154                       0                       0                       0
   155                       0                       0                       0
   156                       0                       0                       0
   157                       0                       0                       0
   158                       0                       0                       0
   159                       0                       0                       0
   160                       0                       0                       0
   161                       0                       0                       0
   162                       0                       0                       0
   163                       0                       0                       0
   164                       0                       0                       0
   165                       0                       0                       0
   166                       0                       0                       0
   167                       0                       0                       0
   168                       0                       0                       0
   169                       0                       0                       0
   170                       0                       0                       0
   171                       0                       0                       0
   172                       0                       0                       0
   173                       0                       0                       0
   174                       0                       0                       0
   175                       0                       0                       0
   176                       0                       0                       0
   177                       0                       0                       0
   178                       0                       0                       0
   179                       0                       0                       0
   180                       0                       0                       0
   181                       0                       0                       0
   182                       0                       0                       0
   183                       0                       0                       0
   184                       0                       0                       0
   185                       0                       0                       0
   186                       0                       0                       0
   187                       0                       0                       0
   188                       0                       0                       0
   189                       0                       0                       0
   190                       0                       0                       0
   191                       0                       0                       0
   192                       0                       0                       0
   193                       0                       0                       0
   194                       0                       0                       0
   195                       0                       0                       0
   196                       0                       0                       0
   197                       0                       0                       0
   198                       0                       0                       0
   199                       0                       0                       0
   200                       0                       0                       0
   201                       0                       0                       0
   202                       0                       0                       0
   203                       0                       0                       0
   204                       0                       0                       0
   205                       0                       0                       0
   206                       0                       0                       0
   207                       0                       0                       0
   208                       0                       0                       0
   209                       0                       0                       0
   210                       0                       0                       0
   211                       0                       0                       0
   212                       0                       0                       0
   213                       0                       0                       0
   214                       0                       0                       0
   215                       0                       0                       0
   216                       0                       0                       0
