(written by ASE)

216 atoms
1 atom types

0.0      16.331106185913086  xlo xhi
0.0      16.331106185913086  ylo yhi
0.0      16.331106185913086  zlo zhi

Atoms # atomic

     1   1      15.463307470728978      2.7277482719208592      10.395217313013859
     2   1     0.53228681224694441      1.3994697849051931      14.450725731240937
     3   1      14.141925105320979      14.963324296378801      14.470804254834889
     4   1      12.900780908325714      2.6438211237829989      2.1338098818483502
     5   1      11.408806531627306      1.2940746923843705      9.0197376989156055
     6   1      14.129534572193165      6.7533793369734099       11.74407806318618
     7   1       1.831135045369038      5.2785744487324564       15.76495645497323
     8   1      4.6482925876493937       16.26757464960599      2.1419787367472907
     9   1      3.0651717691575016        9.41258933936831      9.1028182238947011
    10   1      11.464815557131374      1.3226378206756237      3.4972209181045173
    11   1      3.2491357539894352      1.3337069500230143      11.767356184736855
    12   1      5.9968681287552954      12.251950723827576      9.0958865728299543
    13   1     0.49453533440433617      6.7382992726151656      14.467263963454116
    14   1      10.138866926431319      8.1096545494628458       15.82036586005097
    15   1      1.8152724812214842      13.664578575474479      2.1724600906921694
    16   1      6.0160199662358309      1.3156831728047536       3.484820164173982
    17   1       15.55772821968003      2.7705649179883665      4.9102824238097469
    18   1      7.4269185554032333      13.572408349941725      2.1867911162223947
    19   1      8.7746681583082591      4.0248686418400155      3.5126594406153515
    20   1      10.165279427483256      13.632329509363672      15.845566465923071
    21   1      12.799246480680495      10.876452614943446      15.848635626968871
    22   1      3.1886115672069195      9.5054857285991829      14.475887400721717
    23   1      15.408100534886103     0.08091773772225519       2.095638833970213
    24   1      14.174455486859074      14.967252004853208       8.980573529706362
    25   1     0.55114023879087881      9.5449253727770156     0.83560525510715422
    26   1      1.8466219950165765      8.1286608621808227      7.6684400173515428
    27   1      7.3757814458630833      13.574164381190258      13.065651216911647
    28   1       12.85944603530038    0.086216136452113901      15.841915205827036
    29   1      7.3636595738353776    0.023935097106560832      10.378936060983392
    30   1      6.0123059212087924       6.697172709283393      3.4257198325515503
    31   1      11.462045232888954      4.0833649726920953      6.2395732569997335
    32   1      15.540485238783958      10.855446431826294      7.7112593402959533
    33   1     0.58167318345425656      6.7374504592843891      3.4561235570662348
    34   1      15.439421941473711      13.594709168070267      10.377244274780537
    35   1      1.8445253920202163      10.867008593228775      10.425993610122987
    36   1      12.765023339529762      10.851452531486643      4.9048561509744104
    37   1      10.082287482794413      10.867980056192209       2.176306519449696
    38   1      12.807717092612165    0.027654467369541136      4.9409939891683052
    39   1      10.196802329895945      2.6798978805130105      4.8409610461133639
    40   1      15.519892754824582      8.1124326609835293      15.827743332796331
    41   1       4.676155469278001      2.7404376418520542      4.8318416565613234
    42   1       1.903509766202248      5.3716820678862405      4.8589949224581233
    43   1       11.48058090197685      6.7413713538903153      9.0044785271572891
    44   1      7.4018357321148756      5.4099180908673929      15.772708690485047
    45   1      8.7241199616868244      1.3268170339027137     0.82344365579267986
    46   1      6.0318578301101411      4.0103258996819875      6.2801143143470313
    47   1      14.154851987239226      4.0685250971978064      3.5452971405820222
    48   1      4.6835412160065175      13.569890138833102      4.8464836865172174
    49   1      3.2787028327956307      1.2753120971408123     0.84086045117312835
    50   1      10.088789860144857      16.246722265234553      7.6245952072007412
    51   1      1.9013249479443033  0.00074782658111874345      10.390219827187934
    52   1      15.382027753848433       2.570133516504967      15.866048954576968
    53   1      5.9883089365333717      1.3685069581463978      14.410877254954244
    54   1      15.456866418194863      13.715589141742839      4.8568305458056216
    55   1      8.7468325321535758      12.242009289713792      11.757764204735167
    56   1      3.2729229688566193      4.0603194960795577      9.0725393391846865
    57   1      14.149579026444712      6.7797923247302379     0.84537025869776983
    58   1       12.78964573999076        8.19840859336216      13.089931950538812
    59   1      6.0779288284346649      9.4154385098031526      6.2283887785930574
    60   1      14.131494046086345      15.037273264183568      3.5245885775060231
    61   1      1.8739924529712084      16.302620322023358      15.790394572832383
    62   1      10.082801443159838      5.4061986920865479      13.107043521114178
    63   1      1.9110089151704841      2.6843848129077514      2.1373849726288654
    64   1      11.434400395051739      12.223745201955353       3.494904202820976
    65   1     0.48171613594333351      15.002258740879256     0.78171674197724172
    66   1      10.090122458137785      13.641961399166462      10.422851443343461
    67   1      14.174897414900556      12.255409248786577      6.2625681163035551
    68   1      11.446834731619788      3.9987104440938879     0.83434329016160547
    69   1      7.3420308951619973      5.3946452913721146       10.43756647903308
    70   1      11.428094646477462      12.232844636606842      9.0262021132845121
    71   1      4.6227619958608557      5.3566730624421552      2.1276433308730418
    72   1     0.58195212619519765       1.394682068887505      9.0964735389291036
    73   1      1.9275607751206252      8.1186269541376532      2.1281660519265131
    74   1      1.8170580797921758      8.0946372700356051      13.136639072156527
    75   1      12.866540245798888      13.617259179103257      13.132520575364651
    76   1      12.826155420721761      13.571345386458688      2.1874895377416976
    77   1      6.0305933708020234      12.186489889330574      3.5036909295796761
    78   1      8.7691956485082301      9.4744865206497479       3.481599394554479
    79   1      10.129936865082072      5.3319752227229742      2.1638359233672304
    80   1      14.103380024733724       4.108257981072768      8.9717038197636612
    81   1      8.7335931856949856      4.0515880103260429      14.410587178838909
    82   1      15.518515379981636    0.021603434659515752      7.6762530909747966
    83   1      14.119408190220611      9.5229817960388345      14.435900700245838
    84   1      7.3876263828075253      8.1043012823612344      2.1199886796919714
    85   1      7.4075953978008897      2.6461794523347635      7.6357280948889183
    86   1       12.82029938746723      16.289012053257011      10.374451562113109
    87   1      4.3881541768963075       10.84415877198262      7.8889173332011637
    88   1      4.6019504947003043      8.0868285767563748      15.800623162832153
    89   1      4.6575380337683328      2.6162461280977141      15.861162437466305
    90   1      8.7087945980632639      12.234173340960638      6.2119824434054749
    91   1      12.790546144040036      13.583133378930825        7.62150317102504
    92   1      15.509413025100798      13.592926854757593      15.815748977450198
    93   1     0.53300865643915074      9.4856817065640371      6.2545233711519472
    94   1      15.536166219576785      8.1012540230355512      4.8729025147327434
    95   1      8.7458600957803583      6.7273669073422866     0.82412340001177142
    96   1     0.47259832818219039      15.013325436702189      6.2450803228470591
    97   1      3.1937312159606108      12.297009862682671      6.1594115012549651
    98   1      11.430775417019845      1.3339021186845059       14.43658890096242
    99   1      4.5624062089707991      13.629548477613639      10.449679590372739
   100   1      12.751710013927664      5.3937137382097831      10.385989388271014
   101   1      15.515836556258819       10.83087075503488       13.11938149011371
   102   1      8.7638156126375861      9.4824791883779653      14.517628185626563
   103   1      4.6582184472066501      16.310753160760328       7.611459042179149
   104   1      8.7532327014768043      4.0930732751628511        9.06265241601875
   105   1      10.065990656207418       2.705530193623872      10.386992973757287
   106   1       5.983359147786814      1.3392931054152086      9.0186796024814839
   107   1      8.7408022585478875      1.3345933613066592      11.746781222153572
   108   1      15.469982141611013      8.0947774410443571       10.40905043944008
   109   1       11.44438952624489      12.237167549453147      14.467142287231241
   110   1      5.9969187460640114      9.5225836714375873       11.73764187770098
   111   1      5.9978133096545889      14.949597271618927      6.2432814615680741
   112   1       1.860452322889671      5.3543174107672939      10.364683394940698
   113   1      3.2509229343510242      6.7121077355839702     0.77603610499798492
   114   1      3.2822416640617291      15.021423232686971      9.0438033089807277
   115   1      10.123531828709929      13.640858525882322      4.8425160682417072
   116   1      1.8861373218050375       13.60512367933859      13.159584287561415
   117   1      14.161124639880882       6.755388454765523      6.3038552922495228
   118   1     0.58258094891501599      4.0487003902047718      6.2897758931482031
   119   1     0.54406786917437699      12.176843398381038      8.9742337117896795
   120   1      15.509295242517055    0.015376832665836559      13.109432268721662
   121   1      3.2536672198817485      6.8344531776848498       6.246760428132518
   122   1      12.799153033341327      5.4101843184430436      15.768469490880079
   123   1      7.3776523394660103      8.0838514029350677      7.6253943766325847
   124   1      1.8643297790840307      10.892289992112865       4.833911612464874
   125   1      4.6586258192008358      8.1181368423119125      10.389747723443179
   126   1      11.477992605363852      14.907784454390139        11.7635686472712
   127   1      10.123271928297868      8.0921628623672177      4.8408729525280023
   128   1       8.821835702753333      1.3239204097409498      6.2849083575283089
   129   1        7.40166197846861       10.85125687612026      15.849544791706194
   130   1     0.50439174725738667      4.0367834209363878     0.80059529466119983
   131   1      1.8731169925476223      13.600572988603062      7.6212067677461164
   132   1      12.763729677928154      2.6808075319552245      13.061899695607963
   133   1      8.7459895592814973      12.237572487922876     0.81651583752895363
   134   1      11.511880893549232      15.032662222041495      6.2653676428394647
   135   1      1.8939033067300386      10.853820837488684      15.834820995328528
   136   1     0.48052656835039542      9.4986952219529712      11.770049609606417
   137   1     0.51005753973745271      4.0427528564306385      11.743139696155367
   138   1       14.11081103501715      1.3532149338079051      11.763051766676426
   139   1      5.9913664166617764      14.993044443873373      11.755255727724375
   140   1      4.5918430942185182      10.868474548361974      2.1620942499129967
   141   1      6.0023678940292484      4.0586737034889495      11.799566314456342
   142   1      7.3806363271557984      10.902965377203031      10.372592349427578
   143   1      4.6360203238102144      16.299612485793887      13.022071660926713
   144   1      4.5812767310240474      5.4180363284576174      7.5887849213988261
   145   1       4.618835747501123       2.696272093177754      10.372997287897306
   146   1      3.2336989349457212      3.9931096875549486      3.4507688298499488
   147   1      10.054282483337488      16.258022579405406      2.2129855734829391
   148   1      8.7997217793031268      14.982362244914725      8.9870340504361366
   149   1      8.6869055322729309       14.99605714715176      3.5046071515379253
   150   1      10.134641354563314        10.8469485644207      13.110331699361154
   151   1       10.08168299531917      5.3893694103482517      7.6584450456996933
   152   1      10.128684086691351      16.268441957722644      13.119120616291866
   153   1     0.51288054978437714      6.7143271098892114      9.0463001050741241
   154   1      7.4305552143525233      10.897072354376746      4.9044234703258667
   155   1      1.8629955993002056      2.7008093995287652      13.115437233672992
   156   1      1.7706731568126344    0.045293540493699602      4.7601943161884606
   157   1      3.2536701401110975      1.3136248978185989      6.2365965698833179
   158   1     0.50478214541848132      1.3671868928044262      3.4577209225201386
   159   1      12.846505525645171      5.4230265137101696      4.8383396535677434
   160   1      8.6971263349944365      9.5031641462667267      9.0327414802067096
   161   1      11.437524067045388       4.029430040083156      11.745412607998674
   162   1      14.157259229632587      12.219728913190693     0.78750226386061684
   163   1      8.7555377358429496      6.7765450296941481      11.763135479917764
   164   1      11.449410373905607       6.736388955916027      3.4765191688969992
   165   1       15.50706808093355      10.881644782725971       2.186852197686278
   166   1      14.168291856113115      12.177401162186698      11.762833722885034
   167   1      7.3678447491973884      2.7341026909842867      2.1981972887071493
   168   1      3.2730551092346616      4.0164948841817534      14.512717333271326
   169   1      3.2225986564852747      15.006758814306068      3.4830548855325105
   170   1     0.52657387023051427      12.239523201128009      3.5396584210615458
   171   1      14.239637926158139      1.3904584438390657       6.238670906130892
   172   1       6.003380240203569      4.0476398602461927     0.80937916202866234
   173   1      11.432190754844328      9.4944501818893059     0.78961024358381593
   174   1      3.2360988767657091      6.6721964743662738      11.781925208959024
   175   1      4.6316482537698676       8.148261928276213      4.8866188319850039
   176   1      10.046776520500771      10.878594116466047      7.6084078892143339
   177   1      1.9163311548352624      2.7130619518198387      7.6485040982908004
   178   1      6.0298384915153065      14.928818866390998     0.78731701181128955
   179   1      7.3713519446455393      13.575062838419967      7.6735995759063371
   180   1      5.9568458988223369      9.5344018396129968     0.81470048912176907
   181   1      6.0340557894001563      6.7678393392998828       14.43953151873643
   182   1      14.153382138466895      9.4913518185500152      9.0574271523036032
   183   1      12.800155645417817      10.916216404579018      10.332645558752802
   184   1       4.818394000409171      10.845635434623432      7.3749316591225238
   185   1      7.3990211177273295    0.032357958725516944      4.8840373492404865
   186   1      15.495183720892896      5.3915094517561784      2.1632328960066616
   187   1      7.3718576310278081      16.318356464575345      15.793978667653391
   188   1      14.173340932657538      3.9899383184819328      14.487738664829749
   189   1      10.057609597975784      2.6758436287668133      15.772560732198031
   190   1      7.3950262439778953      2.6490716961525038      13.054427802113651
   191   1      3.2002000106735409      12.259334037031635       0.809573783147151
   192   1     0.52480317699712487      14.976718414992888      11.752503898267832
   193   1      4.6407647230925591       10.87483188765475      13.100498313733283
   194   1      8.7859022806138682      6.6640485477776679      6.2271676360202832
   195   1      14.169307122516784      9.5034104189418258       3.565581296992633
   196   1      10.089288245953753      8.0955581156903236      10.329027394589389
   197   1      7.3717680773277721      5.3493165180071287      4.8700883870500888
   198   1      4.6609328003865471      5.3822951547502953      13.129578931000424
   199   1      3.2516748934083921      12.182545632889855      11.749768616777601
   200   1     0.49102062544942271      12.247013589408198      14.434984721640035
   201   1      15.464508658401201      5.3169744912620445      13.145526303475322
   202   1      15.506126793673388       5.430992899374246      7.6684974485287398
   203   1      11.514382556691544      15.013777098841501     0.82535707523550172
   204   1       6.046275975815945      12.251898159699294      14.425102665523013
   205   1      3.2694259942111898      15.002578992697863      14.496490592188707
   206   1      11.453202778420177      6.7474060078400271      14.458203465193947
   207   1       8.747153757381966      14.965584553894928      14.443786292897926
   208   1      6.0252099279971389      6.7595609758003548      9.0470710456222605
   209   1      12.807797885624154      8.1214371881811758      7.6582518238577677
   210   1      11.461450479511541      9.4957321625735176      11.682448569595067
   211   1      12.805220296518769      2.6700686318767168      7.6552702696924371
   212   1      4.6008554086944287      13.595139415194353      15.755579598533586
   213   1      7.3957957244113572      8.1221876871238692      13.067696350865731
   214   1      12.818648484475261      8.1992252841700974      2.1624239924769881
   215   1      3.2401545886265808      9.4944433680208249      3.5223886713964419
   216   1      11.498414742611203      9.4723586468641088       6.289585104830735

Velocities

     1                       0                       0                       0
     2                       0                       0                       0
     3                       0                       0                       0
     4                       0                       0                       0
     5                       0                       0                       0
     6                       0                       0                       0
     7                       0                       0                       0
     8                       0                       0                       0
     9                       0                       0                       0
    10                       0                       0                       0
    11                       0                       0                       0
    12                       0                       0                       0
    13                       0                       0                       0
    14                       0                       0                       0
    15                       0                       0                       0
    16                       0                       0                       0
    17                       0                       0                       0
    18                       0                       0                       0
    19                       0                       0                       0
    20                       0                       0                       0
    21                       0                       0                       0
    22                       0                       0                       0
    23                       0                       0                       0
    24                       0                       0                       0
    25                       0                       0                       0
    26                       0                       0                       0
    27                       0                       0                       0
    28                       0                       0                       0
    29                       0                       0                       0
    30                       0                       0                       0
    31                       0                       0                       0
    32                       0                       0                       0
    33                       0                       0                       0
    34                       0                       0                       0
    35                       0                       0                       0
    36                       0                       0                       0
    37                       0                       0                       0
    38                       0                       0                       0
    39                       0                       0                       0
    40                       0                       0                       0
    41                       0                       0                       0
    42                       0                       0                       0
    43                       0                       0                       0
    44                       0                       0                       0
    45                       0                       0                       0
    46                       0                       0                       0
    47                       0                       0                       0
    48                       0                       0                       0
    49                       0                       0                       0
    50                       0                       0                       0
    51                       0                       0                       0
    52                       0                       0                       0
    53                       0                       0                       0
    54                       0                       0                       0
    55                       0                       0                       0
    56                       0                       0                       0
    57                       0                       0                       0
    58                       0                       0                       0
    59                       0                       0                       0
    60                       0                       0                       0
    61                       0                       0                       0
    62                       0                       0                       0
    63                       0                       0                       0
    64                       0                       0                       0
    65                       0                       0                       0
    66                       0                       0                       0
    67                       0                       0                       0
    68                       0                       0                       0
    69                       0                       0                       0
    70                       0                       0                       0
    71                       0                       0                       0
    72                       0                       0                       0
    73                       0                       0                       0
    74                       0                       0                       0
    75                       0                       0                       0
    76                       0                       0                       0
    77                       0                       0                       0
    78                       0                       0                       0
    79                       0                       0                       0
    80                       0                       0                       0
    81                       0                       0                       0
    82                       0                       0                       0
    83                       0                       0                       0
    84                       0                       0                       0
    85                       0                       0                       0
    86                       0                       0                       0
    87                       0                       0                       0
    88                       0                       0                       0
    89                       0                       0                       0
    90                       0                       0                       0
    91                       0                       0                       0
    92                       0                       0                       0
    93                       0                       0                       0
    94                       0                       0                       0
    95                       0                       0                       0
    96                       0                       0                       0
    97                       0                       0                       0
    98                       0                       0                       0
    99                       0                       0                       0
   100                       0                       0                       0
   101                       0                       0                       0
   102                       0                       0                       0
   103                       0                       0                       0
   104                       0                       0                       0
   105                       0                       0                       0
   106                       0                       0                       0
   107                       0                       0                       0
   108                       0                       0                       0
   109                       0                       0                       0
   110                       0                       0                       0
   111                       0                       0                       0
   112                       0                       0                       0
   113                       0                       0                       0
   114                       0                       0                       0
   115                       0                       0                       0
   116                       0                       0                       0
   117                       0                       0                       0
   118                       0                       0                       0
   119                       0                       0                       0
   120                       0                       0                       0
   121                       0                       0                       0
   122                       0                       0                       0
   123                       0                       0                       0
   124                       0                       0                       0
   125                       0                       0                       0
   126                       0                       0                       0
   127                       0                       0                       0
   128                       0                       0                       0
   129                       0                       0                       0
   130                       0                       0                       0
   131                       0                       0                       0
   132                       0                       0                       0
   133                       0                       0                       0
   134                       0                       0                       0
   135                       0                       0                       0
   136                       0                       0                       0
   137                       0                       0                       0
   138                       0                       0                       0
   139                       0                       0                       0
   140                       0                       0                       0
   141                       0                       0                       0
   142                       0                       0                       0
   143                       0                       0                       0
   144                       0                       0                       0
   145                       0                       0                       0
   146                       0                       0                       0
   147                       0                       0                       0
   148                       0                       0                       0
   149                       0                       0                       0
   150                       0                       0                       0
   151                       0                       0                       0
   152                       0                       0                       0
   153                       0                       0                       0
   154                       0                       0                       0
   155                       0                       0                       0
   156                       0                       0                       0
   157                       0                       0                       0
   158                       0                       0                       0
   159                       0                       0                       0
   160                       0                       0                       0
   161                       0                       0                       0
   162                       0                       0                       0
   163                       0                       0                       0
   164                       0                       0                       0
   165                       0                       0                       0
   166                       0                       0                       0
   167                       0                       0                       0
   168                       0                       0                       0
   169                       0                       0                       0
   170                       0                       0                       0
   171                       0                       0                       0
   172                       0                       0                       0
   173                       0                       0                       0
   174                       0                       0                       0
   175                       0                       0                       0
   176                       0                       0                       0
   177                       0                       0                       0
   178                       0                       0                       0
   179                       0                       0                       0
   180                       0                       0                       0
   181                       0                       0                       0
   182                       0                       0                       0
   183                       0                       0                       0
   184                       0                       0                       0
   185                       0                       0                       0
   186                       0                       0                       0
   187                       0                       0                       0
   188                       0                       0                       0
   189                       0                       0                       0
   190                       0                       0                       0
   191                       0                       0                       0
   192                       0                       0                       0
   193                       0                       0                       0
   194                       0                       0                       0
   195                       0                       0                       0
   196                       0                       0                       0
   197                       0                       0                       0
   198                       0                       0                       0
   199                       0                       0                       0
   200                       0                       0                       0
   201                       0                       0                       0
   202                       0                       0                       0
   203                       0                       0                       0
   204                       0                       0                       0
   205                       0                       0                       0
   206                       0                       0                       0
   207                       0                       0                       0
   208                       0                       0                       0
   209                       0                       0                       0
   210                       0                       0                       0
   211                       0                       0                       0
   212                       0                       0                       0
   213                       0                       0                       0
   214                       0                       0                       0
   215                       0                       0                       0
   216                       0                       0                       0
