(written by ASE)

216 atoms
1 atom types

0.0      16.331106185913086  xlo xhi
0.0      16.331106185913086  ylo yhi
0.0      16.331106185913086  zlo zhi

Atoms # atomic

     1   1       12.23720745925425      7.6337880891913983      11.522633178012256
     2   1       4.067849550808404      10.402433199735242      11.539817754321348
     3   1   0.0039153058173844457       6.227607130537308      4.7589055216357679
     4   1      6.8381010308466443      4.9080411477843882      8.8071488959474209
     5   1      15.006379184490697      7.6017439258399122      14.218022388516829
     6   1      2.7559048799514869      14.460176566824089      4.6880145206642965
     7   1      6.7419140298443381      10.398300101796622      14.261272931995109
     8   1      10.892410694925957     0.85039676430285027      15.613164880231693
     9   1      2.6818527307097213      9.0375949013847503      15.622379177237576
    10   1      12.221296102941324      4.9445751637599642      14.258979578546359
    11   1      14.959402428363092       7.599545966549897      8.8074438391116701
    12   1      8.1684217315870455      11.683491091472661      12.924190440197094
    13   1      15.001343735683236      2.1395848787384466      8.7900996235981665
    14   1      6.7938897319125431      10.400374438044196      3.3808071918687972
    15   1      2.7255734311131903      8.9990225653235711      10.112555659996815
    16   1      13.619487314096546      9.0088413498046975      10.199779017012361
    17   1      1.3832527779204042      2.1770759998831579      11.551679725936992
    18   1      13.575902891062697      0.7934536912738821      1.9957340159779591
    19   1      5.4257301593824536      8.9520915594557664      7.4338906029739746
    20   1      12.255908608005257      13.046974403405216      6.0533370903818309
    21   1      13.636178371645656     0.81026770264620751      12.936626723584709
    22   1      8.1308559012414889      11.784688719332962      1.9768485277492971
    23   1       12.20425364446055      10.329962841390852      8.7888458717976619
    24   1      5.4459585880829877      9.0119358195048562      12.875000150222945
    25   1      13.532698097844218      14.463780129840757      10.139700165205568
    26   1      8.2065540864263085      14.406640002168842      10.162126553196117
    27   1      9.4753032114576854      7.6029154245137534      14.253422382095209
    28   1      2.7103106090681877      0.8102955665012459      7.4272115517479165
    29   1      14.918001363472513      7.6000618737348873      3.3860224781336683
    30   1   0.0070113865392518737      6.2500471462648193      15.633038987771215
    31   1      5.4545508762375334      14.423711662943106      2.0050471140768167
    32   1   0.0098798146128531439      11.748744589685884      4.7783961057207875
    33   1      2.6948567553532712      11.684775018976438      1.9915478672061653
    34   1      4.1063476643736294      7.6639910479383389      8.8250946787068187
    35   1      1.3849521080490774      2.1813804179435863     0.64705571930183936
    36   1      12.249635955363601      13.050431954954433     0.67558775931814807
    37   1       6.789162367301401      7.6252366842477386         11.548781885013
    38   1      16.293524781011001     0.78188769707038119      10.202117147311128
    39   1      12.151598989068702      15.813496507212335      14.212363957448247
    40   1      1.3222581908602535      4.8938098967569204      3.3738638598866544
    41   1      4.0733909293505803      10.397893216507327     0.64209394544732845
    42   1      14.958648035781266       10.37316082074085      6.1227154125505194
    43   1      16.328575320477285     0.82756726298591587      15.575774263647077
    44   1      6.8168359207272147      7.6195169283628275      6.1003814984893552
    45   1      1.3782765854334826      10.329640642752679        3.38960292266799
    46   1      4.0925617483218844      13.077455757350094      8.8158482591780967
    47   1      8.1369455528439403      3.5065797664631759      4.7294642560440252
    48   1      16.281974300525917      14.418747273049803      12.889835888725656
    49   1      5.4294378772459027     0.81177192495150052      4.7026507101614925
    50   1      14.946567046964446      4.8491698108134074      6.1033601324253368
    51   1      2.6956376733516834      6.2110212012447619      2.0404867741038544
    52   1      10.871949621287285      6.2617222232021277      15.587237137251691
    53   1       2.767064049703805      14.425076383458872      15.604165706787853
    54   1    0.041260125800669734      11.760168526899179       10.14315576993522
    55   1      14.951784523401329      4.9126005992079627     0.64675876847991276
    56   1      10.878134667048471      14.438009105835818      7.4287441854512508
    57   1      14.929880856464251       10.38216972828252     0.57086511044304444
    58   1      4.1329563074968405       4.840313241902777      11.535597049502258
    59   1      1.4025394326558853      7.6465859943133978      11.498492615393843
    60   1      5.4115938158088284      9.0317593097356621       1.999204221854356
    61   1      6.8048050625142196      15.751719055334206      8.7824865856853194
    62   1      4.0898517754860109       15.83535053025048     0.61820002053268297
    63   1      5.4406160284889893      11.679272333473136      4.7492220411144785
    64   1      9.5342344131303207      2.1309261553662111      3.3872051710200139
    65   1       10.85984721745524      8.9200576169070018      7.4512041560793136
    66   1      5.4018475503565355      6.2150136414697386      15.591148297759787
    67   1      9.4765803250929821      10.335139434616849     0.57629515524129005
    68   1      1.3695882947390885      13.075139042066553     0.65345418515794762
    69   1      10.910883092377958      0.8224794325645064      4.7717817862452989
    70   1      8.1697426486625773      3.4828302712250832      10.152934644615243
    71   1      2.7188033660724216      14.403926135693837      10.195211778310522
    72   1      9.5053066211991109       10.32895633567523      6.0420898270441512
    73   1      9.5034960790027299      2.1704857722997986      8.7395416928789018
    74   1      12.228742687781278      10.301248226202119      14.257463006104445
    75   1      2.7590098138068129     0.85892395567815782      2.0092439703562235
    76   1      9.5033510409450628      15.796194148319501      6.1209885835954765
    77   1      4.1192940144875365       2.217747250788932      3.3653859473816112
    78   1       8.142899413781663      6.2611221160709079      7.4547181653959456
    79   1      16.302659258414678      14.435153121532494      1.9465202424927952
    80   1      8.1082708474563105      9.0062442925036521      10.189445298756027
    81   1      10.925427781355552     0.83384174077091444      10.208010170137413
    82   1      10.876298816197732      14.445407020186622      1.9788732200979382
    83   1      4.1036011886708934      10.370026441239588      6.1087333544274998
    84   1      1.3270553976233259      15.804995719577391      14.230637779304516
    85   1      1.4044302811593639      2.1426764282092563      6.0458350211842458
    86   1      9.4968583976924492      4.8854638812774738     0.62018571565189262
    87   1      5.3997921955997299     0.85463803240360647      10.152368120121537
    88   1      13.592495634223724      6.2489817492573252        2.01316742016283
    89   1      4.0280378207410195      4.9288453483715671      0.6417547729760642
    90   1      2.7567931163784749     0.82569570016376304      12.911690885173584
    91   1      14.989287082110991      10.359977932049674      11.512172916484133
    92   1      12.304869173270617      4.9145435251348317      8.8266365598030916
    93   1       14.92660046549554      2.1957829890928622      3.3130987541828461
    94   1      2.7696912827081235      3.5575117298915586      4.7507454274248744
    95   1      12.264766637030561      15.784721540617056      8.7936029254071855
    96   1      9.5572876770211224      12.998478154606346      8.7516635649066075
    97   1      14.990342258315764      2.1770265993366706       14.25870410357777
    98   1      6.8323330911774747      2.1660518907382311      11.518628570164992
    99   1        12.2322858993914      7.6526269754266991      6.1238800973558796
   100   1      13.587073741732411      11.711243004386006      7.4605737119455853
   101   1      10.874145633757735       6.319729172285804      10.137237438454576
   102   1      8.1214089592974688      8.9835414561347307      4.7476314895290557
   103   1      13.644273247401088      8.9879821515647791      4.6955073424689431
   104   1      1.3638126894678777      10.354058627159247      8.7491239387827591
   105   1      1.3625518804464463      7.6324963744093566      6.0794342066640752
   106   1      6.7332716110859678      2.1876248417015347     0.64806228585557335
   107   1      2.7313321233894214      11.723147806032102      12.913958929967976
   108   1      13.637353277253737      3.5645920693006587      4.7300974591078671
   109   1      5.4944217409492353      3.5254994457104658      12.897007972006804
   110   1      8.0778298900174264      6.2275331513937999      12.859871415375551
   111   1      8.1257094837187651      3.5564183473528033       15.63745924159582
   112   1      13.590935258341574      3.5881612403764507      15.581660472604881
   113   1      16.309604537216387      8.9874545634623928      7.4369130403501913
   114   1      4.0889202223236794      15.802925276968949      6.0919590703419431
   115   1      5.4279071903621343      3.5667761575012662      1.9657105296597592
   116   1      12.215651299609704      13.046487698513715      11.527346428181545
   117   1       5.419061328959117     0.81366076579730162      15.585394472532471
   118   1      13.580485704321063      6.2920429645328113      12.877651718471839
   119   1    0.025080724373513164      9.0276583343198809      12.861388961227249
   120   1      1.3584446995432984      13.123099915484772      6.0783318200848271
   121   1      4.0595568295145767      2.1707296114504402      8.8193116511860126
   122   1      6.8376406080192851      13.106398150428049     0.59464332126973574
   123   1      10.841535432617434      3.5277195500730443      1.9817632737436668
   124   1      14.964911927734875      15.823399004934799     0.60233563124178602
   125   1      9.5516282725427573      2.2228294232659778      14.265540360483783
   126   1      6.7965997047484166      13.101739411206609       6.034424225003022
   127   1      4.0837893793574835      7.6971726406212611      14.245344054306088
   128   1      9.4942029358044238      4.9198928985973112      11.483893415468401
   129   1      8.2180607634711578     0.84728075791124269      12.898588789494397
   130   1      9.5798951192313098      15.753870290954637      11.547935991911572
   131   1      5.4913155903316806      6.2901117195233383      10.179955526781555
   132   1      13.564002956465515      8.9123297166397606      15.594432582367631
   133   1      10.849870740589267      11.729897429467428      10.198142715167137
   134   1      8.1654684063054219     0.82165896979365982      7.4368619363365838
   135   1      8.1879746138981773      14.406088078821881      4.7402880861260996
   136   1      6.7961198137253973      2.1881139801174925      6.1226613883075629
   137   1      16.320483364951201      11.761154591009358      15.627633643246213
   138   1      14.932000942971627       13.03158576814576      3.2990441770309928
   139   1      1.3666947124828965      15.748074609106652      8.8050784533389788
   140   1      1.3722723505394896      15.807173237261964      3.3395643060679561
   141   1      12.322863626519165      2.1888766466824734       11.54262798836487
   142   1    0.039806349696904331      6.2605823603462341      10.259595048177744
   143   1      9.4955997788430295      7.5808399507499757      3.3558268199601002
   144   1       14.96863132651572      4.9620425156110173      11.510753685020518
   145   1      12.233978659004038      15.801205261882387      3.3306775614540527
   146   1      9.4826651096465184      7.6419686250077348      8.8385423348589711
   147   1      5.4615209769887088      14.405493325444468      12.869324197778269
   148   1      8.1225493088582539      11.753850123997722      7.4277113976714872
   149   1      4.0441903393276846      13.032450156033065      3.3834103329809864
   150   1      13.657913638690275      6.3199073062760931      7.4601663399513996
   151   1      4.1362931562329663      4.8437839344840654       6.101016648372763
   152   1   0.0034116434905653303      3.5446150236765845      12.870976074180021
   153   1      10.885672752408027      11.700181175611988      15.649387405076709
   154   1      1.3580772373502157      13.055555984052148      11.555667785817946
   155   1      6.7006920723538315      7.6111606920806594     0.65807167613983353
   156   1      13.603674272171702     0.80654745213180234      7.4239696104656332
   157   1      10.875742999211639      11.743813295725204      4.7447701514719256
   158   1      9.4834905611425029       13.04881512130487      14.301327771155798
   159   1      1.3545578742797773      4.9482434585272017       14.24186703456121
   160   1      12.198941747274716      10.376580409308531      3.4045676379669487
   161   1      16.321042102166643     0.81992696959914468      4.6671032450009875
   162   1       9.542074255522607      15.807878959354639     0.58657685691234462
   163   1      6.7988283264465963      15.759892777282062       3.395943227289564
   164   1      14.951615150099087      13.034926510521018       14.26726524261926
   165   1      14.995715480317926       13.08052005134698      8.8075372864508381
   166   1      1.3407695247035747      7.6567152965153014     0.66272579166480483
   167   1      2.7260338539405495      6.1982520117113609       7.478307291372289
   168   1      13.625214857259721      3.5206148754193691      10.146515980506138
   169   1      16.274000127583577      14.435484080858714      7.4586741027540597
   170   1      16.305571700485416      3.4358367237787206      7.4258774936403142
   171   1      4.1094796103504336       13.02791017280515      14.221771963000947
   172   1      1.3535609809857618      10.400015249834269      14.277282602696118
   173   1      12.211922166731028      2.2023754068482333     0.63410462381524013
   174   1      10.904046835471945      6.2916297520799276      4.7665730704964631
   175   1      9.5058565977265062      10.377967518249307      11.556747297267293
   176   1      2.7334432058563038      3.5403256934677927      15.552183677556059
   177   1      10.889634530224839      3.5837436634287485      12.845316018890344
   178   1      10.819597696337951      8.9416828886461417      12.902477561577484
   179   1      6.7694780746695642      4.9623194506942809      3.3402332819413232
   180   1      2.7423951689256683      6.2868230545714709      12.844018463649604
   181   1      8.1406162811356353      14.454708924072975      15.589447750868885
   182   1      13.568038713425835      11.647340598951587      1.9829408562286517
   183   1      14.993949714971563      15.783096919689228      6.0574658079764276
   184   1      13.588808357965718      14.421383266742168      4.7021562179917282
   185   1      12.220665333401939        7.61233851791809     0.67338967835190999
   186   1      8.0912113543043347       6.295183184492771      2.0255854521170136
   187   1      8.1120939143790451     0.86025977809099174      1.9841413138435371
   188   1      4.1107903066232439      2.1832011809426888      14.272066099669019
   189   1      1.3163356007118097      4.8766520892168614      8.8035978970590349
   190   1      4.0446354309509616      7.6445413470642052      3.3688211105058201
   191   1      16.277613424698075      8.9875898674222299      2.0438899363814471
   192   1      5.4571795693565264      11.768249774917649      15.673530887924471
   193   1      9.5096334276845482      13.013800598000557      3.3350450077979303
   194   1      6.7529189141460506      15.803313667472366      14.214705981386146
   195   1      14.917123347848246      15.754430974989646      11.524367794245563
   196   1      12.195169784365589      4.8836450650979373      3.3924788618718651
   197   1      9.4613970792977398      4.9092496360299833      6.0606610255891269
   198   1      5.4679727370304363      11.712341984031013       10.14398316825077
   199   1      8.0920650346840262      9.0405803491892129      15.581150405878589
   200   1      13.529141258497134       14.44435865785033      15.608020409528535
   201   1      5.4188642134780594      6.2745211017339102      4.7505366310264208
   202   1      6.7689431859938054      4.9276573017314149      14.245074419796197
   203   1      5.4397404463891803       14.43919082531238       7.449141987454027
   204   1      10.823798932961381      9.0325974155588256      1.9760103002499108
   205   1      5.4345550924751365      3.5105734234503814      7.5103835772466141
   206   1      2.6792286612871976      3.5091274232177341      10.137694941052587
   207   1       4.074621319316293      15.827132031452606       11.57347631779794
   208   1      2.7604044666734069      9.0450560873714494      4.7732277864779462
   209   1      12.262063478063169      2.1809275390420453      6.0758934285784107
   210   1      16.304875712490571      3.5538485455256819      1.9848730746479077
   211   1      10.846480354315077      14.383838851411838      12.906979581823862
   212   1      6.7786052514998687      10.375089145520974      8.7579040950254239
   213   1      10.915439623572183      3.5689171723189759      7.4388890622096824
   214   1      13.580365001507971      11.674909510825728      12.946526301077824
   215   1      6.8194047491445531      13.077936621782897      11.497434518959722
   216   1      2.7047086357670196      11.729847785568495      7.4127155332594725

Velocities

     1                       0                       0                       0
     2                       0                       0                       0
     3                       0                       0                       0
     4                       0                       0                       0
     5                       0                       0                       0
     6                       0                       0                       0
     7                       0                       0                       0
     8                       0                       0                       0
     9                       0                       0                       0
    10                       0                       0                       0
    11                       0                       0                       0
    12                       0                       0                       0
    13                       0                       0                       0
    14                       0                       0                       0
    15                       0                       0                       0
    16                       0                       0                       0
    17                       0                       0                       0
    18                       0                       0                       0
    19                       0                       0                       0
    20                       0                       0                       0
    21                       0                       0                       0
    22                       0                       0                       0
    23                       0                       0                       0
    24                       0                       0                       0
    25                       0                       0                       0
    26                       0                       0                       0
    27                       0                       0                       0
    28                       0                       0                       0
    29                       0                       0                       0
    30                       0                       0                       0
    31                       0                       0                       0
    32                       0                       0                       0
    33                       0                       0                       0
    34                       0                       0                       0
    35                       0                       0                       0
    36                       0                       0                       0
    37                       0                       0                       0
    38                       0                       0                       0
    39                       0                       0                       0
    40                       0                       0                       0
    41                       0                       0                       0
    42                       0                       0                       0
    43                       0                       0                       0
    44                       0                       0                       0
    45                       0                       0                       0
    46                       0                       0                       0
    47                       0                       0                       0
    48                       0                       0                       0
    49                       0                       0                       0
    50                       0                       0                       0
    51                       0                       0                       0
    52                       0                       0                       0
    53                       0                       0                       0
    54                       0                       0                       0
    55                       0                       0                       0
    56                       0                       0                       0
    57                       0                       0                       0
    58                       0                       0                       0
    59                       0                       0                       0
    60                       0                       0                       0
    61                       0                       0                       0
    62                       0                       0                       0
    63                       0                       0                       0
    64                       0                       0                       0
    65                       0                       0                       0
    66                       0                       0                       0
    67                       0                       0                       0
    68                       0                       0                       0
    69                       0                       0                       0
    70                       0                       0                       0
    71                       0                       0                       0
    72                       0                       0                       0
    73                       0                       0                       0
    74                       0                       0                       0
    75                       0                       0                       0
    76                       0                       0                       0
    77                       0                       0                       0
    78                       0                       0                       0
    79                       0                       0                       0
    80                       0                       0                       0
    81                       0                       0                       0
    82                       0                       0                       0
    83                       0                       0                       0
    84                       0                       0                       0
    85                       0                       0                       0
    86                       0                       0                       0
    87                       0                       0                       0
    88                       0                       0                       0
    89                       0                       0                       0
    90                       0                       0                       0
    91                       0                       0                       0
    92                       0                       0                       0
    93                       0                       0                       0
    94                       0                       0                       0
    95                       0                       0                       0
    96                       0                       0                       0
    97                       0                       0                       0
    98                       0                       0                       0
    99                       0                       0                       0
   100                       0                       0                       0
   101                       0                       0                       0
   102                       0                       0                       0
   103                       0                       0                       0
   104                       0                       0                       0
   105                       0                       0                       0
   106                       0                       0                       0
   107                       0                       0                       0
   108                       0                       0                       0
   109                       0                       0                       0
   110                       0                       0                       0
   111                       0                       0                       0
   112                       0                       0                       0
   113                       0                       0                       0
   114                       0                       0                       0
   115                       0                       0                       0
   116                       0                       0                       0
   117                       0                       0                       0
   118                       0                       0                       0
   119                       0                       0                       0
   120                       0                       0                       0
   121                       0                       0                       0
   122                       0                       0                       0
   123                       0                       0                       0
   124                       0                       0                       0
   125                       0                       0                       0
   126                       0                       0                       0
   127                       0                       0                       0
   128                       0                       0                       0
   129                       0                       0                       0
   130                       0                       0                       0
   131                       0                       0                       0
   132                       0                       0                       0
   133                       0                       0                       0
   134                       0                       0                       0
   135                       0                       0                       0
   136                       0                       0                       0
   137                       0                       0                       0
   138                       0                       0                       0
   139                       0                       0                       0
   140                       0                       0                       0
   141                       0                       0                       0
   142                       0                       0                       0
   143                       0                       0                       0
   144                       0                       0                       0
   145                       0                       0                       0
   146                       0                       0                       0
   147                       0                       0                       0
   148                       0                       0                       0
   149                       0                       0                       0
   150                       0                       0                       0
   151                       0                       0                       0
   152                       0                       0                       0
   153                       0                       0                       0
   154                       0                       0                       0
   155                       0                       0                       0
   156                       0                       0                       0
   157                       0                       0                       0
   158                       0                       0                       0
   159                       0                       0                       0
   160                       0                       0                       0
   161                       0                       0                       0
   162                       0                       0                       0
   163                       0                       0                       0
   164                       0                       0                       0
   165                       0                       0                       0
   166                       0                       0                       0
   167                       0                       0                       0
   168                       0                       0                       0
   169                       0                       0                       0
   170                       0                       0                       0
   171                       0                       0                       0
   172                       0                       0                       0
   173                       0                       0                       0
   174                       0                       0                       0
   175                       0                       0                       0
   176                       0                       0                       0
   177                       0                       0                       0
   178                       0                       0                       0
   179                       0                       0                       0
   180                       0                       0                       0
   181                       0                       0                       0
   182                       0                       0                       0
   183                       0                       0                       0
   184                       0                       0                       0
   185                       0                       0                       0
   186                       0                       0                       0
   187                       0                       0                       0
   188                       0                       0                       0
   189                       0                       0                       0
   190                       0                       0                       0
   191                       0                       0                       0
   192                       0                       0                       0
   193                       0                       0                       0
   194                       0                       0                       0
   195                       0                       0                       0
   196                       0                       0                       0
   197                       0                       0                       0
   198                       0                       0                       0
   199                       0                       0                       0
   200                       0                       0                       0
   201                       0                       0                       0
   202                       0                       0                       0
   203                       0                       0                       0
   204                       0                       0                       0
   205                       0                       0                       0
   206                       0                       0                       0
   207                       0                       0                       0
   208                       0                       0                       0
   209                       0                       0                       0
   210                       0                       0                       0
   211                       0                       0                       0
   212                       0                       0                       0
   213                       0                       0                       0
   214                       0                       0                       0
   215                       0                       0                       0
   216                       0                       0                       0
