(written by ASE)

216 atoms
1 atom types

0.0      16.331106185913086  xlo xhi
0.0      16.331106185913086  ylo yhi
0.0      16.331106185913086  zlo zhi

Atoms # atomic

     1   1      9.1288569355899654      7.9225895244147182      6.8697052129762142
     2   1      13.184922144212919      1.0606234059182498      5.5654762747642508
     3   1      13.181940590047589      3.8116848421419718      8.2538851637149264
     4   1      7.7374401698195356      6.5973889591328998    0.079413553440781826
     5   1      11.898575717124459      2.5142235354463196      4.0897992113577288
     6   1      1.0076695486943521      5.1781229394708248      6.8926173324484807
     7   1     0.91816117305132394      16.022076808694123      12.281294161736128
     8   1      3.6658870381392603      13.297968115951903      6.9248128610212234
     9   1      13.232455690736401      6.5837802036616608      10.906363550755486
    10   1      9.1338145116147871      5.2006359609320612      4.1583496485059754
    11   1      5.0540891181013308      14.694908495535969    0.083029839227504176
    12   1      10.411297069219245       12.00414298150065      2.8090143610644418
    13   1      6.3779079281961799       10.57676505141194      12.268429578043992
    14   1       10.57393632258254      11.906571305082025      8.1618580294202729
    15   1      14.565779847362251      5.2415566480947291      4.2375414014019839
    16   1       14.56633761116791      13.332113384319996      1.4692783541979679
    17   1      7.8249346214596471      6.5802111966922894      5.5889150089291206
    18   1      9.0931678393060338      5.2269564747595041      14.995229748836209
    19   1       11.87798907362378       10.58927142030393      12.258982636099972
    20   1      15.907330290064237      14.631908440970392      10.951170576476784
    21   1      15.952537387206348      14.680966347214053    0.086702575176876628
    22   1      15.928914678592491      9.3621715796577973      5.5391139043161388
    23   1       10.50394426554567      6.5910437874624108      2.8221033157115585
    24   1      6.4043953818014074      7.9111670473160984      9.6060146239385631
    25   1      11.879954387975658      5.1404909172600242       6.882153177281225
    26   1      13.149442331032333      1.0789204679330879      10.902417347495202
    27   1      7.7187477817565764      3.8005453839377594       2.855430676509485
    28   1      13.147985136587181      14.707608572974777       8.201981980675555
    29   1        2.29207755187619      11.930694346324344      10.937060028262408
    30   1      3.6703360075524643      7.8954236041907393      12.287185237742847
    31   1      7.7540630886838358      11.983788982938108     0.11199916837929802
    32   1      10.515277675649145      3.9248977536587404     0.36642256101540127
    33   1      3.6401846395240227      16.035066962248266      4.1931933383933711
    34   1       3.663077534153075      5.2238931541724014      15.083459611567378
    35   1      11.947439914821302      5.3028031049362312      1.4991303987181368
    36   1      7.7452235544444079      9.2535731172173428      13.605552953052893
    37   1      3.6406764548168837      5.2078372465066991      9.5909579214151108
    38   1      15.941432728401878      1.0447522027588718      13.664243722509127
    39   1      15.958008923596594      1.0555020536974382      8.2032435197543236
    40   1      1.0165384069034928      10.630621867885793      6.8667874171516701
    41   1     0.95503180629748385      5.2356962344961744      1.4660679270574093
    42   1      1.0026618420657059      13.312661736626296      4.2316313439044961
    43   1        6.33986415364717       7.971462482799609      14.968037546548089
    44   1      6.3830027550004047      2.4275854410628028      4.1762633087425343
    45   1      10.468730193235842      6.5241340325034116      8.2406701525009112
    46   1     0.89217265279799562      10.580381268755787       12.30230715872176
    47   1      11.807990202718429        13.3669565875025      9.5706856892743417
    48   1      11.884947980162451      16.076098131421304      1.4545010202822368
    49   1      7.7334438359554269      11.976116567028498      5.4858669290713351
    50   1      14.551701421670714      10.699919883747384      4.1988984931315372
    51   1       15.89933762233602      11.981563768174169      13.701297539308825
    52   1       15.95952257580916      9.3124829038747521    0.088560031161939889
    53   1      14.580195072838706      10.628821059787242      15.072135935561732
    54   1      6.3765977186282612      5.1429078937512145      6.8588463401419517
    55   1      3.6229625869382858      16.065262133716942      15.065300652065503
    56   1      15.912329722709728      1.0284088958547386      2.8738273913508579
    57   1      7.7244938197056285      6.5327350813460043      10.912003487038191
    58   1      13.202958454082136      14.634288427889828      13.651157201386468
    59   1      13.204397153741411      3.8311335696063225      13.639241692232758
    60   1     0.98088654354376104      16.071361519417223      6.9182613264767383
    61   1      5.0127070347015206      3.7917328618198098      5.4642090481044647
    62   1      14.587625109712349      2.4144989199401437      6.8758790645248951
    63   1      5.0096933580133509       11.90281296990986      13.686960186615011
    64   1      9.1922473274785261      10.566623094882857      9.5678520933960272
    65   1      15.969268354556561      6.5762903020863632      2.8365051568034971
    66   1       6.418111699053668      5.1705167154264586      1.4959416299452499
    67   1      2.2952464874247482      9.3028480938426128      2.8005035959792224
    68   1      2.3223384285052191      9.3243838118817166      8.2128471806734069
    69   1      14.511623220675233      10.619626230977019       9.554875567578847
    70   1      15.929944546142906      12.002140677577017      8.2310781724992239
    71   1      13.199242948940423      9.3008389760504997      13.701454258283889
    72   1       6.402606741325144      10.537788750290815      6.8231645444313926
    73   1      14.513432789461831       13.29166042055806      6.8546811196804924
    74   1      9.0949423653404438      13.283434134481922      12.301613117546481
    75   1      11.988208263352931       2.385068361856014       14.96174737253034
    76   1      2.2865870339951755      3.7857626962682218      13.632086156917921
    77   1      15.856129908888192      11.961472590253038        2.87903975738638
    78   1      7.7501129917844196      14.642787268705206      2.8135509373581158
    79   1     0.95461670786314556      2.4398085477079405      4.1694299720658705
    80   1      13.050342401254397      11.846991812493911      5.6258792720287829
    81   1       14.52284371524388      15.999123806010971      15.015224559188823
    82   1      3.6833149668941019       13.35475878951172      1.4680625653790003
    83   1      2.3593523355038144      9.2260723440280117      13.665955950317425
    84   1      3.6331931237576214      16.016777565835469       9.600457427487413
    85   1      3.6640874468029381      2.4633363488679549      6.8651803175999362
    86   1       13.19639377850558      6.5051467012762032       5.582241311456869
    87   1      10.439008098921704      3.8548049487093294      10.995074277919457
    88   1     0.94881555058513101      7.9056935641062864      4.1704092223075691
    89   1      4.9804652691640854      1.0485693075466855      2.8152466172001027
    90   1      3.6417963627722258      5.1747875508493735      4.1429702606394585
    91   1      2.3793919227064464      11.936361538080973      5.5064122026562359
    92   1      5.0240842482452308      11.980356740043248      2.7907407825606185
    93   1      7.8455227250749999      14.657869279883016      8.2619041135072848
    94   1      7.7476351771817917      3.7174578017377371      8.2105849763377137
    95   1      6.3666514174655617      13.311951147484706      15.078502035542556
    96   1      5.0131309546620173      3.8071458323238403      10.993937335292912
    97   1      7.8017061438079054      9.2934829183203647       2.898669295717923
    98   1      14.605801590590318      15.987567485067188      9.5580917135018808
    99   1      14.573285810198968      13.259502854966854      12.248243005964127
   100   1      5.0486944810839418       6.549433439468487      8.2560928571027716
   101   1      11.834134042670257      13.336678676202268      14.974053219007033
   102   1       7.751767301710629      1.0774725208808746      10.891957085967078
   103   1     0.97765938592255708      7.9408798942372982      9.5740546605333066
   104   1      14.546743845645892      7.9126909203313858      12.295519572304897
   105   1       2.294283541796915      14.697942613829582      13.664976700075727
   106   1       6.361700655309221      2.4093663735068276      9.6007591845201432
   107   1      10.422507829690062      14.621659409365179      10.965803845744631
   108   1      0.9451874698095537      7.9636878588627837      15.040148716682552
   109   1      6.3578673675837649      5.2369543666407026      12.285189747687696
   110   1      11.840212013355313        10.6312341426393      1.4885094028995951
   111   1      2.3109619450188461      1.0725701858612382     0.10430693445488703
   112   1      10.505087048630912      1.0412978147914487      2.8028945337587174
   113   1      9.1384868785731896      2.4778749540344052      12.279771748835515
   114   1       10.47086098725083      1.1222425570304182      8.2272770072966068
   115   1      10.550201671843638      9.2330886817438795      10.977766078567925
   116   1       6.377214373725792      16.070013346867768       6.923216955681994
   117   1      9.1767681651092516      10.503282346893229      4.2096113544983496
   118   1      11.856030895738854      7.8852704534491522      15.026903529765264
   119   1     0.96132769909770843      13.255062159536806      9.6044386734998852
   120   1     0.97818423630992868      5.1771753250470738      12.286461994274077
   121   1      13.146471484374615      9.3501032451681567      8.1473566571780225
   122   1      2.2697363372416532      6.5631108203294275      10.894668032212735
   123   1       6.379966689887226      13.330702913544428      9.6014172095334516
   124   1      6.4588722603070323      7.8650532189611226      4.1672032971872568
   125   1      2.2346763070299858      6.5904032838251965     0.07239023455162652
   126   1      6.3422431671568233      16.072399174245902       12.27590633858722
   127   1      4.9540990050768414       6.534875122753931      13.638352969100879
   128   1      11.849485688357959      5.2478750509961856       12.31635735552959
   129   1      3.6143009433367013      2.3914147502887317       12.31243840774323
   130   1       15.89911373808593       6.596834602261481      8.2185932186224591
   131   1      2.2887178280101637      3.8125901132401623      2.7721036355028446
   132   1      15.916119206994949      3.8595899878501143    0.062882218748486984
   133   1      2.3032267441782324       1.068757461417448      5.5427150338083493
   134   1      11.812415323591949      2.4814987153040704      9.6252092914495506
   135   1      7.7495138580629828       9.202981117155673      8.2928429700501738
   136   1      10.615315972457893      9.3307430979940591      5.6755192773226781
   137   1      11.807847111480328      13.342975664088499      4.2145149062802147
   138   1      9.1150870807996398      5.1792749699490059      9.5218039702014039
   139   1      14.539064615867801      16.013904060156051      4.2080062017661817
   140   1      3.6584696555927962        10.5719573804937      9.6016761365357297
   141   1      5.0509445177973475      6.5571399247205022      2.8317488332513108
   142   1      10.470703294865984      1.1079577684648854      13.662068151644121
   143   1      15.903280905366955      3.7892757321750707      10.869903513923418
   144   1      9.1210998330292341       13.35486586458785      6.9121672945302635
   145   1       9.046079141053383      16.030378047323552      4.2055872784554253
   146   1      13.186312173383044      14.613703731208716      2.8524447420001309
   147   1      13.256638109975484      6.5512181863056185    0.076356719717311172
   148   1      13.183953601478834       12.01117002672413      10.948674753793171
   149   1      9.0628062147644641      2.3832643901756683      1.4871220506063736
   150   1      13.269474464783912      1.0987350757996239    0.085657946779674532
   151   1      10.447862234307877      6.5799342616090257       13.67700707158383
   152   1      14.544923569351681      2.4415852639143623      1.4735798520290473
   153   1      15.942624181976271      6.5324484121649107       13.63914824489359
   154   1      9.1098764182312379      13.345853063407048      1.5184926143880233
   155   1      11.786806859020771       16.05331644885996      6.9255964558965388
   156   1        14.5805046171497      7.9363554855659117      6.8918809479476408
   157   1      5.0228572652137586       9.250270337823622      10.934615796297294
   158   1      15.829183005865389      14.637468557650891      5.5373023887099748
   159   1       4.985319663751909      14.690076489373155       10.94211494526553
   160   1      14.566808741502882      5.1841760882064136      9.5642641049358872
   161   1      9.1548790993189186       7.931318089938884      12.230532788372216
   162   1      9.1749955858944077      16.083391890925327      9.5717467059378123
   163   1      3.7424858707258011       10.61681697034328      4.1862801821145013
   164   1       10.53572706837042        9.23215128812285     0.12308030564893357
   165   1      6.4212358577522082      10.592376597511702      1.4852969072632476
   166   1      3.6270309531263365      10.598440940459795      15.067923991430689
   167   1      13.149484187653002      11.963626746102818       0.139613199317834
   168   1      10.522315428380239      11.937222032329146      13.632298360250616
   169   1      2.3378358423079248      1.0482909123487474      10.956988646749778
   170   1      6.3695896548955488      16.021884073557089      1.5158600276298984
   171   1      13.215750032040546      9.2530591568519185      2.8136684765894131
   172   1      9.1563051446510144      2.4439328849585138       6.928695305940721
   173   1      7.7101574404215967      1.0658604722270155    0.098278440363958275
   174   1      11.835575662558881      16.019991764938936      12.297388519088258
   175   1      9.0977292375491743      7.9357534316151259      1.4427208150883644
   176   1      5.0375985829675187      11.914038331527422      8.1995027059582526
   177   1      14.627240941060904      2.4139842295173821      12.251835861473182
   178   1      3.6801652561887579      7.8856379156422349      6.9175974610047319
   179   1      10.463393960805433      14.755902352538783      5.5140023654391825
   180   1      5.0410634350901091      9.2748538018933004     0.11762799410190183
   181   1      6.3956809307190952      13.265757986232416       4.154783561765953
   182   1     0.97370898483258372      13.327885865632425      15.023120859348523
   183   1      4.9716739187089161      1.0985096097586364      8.2295674405160071
   184   1      7.7358150621868162      1.1072694460720811      5.5570927830081587
   185   1      2.3272059641251133      6.5474394095280104      5.5283095424297244
   186   1      14.633703408610245      7.9898175843727586      1.4841199331593771
   187   1      2.3305844261294624       3.806648419924727       8.223858392138709
   188   1      2.3414464625455196      12.033525355800521    0.057161158646561905
   189   1     0.99184944954858167       10.66868413722068      1.4653210784014021
   190   1      13.241102489838795      3.8465358326027399       2.826194313677064
   191   1      10.502939706649613       3.839924676709046      5.4877908735074357
   192   1      3.6008447698489476      7.9053591978458257      1.4325222791156449
   193   1      3.6062722594465129      2.4100450834780247      1.4665382056588214
   194   1       3.661264071727345       13.36909127515662      12.330274195197148
   195   1       7.810136845938473      11.891036658355119       10.89124065636679
   196   1      11.823716611172586      7.9035311342733507       9.563997390655345
   197   1      15.851140210340532      9.2967204792586244      10.909597218054614
   198   1      5.0479692907956064      14.683919672495676      5.5321486706138785
   199   1      5.0339687378867097      9.2059636447307867      5.5265019204626924
   200   1      7.7129813022020812      3.8187257584548604      13.672682211917959
   201   1      2.3419025050288553      14.660709689629812      8.2633233449708996
   202   1      15.962227681596119      3.8391437587106338      5.5573531701251113
   203   1      9.1472835827821655       16.11718673177154      15.052802070451776
   204   1       2.321298340152083       14.67353631034041      2.7935819223647513
   205   1      14.553410729249663      5.1742550956980722      15.047164080988637
   206   1     0.90256495815564364       16.01537974938708      1.4660682920860779
   207   1     0.95643004861265268      2.4583257220099597      15.037763862714201
   208   1      9.0760981253513364      10.581796606580269      15.068182918432967
   209   1      7.7433594747099619      14.684192227234917      13.580277394627501
   210   1      10.493646563451307      14.720758365733332    0.055700945110130018
   211   1      6.3551496074696274      2.4039994786682541      15.079601015187563
   212   1      11.843717261983898      7.9120971403637554      4.2354179079603682
   213   1      5.0269246579920264      1.0408148818628575      13.640705700546391
   214   1      10.478427301494094      3.6669930750051947      16.170830371502916
   215   1      5.0222172482814358      3.8255430338701046    0.083045961327035123
   216   1      1.0070612284180882      2.4226694783062044      9.5596812916775207

Velocities

     1                       0                       0                       0
     2                       0                       0                       0
     3                       0                       0                       0
     4                       0                       0                       0
     5                       0                       0                       0
     6                       0                       0                       0
     7                       0                       0                       0
     8                       0                       0                       0
     9                       0                       0                       0
    10                       0                       0                       0
    11                       0                       0                       0
    12                       0                       0                       0
    13                       0                       0                       0
    14                       0                       0                       0
    15                       0                       0                       0
    16                       0                       0                       0
    17                       0                       0                       0
    18                       0                       0                       0
    19                       0                       0                       0
    20                       0                       0                       0
    21                       0                       0                       0
    22                       0                       0                       0
    23                       0                       0                       0
    24                       0                       0                       0
    25                       0                       0                       0
    26                       0                       0                       0
    27                       0                       0                       0
    28                       0                       0                       0
    29                       0                       0                       0
    30                       0                       0                       0
    31                       0                       0                       0
    32                       0                       0                       0
    33                       0                       0                       0
    34                       0                       0                       0
    35                       0                       0                       0
    36                       0                       0                       0
    37                       0                       0                       0
    38                       0                       0                       0
    39                       0                       0                       0
    40                       0                       0                       0
    41                       0                       0                       0
    42                       0                       0                       0
    43                       0                       0                       0
    44                       0                       0                       0
    45                       0                       0                       0
    46                       0                       0                       0
    47                       0                       0                       0
    48                       0                       0                       0
    49                       0                       0                       0
    50                       0                       0                       0
    51                       0                       0                       0
    52                       0                       0                       0
    53                       0                       0                       0
    54                       0                       0                       0
    55                       0                       0                       0
    56                       0                       0                       0
    57                       0                       0                       0
    58                       0                       0                       0
    59                       0                       0                       0
    60                       0                       0                       0
    61                       0                       0                       0
    62                       0                       0                       0
    63                       0                       0                       0
    64                       0                       0                       0
    65                       0                       0                       0
    66                       0                       0                       0
    67                       0                       0                       0
    68                       0                       0                       0
    69                       0                       0                       0
    70                       0                       0                       0
    71                       0                       0                       0
    72                       0                       0                       0
    73                       0                       0                       0
    74                       0                       0                       0
    75                       0                       0                       0
    76                       0                       0                       0
    77                       0                       0                       0
    78                       0                       0                       0
    79                       0                       0                       0
    80                       0                       0                       0
    81                       0                       0                       0
    82                       0                       0                       0
    83                       0                       0                       0
    84                       0                       0                       0
    85                       0                       0                       0
    86                       0                       0                       0
    87                       0                       0                       0
    88                       0                       0                       0
    89                       0                       0                       0
    90                       0                       0                       0
    91                       0                       0                       0
    92                       0                       0                       0
    93                       0                       0                       0
    94                       0                       0                       0
    95                       0                       0                       0
    96                       0                       0                       0
    97                       0                       0                       0
    98                       0                       0                       0
    99                       0                       0                       0
   100                       0                       0                       0
   101                       0                       0                       0
   102                       0                       0                       0
   103                       0                       0                       0
   104                       0                       0                       0
   105                       0                       0                       0
   106                       0                       0                       0
   107                       0                       0                       0
   108                       0                       0                       0
   109                       0                       0                       0
   110                       0                       0                       0
   111                       0                       0                       0
   112                       0                       0                       0
   113                       0                       0                       0
   114                       0                       0                       0
   115                       0                       0                       0
   116                       0                       0                       0
   117                       0                       0                       0
   118                       0                       0                       0
   119                       0                       0                       0
   120                       0                       0                       0
   121                       0                       0                       0
   122                       0                       0                       0
   123                       0                       0                       0
   124                       0                       0                       0
   125                       0                       0                       0
   126                       0                       0                       0
   127                       0                       0                       0
   128                       0                       0                       0
   129                       0                       0                       0
   130                       0                       0                       0
   131                       0                       0                       0
   132                       0                       0                       0
   133                       0                       0                       0
   134                       0                       0                       0
   135                       0                       0                       0
   136                       0                       0                       0
   137                       0                       0                       0
   138                       0                       0                       0
   139                       0                       0                       0
   140                       0                       0                       0
   141                       0                       0                       0
   142                       0                       0                       0
   143                       0                       0                       0
   144                       0                       0                       0
   145                       0                       0                       0
   146                       0                       0                       0
   147                       0                       0                       0
   148                       0                       0                       0
   149                       0                       0                       0
   150                       0                       0                       0
   151                       0                       0                       0
   152                       0                       0                       0
   153                       0                       0                       0
   154                       0                       0                       0
   155                       0                       0                       0
   156                       0                       0                       0
   157                       0                       0                       0
   158                       0                       0                       0
   159                       0                       0                       0
   160                       0                       0                       0
   161                       0                       0                       0
   162                       0                       0                       0
   163                       0                       0                       0
   164                       0                       0                       0
   165                       0                       0                       0
   166                       0                       0                       0
   167                       0                       0                       0
   168                       0                       0                       0
   169                       0                       0                       0
   170                       0                       0                       0
   171                       0                       0                       0
   172                       0                       0                       0
   173                       0                       0                       0
   174                       0                       0                       0
   175                       0                       0                       0
   176                       0                       0                       0
   177                       0                       0                       0
   178                       0                       0                       0
   179                       0                       0                       0
   180                       0                       0                       0
   181                       0                       0                       0
   182                       0                       0                       0
   183                       0                       0                       0
   184                       0                       0                       0
   185                       0                       0                       0
   186                       0                       0                       0
   187                       0                       0                       0
   188                       0                       0                       0
   189                       0                       0                       0
   190                       0                       0                       0
   191                       0                       0                       0
   192                       0                       0                       0
   193                       0                       0                       0
   194                       0                       0                       0
   195                       0                       0                       0
   196                       0                       0                       0
   197                       0                       0                       0
   198                       0                       0                       0
   199                       0                       0                       0
   200                       0                       0                       0
   201                       0                       0                       0
   202                       0                       0                       0
   203                       0                       0                       0
   204                       0                       0                       0
   205                       0                       0                       0
   206                       0                       0                       0
   207                       0                       0                       0
   208                       0                       0                       0
   209                       0                       0                       0
   210                       0                       0                       0
   211                       0                       0                       0
   212                       0                       0                       0
   213                       0                       0                       0
   214                       0                       0                       0
   215                       0                       0                       0
   216                       0                       0                       0
