(written by ASE)

8 atoms
1 atom types

0.0       5.443702220916748  xlo xhi
0.0       5.443702220916748  ylo yhi
0.0       5.443702220916748  zlo zhi

Atoms # atomic

     1   1       2.721851110458374       2.721851110458374       2.721851110458374
     2   1       4.082776665687561       4.082776665687561       4.082776665687561
     3   1       1.360925555229187       1.360925555229187       4.082776665687561
     4   1       1.360925555229187       4.082776665687561       1.360925555229187
     5   1       4.082776665687561       1.360925555229187       1.360925555229187
     6   1    0.013340514290125172      2.7360327180009847   0.0066155535415977629
     7   1      5.4344489872493682   0.0013787351853501162      2.7374256674411299
     8   1      2.7092754668696415      5.4336929722958303    0.013149767793289246

Velocities

     1                       0                       0                       0
     2                       0                       0                       0
     3                       0                       0                       0
     4                       0                       0                       0
     5                       0                       0                       0
     6                       0                       0                       0
     7                       0                       0                       0
     8                       0                       0                       0
