(written by ASE)

216 atoms
2 atom types

0.0      16.628772735595703  xlo xhi
0.0      16.628772735595703  ylo yhi
0.0      16.628772735595703  zlo zhi

Atoms # atomic

     1   2      8.3143863677978516      8.3143863677978516      8.3143863677978516
     2   1      6.9286556368822403      9.7001180898655548      6.9286556368822403
     3   1      9.7001180898655548      6.9286556368822403      6.9286556368822403
     4   1      6.9286556368822403      6.9286556368822403      9.7001180898655548
     5   1      9.7001180898655548      9.7001180898655548      9.7001180898655548
     6   2      7.9102787926260589      2.3825913633451137      1.8678609315080905
     7   1      9.6227596602404901      3.4678543375842992      13.773523240518898
     8   2      13.748635411489886      2.5492870389905988      7.0603861923917748
     9   1      3.1937058813456929     0.93870515511602548      11.035034435330772
    10   2      16.392824024345146       7.735693298540582      15.254828785357631
    11   1      14.775758395167031     0.91607325019531061      5.5836845490201767
    12   1      14.634402266116467      3.3003422004030654      8.5431799520965797
    13   1      11.841576520943136       9.198983662955925      5.6517375472299136
    14   2      10.478057508408256      7.5069016965460378      4.3989664004178621
    15   2      4.7478752288604937       12.96527141754791      4.4653403869838257
    16   1      14.587622860832425      9.4032026222866989      13.855980156504984
    17   2      13.006416123189183      13.121409588897905       12.66859184416694
    18   1       8.929769905195144      3.6494509937802491      2.3625861973090991
    19   1      1.0915474979722433      3.6366782645592366      5.0606283157167127
    20   2      15.976629349411951       7.422042227889051      4.3411227643313168
    21   2      10.513766735977242      15.839560944311188      12.983386704332588
    22   2      7.7363484500733648      1.7970320879708197      12.649496307963318
    23   2      5.3037643663620884      16.279974420611325      1.5704168081821877
    24   1      3.6364270075039258      11.754858642113732      11.564768555853789
    25   2       2.428773847281775      7.5890409482866517      13.105070446662012
    26   2      15.871070660466557      2.0026177221423893      9.7962043382681259
    27   1      3.4848739057313196      11.758381196648543      16.247133587196458
    28   2         7.4788134374121       4.905066003732145      9.5551313707021563
    29   2      2.3375011290137877      2.0487645246037403      7.4231592562966853
    30   1      8.9032516309748644       3.518900404836188      8.0516765500644851
    31   2      10.791253640249579      10.225041158134218      1.3329192978939375
    32   2      10.546583781741901      4.7875530294056716      1.2413882606119842
    33   2      10.445669631499413      12.783344459917316      3.9280182538328177
    34   2      2.1332576386687379      13.104505489969597      1.4038247079303119
    35   1      1.1714375778281862      3.4486765357570448      11.279107620279092
    36   1      11.844775959895969      11.995811680276574      7.9555149741029254
    37   2      15.631707430259212      13.145538195424479      4.2866986029620193
    38   2      7.6342221208224146      4.8773950196289206      4.1518268386850536
    39   1      9.2855380016901563     0.94591888393529189      5.5740545152947334
    40   2      10.874720540217368      7.7566814396637938      9.7861025161469115
    41   2       16.52972591589446      10.258890984378695      1.3824786370078925
    42   2      13.608478576470588      10.683493602507951      15.311920137006382
    43   1      6.1038555385839572      11.613342937576363      8.3901024584065453
    44   2      2.5543533129086313      2.0597219587683355      12.582095983406134
    45   2      16.288081053571432      10.212300889144217      12.372129333094108
    46   2      7.4492691758550791      13.483643961640837      6.9417551985055752
    47   2      13.211593526592878      9.9977739480571017      4.2933041360788593
    48   2       7.964511661641609      10.346634705623273      3.9455467785790574
    49   1      15.039390975498009       14.07260041081031      3.0613370238889388
    50   2      16.085903867550087       12.96541315229706      9.9175213543235259
    51   1      3.1764838703838905      8.9420453238540176      8.3545518151722717
    52   2      16.469835550738026      7.3818321786704928      9.8603883742869129
    53   1      14.261407946263262      8.8446527369942487      2.7827824010255426
    54   1      11.922559593768483      3.5336935975966526      11.163793021292577
    55   2       7.347498174629095      12.915946733691726      12.611074297118648
    56   2      16.240567204587251      16.084016713967003      12.751630566431004
    57   1      14.300742808184623      8.7799780806899435      8.4595832112047447
    58   1     0.82995216881927547      14.268672099945206      0.2702951046931048
    59   2      7.8822643743229719      15.748398739501454      9.9036095435608331
    60   1     0.85031656554161827       2.917570660738761     0.16627381653634643
    61   2      2.3062416787616371      15.734162822004691      14.991357762817643
    62   1      9.0866246795076222       14.91194269260177      3.3263966154443096
    63   1      12.077762117543671      12.377021659820002      2.9641372161110553
    64   2      16.208857275709306      2.5439920567273475      15.300401958545763
    65   1      4.0881289627673709     0.83505164633238849      5.5011329780093092
    66   1      9.1005632513767978       5.814587304970587     0.54002723499797867
    67   2       4.959409881781994      1.8057515007117786      4.3530998462105117
    68   1      6.1317515142120556     0.65955992949983511      2.6067860019371665
    69   1      15.203552523032386      14.572589065901639      14.249991856468114
    70   1       12.12620764949429      5.9648692541852597      8.6075770858151373
    71   1      3.9621840098066059       11.77026808368737      5.1535661694991859
    72   1      3.5862514195767972        3.56104815639452      2.9129090246622695
    73   1      3.4407696199434668       3.222526354087563      8.3025896755993926
    74   1       3.451120469027785      8.7754931174738431      14.107296680941317
    75   1      6.7367383617407768      6.0058747029576125       14.09416292457081
    76   2      16.375485800800561      15.901744835408408      7.1763480136943372
    77   1      9.8833880585807492      14.465328568814357      14.186959539180179
    78   1      6.4701090330597708       13.98586469124325   0.0013938579612551294
    79   1      3.9148624443282642      6.2160440438724436      5.9771922481445472
    80   1      11.666351733758347     0.72850050440791847      13.459725479357758
    81   2      13.614311506531749      1.6730074921882192      1.4599146242841528
    82   2       16.11355403745938      5.2769071181263598      6.8277340529990624
    83   1      11.587584877010613     0.36785284227019588      8.6127588289518826
    84   1      9.1636510731818817      6.3855508746387386      11.688325575637009
    85   2      2.3756124136776293      5.1882019793525842      15.235821461690193
    86   1     0.79672137900323037      9.0525121979587766      11.386148081601959
    87   1      1.4430625608406729      6.5415339306863416      14.281004014273321
    88   1      15.097088912227036      6.1192585376689976       11.52856176993464
    89   2      5.0655845717525381      13.076933621075568      9.3765901886176835
    90   1      6.1448664386928158      3.5299931312613353    0.032978247360365032
    91   1      3.5239082007807951       14.87433144416832      3.3822321773925523
    92   2      5.0058190917596903      4.7705508064202604      1.5031733334435557
    93   1      4.0847682138115715      14.586570257310768      14.305696586340218
    94   1      1.3212300218034443      14.712216625703832      6.0098219661638268
    95   2      11.092032618682879      13.238756049672929      9.5930548320445723
    96   2      5.0857624460405759      7.5901411271087227       9.922978637741835
    97   2      2.2893445178979732      10.458841051649415       3.885033969908875
    98   1      6.3389136996798925      8.6701643758137834      16.477553652078086
    99   1      11.517784973238804      8.8762239045793194      11.046244365490793
   100   1      7.0524421083747484      14.328734925565641      5.9765197514501551
   101   1      12.043746768899837      6.5193023892637711      14.172990241596153
   102   1      14.276829281662003     0.60998274964822485     0.31351924742330084
   103   1     0.97465411759725384     0.36310618392831628      13.841474645639209
   104   2      13.338757348838726      1.8015597946208857      12.402136462678072
   105   2      7.9338969558252757      10.401086619251146      9.8694970620119875
   106   1      1.2495548582736546      12.077101019098336      13.909781874360533
   107   2      10.435067277571761      4.4709755822026409      12.563963847035893
   108   2      4.9430647926335496      15.639636646994859      12.732839313919612
   109   1      1.4175136333663261      6.4125672027852261       2.991125544210945
   110   1       6.068566063925914      1.2374184486956779      13.686711202240758
   111   1       12.13007413380501      14.011822964531575      11.121692845034659
   112   1      14.302117536136166       11.67392413574089     0.20257847872457546
   113   2      10.310522079152861      13.220547594591608      15.130013002417627
   114   1      1.0419986898492652      6.0210006750329512      8.6386606065709657
   115   2      4.7556478435656118       13.14050710740571      15.477827103374693
   116   2      13.268554046165491      7.4263527483369671      12.979797742607616
   117   1      14.425627971771064      0.7135238246164306      11.290486046294745
   118   2      2.2888660392255815      15.730506461937466      4.2684207672342609
   119   2      2.5292761738300555      10.517680795588376      15.303376405973722
   120   2      5.2713422947060735      10.250575218327185      1.6215234596056973
   121   1      9.1163146404221607      11.343668294092822      11.393334925420731
   122   1      14.547095642944441      5.9341197516844204     0.23381277849239268
   123   2      13.258425462937794      15.754835281186615       4.605320301354709
   124   1      11.448566875744973     0.96713697234383744      2.9341137325175737
   125   2      5.2976063384147665      10.373041970809254       12.60088921822171
   126   2       16.62331346987321      10.473172119747005      6.7917022054241443
   127   1      11.399646581942307      8.7950703535941557    0.056288092568602011
   128   1      12.188111044549487      6.1303425915133403      3.2755720706849729
   129   2      10.590870439514674      15.859027171397202      1.7567311005478246
   130   2      13.335059360383639      12.862626715752867      1.2900119521511328
   131   1      8.7979962345696094      9.2153654247317718      3.0019969959315631
   132   2      7.8036590753662267      7.4852187578063649      1.5214833816143027
   133   1       15.19114428999319      12.125438515470933      5.4244242485805216
   134   1      8.7679573881187025      0.2948058003511278     0.16944952978597883
   135   2      12.848924038081577      4.5918262611987757      4.2604965062590736
   136   2      10.248092382336836      5.0550932268591851      7.0814873248534695
   137   2      12.791714739333884      4.8394388502674701      9.9720198520997201
   138   1       9.073081577323137      14.866344740611339      8.7102604425417667
   139   1       3.680882656708377      14.216942881113937      8.8032959248052975
   140   1      8.8553006839181307      8.9348792942291766      13.936902769052722
   141   2      13.505209448857613      15.960052330673989      15.831835904906484
   142   1        1.23656060656009      14.714680629804434      11.270543075052501
   143   1      6.7725620673763842       3.388575302993047      5.9996522501243135
   144   2       15.85186114177236      4.5586514095289203      1.6074349759826134
   145   1     0.73742564315496395     0.74598349810493403      8.1092778494645472
   146   2      2.0812699769294909      4.8240170192926826      9.5221507848423244
   147   2      10.401461274741905      10.122296349977887      12.302325464713931
   148   2      10.567117479630951      16.320355939141791      7.1435567378840688
   149   2      2.3899873402552885      7.3952528735716214      1.7974921064354987
   150   2      7.5074934143449354      5.1615652624573158      15.243595067547403
   151   1      3.4885530622966598      9.0398958229802702      2.6459278369886192
   152   2      8.0184323177481929      16.100258723297884      15.519895562765669
   153   2      5.3462877645632716       2.108025879863817      15.602831205212169
   154   2      5.4726170367476925      10.471167019064978      6.9776249927134586
   155   2      5.0405911850257326       7.269675885824995      4.2869711697873072
   156   1      14.874737816526022      3.2935362067756273      8.5240269290716242
   157   2      7.9514978346742282      15.731759278181698      4.2748632558319741
   158   1      3.6070054010182844      3.5417640535054034      13.706101110615691
   159   1      6.5853324460538261      11.799213689380849      2.3797026505731083
   160   1      15.021493742173561      3.4867608115263806      2.6923640558608213
   161   1      12.347045255950889      3.3846495973448327      5.3307603758906907
   162   1      1.1749968049903998        11.3473058222703      2.9009423498800402
   163   2      2.5852185324162065      15.780071995751996      10.079628243571278
   164   1      6.8196928360770244      11.482352277103473      13.613735647166322
   165   2      13.599260862015399      15.797887954604903      9.9839404383096735
   166   1      6.0452868747421462      9.1892792928235849      11.111164827513903
   167   2      10.657337098801236      7.9398349480081833      15.433812021275116
   168   2      15.788723762362679      13.353630577130616      15.222785829376789
   169   2      5.3333467872746496      16.252686021215595      7.1133394840566098
   170   1      11.696495642331001      3.6366884238681791     0.10134860008054503
   171   2      12.672970754109201      13.222947173806233      7.0032393362258745
   172   2      4.9631133215735872      7.9959871830498059      15.586475213390713
   173   2      8.0333060416161288      7.5400532561417322      13.012468097862666
   174   2      13.609094081919693      7.7208904420472209      1.6003100791695886
   175   1      9.1267415604295365      11.626990110730503    0.048565662681514965
   176   2       7.946560906104196      16.123410053861789      15.694178755463099
   177   2      13.648538961723261      10.211524817056215      9.9387865224564393
   178   1      12.148728607327712      9.1473357185961959       5.536343656076042
   179   2      13.148854590324163       5.125210794876466      15.578799731590607
   180   2      2.1637239194593008      13.438349302190545      6.9628974637790861
   181   2      2.7932839052278382      10.286246782116677      9.6698889422129923
   182   2      10.648287880201678      10.574397491746367      7.4417096588497316
   183   2      10.884360485463731      1.9247738757802892      9.7591679580480104
   184   2      2.4692126048455521      2.2768200722759957      1.5232934731222372
   185   2      10.836962601274308      2.4937869820254832      15.363470948461099
   186   2      5.4358715596665661      2.0564552453672604      10.142224453938752
   187   2      10.480954645973043      1.6115872837778511      4.1768893582702731
   188   2      2.1304747313825487       4.510469028458715      3.9550496970487075
   189   1      15.297166838117619       3.608630394873046      13.965501471514017
   190   1       3.717636310794262     0.71646438703224646     0.58773733209636703
   191   2      16.532728115580994      1.9729389116888854      4.0997722741795997
   192   2       13.70899923933257      7.7719803677791788      7.1979719788845387
   193   1       6.279703760434586     0.48827240107983272      7.7800711423058146
   194   1     0.69710867340448601      9.2742200359521121      6.1000970898512605
   195   1     0.57124926925865793     0.55859634554676063      2.8372528987551391
   196   1      12.466735791423389      11.850798200006693      13.772097963810666
   197   1      12.390256513703889      14.493733996617721      5.6069468886183813
   198   1      14.695037977646052      14.913114234374461      8.7072582428552323
   199   2      4.8604502834648429      4.8206768367427912      12.680856360152802
   200   1      8.9524316066256233     0.98427355838471442      11.281865005398913
   201   2      2.6594706913850814      7.9292286294721634      6.8983670201041605
   202   2      7.5477867203392179      13.049434106284252      1.6325502744167295
   203   1      0.5206089548944135      8.9818133192395635     0.15612469787624406
   204   1      15.156993153512758      6.4109432000825564      6.0788908952678185
   205   1      6.2568636516275546      3.3140166302397347      10.850036888519298
   206   1     0.64047585349227631      11.391392267320498      8.3879903132985874
   207   1      12.058436634054715      14.559689221424833      16.489166981139533
   208   2      2.1557538176998605      12.700273029634218       12.48806042868182
   209   2      16.422057064145292      15.880770074838438      1.6583592554212032
   210   1      6.8535466269298695       14.87553767626423      11.393322040443536
   211   1      4.3389997165503473      6.4333447240888972      11.128077846811038
   212   1      3.8236967704862082      6.1289683591378434     0.10191173707966605
   213   1      9.5197918428634694      11.836816017445472      5.6312826459321741
   214   2       5.110360363082691        4.91555586189736      6.7914990192452933
   215   2      15.847324638647478      4.6437794804028272      12.564300838747158
   216   1      14.766468326609129      11.691385262144877      10.699086407218601

Velocities

     1                       0                       0                       0
     2                       0                       0                       0
     3                       0                       0                       0
     4                       0                       0                       0
     5                       0                       0                       0
     6                       0                       0                       0
     7                       0                       0                       0
     8                       0                       0                       0
     9                       0                       0                       0
    10                       0                       0                       0
    11                       0                       0                       0
    12                       0                       0                       0
    13                       0                       0                       0
    14                       0                       0                       0
    15                       0                       0                       0
    16                       0                       0                       0
    17                       0                       0                       0
    18                       0                       0                       0
    19                       0                       0                       0
    20                       0                       0                       0
    21                       0                       0                       0
    22                       0                       0                       0
    23                       0                       0                       0
    24                       0                       0                       0
    25                       0                       0                       0
    26                       0                       0                       0
    27                       0                       0                       0
    28                       0                       0                       0
    29                       0                       0                       0
    30                       0                       0                       0
    31                       0                       0                       0
    32                       0                       0                       0
    33                       0                       0                       0
    34                       0                       0                       0
    35                       0                       0                       0
    36                       0                       0                       0
    37                       0                       0                       0
    38                       0                       0                       0
    39                       0                       0                       0
    40                       0                       0                       0
    41                       0                       0                       0
    42                       0                       0                       0
    43                       0                       0                       0
    44                       0                       0                       0
    45                       0                       0                       0
    46                       0                       0                       0
    47                       0                       0                       0
    48                       0                       0                       0
    49                       0                       0                       0
    50                       0                       0                       0
    51                       0                       0                       0
    52                       0                       0                       0
    53                       0                       0                       0
    54                       0                       0                       0
    55                       0                       0                       0
    56                       0                       0                       0
    57                       0                       0                       0
    58                       0                       0                       0
    59                       0                       0                       0
    60                       0                       0                       0
    61                       0                       0                       0
    62                       0                       0                       0
    63                       0                       0                       0
    64                       0                       0                       0
    65                       0                       0                       0
    66                       0                       0                       0
    67                       0                       0                       0
    68                       0                       0                       0
    69                       0                       0                       0
    70                       0                       0                       0
    71                       0                       0                       0
    72                       0                       0                       0
    73                       0                       0                       0
    74                       0                       0                       0
    75                       0                       0                       0
    76                       0                       0                       0
    77                       0                       0                       0
    78                       0                       0                       0
    79                       0                       0                       0
    80                       0                       0                       0
    81                       0                       0                       0
    82                       0                       0                       0
    83                       0                       0                       0
    84                       0                       0                       0
    85                       0                       0                       0
    86                       0                       0                       0
    87                       0                       0                       0
    88                       0                       0                       0
    89                       0                       0                       0
    90                       0                       0                       0
    91                       0                       0                       0
    92                       0                       0                       0
    93                       0                       0                       0
    94                       0                       0                       0
    95                       0                       0                       0
    96                       0                       0                       0
    97                       0                       0                       0
    98                       0                       0                       0
    99                       0                       0                       0
   100                       0                       0                       0
   101                       0                       0                       0
   102                       0                       0                       0
   103                       0                       0                       0
   104                       0                       0                       0
   105                       0                       0                       0
   106                       0                       0                       0
   107                       0                       0                       0
   108                       0                       0                       0
   109                       0                       0                       0
   110                       0                       0                       0
   111                       0                       0                       0
   112                       0                       0                       0
   113                       0                       0                       0
   114                       0                       0                       0
   115                       0                       0                       0
   116                       0                       0                       0
   117                       0                       0                       0
   118                       0                       0                       0
   119                       0                       0                       0
   120                       0                       0                       0
   121                       0                       0                       0
   122                       0                       0                       0
   123                       0                       0                       0
   124                       0                       0                       0
   125                       0                       0                       0
   126                       0                       0                       0
   127                       0                       0                       0
   128                       0                       0                       0
   129                       0                       0                       0
   130                       0                       0                       0
   131                       0                       0                       0
   132                       0                       0                       0
   133                       0                       0                       0
   134                       0                       0                       0
   135                       0                       0                       0
   136                       0                       0                       0
   137                       0                       0                       0
   138                       0                       0                       0
   139                       0                       0                       0
   140                       0                       0                       0
   141                       0                       0                       0
   142                       0                       0                       0
   143                       0                       0                       0
   144                       0                       0                       0
   145                       0                       0                       0
   146                       0                       0                       0
   147                       0                       0                       0
   148                       0                       0                       0
   149                       0                       0                       0
   150                       0                       0                       0
   151                       0                       0                       0
   152                       0                       0                       0
   153                       0                       0                       0
   154                       0                       0                       0
   155                       0                       0                       0
   156                       0                       0                       0
   157                       0                       0                       0
   158                       0                       0                       0
   159                       0                       0                       0
   160                       0                       0                       0
   161                       0                       0                       0
   162                       0                       0                       0
   163                       0                       0                       0
   164                       0                       0                       0
   165                       0                       0                       0
   166                       0                       0                       0
   167                       0                       0                       0
   168                       0                       0                       0
   169                       0                       0                       0
   170                       0                       0                       0
   171                       0                       0                       0
   172                       0                       0                       0
   173                       0                       0                       0
   174                       0                       0                       0
   175                       0                       0                       0
   176                       0                       0                       0
   177                       0                       0                       0
   178                       0                       0                       0
   179                       0                       0                       0
   180                       0                       0                       0
   181                       0                       0                       0
   182                       0                       0                       0
   183                       0                       0                       0
   184                       0                       0                       0
   185                       0                       0                       0
   186                       0                       0                       0
   187                       0                       0                       0
   188                       0                       0                       0
   189                       0                       0                       0
   190                       0                       0                       0
   191                       0                       0                       0
   192                       0                       0                       0
   193                       0                       0                       0
   194                       0                       0                       0
   195                       0                       0                       0
   196                       0                       0                       0
   197                       0                       0                       0
   198                       0                       0                       0
   199                       0                       0                       0
   200                       0                       0                       0
   201                       0                       0                       0
   202                       0                       0                       0
   203                       0                       0                       0
   204                       0                       0                       0
   205                       0                       0                       0
   206                       0                       0                       0
   207                       0                       0                       0
   208                       0                       0                       0
   209                       0                       0                       0
   210                       0                       0                       0
   211                       0                       0                       0
   212                       0                       0                       0
   213                       0                       0                       0
   214                       0                       0                       0
   215                       0                       0                       0
   216                       0                       0                       0
