(written by ASE)

216 atoms
2 atom types

0.0      16.628772735595703  xlo xhi
0.0      16.628772735595703  ylo yhi
0.0      16.628772735595703  zlo zhi

Atoms # atomic

     1   2      8.3143863677978516      8.3143863677978516      8.3143863677978516
     2   1      6.9286556368822403      9.7001180898655548      6.9286556368822403
     3   1      9.7001180898655548      6.9286556368822403      6.9286556368822403
     4   1      6.9286556368822403      6.9286556368822403      9.7001180898655548
     5   1      9.7001180898655548      9.7001180898655548      9.7001180898655548
     6   2       11.42410920672387      7.8077599671466942      12.872370731968886
     7   2      10.895775584106786      13.724595017499496      13.120466012106363
     8   2     0.18223611964952724      13.460926755693208      7.0394530602096665
     9   2      14.238271482980736      16.195045571307901      12.630232275904063
    10   2      11.411260902155846      10.959391689976883      10.156859805728573
    11   1      10.052885968978217     0.79629989157612613      8.9390014957796211
    12   2      5.8868066109988604      16.454517295156847      4.7419134490273791
    13   1      1.6745593885761991      3.8498336989391078      3.3786627909213962
    14   1      12.799585478096105      1.3921577327618877      5.6970059411497687
    15   1      12.297695793292405      12.212914625650683      5.7391090908639626
    16   1      10.099333338311453      6.6747363470524306      14.541533297404385
    17   2       5.817574141799696      10.872344748652949      4.4335258915601798
    18   2      8.2763127469135043       5.373283774091874      1.5921885789281021
    19   2      3.0223567466284749      11.046654702456863      13.093238072988242
    20   2      11.046502065034701      11.079782969978396      16.022979585840176
    21   2     0.26864793381028562      2.1624941475012065      1.6393280202095468
    22   1      6.6619098478304295      6.6823394747498241      6.1502811025711708
    23   2      5.9224955199499618      2.8763640080917412      12.839690465192916
    24   2      5.3573529865178671      5.0595752166190096      15.844773413162784
    25   1      4.1035564928666872      9.7931991651253156     0.11838648905451521
    26   1      7.0378835708720544      6.6895867788462056      11.721434020116703
    27   2      14.313536599387589      10.825850795171391      7.4066154411538037
    28   2      11.164346084159888      5.7272697791255496      15.977471828690113
    29   2      13.850463403961157      8.4441440350683479      15.740849134017026
    30   2      2.9618417078660855      13.833442349085999      15.415946504817612
    31   1      15.457929725128679      7.1738522927267923      2.9041863906770118
    32   2      8.3557481357472625      10.930578898663725      7.4389849817489448
    33   2      8.8411202709385179      2.6381928860629955      4.4927635830640611
    34   1      4.0661454571558124     0.67300385452811895      14.179529863098878
    35   2      13.996222230604189      13.758289232865536      4.5830476271203224
    36   2      5.4489696345617631      5.3809775922056815      9.7209213811236168
    37   1      15.613907329839776       6.842190006260239      8.3752213008979197
    38   1      4.1226899406378266      1.5391133755559565      2.9270795261209628
    39   1      9.6731131599681248      0.8607796006533448      3.2417998020916912
    40   2      16.615208819217287      2.5824950942555347      7.4226334501119027
    41   2      10.963559484523557      13.574005315560271      7.2546262324607369
    42   1      12.501100025603591        3.85173894104787      2.7935740650027583
    43   2      5.2634556975103806      13.604571454924098      7.4027098063354515
    44   1      1.8225398826333503      1.1311251921561336      11.485010547014099
    45   2      3.0782874591775453     0.17365777572740626      13.037685980538299
    46   2      14.082917312935479      5.2613713046609973       13.06975371532144
    47   1      1.4676785664084662      12.142195923889631      11.196018349258338
    48   2      5.9349032574131115       8.209952636476828      2.0041251405802427
    49   1      1.5026424476043019      14.916015336547616       9.188669734287032
    50   1      15.073971280834257        12.5001009442949      14.200159702740848
    51   1      12.709130955880028      14.721253950478285       3.385451191599202
    52   1      3.9862221737047889      6.9345356466677686      3.3194198958690322
    53   1      4.2933977999515491      14.839384412558047      6.2796447868851146
    54   2      8.1181818642826329      4.9222842978736026      7.2916105771960247
    55   1      6.6421988061777029       3.504681089136966       14.39090295822939
    56   1      12.613945664729044      14.494612157371193      14.253246799938097
    57   2      11.485721203064031      11.118913654568814      4.8244392500838558
    58   2      2.6121468958145329      13.800345798431408      10.187013625822146
    59   2      14.095293829107732       10.64196928561546       13.51196811497266
    60   2      2.9725275663574848      8.1575667793846378      15.708697151306069
    61   2     0.44636534461233168       5.372765897123827      4.7146210850232819
    62   1      9.9396815327954755      12.483466438735604      14.310265797484135
    63   1      6.6864596939960848      1.2741971293718848     0.73942702701664587
    64   1      7.2483230007319435      15.139322894017369       3.311718396326512
    65   1      15.875659694652313      4.5006075607197999     0.81180689968381614
    66   1      1.4963994283650948      0.5724182092571084      5.9330017321246942
    67   1      15.549888816220346       14.94626529839411      11.806214196606334
    68   1      6.9207720131428232      4.1879367394872133      3.3596477858252456
    69   2      16.514749607785006      13.798604344205842      12.859110108130608
    70   2      5.5693792508769775      10.892973597142827      16.044369639136676
    71   2      14.300865711044025      11.051216975536136      1.8243825582663078
    72   2      2.7981529398795715        13.8100561154763      4.2303114648746032
    73   1       7.317102513425084      4.0794972669865501      8.5588262790201952
    74   2      14.052313509792157     0.05341516853968642      1.8122973169150782
    75   1      1.4412139382951636      12.089369499692566     0.97999661321391329
    76   1       12.12123603060104      6.6405515114008722      11.594053135562717
    77   2      5.9982834690853224      8.2369154424103499      7.4728556221873532
    78   1      15.736108453561201      4.0117123754176873      11.274713843055451
    79   2      2.9225933239647475      5.8535058830133266      1.9378523754216701
    80   1      15.209070266728304      3.8052925628667253      5.5100389751315788
    81   2      10.995642086588077      16.497894075309205      4.4218307924511464
    82   1      1.3331974399497426      9.6239579631196648      3.3556680623880197
    83   1      10.057778295704111      12.592889629687534      8.6503611570165049
    84   2      8.5898929501904604      16.286391139254647      2.0034352987242414
    85   2      11.080610581975179      8.3189268355311015      7.1432004187070106
    86   2      8.2592039750782078      5.4396161322699754      12.695688951208922
    87   1      12.478405616154078      12.304467344384648      11.152238170204555
    88   2      11.588617657490431     0.20806859405593059      9.8859561336510069
    89   2     0.43538536173764442      16.525725626051326      9.7871600754290284
    90   2      8.6240470601271682      11.233434340729673      1.8228828212571671
    91   2     0.20991015464278462      10.625223771021865      15.580783026926611
    92   1      1.2901769789744435      9.7728091842895992      14.399480388433176
    93   1      2.0644295595230915      9.4551925141181528      8.8569886159307316
    94   2      13.861943918642282      2.2572197918695451      15.806743898546529
    95   2      5.4875477518609159      16.462375148941874      15.763445419409436
    96   1      12.821308558495502      1.5875248366534152     0.20687893278405767
    97   2      13.972387996248926      8.5429579340279815      10.196551482403038
    98   2      16.605873157663154      7.9441970083648812      7.4234912922474905
    99   2      13.861554395870144      8.4177000972549649      4.2255331206392839
   100   2      13.983788227610603      16.000784717045008      7.3387760362198833
   101   2      2.9323028976455703      16.541500802746896      2.2195322247250147
   102   1      9.8222508240926345      3.7562414369879207      11.729473254734557
   103   1      4.2928150025214791      15.190268111543901      11.613672000070892
   104   2      5.8056847768806392      2.2246061800717598      1.5223149582194537
   105   1      3.9873409366285841      9.2186669523500768      5.7113667438101174
   106   1       2.082120633212412      6.6542631094409899      0.2994994940030935
   107   1      9.8795582468974317      4.1877836064890062      5.8563311620514469
   108   1      15.164444634940082      15.192658770389698      5.9041859673552608
   109   2      5.8422439173684779      10.740448175168012      10.488659862335908
   110   1      1.6223109299427563      4.0291886168910764      13.902284799936979
   111   1      4.1692510446736151      1.5556201463894013      8.2521915740276199
   112   2       3.051177962734414      2.5369930362300011      4.3550420087346993
   113   1      6.5701742615354988      12.331800345624515      11.488690694731531
   114   1      12.449616612491127      12.234250165582125      0.7159209259508259
   115   2    0.086958225468327655       4.911715147541031      10.304939910570965
   116   2       2.639574799867205      5.5117848895415591      12.896934454263828
   117   2    0.085386761569907321      15.822190012747569      15.860280978793526
   118   1      4.1769617123729859      6.5421628166886876       14.58653556698755
   119   2       11.08814135556986      5.3523962349059957      4.9986297700606883
   120   1      15.071315984379908      9.5284455917783362     0.54841262948394842
   121   1       9.503690577129646     0.87576315656247061       14.78226431749863
   122   1      13.137617899057659      15.143722618153561      8.8739502016803726
   123   2      11.146079151105141      7.8640593882739722      1.8738932070337455
   124   2      3.2999809254655474      8.1425270375412993      10.143063959760639
   125   1       4.412718140117704      12.361202872432386      14.086995903793877
   126   1      9.6059536853692862        14.5279039649879      11.725341141663193
   127   2      8.2662956682961521   0.0068904893432772951      7.4957274478613272
   128   2      11.243668977231209      2.6638079729394804      12.917327408555821
   129   2      11.334974899094277      2.9201065233660302      1.8099056669171887
   130   2      8.3292120207893277      5.3624172781317156        12.6253607633721
   131   1      4.2542373807983722      6.8071250275510238      9.0420129238486879
   132   1      12.275171862002708      4.0561402723635638      8.5037063288823447
   133   2    0.083780003364962496      13.197523131495473       2.044523880378307
   134   2      8.6781471147623961      8.0802465091151134      4.2400004721495179
   135   1      1.3599623871469078      1.4345367944396799     0.82120388877363837
   136   2      3.0251490698595376      16.548982018736979      6.9662678764677821
   137   1      4.6468713793536836      4.0651974201798566      16.627398998796252
   138   2     0.13378011865493633      2.7391942576895758      13.140269230903641
   139   2      6.0461466991819179       5.278160429946638       4.572027007009865
   140   2      2.9158978437955625      10.770451340143609      7.2345306237963314
   141   1      13.179687349600727      9.5084193637603676      8.9203480134090114
   142   1      9.9549591511408835      7.2079969867186264       3.109274590392431
   143   1      15.405892257996811      12.668932800486573       2.896115439192215
   144   1      12.554279299945392      9.4818267531331912      3.6295749253042118
   145   1       9.981704399190221      9.1202970895276394      5.9112994659192282
   146   1      15.339026164417191     0.67972436128762581       3.271863179556874
   147   2      11.200441861044737      5.5435949247807912      9.9738921384014247
   148   1      14.972300881545607      12.184967110113803      8.4682746238991058
   149   2      8.4127631686849327      16.388435202881965       12.97566959414462
   150   2      3.2502488780995691      8.4419188986219069      4.5901254442089794
   151   2      11.283853256495377      2.7788953503089147      7.4059265904498943
   152   1      15.304062283221356      9.1246264418653027      11.402070939959231
   153   1      9.5548191577931902      12.309933548171784      2.7557175064265493
   154   1      6.9184314074776694      12.301641569770482     0.36728262008229251
   155   2      2.6103563795604146      2.5425945322776897      15.702638238567943
   156   1      12.408008047670819      1.0909546651272422      11.245390608414937
   157   1      4.5322213478448248      3.8429300768306121      6.1329280117452072
   158   2      8.1845920278999529      2.2529722095794682      10.293893520506117
   159   1       15.35626527275258      10.210477169295018      5.9956068628609955
   160   1      9.8563345622308134      3.4461904785223965     0.59148977196950625
   161   2     0.31104334949759505      10.898555765724723       10.32618029990158
   162   1      7.2095456618623075      6.6966204896667705     0.76977957310465683
   163   2      3.1650221875925126      2.3199369227922375      10.171791511993888
   164   1      9.9601260269962495      9.9980098422549872     0.49134311415472354
   165   2      5.6307722026048168      13.322775021355937      12.816493541632781
   166   2    0.076962479851079735      16.617129671971497      4.7708580635687667
   167   2      5.9855283328139421      16.098397339669191      10.216087090135488
   168   1      6.8410462167461219      9.4898778815761489      3.1722457040386871
   169   2      16.536704617773921       7.848810017763185      2.0886446440696886
   170   2      8.4572936498723266      13.358644815563821      4.5599830223644631
   171   2      13.988166146400772      5.1446319245422956      1.7389266638379866
   172   1      11.891206479643643       6.930660737564267     0.61004308603182267
   173   1      6.9373381292077738     0.73641200429992182      5.9531468983936975
   174   1      1.3915875725209901      6.2910608766802625      6.0121234213213484
   175   1       2.035178802879301      14.842491674366329       3.350606744230447
   176   2      14.280418243386976      2.2024633467614194      10.211976782410147
   177   2     0.23351236648802143      10.614838479402351      4.6020039064550247
   178   1      12.628784202697716      6.2306124928960571      6.1889786536974043
   179   1      1.4054338433516023      6.8211572632928892      12.117257546103929
   180   1      1.5055072488320889      15.054708239927095      14.798483530331396
   181   2      13.547646616826796      5.4199254092351339      7.2595998336581715
   182   2      11.026635412503538      16.130052755182078       15.70979237436768
   183   1      10.288210254410842      15.436141228691213     0.49661015831838284
   184   2     0.43007352988882985      7.9982653461331665      12.711884376391481
   185   1      7.4840001363093052      1.4976185454382005      11.365767021135071
   186   2      8.6004328615363193      14.114441896372227      10.251898406369946
   187   2      14.053496945389952      2.3585318896769536      15.680590060282384
   188   1      15.541522501412146      6.3439403275142467       14.25502690909525
   189   2      8.5400954867864129      10.456645649765733      13.049851381314966
   190   2      14.111482316225647      13.840880945536128      15.335792035141139
   191   1      6.8967970351905024      15.197243839967086      9.1593782165134598
   192   1      4.3913677329048824      9.5614648325697544      11.349038356127039
   193   2      8.3032517651968192      8.3818550818493804      15.577411127509777
   194   2       8.410554881824055      2.5988045019286687      15.706711873665881
   195   1      4.5256024341747434      12.632920280377448      3.2786312616167947
   196   1      9.8519249265737017      14.780347429352787      5.9625920822539911
   197   1      1.4162321976054386      12.148079402707481      6.1737704159984332
   198   1      15.447154910737027      1.2438272381222646      9.3453639419606134
   199   2      13.670584166552544      13.562655632955284      9.9246536847772404
   200   1       1.417369544630958      4.2049077411817279      8.3221639382634294
   201   1      7.5586076233031463      15.058897839819792      14.327556445728305
   202   2      16.420219468166806      5.3513917022607984       15.53443477280257
   203   2      5.3111211927646309      2.6535963807240819      7.2240586063687715
   204   2      2.4398383258723015        5.31617309497733       7.407033707336609
   205   1      12.726805179983785       3.847492597697908       13.69767334437779
   206   2      8.4179359914528504      13.406595762620555      15.577813535259111
   207   1      13.032525051595485      9.4885636139022154      14.166272212716876
   208   1       4.621812081012763      14.990410221417733     0.39796974194834434
   209   2      14.267213124065847      2.4525139221883023      4.9864574312193781
   210   1      15.701870095696677      15.224867248769897     0.14228078103185027
   211   1      7.4782281621018001      12.277875724909563      5.8671808084260419
   212   1      15.364906136690252      1.4655867399183933      14.635118869078951
   213   2      3.0745034882784807      11.036980066887281      1.5908491607698352
   214   1      7.2091343337441458       9.293251147269757      14.383668539110204
   215   1      4.2655469217436348      12.430029464849895      8.3665804369602483
   216   1      4.0818071469368533      3.4189617960402074      11.663158241718065

Velocities

     1                       0                       0                       0
     2                       0                       0                       0
     3                       0                       0                       0
     4                       0                       0                       0
     5                       0                       0                       0
     6                       0                       0                       0
     7                       0                       0                       0
     8                       0                       0                       0
     9                       0                       0                       0
    10                       0                       0                       0
    11                       0                       0                       0
    12                       0                       0                       0
    13                       0                       0                       0
    14                       0                       0                       0
    15                       0                       0                       0
    16                       0                       0                       0
    17                       0                       0                       0
    18                       0                       0                       0
    19                       0                       0                       0
    20                       0                       0                       0
    21                       0                       0                       0
    22                       0                       0                       0
    23                       0                       0                       0
    24                       0                       0                       0
    25                       0                       0                       0
    26                       0                       0                       0
    27                       0                       0                       0
    28                       0                       0                       0
    29                       0                       0                       0
    30                       0                       0                       0
    31                       0                       0                       0
    32                       0                       0                       0
    33                       0                       0                       0
    34                       0                       0                       0
    35                       0                       0                       0
    36                       0                       0                       0
    37                       0                       0                       0
    38                       0                       0                       0
    39                       0                       0                       0
    40                       0                       0                       0
    41                       0                       0                       0
    42                       0                       0                       0
    43                       0                       0                       0
    44                       0                       0                       0
    45                       0                       0                       0
    46                       0                       0                       0
    47                       0                       0                       0
    48                       0                       0                       0
    49                       0                       0                       0
    50                       0                       0                       0
    51                       0                       0                       0
    52                       0                       0                       0
    53                       0                       0                       0
    54                       0                       0                       0
    55                       0                       0                       0
    56                       0                       0                       0
    57                       0                       0                       0
    58                       0                       0                       0
    59                       0                       0                       0
    60                       0                       0                       0
    61                       0                       0                       0
    62                       0                       0                       0
    63                       0                       0                       0
    64                       0                       0                       0
    65                       0                       0                       0
    66                       0                       0                       0
    67                       0                       0                       0
    68                       0                       0                       0
    69                       0                       0                       0
    70                       0                       0                       0
    71                       0                       0                       0
    72                       0                       0                       0
    73                       0                       0                       0
    74                       0                       0                       0
    75                       0                       0                       0
    76                       0                       0                       0
    77                       0                       0                       0
    78                       0                       0                       0
    79                       0                       0                       0
    80                       0                       0                       0
    81                       0                       0                       0
    82                       0                       0                       0
    83                       0                       0                       0
    84                       0                       0                       0
    85                       0                       0                       0
    86                       0                       0                       0
    87                       0                       0                       0
    88                       0                       0                       0
    89                       0                       0                       0
    90                       0                       0                       0
    91                       0                       0                       0
    92                       0                       0                       0
    93                       0                       0                       0
    94                       0                       0                       0
    95                       0                       0                       0
    96                       0                       0                       0
    97                       0                       0                       0
    98                       0                       0                       0
    99                       0                       0                       0
   100                       0                       0                       0
   101                       0                       0                       0
   102                       0                       0                       0
   103                       0                       0                       0
   104                       0                       0                       0
   105                       0                       0                       0
   106                       0                       0                       0
   107                       0                       0                       0
   108                       0                       0                       0
   109                       0                       0                       0
   110                       0                       0                       0
   111                       0                       0                       0
   112                       0                       0                       0
   113                       0                       0                       0
   114                       0                       0                       0
   115                       0                       0                       0
   116                       0                       0                       0
   117                       0                       0                       0
   118                       0                       0                       0
   119                       0                       0                       0
   120                       0                       0                       0
   121                       0                       0                       0
   122                       0                       0                       0
   123                       0                       0                       0
   124                       0                       0                       0
   125                       0                       0                       0
   126                       0                       0                       0
   127                       0                       0                       0
   128                       0                       0                       0
   129                       0                       0                       0
   130                       0                       0                       0
   131                       0                       0                       0
   132                       0                       0                       0
   133                       0                       0                       0
   134                       0                       0                       0
   135                       0                       0                       0
   136                       0                       0                       0
   137                       0                       0                       0
   138                       0                       0                       0
   139                       0                       0                       0
   140                       0                       0                       0
   141                       0                       0                       0
   142                       0                       0                       0
   143                       0                       0                       0
   144                       0                       0                       0
   145                       0                       0                       0
   146                       0                       0                       0
   147                       0                       0                       0
   148                       0                       0                       0
   149                       0                       0                       0
   150                       0                       0                       0
   151                       0                       0                       0
   152                       0                       0                       0
   153                       0                       0                       0
   154                       0                       0                       0
   155                       0                       0                       0
   156                       0                       0                       0
   157                       0                       0                       0
   158                       0                       0                       0
   159                       0                       0                       0
   160                       0                       0                       0
   161                       0                       0                       0
   162                       0                       0                       0
   163                       0                       0                       0
   164                       0                       0                       0
   165                       0                       0                       0
   166                       0                       0                       0
   167                       0                       0                       0
   168                       0                       0                       0
   169                       0                       0                       0
   170                       0                       0                       0
   171                       0                       0                       0
   172                       0                       0                       0
   173                       0                       0                       0
   174                       0                       0                       0
   175                       0                       0                       0
   176                       0                       0                       0
   177                       0                       0                       0
   178                       0                       0                       0
   179                       0                       0                       0
   180                       0                       0                       0
   181                       0                       0                       0
   182                       0                       0                       0
   183                       0                       0                       0
   184                       0                       0                       0
   185                       0                       0                       0
   186                       0                       0                       0
   187                       0                       0                       0
   188                       0                       0                       0
   189                       0                       0                       0
   190                       0                       0                       0
   191                       0                       0                       0
   192                       0                       0                       0
   193                       0                       0                       0
   194                       0                       0                       0
   195                       0                       0                       0
   196                       0                       0                       0
   197                       0                       0                       0
   198                       0                       0                       0
   199                       0                       0                       0
   200                       0                       0                       0
   201                       0                       0                       0
   202                       0                       0                       0
   203                       0                       0                       0
   204                       0                       0                       0
   205                       0                       0                       0
   206                       0                       0                       0
   207                       0                       0                       0
   208                       0                       0                       0
   209                       0                       0                       0
   210                       0                       0                       0
   211                       0                       0                       0
   212                       0                       0                       0
   213                       0                       0                       0
   214                       0                       0                       0
   215                       0                       0                       0
   216                       0                       0                       0
