(written by ASE)

216 atoms
2 atom types

0.0      16.628772735595703  xlo xhi
0.0      16.628772735595703  ylo yhi
0.0      16.628772735595703  zlo zhi

Atoms # atomic

     1   2      8.3143863677978516      8.3143863677978516      8.3143863677978516
     2   1      6.9286556368822403      9.7001180898655548      6.9286556368822403
     3   1      9.7001180898655548      6.9286556368822403      6.9286556368822403
     4   1      6.9286556368822403      6.9286556368822403      9.7001180898655548
     5   1      9.7001180898655548      9.7001180898655548      9.7001180898655548
     6   1      6.0006121809253727       8.838624549970973      13.358388107172004
     7   2      15.515201466458166      10.279821143104527      12.265339633250505
     8   1      8.9611269839283523      14.146657312817069      11.329360022493347
     9   1      8.6510163085492877      1.0085785280366508      3.1129334283398862
    10   2      15.889162159601028      13.280098985732593      9.7685254249481659
    11   2      1.7026465326640334      7.8454574458121442      6.5441941829011512
    12   2      13.574230307085145      7.5614799820656344       6.912778371521199
    13   2       10.05326756253362      7.5749110840637286      9.4629016950893856
    14   2       12.88858895364956      16.409012511463061      4.0734876640649986
    15   2      7.5487466511402772      13.554387442204188      12.126786482315993
    16   1      11.917785214141531      6.5751870132405656      16.444988358944784
    17   2      4.8712117173032539      4.8956024835581502       12.60156320164424
    18   2      4.9294949293425816      13.118631389584152      9.8550599406405581
    19   2      13.203747566632956      2.1586598756334752      1.0154509288542499
    20   2      5.1563750945277889      13.255233953201696      15.418767323671318
    21   2      2.0494940125434198      1.7202761549236527      6.7418011666264874
    22   2      4.7358708902987701       10.17102237797053      12.614779223638379
    23   1     0.45476746478985319      6.7376130534619278       15.98635849834659
    24   1     0.39702811648748337     0.76708308189148511      16.100375679244735
    25   1      11.898081110553449      3.3696948467933794      13.519730818156859
    26   2      2.1830060400442335      7.7174367725828006     0.98341107022369556
    27   2      2.0057991964635562      12.912692781373835      1.3015912103594189
    28   2      2.3440068035573631      15.975369595103075       14.89435370757792
    29   1      3.0971775791101095      11.813149287793749      2.3743675266501327
    30   1      8.8282471875681949      11.700592073927055      8.2462055109682524
    31   1      3.6070690825401925      14.229622689826328      11.278434628008654
    32   1      11.673669409653257      3.3656105568104522      2.2190780292788759
    33   1      3.3026778503077594      11.176012935434301      13.895086062293103
    34   2      7.8666195341274943      5.0581172318917424      9.6890320537170282
    35   2      7.5358899217794715       10.62417711441276      4.1339608266515029
    36   2      15.994597945687019      4.5263889133597104      7.0913815006114191
    37   2      10.172189955134854      7.7029872618102218      3.7741542809578164
    38   2      10.234338164756764      4.8943452071295042      11.962022314309706
    39   2      16.069178175998331       1.972598822627333      15.216743766224226
    40   1      3.7292697106855712      14.126587474107055      5.6362225479584822
    41   2      7.6070268897233291       4.586381367181616      4.1537479392272871
    42   1      14.044037389824325      3.6074841274786991      10.656706726070752
    43   1      9.1702313319203768      9.1341296081229757      5.7322850087108463
    44   1      11.953418122999437      6.1067407823236408       11.03427323052415
    45   2      15.526532317173405      16.106524786823229       12.56224419815635
    46   1      11.789332894176141      11.954339894444956      10.838937967393576
    47   2      10.695066294333628      13.188479859808467      3.8272904401836172
    48   2      13.118151671971646       13.00707325702615      12.345423731128449
    49   1      11.986258956414304      9.1156446216079985      8.3043712714846833
    50   1      3.7912665218254347      6.2019830647199115      2.6796901940609814
    51   1      3.8892287733500552      15.215655481227259      16.120573376574612
    52   2      16.043713496451801      10.483305658735162      6.7805517443896406
    53   1      11.923436763369864     0.57748138582485353      5.6860685778150355
    54   2      7.2174570378602994       15.94030461639386      9.3953873880416268
    55   1       11.22451892766253      3.3458328601795415       8.130266981739851
    56   1      14.351010077680257      11.732549790827989      13.345903555421728
    57   2      10.662735904246119      15.695492031984941     0.81217344011682258
    58   2      2.3737532601411431      12.841761973065104      6.8068068677295059
    59   1      3.0981806250271688      8.7200222994954402        11.3441638701388
    60   2      4.6930184296030575      7.2949388659208125      9.7334901808017094
    61   2      4.6543843122107091      4.9699146072285885      7.1170201273500879
    62   2      5.0558633520346348      16.060530373996016      6.6513040248704556
    63   1     0.45033614768072994      11.992428878186729      10.645076547423741
    64   1      11.925713439725087      8.8664283484545194      3.0384946849897005
    65   1      14.508477383985564      14.635867188908378      16.284253224192298
    66   2      10.736179283107958      15.725181001747387      6.6334989686905601
    67   1      11.780198436496676      13.971400808765338      2.5846121951239525
    68   1     0.43253756496293505      9.3752769120958419      14.052037969510593
    69   1       6.133515269359691      9.0121435644055055      2.1401372253390036
    70   1      6.4039605335947272       9.224437439829444      7.6868156242778696
    71   1      8.8585635566048495      1.3150411442472603      8.4986702851031168
    72   1      3.6687930790667451     0.51724430327725202      2.5530608505807209
    73   1      6.1061649229582144     0.88727792793777382       16.32711559640893
    74   1       3.275795823269732       3.509241379912055      4.8396246912847118
    75   1      14.254954554992537     0.95859683423751108      2.8534017397893763
    76   1      11.304204582399507      14.507080850687998      8.3109530169513164
    77   2      15.849574553896218      5.2032828540077389       12.74380442951292
    78   1       14.41407212953095     0.31931953141243241      8.6837342391047514
    79   1     0.76898857178827029      14.921817540893926      8.3130131265744467
    80   2      1.9376034723525777      16.022400753018474      3.7862914338998621
    81   1      14.798259529958614     0.65735740371049189      13.374032451791436
    82   1      5.9755761746586131      3.1484060183469182      13.415818432836204
    83   1      9.0677025949200925      6.1295362892865342       14.06647409972993
    84   1      14.666668231317999      6.3081998786543636       13.35232027406505
    85   1      6.1777355199423027      6.4636591108213679      10.545846364585486
    86   2      15.815737612628936      1.9864153588951865      9.6526845242008221
    87   2      15.773157718758512      7.3289120906007383      4.1739149108423135
    88   1      5.7797007336379238       12.21307023652912      16.142868351731067
    89   2      10.093456797558247      10.318969668432601      6.5722229729095716
    90   1      11.339350835580262      11.531179402609496      16.300103728446857
    91   1      8.6260382846799075      3.5539160737288285      16.088552225939793
    92   1     0.83430716721731812      6.1433212325814566      10.944272655966188
    93   2      16.037024210983191      15.896861429051341      1.3001197211848989
    94   1      6.4086774264003452      3.7578404131002685      2.7970943894453626
    95   1      3.0948788496208408     0.81797583030414955      7.8411870670239523
    96   2      12.826470478590409      10.396789974932517      9.6371710116575287
    97   2      4.8614795949123391      10.004516755738678      6.7468263077327038
    98   2      4.5200237346251697      2.1199291209121611      4.1436054798703026
    99   1      3.7562042687844723      6.0289289006165063      8.3923028160506874
   100   2       7.435970392661261      1.9261322497223148      1.4676349557164201
   101   2      10.048099695526162      2.1774915175926139      14.869174479833873
   102   2      1.7280371235916903      10.291966720839355      3.7615123838129421
   103   1     0.97597402244871034      6.5135353708167258      5.4349899298807713
   104   2      15.466923439211087      10.545656063383831      1.3690279597559822
   105   1     0.68535466269298695      8.7723244042358601      8.0135969822675861
   106   1      14.574959901705597       14.35100611307189      11.138423492346874
   107   2      10.494866456735735      15.724992682849916      12.053052695891211
   108   1     0.23941919932703826      15.281998246502326      3.1414511041176638
   109   2      7.9214912006663099      10.298607439855459      14.850997741619494
   110   1       3.486708280465507      3.0374931258007791        10.8844259015018
   111   1      11.502062327604108      8.8761505593245147      13.746241779187812
   112   1      14.712507033266775      3.3129142213254568      5.1938327143869856
   113   2      1.7978487972945913      4.9410061697385572      9.4908383079532541
   114   2      1.9182543251074264      4.4039865857636187      4.1812588522676606
   115   1       8.737616240279749      11.624075132428061      2.7758681240320584
   116   1      3.5402339624634465      8.7048239733173887     0.10243953331200828
   117   2      4.4142588860446494      15.929682439424369      1.3773505399781243
   118   1      15.123596283774305      14.591241557120156      5.3135386127169113
   119   2      4.8443192831682609      16.017690798277499      11.976108567840583
   120   2       13.32223385231373      10.647704091619516      14.898121076679445
   121   2      7.4515314805049684      13.223897688662419      1.7059943966426374
   122   2      13.334449801847086      4.9122122103151469      9.5202329055443897
   123   1      11.472513110286627     0.61057298071898458       10.82871324241296
   124   1      14.352594929875295      8.7491096399380694      5.8834649417208311
   125   2      10.200252444314401      10.332660452278787     0.83611459500400542
   126   2      7.5105952248167114       5.017329341003574      15.251417239857119
   127   1      14.021026802857477      3.3022087875802413    0.060589127381263097
   128   2      10.481874435114378       7.290681372109816      15.251337947689763
   129   2      1.7616140113288452      16.084022660879555      9.2381381351965501
   130   2       2.150149348195896      7.7456875806598191      12.065945602303373
   131   1      6.4677956840771458       5.953068101802387     0.42622513410378815
   132   1      9.2027232797988745      3.7677293853097353      5.1711804289013799
   133   1     0.76205583458707338      12.253553843725058      16.595270803735502
   134   2      12.921534849186173      13.348718427362883      1.7221437332529206
   135   1      8.9527953594433711      11.137093366239469      13.670275918251946
   136   1        6.06092725475321      12.415492237117178      10.307570428223016
   137   1      8.7674340598141498      9.5075976986761361     0.28236931947731136
   138   1      6.2789876530481479      11.463531290029323      5.0621764952843478
   139   2      7.6926094038313977      2.5794314431392991      12.448436150349607
   140   1      2.8485428644465856      3.2762800010666524      16.471589889940788
   141   2      5.0026850688449258      2.0718045983453237      15.189581243144175
   142   1      11.692137546582671      5.9236640882663778      5.2070685594229644
   143   1      9.3216367520312815      1.0030501914027496      13.909454794170188
   144   1     0.90854241465362406      3.7704610004751657      2.6038673068143794
   145   1         1.0513494664728      9.2981623058853984      2.9711265728755052
   146   1       3.054391030028512      11.859256691959445      8.4900205007966179
   147   1      9.0533745002787782      3.5253255482722921      11.294970018358754
   148   2      15.704867339622751      15.852765072480224      6.8478118209258128
   149   2       4.739219497641443      13.480217548858946      4.2857966545583395
   150   2      2.0144305205623425      10.157490178459057      14.744548006943432
   151   2      12.843304205720187      2.1285506573840394      12.535262064757035
   152   1      3.3409816662654634      8.8237314986372439      5.8941292426542304
   153   2      10.369516442818167      4.7188528088798876      1.6089892263568117
   154   2       13.01040253690303      7.7304768650806182     0.89968603708295802
   155   2      7.6452253957712628      2.0984466426830863      7.1192546797414025
   156   1     0.34525414094456153      14.155046424123384      13.674426863213057
   157   2      15.986714321947602      13.241548125115969      15.089533359830057
   158   2      7.2149960072159729      7.6820848553429641      12.515185287982376
   159   2      10.384546273140586      13.216486844470865      9.6106061532889271
   160   2      10.296197949119914      10.406056255840213       12.28702108526204
   161   1      9.3534229996203067      14.849905492014159      16.199607844387174
   162   2      4.9015692191517246      10.153862561802498      1.3532721105262056
   163   2      15.866452882870135      7.8831004111125367       9.702000287688179
   164   2      15.716529235136704      4.9712635652257404      1.4477801970103599
   165   2      13.208358406164734      5.1322018861570768      4.2118809917246836
   166   2        2.04539956325155      12.892634836488924      1.1739534935196048
   167   2      13.247057939595152      15.857047840669566       15.29102565975586
   168   2      7.6048978950298078       16.02670136194547      4.0949508148282803
   169   2      12.882186111135525      10.241187025712179      3.8274564581590198
   170   1     0.57456529247630783      3.7955341749453737      8.2198715910370765
   171   1      14.275923368649956      6.3360983321626918       7.905828519733177
   172   2      1.7485970870111771      4.5771923961370931      15.136042180592995
   173   2      10.034152203288158      2.2136668344328427      3.9645692173158977
   174   2        13.1635741900418      4.8527470494061618      15.256646558294278
   175   1      14.430427130200314      9.2177491455129257      11.432706459969495
   176   2       1.954862527623817      13.407724684853292      12.097080662967983
   177   1      6.5112081457048134      14.576109638132266      13.829701741090958
   178   1     0.89333560173578519      1.0218615766910091      5.2434914164981592
   179   2      15.884425443753571      13.198485540176762      4.4621483816716818
   180   1     0.68204725010913592      1.0998907684943049      10.658155790429191
   181   2       16.08237338379854      7.3961414414220599      15.075378716804835
   182   2       4.534574342911128      2.2898019345884109      9.5498970965045373
   183   2      1.9516861329571213       2.362477418367007       1.059707604276241
   184   1      3.7550344615279414      6.2902570523336863      13.358286018506533
   185   1      6.2262806626781639      14.896083267978383      8.1727165391101835
   186   2       12.84725295565454      2.0034356704062759      6.5654652979466164
   187   1      8.9297570202179486       8.766867120817551      10.958493706181571
   188   1      6.2317265478474155      14.294275540784611      2.5360700258443671
   189   1     0.31969725327997622      11.710352939728637      5.5745540559490792
   190   2      7.5089974876444785      10.490530166333428      9.5087484262548969
   191   2      4.7780786065586653      7.5750647126379818      3.9007199429161687
   192   2      7.5479299418165056      13.106511581803716      6.9068854767584753
   193   2      2.1410674215773042      1.7783375966824053      12.046797535038877
   194   1      15.027896584687596       6.220324829757601      2.6119615503733371
   195   2      10.495023058766265      1.9866197840141524      9.1664312547998179
   196   1      11.838390958119589     0.51203713089464742     0.32105993253890119
   197   1      14.373642044547978      11.855151339994563       7.828477523748802
   198   2      12.887814863865742      16.494390352664141      9.5779011077106588
   199   2      4.7596520980171135      7.8429775832780706      14.932244460901302
   200   1      6.0842178421860353     0.47129421353265144      11.063096924510319
   201   1      14.440255394344149      11.618888433530856      2.0424735583820848
   202   1      3.0200193622076199     0.45571990000321705      13.749039801543404
   203   1      14.562467420738585      8.7459954400651441    0.051183094028601772
   204   2      7.3327528049570674      15.730252727001925      14.903521864428512
   205   2      4.8948957921165857      5.1410771575644958      1.1061267257748568
   206   2      10.255889775844253      13.370615950530464      15.378009167345908
   207   2      15.808449671296785      2.2148197921038104      4.3635223060334738
   208   1     0.41791903178517487      3.7608123826479982      14.192355371168787
   209   1      9.2021811196045746      6.5482514639895726      2.5976778097881379
   210   1      11.337776886058236      11.909411961268688      5.1962407183943924
   211   2      7.6373526747048572       7.581417997547419      1.2901976692743631
   212   2      2.1785723689488918      10.667833399455048      9.4106045461094254
   213   1      11.402696356929255      14.767248363305498      13.952893025752246
   214   1      9.2508010943233785      14.982820969849627      5.4776020361941846
   215   2      13.311921905949021      13.022058485504431      7.0873737771275955
   216   1      5.9077328051163249     0.24860183629022359      5.7539590270816916

Velocities

     1                       0                       0                       0
     2                       0                       0                       0
     3                       0                       0                       0
     4                       0                       0                       0
     5                       0                       0                       0
     6                       0                       0                       0
     7                       0                       0                       0
     8                       0                       0                       0
     9                       0                       0                       0
    10                       0                       0                       0
    11                       0                       0                       0
    12                       0                       0                       0
    13                       0                       0                       0
    14                       0                       0                       0
    15                       0                       0                       0
    16                       0                       0                       0
    17                       0                       0                       0
    18                       0                       0                       0
    19                       0                       0                       0
    20                       0                       0                       0
    21                       0                       0                       0
    22                       0                       0                       0
    23                       0                       0                       0
    24                       0                       0                       0
    25                       0                       0                       0
    26                       0                       0                       0
    27                       0                       0                       0
    28                       0                       0                       0
    29                       0                       0                       0
    30                       0                       0                       0
    31                       0                       0                       0
    32                       0                       0                       0
    33                       0                       0                       0
    34                       0                       0                       0
    35                       0                       0                       0
    36                       0                       0                       0
    37                       0                       0                       0
    38                       0                       0                       0
    39                       0                       0                       0
    40                       0                       0                       0
    41                       0                       0                       0
    42                       0                       0                       0
    43                       0                       0                       0
    44                       0                       0                       0
    45                       0                       0                       0
    46                       0                       0                       0
    47                       0                       0                       0
    48                       0                       0                       0
    49                       0                       0                       0
    50                       0                       0                       0
    51                       0                       0                       0
    52                       0                       0                       0
    53                       0                       0                       0
    54                       0                       0                       0
    55                       0                       0                       0
    56                       0                       0                       0
    57                       0                       0                       0
    58                       0                       0                       0
    59                       0                       0                       0
    60                       0                       0                       0
    61                       0                       0                       0
    62                       0                       0                       0
    63                       0                       0                       0
    64                       0                       0                       0
    65                       0                       0                       0
    66                       0                       0                       0
    67                       0                       0                       0
    68                       0                       0                       0
    69                       0                       0                       0
    70                       0                       0                       0
    71                       0                       0                       0
    72                       0                       0                       0
    73                       0                       0                       0
    74                       0                       0                       0
    75                       0                       0                       0
    76                       0                       0                       0
    77                       0                       0                       0
    78                       0                       0                       0
    79                       0                       0                       0
    80                       0                       0                       0
    81                       0                       0                       0
    82                       0                       0                       0
    83                       0                       0                       0
    84                       0                       0                       0
    85                       0                       0                       0
    86                       0                       0                       0
    87                       0                       0                       0
    88                       0                       0                       0
    89                       0                       0                       0
    90                       0                       0                       0
    91                       0                       0                       0
    92                       0                       0                       0
    93                       0                       0                       0
    94                       0                       0                       0
    95                       0                       0                       0
    96                       0                       0                       0
    97                       0                       0                       0
    98                       0                       0                       0
    99                       0                       0                       0
   100                       0                       0                       0
   101                       0                       0                       0
   102                       0                       0                       0
   103                       0                       0                       0
   104                       0                       0                       0
   105                       0                       0                       0
   106                       0                       0                       0
   107                       0                       0                       0
   108                       0                       0                       0
   109                       0                       0                       0
   110                       0                       0                       0
   111                       0                       0                       0
   112                       0                       0                       0
   113                       0                       0                       0
   114                       0                       0                       0
   115                       0                       0                       0
   116                       0                       0                       0
   117                       0                       0                       0
   118                       0                       0                       0
   119                       0                       0                       0
   120                       0                       0                       0
   121                       0                       0                       0
   122                       0                       0                       0
   123                       0                       0                       0
   124                       0                       0                       0
   125                       0                       0                       0
   126                       0                       0                       0
   127                       0                       0                       0
   128                       0                       0                       0
   129                       0                       0                       0
   130                       0                       0                       0
   131                       0                       0                       0
   132                       0                       0                       0
   133                       0                       0                       0
   134                       0                       0                       0
   135                       0                       0                       0
   136                       0                       0                       0
   137                       0                       0                       0
   138                       0                       0                       0
   139                       0                       0                       0
   140                       0                       0                       0
   141                       0                       0                       0
   142                       0                       0                       0
   143                       0                       0                       0
   144                       0                       0                       0
   145                       0                       0                       0
   146                       0                       0                       0
   147                       0                       0                       0
   148                       0                       0                       0
   149                       0                       0                       0
   150                       0                       0                       0
   151                       0                       0                       0
   152                       0                       0                       0
   153                       0                       0                       0
   154                       0                       0                       0
   155                       0                       0                       0
   156                       0                       0                       0
   157                       0                       0                       0
   158                       0                       0                       0
   159                       0                       0                       0
   160                       0                       0                       0
   161                       0                       0                       0
   162                       0                       0                       0
   163                       0                       0                       0
   164                       0                       0                       0
   165                       0                       0                       0
   166                       0                       0                       0
   167                       0                       0                       0
   168                       0                       0                       0
   169                       0                       0                       0
   170                       0                       0                       0
   171                       0                       0                       0
   172                       0                       0                       0
   173                       0                       0                       0
   174                       0                       0                       0
   175                       0                       0                       0
   176                       0                       0                       0
   177                       0                       0                       0
   178                       0                       0                       0
   179                       0                       0                       0
   180                       0                       0                       0
   181                       0                       0                       0
   182                       0                       0                       0
   183                       0                       0                       0
   184                       0                       0                       0
   185                       0                       0                       0
   186                       0                       0                       0
   187                       0                       0                       0
   188                       0                       0                       0
   189                       0                       0                       0
   190                       0                       0                       0
   191                       0                       0                       0
   192                       0                       0                       0
   193                       0                       0                       0
   194                       0                       0                       0
   195                       0                       0                       0
   196                       0                       0                       0
   197                       0                       0                       0
   198                       0                       0                       0
   199                       0                       0                       0
   200                       0                       0                       0
   201                       0                       0                       0
   202                       0                       0                       0
   203                       0                       0                       0
   204                       0                       0                       0
   205                       0                       0                       0
   206                       0                       0                       0
   207                       0                       0                       0
   208                       0                       0                       0
   209                       0                       0                       0
   210                       0                       0                       0
   211                       0                       0                       0
   212                       0                       0                       0
   213                       0                       0                       0
   214                       0                       0                       0
   215                       0                       0                       0
   216                       0                       0                       0
