(written by ASE)

216 atoms
2 atom types

0.0      16.628772735595703  xlo xhi
0.0      16.628772735595703  ylo yhi
0.0      16.628772735595703  zlo zhi

Atoms # atomic

     1   2      8.3143863677978516      8.3143863677978516      8.3143863677978516
     2   1      6.9286556368822403      9.7001180898655548      6.9286556368822403
     3   1      9.7001180898655548      6.9286556368822403      6.9286556368822403
     4   1      6.9286556368822403      6.9286556368822403      9.7001180898655548
     5   1      9.7001180898655548      9.7001180898655548      9.7001180898655548
     6   2      9.1620810882682235      1.9222495352960891      9.0404032928513516
     7   2      14.675447856548544      4.4726065229699543      6.5144224519390264
     8   2      1.1320011228173996      4.0975221111428368      3.4862560673235521
     9   2     0.81091981856151563      15.840289441098776      14.219926248910724
    10   1       7.941955517908923      16.446270909751775      7.8913745487761844
    11   2      3.5754223396081102      4.2601649658843144     0.43713155490915057
    12   1      16.395747923016415      8.2734532731282115      1.9090227345229493
    13   1      1.7742596252940643      10.745903476282137      1.8356185061687427
    14   2      12.201847421391903      4.1563938197367634       3.827316953502077
    15   2     0.60422335068288646      9.5400143189956452      9.2686299381534809
    16   2      3.4321949154079334        7.15709785776437      9.1379326586998104
    17   1      5.2950798917323709      14.102008884530733      13.074220837799885
    18   2      6.5339273339566262      9.4244241797275663      14.244403740973667
    19   2      6.3075868510854889      1.4429817819451785     0.96363219659967569
    20   2        11.8754402233169      4.0546168715982276      14.654595998837976
    21   2      12.209379186138676      6.7984692963319731     0.58941875967336443
    22   2      3.9338112900222768      12.516841503128035      9.4400833916283773
    23   1      7.8004551762289793       11.23578931810016      1.7473909788092783
    24   2      9.1176913506778874      12.726883480999049      14.370856907169582
    25   1      13.507826090380377      5.9498042379635763      1.6632896176086263
    26   1      2.3108061819331169      13.862914256540307      4.9996001079587131
    27   2     0.68558101705198737      7.0529589941907034      6.3178764965281289
    28   2      6.4188952133163184      12.216655233645724     0.72492052499877957
    29   1      13.823783571949889      11.331111388239833      1.9167006942032856
    30   1      13.369525683229313      5.8341199392467615      13.269152702029032
    31   1      7.3697262470193436      16.480497373791195      2.4744208613007572
    32   2      1.3140952134694999      12.567374401384313     0.62433611866788397
    33   1      1.9203483816897062      16.461574298051573      13.217234173148199
    34   2      12.053996272682753      4.4867854492214292      8.9833694280239342
    35   2      9.2968886754472351      7.3668791626352004      14.443598550350316
    36   1      5.0504918032722799      5.6320061869593019      16.149389141344045
    37   2      14.766065918859795      15.065495939295943      11.644007200997294
    38   1      5.1921641098401778      16.520560732500144      15.950190367359028
    39   1      4.9340344059237395      14.158157650540034       7.436801473690366
    40   1      10.780494684291398      2.8224921662256861      1.7407289500231968
    41   1      10.556280222657506      2.9897646923886896      12.493340295875669
    42   1       13.27518683596486      3.3211172438265066      5.0878166087511545
    43   2      3.6598977368294641      4.3736439511965273      11.660323546735071
    44   1      15.793789540704665      5.9028489031832123      4.8475643151173244
    45   1      2.1388207275728632       16.41105924053295      7.8580901748001679
    46   1      7.9020482656544573      10.815473432768613      13.215443161318035
    47   1      5.0817705809902236      8.6446471652063792       13.24723932042798
    48   2      3.4593762703777315      15.059678867668254      6.4869140167788828
    49   1      2.1816399846734953      5.3005262724776685      7.5720808492651486
    50   2      6.3190683569187058      9.5567935327603664      3.7147681644281647
    51   2     0.78932614545712454      15.372982043935508      3.3824549388252194
    52   1      16.408884652843199      2.9855815349845898      7.3093754917161959
    53   2      6.2733603870460684      15.646492446014918      14.364928826507594
    54   2      11.541141472285744      1.4995406371325259      11.926386431995525
    55   2      6.5917338018397231       12.47647088727058      5.8626948540578496
    56   1      4.8356343129624975     0.55943201065429093       10.61333787513513
    57   2      14.505141166044041      15.113137646899986     0.25035631487374843
    58   2       3.605620513757799       15.14050930307144     0.73553520638057535
    59   1      13.417333904384805      5.6437508436729331      7.9037827818153801
    60   2      14.712322678977671      6.8523339523453615      14.035913907278655
    61   1        13.6213407571679      3.4261630115643129       15.89872578613631
    62   1      16.276122803581984      10.859187204632235      10.717827110973303
    63   2      3.6882682265215863      9.6257757360563119     0.94820832137369848
    64   1      11.136784126786779      13.734288484958824      7.4303431266591815
    65   1      15.809590487354626      7.9508000636014913      12.923619242035556
    66   2      14.905153300771872      1.1067592047035362      9.1645163489581591
    67   2       8.886342576286097      1.8037545770345105      14.486874232989294
    68   2      14.496851169946922      15.338227295831075      5.9095590028457536
    69   2      6.5999187358150948      1.4468217529374385       11.63902368827894
    70   1      15.712353511373294     0.10529405133684122      9.9603341689355602
    71   2      6.6044017167270113      4.1988785630063603      3.0548923051990187
    72   1      7.8237759938006093      2.9696076322945828      10.115042107816862
    73   2      6.2653003382342831      15.568456068358955      8.6540809508176153
    74   2      11.896450665362181      1.5073768094655406     0.56429900105483455
    75   2      8.9409104547087281      7.1890159285816253      3.3150893045912539
    76   2      12.121754403145133      15.356328706486465      3.2916024690442214
    77   1      5.1799932577270056       11.26216585757129      4.8171250432212673
    78   1      4.8371468110548221      3.2151256692049515      13.151381037006558
    79   2      1.1007022742695938      12.810990665218242      6.6176960397364155
    80   1      7.7624162456678505      5.4073006094638458      2.2947589339883052
    81   2       6.249059320055494       9.582368230189104       8.553012180848782
    82   1       7.853077423095101      11.031411774434673      7.5936775577728213
    83   1       7.989245366520322      13.791540403246472        10.2084462986586
    84   1      10.227955145284568      14.005823520918966       13.42278424973847
    85   1      5.0574685228475573     0.84792268545152183      4.9408748420863731
    86   1      12.986084620326892      8.6696816847450009      16.057051430153251
    87   2      9.2257130525717912      1.5514153075332899      3.4790635243802512
    88   2       1.095687788048366      1.3040667366030902     0.95908894125116717
    89   1      2.7165298305908436      13.554845354470672      16.428536225370408
    90   1        10.4058976715055      8.0349062566685916      13.379417381107032
    91   2        11.9062809118102      1.6134942604027742      6.5912124558393543
    92   1        16.2227443076697      8.1573645843578788      7.9330039277904234
    93   1      2.4648009868842564       8.021461774117256      15.338780358698386
    94   1      13.100213801411428     0.24513569999089668      2.6193116864992589
    95   2      11.869883824689396      9.6201707709763014      9.1393044131950774
    96   1      2.1108030880254773      5.5944712572369326       2.347985288054474
    97   2      9.2532898772262797       15.14040820555806     0.34345464237460988
    98   1      1.8928055039943672        2.66028963080106       4.530779221551029
    99   2      12.048465644009639      12.026601820013184      11.601931803541675
   100   1      7.3116566282558324     0.36554708179577489      13.354876455310205
   101   1      2.4416149659971325      13.832162771735284      10.832361673263449
   102   1      15.893195157463197      13.860607845622326      13.532480007515687
   103   1       2.227298149153512      8.2453090139010783       10.07370511866975
   104   2      3.5255718495671431       9.917990169263021      6.3052184931617603
   105   2      15.018687790601234      6.7199125638277337      3.4779425313642491
   106   1      5.0468136378590316      3.3032224883822892      7.6203702747612851
   107   2      6.2716020832349386       1.460403757841533      5.8044443500375564
   108   2       11.95174208481194      9.8282998253098413      14.766577353339244
   109   1      16.432914144160577      11.277248218954583      15.585199600648366
   110   1      4.8238931252811881      11.341963512494658      10.105520109669442
   111   2       15.06336099768987      12.612516423412444      14.484350759763174
   112   2      12.189113099314454      7.0068139262455134      11.876112224435246
   113   2      14.808926308772243      9.9308097304203784      11.466155860768822
   114   2      11.778759283659156      15.443810763578767       9.066453743284228
   115   1      4.6535388594762708      14.096675495123918      1.9963889507145041
   116   2     0.65173050939044685      1.8497233438013438      6.3130842761635222
   117   2      14.995960673132686      12.524631958570808      8.6697639503686332
   118   1        10.3498965871579      8.2833335727568738      2.2912207688080457
   119   2       11.98031799077512      6.7847636452044071      6.2343372424576273
   120   1      13.432212088437154      8.5938763904480311      10.124354972872879
   121   1      16.423029384347501      5.5490973056192843      15.816176693005673
   122   2      14.904170077896651       4.072873149767986      11.300706806666994
   123   2      9.4372486966453835       4.419930753890867     0.56547562248199768
   124   2      4.0035232290459248      6.8409852608924666      3.4115011464560325
   125   1      2.0848785139082793       11.16061736998995      7.1537343831403177
   126   2      14.426243477220169      9.9542841765662615     0.60528580377845742
   127   1      4.7719850034973206      6.0887042921302736      4.7835586864750894
   128   2      6.2908423276439862      12.869172284168144       11.49310925075747
   129   1      10.319060854425061      5.3462768618902601      16.031488626549617
   130   2      14.845080563630518      12.184593445775135      3.3052756599407758
   131   1      2.3235580969601983      10.857381325520691      12.850824076641857
   132   2      9.1642695520872621      15.093490038981145      6.2050090520566528
   133   1      10.575187439963656      10.974021094854152      16.018925773784076
   134   2      12.136659348303965       9.588478682836012      3.6304491214493169
   135   1      4.7647624782032381      8.6983527413090087      2.0465433527656671
   136   2      3.5076275365183278      7.2664734734158856      14.857697929761116
   137   1      13.599576048380641      14.269318331109162       16.13575980892756
   138   2      8.7704759055843624      9.7707842605657333      11.795621754199601
   139   1      10.504674897837731      2.3181907605942342      7.6668746353398092
   140   1      16.158369970449257      2.6383735235317545      12.713607989879392
   141   2      6.6229030572515057      6.9673363384229106      6.2048702907637789
   142   1      1.8385820509236908      5.4509682927551921      13.234311723692599
   143   1      2.2219033083169961      8.3305480938092842      5.1340360131032412
   144   2       3.576796324195584       12.82719600192172      3.5529286384572174
   145   1      13.326742603180037      14.254389598300122       5.302850524133305
   146   2     0.88513406596287325      10.026190278533477      14.507559577148413
   147   1       15.86845699240007      2.4754957657444834      1.8832111517442343
   148   2      9.3896932192733402      10.052207029795227      6.2201498914133708
   149   2      9.0867029805228867      10.172333672188188     0.82851208677666932
   150   1       5.422393377944104      3.1193375097940361      2.0766131727194477
   151   2       3.507241234990488      15.204077833641122      11.731657753945228
   152   2      9.3025194104816364      12.731899701736438      9.2602120834364996
   153   1      10.550136070839471      16.525981343291051      10.598202982690964
   154   1       13.56738640189019      14.131704792357823       10.46610520533136
   155   2     0.47036417216186521      7.1269197544445433     0.61838164858144751
   156   1      15.918074066123381      13.503461056567403      7.7388971976778294
   157   2     0.65751679335627955      12.518645399935394      11.509667437605685
   158   2     0.71293514222081456      1.7959306702086337       11.79938119408439
   159   2      14.586067743200147       4.050900051253393     0.40763914299594006
   160   1      12.900491699121858      8.5829766908927922      5.0236251390916777
   161   1      10.072783347224231      11.187115821168391      4.4708799360257672
   162   1      7.5623670631879349      8.4111257854290216       10.57797158618996
   163   2      9.4724930738832427      15.435637723428499      11.750501537517493
   164   1      10.722980110699382      5.3456668077776612      10.502305053185864
   165   2       3.783866580306892      4.3305179325234349      6.5209318433029466
   166   2      3.6974348966440402      9.7237531026503348      12.085362271784788
   167   1      16.532946169041224      16.598402844346083      4.5297142286282224
   168   2      3.3490171840629728      1.8530200395532006      14.765241280319287
   169   1      16.172735728870066      5.8332487165579323       10.18581928755134
   170   2      3.5332232959290195      12.693623390249286      14.809699407403969
   171   2     0.94700803619033991      15.466526978374304      8.8312920067946834
   172   1      4.8886832508042062      8.5211763756551591      7.9697816173145384
   173   1      7.7417522112787083      13.874329355183363      5.2464505010686935
   174   2     0.83813177535215289      4.6658202250476961      14.648022678164125
   175   1      7.4766978232718202       8.036424701673468      15.701397316148814
   176   1      8.1276860216923978      13.951148598070404      16.038233416535377
   177   1      13.437695141809854        11.4114759821598      12.821893338229756
   178   2      15.038131221189133      1.3371603138014052      14.746096186511068
   179   1      7.8791125106705522      5.8565507022398151       7.221554460608445
   180   2      6.3514175788959619      4.1420664684595181      9.2127616681862037
   181   2      8.8956742732318617      4.4684867992997397      6.2312636798204721
   182   2      6.4865334143755717      4.3568870383538751      14.202301582411565
   183   2       11.87680305744334      12.713229369780265     0.83646719736071873
   184   1      2.2323807770810618     0.38052707575207023      1.8530574555446719
   185   2      6.5115699162183773      6.8307595447597578      11.512009529998977
   186   1      10.825368104102608     0.26967393109297433      16.200321473893382
   187   1      4.9591006423293038      11.537489076826887      15.915527796399147
   188   1      13.404629316870114      3.4507554772699223      10.641642205425114
   189   2       14.73018026621844       9.885211778429948      6.3350244188710576
   190   1      10.628176413103802      13.566677728144441      1.5901386286139143
   191   1      10.281042242481817     0.26119831079313371      4.6888184226133944
   192   1      13.208082865883171     0.38045571280144941      7.7341738623836136
   193   2      11.932858655155997      12.563220482966926      6.7139656512759984
   194   2     0.80958163934336369      9.9801136000826318      3.1515814218615219
   195   2      3.5641234535478361      1.6227173023004582      9.0903078006813303
   196   1      15.843336242629448      14.349668057747749      2.3848345883172328
   197   1      10.539943062725797      14.208169202795943      13.213992114655412
   198   2      12.116897757894549       15.28258798199704      14.412078922674027
   199   1      7.4768876288974297      5.3447415672998204      12.897273428279277
   200   1      2.6757667185049741      3.0201943005518501       15.73555043493343
   201   1       13.28255506061646     0.20176017426540582      13.539112797315056
   202   2      3.5945094510189506      1.2934362587348289       3.623592826853212
   203   1      11.175885076814438      5.5045212314356604      5.1415965212606807
   204   1      2.3049938182778646      2.8226247328179852      10.027629431370997
   205   1      7.7797842037751934      8.5138477970872373      4.5114492778776594
   206   2     0.68866108412474603      6.8372872724373792      11.611473624730934
   207   1      15.865716456865812      10.933447292817846       4.786802231696015
   208   1      7.4266545541489677      3.2563288528196495       5.217950913816594
   209   2      9.2451098990113678       1.542428283727503       3.427576642235465
   210   1      13.550737029049515       11.32017898066556      7.2289598534634933
   211   2       9.594498940642552      12.535868649837312      3.6194319703711813
   212   2      14.754791563813797      1.4742942588342487      3.3728058254220059
   213   1      16.000310946345053     0.23782297985644618      15.172237072687039
   214   2      6.3525747489633204      15.322328225124011      3.1802985669978057
   215   2      6.2641768673380511      6.7734218918161559     0.17461784590922846
   216   1      8.0995303642162071      2.6915520545094864      15.532377141059669

Velocities

     1                       0                       0                       0
     2                       0                       0                       0
     3                       0                       0                       0
     4                       0                       0                       0
     5                       0                       0                       0
     6                       0                       0                       0
     7                       0                       0                       0
     8                       0                       0                       0
     9                       0                       0                       0
    10                       0                       0                       0
    11                       0                       0                       0
    12                       0                       0                       0
    13                       0                       0                       0
    14                       0                       0                       0
    15                       0                       0                       0
    16                       0                       0                       0
    17                       0                       0                       0
    18                       0                       0                       0
    19                       0                       0                       0
    20                       0                       0                       0
    21                       0                       0                       0
    22                       0                       0                       0
    23                       0                       0                       0
    24                       0                       0                       0
    25                       0                       0                       0
    26                       0                       0                       0
    27                       0                       0                       0
    28                       0                       0                       0
    29                       0                       0                       0
    30                       0                       0                       0
    31                       0                       0                       0
    32                       0                       0                       0
    33                       0                       0                       0
    34                       0                       0                       0
    35                       0                       0                       0
    36                       0                       0                       0
    37                       0                       0                       0
    38                       0                       0                       0
    39                       0                       0                       0
    40                       0                       0                       0
    41                       0                       0                       0
    42                       0                       0                       0
    43                       0                       0                       0
    44                       0                       0                       0
    45                       0                       0                       0
    46                       0                       0                       0
    47                       0                       0                       0
    48                       0                       0                       0
    49                       0                       0                       0
    50                       0                       0                       0
    51                       0                       0                       0
    52                       0                       0                       0
    53                       0                       0                       0
    54                       0                       0                       0
    55                       0                       0                       0
    56                       0                       0                       0
    57                       0                       0                       0
    58                       0                       0                       0
    59                       0                       0                       0
    60                       0                       0                       0
    61                       0                       0                       0
    62                       0                       0                       0
    63                       0                       0                       0
    64                       0                       0                       0
    65                       0                       0                       0
    66                       0                       0                       0
    67                       0                       0                       0
    68                       0                       0                       0
    69                       0                       0                       0
    70                       0                       0                       0
    71                       0                       0                       0
    72                       0                       0                       0
    73                       0                       0                       0
    74                       0                       0                       0
    75                       0                       0                       0
    76                       0                       0                       0
    77                       0                       0                       0
    78                       0                       0                       0
    79                       0                       0                       0
    80                       0                       0                       0
    81                       0                       0                       0
    82                       0                       0                       0
    83                       0                       0                       0
    84                       0                       0                       0
    85                       0                       0                       0
    86                       0                       0                       0
    87                       0                       0                       0
    88                       0                       0                       0
    89                       0                       0                       0
    90                       0                       0                       0
    91                       0                       0                       0
    92                       0                       0                       0
    93                       0                       0                       0
    94                       0                       0                       0
    95                       0                       0                       0
    96                       0                       0                       0
    97                       0                       0                       0
    98                       0                       0                       0
    99                       0                       0                       0
   100                       0                       0                       0
   101                       0                       0                       0
   102                       0                       0                       0
   103                       0                       0                       0
   104                       0                       0                       0
   105                       0                       0                       0
   106                       0                       0                       0
   107                       0                       0                       0
   108                       0                       0                       0
   109                       0                       0                       0
   110                       0                       0                       0
   111                       0                       0                       0
   112                       0                       0                       0
   113                       0                       0                       0
   114                       0                       0                       0
   115                       0                       0                       0
   116                       0                       0                       0
   117                       0                       0                       0
   118                       0                       0                       0
   119                       0                       0                       0
   120                       0                       0                       0
   121                       0                       0                       0
   122                       0                       0                       0
   123                       0                       0                       0
   124                       0                       0                       0
   125                       0                       0                       0
   126                       0                       0                       0
   127                       0                       0                       0
   128                       0                       0                       0
   129                       0                       0                       0
   130                       0                       0                       0
   131                       0                       0                       0
   132                       0                       0                       0
   133                       0                       0                       0
   134                       0                       0                       0
   135                       0                       0                       0
   136                       0                       0                       0
   137                       0                       0                       0
   138                       0                       0                       0
   139                       0                       0                       0
   140                       0                       0                       0
   141                       0                       0                       0
   142                       0                       0                       0
   143                       0                       0                       0
   144                       0                       0                       0
   145                       0                       0                       0
   146                       0                       0                       0
   147                       0                       0                       0
   148                       0                       0                       0
   149                       0                       0                       0
   150                       0                       0                       0
   151                       0                       0                       0
   152                       0                       0                       0
   153                       0                       0                       0
   154                       0                       0                       0
   155                       0                       0                       0
   156                       0                       0                       0
   157                       0                       0                       0
   158                       0                       0                       0
   159                       0                       0                       0
   160                       0                       0                       0
   161                       0                       0                       0
   162                       0                       0                       0
   163                       0                       0                       0
   164                       0                       0                       0
   165                       0                       0                       0
   166                       0                       0                       0
   167                       0                       0                       0
   168                       0                       0                       0
   169                       0                       0                       0
   170                       0                       0                       0
   171                       0                       0                       0
   172                       0                       0                       0
   173                       0                       0                       0
   174                       0                       0                       0
   175                       0                       0                       0
   176                       0                       0                       0
   177                       0                       0                       0
   178                       0                       0                       0
   179                       0                       0                       0
   180                       0                       0                       0
   181                       0                       0                       0
   182                       0                       0                       0
   183                       0                       0                       0
   184                       0                       0                       0
   185                       0                       0                       0
   186                       0                       0                       0
   187                       0                       0                       0
   188                       0                       0                       0
   189                       0                       0                       0
   190                       0                       0                       0
   191                       0                       0                       0
   192                       0                       0                       0
   193                       0                       0                       0
   194                       0                       0                       0
   195                       0                       0                       0
   196                       0                       0                       0
   197                       0                       0                       0
   198                       0                       0                       0
   199                       0                       0                       0
   200                       0                       0                       0
   201                       0                       0                       0
   202                       0                       0                       0
   203                       0                       0                       0
   204                       0                       0                       0
   205                       0                       0                       0
   206                       0                       0                       0
   207                       0                       0                       0
   208                       0                       0                       0
   209                       0                       0                       0
   210                       0                       0                       0
   211                       0                       0                       0
   212                       0                       0                       0
   213                       0                       0                       0
   214                       0                       0                       0
   215                       0                       0                       0
   216                       0                       0                       0
