(written by ASE)

216 atoms
2 atom types

0.0      16.628772735595703  xlo xhi
0.0      16.628772735595703  ylo yhi
0.0      16.628772735595703  zlo zhi

Atoms # atomic

     1   2      8.3143863677978516      8.3143863677978516      8.3143863677978516
     2   1      6.9286556368822403      9.7001180898655548      6.9286556368822403
     3   1      9.7001180898655548      6.9286556368822403      6.9286556368822403
     4   1      6.9286556368822403      6.9286556368822403      9.7001180898655548
     5   1      9.7001180898655548      9.7001180898655548      9.7001180898655548
     6   1      2.9873143166293517      4.0310824607507811      2.5574172118128899
     7   2      7.1194851226027822      3.0077335364517808      3.8973505213795647
     8   2      6.8716460552810759       3.187951252299797      9.5058730940361329
     9   2      1.6245275177024041       2.915752392226068      9.4321065995923163
    10   2      6.8112452467972844      11.169152180653782      6.7852309734157643
    11   2      12.544094221048454      3.2344400022328728       9.127112251311928
    12   1      14.037849627314245      9.7772198110988029      13.359881773374582
    13   2      7.1553529345064817       5.622523339319514      1.1008726285353987
    14   2      14.894821531365324      16.304021752666358      3.7082798350461985
    15   1      14.376494580268627      3.9832011421285074      2.5356500251454008
    16   1      8.2963736652546913      4.8247673214262932      13.352709796837189
    17   2      4.1740695305686586      8.2069231801077649      6.4439867241002275
    18   2      10.175568792616332      13.587191602991652      6.4460468337233578
    19   2      4.0576475669074057      2.4730922219214904      12.583098038171102
    20   2      12.213601494050408      8.2594899224567371      14.955357136533621
    21   1       2.687539870841249      6.5019235284834167      16.216102597501504
    22   2      12.391266497685592      11.587429266132176      6.9010654316745104
    23   2      1.2876667624075537       8.150822484974924      14.628571318359491
    24   1      10.951073941621189      9.4506797986434776      5.2462502883461184
    25   1      2.9863890761515108      12.820521583734489      5.5835304248698776
    26   1      13.947484308786443      4.4061547309647722      13.310687921594536
    27   2      1.4147535225782519     0.36182403577686273     0.91292274937701734
    28   2      10.025159480357843      3.0394479255141391      1.0144079271184836
    29   2      12.533738663991699      16.481656030586691      11.953802690011116
    30   2      7.3512987473256999      14.212662095228779      9.5103303049936585
    31   1      3.1869469674426227      9.8778286864969687      13.618947124865826
    32   1      3.0009468702901358        9.78910174237717      2.0092377508585741
    33   2        15.2939039654309      5.7391308962099856      9.6992270441348865
    34   1     0.31886750411149478       10.12838896188714      10.355386578595244
    35   1      11.095733580594242      3.7716984538619727      16.422711224525983
    36   2      15.373269478042175      2.4678460538987679      12.720278443458255
    37   2      12.254395331851129      8.2156438317888387       3.881122635965994
    38   2       4.303846525304948      16.327903562322035      3.8147531095844442
    39   2      7.1033347948404071      0.3938501421721412      1.1424116888152582
    40   1      16.441615468375858      15.694895358425583      5.0985478124507608
    41   1      10.886072205126538      4.4223833597424118      5.0943279824192587
    42   1      11.466384816902064      12.624069292196282      2.1452347205479327
    43   1      11.414883563051944       15.23930139668505      10.722091047272897
    44   1      14.021922804348605      6.5672741505144359      11.032838042294998
    45   2      15.134158991618278      5.4907833678651059      15.063922980926009
    46   1      11.074957050442663      9.6887763364773036      10.966495277019931
    47   2      14.842409408742697      8.2006655413752014      6.6527446644361135
    48   2      9.4830151444914463      8.6139482114622297      1.2707024509896598
    49   2      1.4761457309420223      5.7397934813834581      6.6164471881005511
    50   2      12.595491403928918       13.66676624869433      3.8081386560987767
    51   2        7.06139221176511      8.0076763352462876      3.8556745582170038
    52   1       16.18189496535183      9.7256927872942924      16.162849977904898
    53   1      8.3889606511966122       10.38898762566464      13.424241243313645
    54   2      9.7857020907017613      5.6832185199746164      14.562973899457575
    55   2      9.6050844449846409      2.6480191679026461       6.448177810721063
    56   1      8.3814169926247359      12.522446468208045      10.663274099832051
    57   2      1.5614621207134007      14.296473916124569      9.4429597149992333
    58   1     0.36875218889963435      6.8624387479228517      2.6655362943998284
    59   1      8.5292136279688293      15.757784949812276       13.64066326720058
    60   1      8.3130240292474582      12.672209549302579      5.0450642544167295
    61   1     0.25160862005518325      10.042338128415622      4.9375207834071944
    62   1      14.232175897615207      10.211407861109365      2.7505404712622408
    63   1      2.6273846202882396      12.097693194960812      16.482735395214831
    64   1      2.7410610926547747      1.0289820752666259       16.50288849070057
    65   2      1.2227970969291562      14.039851754539995      15.119562294760044
    66   1      8.9648487600336466      1.9001739764339902      5.1067590119565693
    67   2      1.1301705887975686      11.179926003893343      6.5198633813478182
    68   1      8.2262060440567666      7.2406376074109176      16.558942106109043
    69   2      12.733361651072073      6.0389350765608469      1.0152153443913932
    70   2      4.4561880885667051      11.248034011044183      9.0797034644494943
    71   2      12.733164411805774      11.082627576482309      11.937941283083546
    72   1      3.4094806829165805      7.2828547396156864      5.1375055410011328
    73   2      4.0344164486000977      13.782310794966179      12.320252432601137
    74   2      12.657587082489954      5.4494032636019938      12.043167936078135
    75   2      4.2442837359149053      5.5642956317973358      3.8594649716046661
    76   2      1.5398029696239348      2.9215768974944467      14.956521740241669
    77   1      8.8754408944266743      1.0311931497427622      10.667062283127507
    78   1      5.4855783326541996      6.7155891584026222      8.0925586004013894
    79   2      12.293690547688811      14.055460417684117      9.5305567457342022
    80   1      14.251245663864438      15.850595440550933      2.6428384159179927
    81   2      3.9657776795040149      8.5576388788140321      1.1289787284069916
    82   2      1.6759849130724547      13.996595894942857      3.6203966091446773
    83   1      11.360109524994186      9.5507921068435735       15.80805221930791
    84   1      6.0473653206789777      1.4845976565121646      2.4950301345368189
    85   2      4.0751074543712775      8.1476721080506422      12.121700880932167
    86   2      15.582448162441096        11.1216631104719      9.6319228613306223
    87   1      5.6063958080552538      9.2916573747058919      16.516516831964964
    88   1      14.148333351004567       7.410471518367558       5.558202028735991
    89   2      15.361355829896866      13.727488190455915      6.9203641540569834
    90   2      1.1802259995335476     0.16509165085216893      6.4073240082187795
    91   2      10.135030672055336      8.6063074199853418      12.200381507447901
    92   2      4.2869335060078129      2.4191542206532972      6.2783438997644225
    93   2      6.7592826116483593       8.009082780064773       14.98500150445193
    94   1      5.4779459659700933      4.2887805179311727      16.222945511544367
    95   2      9.8654799225832903      5.3055989888842987      3.8288467967560109
    96   1      5.7969348862128527      6.8352321185747087      2.8978957961373908
    97   2      9.5406744262888878      10.960257956905252      3.7019401784780257
    98   2      4.3199800034817599      5.8731054200557082      9.5716816283336357
    99   2      4.0076503863568291      13.647801544566846      6.6557572712196134
   100   2      12.886187392130751        2.61140303616952      4.0126953505048846
   101   1      13.994229023747266     0.79408194098235185      10.340360712881193
   102   1      10.975934018391627      15.407764544298516     0.22666657190939077
   103   2      4.5739334880587421    0.048225496186205419      9.3587068314225235
   104   1      5.1635693719872506      10.040789948847987      5.4155167647301141
   105   1      13.658467332228383       3.856006346379786      7.9477230319320142
   106   2      6.7862578069830306      5.3633425186095565       6.638511224819581
   107   1    0.018810599335624012      1.4505027679129512      7.5421540030006327
   108   2        1.32183152722925       2.692887631953397      3.6492582146983636
   109   1      7.9448397704965146      15.396286011921575      8.2305304406339701
   110   1      2.7472837932760967      12.677437876587646      11.239992794122145
   111   2       9.681915581696785      5.8600687965902125      9.1486499862701294
   112   2      6.9171121840432761      16.392322501386616      6.8107952637475364
   113   2      7.1815555267854734      13.729879840453805      14.907390331043416
   114   1      11.436205226854099      15.194480507934713      5.6985164569379094
   115   2        4.49921400087851      5.5693311800005176      15.292192245768092
   116   1      6.3924141072994871      4.3242379928688024      10.929889056807724
   117   2      7.2858470277813012       14.14214261503821      3.9110678185442111
   118   2      9.6212640117337287      16.464462515247533       15.06434422056509
   119   1      8.1310613901415536      6.9227196270035165       10.24548961694336
   120   1    0.087558701025162833      6.5862908901267474      7.7949969016585783
   121   2      1.4333676066532064      11.431196935333446      1.0902406639389994
   122   2      15.315763824818987      2.8267841025718781      1.4034722294676101
   123   1      8.1411592476544001      6.8523795453415914      5.0688187010285901
   124   1      10.873625317155756      2.0000356470488327      13.670300697054245
   125   1        5.84619514518306      12.800559780602498      13.609945481566683
   126   1      5.6038222816484904      15.605090040829737      10.429804259963475
   127   2      15.423698305328799     0.25779469450935721      9.7206557523629726
   128   1      5.3574862964742351     0.98655450908333364      8.0208125694970249
   129   2      1.5677876533642632      5.3538834586199755      12.166927150888114
   130   2      9.9158512630485802      14.126078021931789      1.0303709271354791
   131   1       5.585993437818388      1.9087288579276844      13.777800061795688
   132   1      2.4726006104838802      3.9887453991428856       13.39974194590468
   133   1      13.772964230739035      9.5989789480981926      8.4138038783814864
   134   1      14.032172308131521      15.410580407391762      14.114682746330573
   135   1      16.407981713287427      12.292776705460028       7.743420815825516
   136   1      16.389410496540449      3.8646928033136874      4.8259770225545253
   137   1      13.636060356885537      1.2447449210654042      16.335419468635337
   138   2      6.8028838877495446      2.4791573293601914      14.986953082920991
   139   1     0.62413441921717094      15.669041156106914      10.780805906048272
   140   1      16.493802599473611      1.8438365198451834       13.58341035776084
   141   2      7.2042856177102976      10.707757996871123      12.211289136219875
   142   2      7.3021678337034928      11.581673645934188     0.98045458742740266
   143   2      15.239067484791349      8.4202612342605789      12.428159160852374
   144   2      9.7873394739576725      0.5155180260680936      9.4730639774882093
   145   2      15.443957454088377      14.135793294737141      1.4437251460141454
   146   2      15.315348532092457      11.020349525936354      15.174721890981573
   147   1      2.7536960517350053      1.9625591952998889      5.5800544544833883
   148   2      15.189529703235394      8.4396580807001556     0.85151319585163776
   149   1        16.3204163994194      4.0867413498386327       16.27379458731798
   150   1      13.416954293133585      12.275328464033237      16.480214895444988
   151   1       8.147318266753814      3.8633019691406503      7.8011985402979462
   152   1      13.819423493897375      6.8703342654873722     0.30518365832995187
   153   1      11.440294720385509      4.2636458920312634      11.013519496870686
   154   2      1.4951806829740235      5.9723019037228369      1.1952623962385758
   155   2      1.1591518759663586      8.6420840458965813      3.8495105833571301
   156   1     0.20197895560295365      4.4250579836625548      10.557412118346519
   157   1    0.090145615728543405      14.941593998584722      16.131207447369206
   158   2      10.064608324769779      2.5745014526339105      12.483917412937444
   159   1      10.946651420986882      12.777638397323926      13.608102929827737
   160   2       9.505240739001465     0.15778348382264085      3.6488382139993973
   161   1      11.079704668963132       12.59938960510658      7.6189925733534665
   162   2      3.8403553114837337      16.616647972054807       14.97026009938827
   163   1      10.985347980961023      1.3484693591706218      8.1916158271995982
   164   2      9.5188978236765251      11.067750383582052      14.769121640759295
   165   1      3.0389089865641381       7.113064934927138      10.831811583852414
   166   2      14.847712072434661      16.593406446650533       15.12042657938423
   167   1     0.18035796386902803      7.5162165439062392      13.805780285351602
   168   2      1.3969795637952416      11.167974691968539      11.907783498381605
   169   2      4.3914990605570665      10.879646566114388      3.8734528532904164
   170   2       12.68040935055933      5.2859181773703767       6.766658269940649
   171   2       15.39954194654365        5.30008867882907      3.6227012855464977
   172   2      15.211903970559206      13.341225317547696      12.374560629175676
   173   1      5.1935046430445482      15.049376832824464      16.366778529672729
   174   2      12.141859923330458      2.7270157241476909       15.33264017148872
   175   2      15.194169286177839      10.965151274783238      4.0331383579775206
   176   1     0.50096593105399734      12.751328265042957      2.3105745001316222
   177   1      13.626075490711173      1.4931785557482726      4.7411596778614467
   178   1      2.8143595155231651      9.5834357009921405      8.3545101867844096
   179   1      16.577529181289492      12.999759545739607      13.653807926244099
   180   1      8.6530729491400962      14.746217107066286       2.765609699880315
   181   1      8.1903322852405154      12.450748508180141       16.39565376356768
   182   1      13.971920172461523      12.382683120569254      11.357874477026826
   183   1      2.7772877016157622      1.3142404172509714      11.412220337380859
   184   1      5.8603200536455233      4.3157279610072692      5.0829540165880189
   185   2      1.2267735991220832    0.011334815323607472      11.767415547966721
   186   1      2.6164415578289777      14.896357817107855      8.2769391550356204
   187   2      4.3857166792525959      13.886465021397271      1.2063915475031024
   188   2      12.271395572532356        0.17797721654415      6.3586435732223663
   189   1      5.7430860886329356      12.311802861017213       2.353580589401588
   190   1      3.1995375724667383       15.33655224879567      13.831475903335559
   191   2      9.7324346038237763       13.58202670944047      12.503107108589802
   192   2      15.447799159596798      2.7663436480044084      6.9187376734740837
   193   2      7.1120871633884235       16.33485352079083      12.305525894818857
   194   1       11.25376881704824      6.7067143825712492      2.5707923137177886
   195   1      2.7057292462448004      15.140730329987946      3.1361372899646653
   196   1       2.632362681670088       3.692655065680583      8.2817695347557674
   197   1      13.716293127577273      14.797177191874198      8.1380281981959115
   198   1      5.5667006623484667      15.733903140156599      4.7298813582070807
   199   2       6.953935962139667      5.1441006670210072      12.213557883358362
   200   1      10.976390939506018      7.1173814022876059      13.941469997892455
   201   1      11.349841189321523      1.4668647066469589      2.6119367715710382
   202   2       12.66145158449649       11.61587037541085     0.96963040127216971
   203   1       8.820248590186111      9.8550272326215236      2.5071871105207038
   204   1      5.7022273303701922      12.085369209849432      7.8711253115375257
   205   2      1.5768684649367515      8.6515604510477715      9.5722495584823264
   206   1      5.4951667379917808      7.0414789750856244      13.882037545002504
   207   1      8.0329075984751626      1.2115456622752845      16.252100250329249
   208   2      3.8345622752942745      11.035838259677348      14.883952557524935
   209   2      1.5157977615328093      5.6894657516102143      6.7855481420851902
   210   1      11.239740050338696      6.9589120412173315      8.0790125247606284
   211   2      9.6067555274116785      8.6516070351960934       6.436808800650283
   212   1     0.23156881015620456      1.8544857057091804      2.0909783116701988
   213   2      12.552879793191551      8.8869620463435695      9.2003673112762954
   214   2      12.787302130220496      13.964264513703256      15.002237639331042
   215   2       3.899568471973339      2.9869562629361326      1.2545021939406524
   216   1      13.685224474102824       12.53914143404495      4.9687549592810001

Velocities

     1                       0                       0                       0
     2                       0                       0                       0
     3                       0                       0                       0
     4                       0                       0                       0
     5                       0                       0                       0
     6                       0                       0                       0
     7                       0                       0                       0
     8                       0                       0                       0
     9                       0                       0                       0
    10                       0                       0                       0
    11                       0                       0                       0
    12                       0                       0                       0
    13                       0                       0                       0
    14                       0                       0                       0
    15                       0                       0                       0
    16                       0                       0                       0
    17                       0                       0                       0
    18                       0                       0                       0
    19                       0                       0                       0
    20                       0                       0                       0
    21                       0                       0                       0
    22                       0                       0                       0
    23                       0                       0                       0
    24                       0                       0                       0
    25                       0                       0                       0
    26                       0                       0                       0
    27                       0                       0                       0
    28                       0                       0                       0
    29                       0                       0                       0
    30                       0                       0                       0
    31                       0                       0                       0
    32                       0                       0                       0
    33                       0                       0                       0
    34                       0                       0                       0
    35                       0                       0                       0
    36                       0                       0                       0
    37                       0                       0                       0
    38                       0                       0                       0
    39                       0                       0                       0
    40                       0                       0                       0
    41                       0                       0                       0
    42                       0                       0                       0
    43                       0                       0                       0
    44                       0                       0                       0
    45                       0                       0                       0
    46                       0                       0                       0
    47                       0                       0                       0
    48                       0                       0                       0
    49                       0                       0                       0
    50                       0                       0                       0
    51                       0                       0                       0
    52                       0                       0                       0
    53                       0                       0                       0
    54                       0                       0                       0
    55                       0                       0                       0
    56                       0                       0                       0
    57                       0                       0                       0
    58                       0                       0                       0
    59                       0                       0                       0
    60                       0                       0                       0
    61                       0                       0                       0
    62                       0                       0                       0
    63                       0                       0                       0
    64                       0                       0                       0
    65                       0                       0                       0
    66                       0                       0                       0
    67                       0                       0                       0
    68                       0                       0                       0
    69                       0                       0                       0
    70                       0                       0                       0
    71                       0                       0                       0
    72                       0                       0                       0
    73                       0                       0                       0
    74                       0                       0                       0
    75                       0                       0                       0
    76                       0                       0                       0
    77                       0                       0                       0
    78                       0                       0                       0
    79                       0                       0                       0
    80                       0                       0                       0
    81                       0                       0                       0
    82                       0                       0                       0
    83                       0                       0                       0
    84                       0                       0                       0
    85                       0                       0                       0
    86                       0                       0                       0
    87                       0                       0                       0
    88                       0                       0                       0
    89                       0                       0                       0
    90                       0                       0                       0
    91                       0                       0                       0
    92                       0                       0                       0
    93                       0                       0                       0
    94                       0                       0                       0
    95                       0                       0                       0
    96                       0                       0                       0
    97                       0                       0                       0
    98                       0                       0                       0
    99                       0                       0                       0
   100                       0                       0                       0
   101                       0                       0                       0
   102                       0                       0                       0
   103                       0                       0                       0
   104                       0                       0                       0
   105                       0                       0                       0
   106                       0                       0                       0
   107                       0                       0                       0
   108                       0                       0                       0
   109                       0                       0                       0
   110                       0                       0                       0
   111                       0                       0                       0
   112                       0                       0                       0
   113                       0                       0                       0
   114                       0                       0                       0
   115                       0                       0                       0
   116                       0                       0                       0
   117                       0                       0                       0
   118                       0                       0                       0
   119                       0                       0                       0
   120                       0                       0                       0
   121                       0                       0                       0
   122                       0                       0                       0
   123                       0                       0                       0
   124                       0                       0                       0
   125                       0                       0                       0
   126                       0                       0                       0
   127                       0                       0                       0
   128                       0                       0                       0
   129                       0                       0                       0
   130                       0                       0                       0
   131                       0                       0                       0
   132                       0                       0                       0
   133                       0                       0                       0
   134                       0                       0                       0
   135                       0                       0                       0
   136                       0                       0                       0
   137                       0                       0                       0
   138                       0                       0                       0
   139                       0                       0                       0
   140                       0                       0                       0
   141                       0                       0                       0
   142                       0                       0                       0
   143                       0                       0                       0
   144                       0                       0                       0
   145                       0                       0                       0
   146                       0                       0                       0
   147                       0                       0                       0
   148                       0                       0                       0
   149                       0                       0                       0
   150                       0                       0                       0
   151                       0                       0                       0
   152                       0                       0                       0
   153                       0                       0                       0
   154                       0                       0                       0
   155                       0                       0                       0
   156                       0                       0                       0
   157                       0                       0                       0
   158                       0                       0                       0
   159                       0                       0                       0
   160                       0                       0                       0
   161                       0                       0                       0
   162                       0                       0                       0
   163                       0                       0                       0
   164                       0                       0                       0
   165                       0                       0                       0
   166                       0                       0                       0
   167                       0                       0                       0
   168                       0                       0                       0
   169                       0                       0                       0
   170                       0                       0                       0
   171                       0                       0                       0
   172                       0                       0                       0
   173                       0                       0                       0
   174                       0                       0                       0
   175                       0                       0                       0
   176                       0                       0                       0
   177                       0                       0                       0
   178                       0                       0                       0
   179                       0                       0                       0
   180                       0                       0                       0
   181                       0                       0                       0
   182                       0                       0                       0
   183                       0                       0                       0
   184                       0                       0                       0
   185                       0                       0                       0
   186                       0                       0                       0
   187                       0                       0                       0
   188                       0                       0                       0
   189                       0                       0                       0
   190                       0                       0                       0
   191                       0                       0                       0
   192                       0                       0                       0
   193                       0                       0                       0
   194                       0                       0                       0
   195                       0                       0                       0
   196                       0                       0                       0
   197                       0                       0                       0
   198                       0                       0                       0
   199                       0                       0                       0
   200                       0                       0                       0
   201                       0                       0                       0
   202                       0                       0                       0
   203                       0                       0                       0
   204                       0                       0                       0
   205                       0                       0                       0
   206                       0                       0                       0
   207                       0                       0                       0
   208                       0                       0                       0
   209                       0                       0                       0
   210                       0                       0                       0
   211                       0                       0                       0
   212                       0                       0                       0
   213                       0                       0                       0
   214                       0                       0                       0
   215                       0                       0                       0
   216                       0                       0                       0
