(written by ASE)

216 atoms
2 atom types

0.0      16.628772735595703  xlo xhi
0.0      16.628772735595703  ylo yhi
0.0      16.628772735595703  zlo zhi

Atoms # atomic

     1   2      8.3143863677978516      8.3143863677978516      8.3143863677978516
     2   1      6.9286556368822403      9.7001180898655548      6.9286556368822403
     3   1      9.7001180898655548      6.9286556368822403      6.9286556368822403
     4   1      6.9286556368822403      6.9286556368822403      9.7001180898655548
     5   1      9.7001180898655548      9.7001180898655548      9.7001180898655548
     6   2      7.7729383162760541      14.625350074060634      3.1908303013389059
     7   1     0.67590799210455543       7.627809862363506      7.4803526966109075
     8   2       15.52647383919998      3.5697170203787891     0.84149432077111896
     9   2      2.2360078981615743      0.7946403312921575      6.6993441756154652
    10   2      10.198731025853249     0.88489631335481533      3.6570224046107001
    11   2      4.6874446858139436     0.68056318569244922       14.32952487378293
    12   1     0.81379459325722792       2.417900908833019      13.295602586754967
    13   1      6.1817363053614827       7.696645375149842      12.993541057514676
    14   1       11.71827521839964      8.0884631599574277      7.7987454388703554
    15   2      13.138326572803408      14.697756707834287      3.7073855680712313
    16   2      4.8089688526565624      8.8556832686256257      0.5960571866502562
    17   1      14.772902885990106       7.816773504270941      16.566025870110252
    18   2      13.366467979025629      14.505088634983167      9.0657976005993532
    19   2      13.174227092726142      9.1845633911700588      14.390464869004745
    20   2      12.761628317582563      3.6553022601551106      3.2444704614034663
    21   1      9.5321455625376075      2.0756883039236413      4.6606890306676405
    22   2      2.4973204392333059      14.853189178894809      14.526597626530702
    23   1      8.9351042857540506      10.659485916536596       8.093106707508241
    24   2      15.952778265471125      9.1575693639456404      0.7368348545611525
    25   2      10.143138296167535     0.86494634210092158       8.761295854908667
    26   2      9.9515922074845093      6.4320815007476995      9.0901065968066632
    27   1      9.3700386732898551      2.1722669071278915      15.740281203868335
    28   2      7.9376469797651907       9.069756262054625      9.2243224661867771
    29   1      14.851002697379954      10.242658886568734      2.1831024295851762
    30   1      9.0037713026847541      10.872535049854605      13.442566654341817
    31   1      8.8352080487100011      16.446867583311132      13.108033000264868
    32   2       7.307868940536423      1.0838586356188955      1.0662193496263797
    33   2      16.036024138522407      11.832009920951577      14.537997857892378
    34   1      8.8372220697608554      8.1861897650721858      16.041022518522141
    35   2       10.11566455133061      9.0352473196689971      1.1168180356027619
    36   2      2.1679920681552858      9.4514023485185135      9.3736415111441147
    37   1       8.854126168689163      15.948295284559208      2.4833853363964522
    38   2      10.291439427926434      14.991124842076033      11.714917195112093
    39   1      11.630428417337498      13.388011660896382      7.9876332576427558
    40   2      7.6342632536342308      3.7299199064578943      3.5182093240400718
    41   1      14.140989905155266      16.001796683330895      1.7010100166662028
    42   2       10.22862020833827      8.9334044599163462      6.1278637201313586
    43   1      11.373434573718441      10.549929911204345       15.73222611081701
    44   1      3.2545095931548644       15.59345688872645      2.2034584634617431
    45   1      14.739769662708113      13.630947003243136       16.17399944778731
    46   2      15.590257449773617      3.5500634655473959      5.9556792919886448
    47   2      2.1290008882218103      8.9554546205060888      3.8488457680914507
    48   2      12.980702664467572      12.058531784655543      11.901234956510052
    49   2      1.8521752062888197       1.091204187666392     0.88419649803088873
    50   1      14.751104478031721      13.117293334260012      10.101673448400561
    51   2      15.781375360752918      14.906004700418862      12.048409148340397
    52   2      15.878692620053698      9.0656856004129622       6.555858556295334
    53   1      5.9137535584989109      15.952008140295675      16.092997543072215
    54   1      6.5776440792765243      10.593889488786772      16.260435839422598
    55   2      7.3793954312524193      6.5386169700797154      6.2554145872691151
    56   2      16.108705321425532       14.78242686644171      6.1927608900803079
    57   1      6.3863606458978666      5.1603882693481182        15.8394608379499
    58   1      11.354651250423785      2.4324205436161037      7.4685594734447704
    59   1     0.52375716367349412      7.9769838239907358      13.333796632618487
    60   1      8.6807895262395505      4.9442432724708851      2.3257118704560185
    61   1      14.366732723314954       10.37951122051345      13.378871256304365
    62   1      14.701039403562845      10.528622123531477      13.333977022299223
    63   1      15.176065893218265      2.1339410380361414      10.290760488743445
    64   2       1.878183532757788      11.954628319703716      1.1639936539355631
    65   2      16.301889784516561     0.90881820272321079      3.9695210131673093
    66   1      9.1823144670734109      13.684672402387605      16.034248985125714
    67   2      13.010464979484823      12.206956810425936     0.90115548200628837
    68   2      7.5023795651264891      11.754801155292398       11.98234985256363
    69   1      6.4864075380598933      2.4151053643576574      7.3904254673077503
    70   1      9.3404349426073168      4.7961596985961705      13.233342376946666
    71   1      11.364257496499022      15.971589341024355      11.081037768526812
    72   2      4.6859569665239178      15.141549021615901     0.61989135905851356
    73   1      11.396660240689243      7.5352317967904128      2.0513627059187911
    74   2       10.38705190562905      3.4819594230049233     0.80483296772379731
    75   2      13.140936276261527       9.105523967597037      9.2367386284427084
    76   1      11.396570045848875      7.2490128425879448      13.659039226985442
    77   1      3.4330056778191533      4.8935339491422383       2.506013586443828
    78   1      1.0469098484649066       12.63353975043492      2.3166594306121624
    79   1      3.7244465168180909      13.428061143476043      15.490530699737292
    80   2      4.9657978570146497      14.411098673255083      11.496471238653385
    81   2      2.2906317766774009      5.9661002650834689      11.837258071278484
    82   2      4.5733055932084881      11.600122950973855      9.1456725653858939
    83   1     0.74527259426697867       10.26951018789191      16.358138656887149
    84   2      10.550283752501173      6.4491620247483752      14.191899441206488
    85   2      13.446721563911296      6.0430176320276132      11.724521458883146
    86   2      10.179349046695052     0.94295657812045874      14.935090058557307
    87   1      1.1237128612364415      5.0008732428208305      15.714992949394173
    88   2      4.9119723515088936     0.69581088363408128      4.0204910094961406
    89   2       7.919825073999732      9.1536146670987364      14.915332432756259
    90   2      13.710537507379286     0.90864623783525644      6.4235491679640973
    91   1      12.410938884406733      13.429718349773793      13.495329644804997
    92   1      6.5139526458474393      2.2584931745196855      1.8922419101360788
    93   2      10.695502401254089       14.73418352951785      6.2243419691862982
    94   2      7.3798325293249718      11.873593706969586     0.46087760770173247
    95   1       1.044103772998568      12.899101112736844      7.8435767347176579
    96   1      8.7560001292813467      12.855160367044164      4.8663833198872908
    97   1      3.2662185683931853      10.764546055979736       2.098454819687845
    98   1      5.9686514905681634      7.8108796183561253      2.1692746189622767
    99   1        15.2147386655422      2.0436936666072825      16.157875385555371
   100   1      11.793996264768793      5.0314264972074625       5.142218469198383
   101   1      14.398343536983703       8.095354144876751      5.1161035938795294
   102   2      1.9504225379338891      3.4884051328469354      8.7813627201624058
   103   2      13.108020115287673      14.600904298864634      14.492561463692937
   104   1      1.0117048695227027      10.741767398602406      4.9576892417503586
   105   1       8.900745007334308      10.009708410396343      2.0834770248502537
   106   1      3.3637702351637131      16.386183305329041       13.43204260142943
   107   2      5.1081897400013077      3.6199342366937799      11.518373717581426
   108   1      3.3978874246849955      10.520307348632059      13.546205481685092
   109   1      8.8222526997160458      16.420319574528094      7.9415570747679567
   110   2      10.708975131640045      3.3471069861937508      6.0956820028576431
   111   2      2.2478749621585621      9.3749131592780941      14.391662180731828
   112   2      16.123093876344456      8.8367631663422799       11.42136272427706
   113   2      16.048482920318293      3.1464038911211674      11.992565657175419
   114   2      12.835620794703345      3.4802749600246443      14.454585471289647
   115   2      7.2840356973332518      3.7235143382756064      14.879083027297156
   116   2      5.3267695019924304      9.0106152078797095       11.95470662071898
   117   1     0.65914736244155847      5.2336512585292212      4.7547151694470813
   118   1      15.074897016888144      10.835780156828605      7.3628947312255377
   119   1      11.966845260389164      2.6920253296333954      2.2505922056186591
   120   1      14.617052148746779      7.5778572836570675      10.879323450532411
   121   2      10.589888207791546      9.0666886463300216      11.742892462907548
   122   2      4.7142171905458099      3.4616147873774139     0.76628520445746062
   123   2      4.8552893545220286      14.347138637609078      6.2539263724030434
   124   1      3.2018434878086737      16.117099388492306      7.3732829963013273
   125   2      13.609495498516935      11.880557541567669      6.1215922052695078
   126   1      12.140813266721352      4.8920159997134078      10.521036836571739
   127   1      3.9684847636551694      2.0959092933276793      10.324451730653209
   128   2      10.447412076877072       11.46547593043374      14.782736105894401
   129   1       3.353414678106958      7.8154785640628006      9.9447096473579677
   130   1      8.8184347818578317      2.0104712396370132      10.393249579660051
   131   1        11.5540105910477      10.355233941173083      4.9125368126252624
   132   1      11.575099334108245      15.723765636560074        4.55865884316961
   133   2      13.119002080466544     0.66351933431917587      11.900127839623337
   134   2      2.0960175766937255      12.323021711546062      11.999696996477041
   135   2      10.003355125486905      11.997038726566416      8.8312820952737638
   136   2      16.546622085606032      6.4874804601994356      3.2861863184377285
   137   1      6.2524951487822591      13.121826863928618      7.4462649938643608
   138   2      1.8997257279004032      11.772628016818317      6.2114807796410787
   139   2      13.136418605026392      9.1453940516480543      9.0655161134052378
   140   2      4.7988923049136929      6.6395524300921807      8.6651729338786936
   141   1      1.0083710055673976      1.7913903263693953      2.2401221704952832
   142   2      7.4894737737371315      14.813630316600666      8.9149938098082657
   143   2      2.0537580727370255     0.53496709383351515      12.068248048612986
   144   1      6.5396943524036715      13.030205755700308      2.5608587396641838
   145   1      14.016869910983814      5.0656742710168601      12.945118322062172
   146   1      9.0666073718584812      13.061361630558849      10.400431467718363
   147   2       2.682912181723907      3.7710214969831668      3.2637461394998013
   148   1      6.4972512375219367      13.547350262351301      13.357421733882347
   149   2      10.684444117364137      6.5366173207341944      3.5426662496971062
   150   2      15.390588869697012      14.673059180006931     0.50377875874396238
   151   1      14.677201204599214      4.6447671634624612      1.9627507354416593
   152   2      7.8836965890958481      1.0545803745045532      12.112154103982448
   153   1      5.9874382828951411      5.1693874347670317      5.1338308446202063
   154   1      1.1446722589489866      5.2152049269458303      10.481629620547665
   155   1      14.317626092918999      4.7417325637705972      7.4832884891072808
   156   1      12.209125451203136      12.903124199078093      2.1933444997274023
   157   2      7.5711565999393997      11.978315863549369       6.418656345662157
   158   1      5.8616125159734338      16.506530974638508      4.8180552394595679
   159   1      3.7262132454220023      4.9424061720684449      7.7325548154414037
   160   1      3.6773273941545312      13.474025821740497      10.891899188275147
   161   2      16.289843321990929      6.4814552466324358      9.0462907362775695
   162   2      2.3446822737080311      6.2868633475708293      6.2189847921292767
   163   1      14.422767506833679      15.978656255440001      12.884539106201828
   164   1      6.2620250761464149      10.442231324892418      4.7367242722499441
   165   2      7.4976423537029859      9.4683262704886602      3.7904337062801687
   166   2      13.191008288795047      3.9954274987588292      8.9518874641271395
   167   1      14.392300482679047      16.177413966744098      7.6448963332767335
   168   2      7.3392384086707807      6.4843642780223263       11.64135983375968
   169   1      12.070560406443519      2.2881499318391434      13.102621309842789
   170   2      1.9639942596350295      3.6886076961130811      14.460835676381521
   171   1     0.86302703802185476      16.306689934097903      10.563578075510577
   172   1      8.9218654672617959      8.0158384727235443      9.9578949436372568
   173   2      2.3995772323210076      14.491871621836935      3.2763355055838019
   174   2      10.555316822824125      14.730157469720325      11.778169548164442
   175   1      3.8052474654465414      2.4079457772214141      5.0610559978443916
   176   1      11.577257072212433      16.064074733876851      16.349268836816236
   177   2      4.4678598956015776      12.014840809290035      14.952188423295638
   178   2      13.358183929841061     0.55561942023857114     0.84823019038805114
   179   1     0.44520507719468583     0.10765299331569622       15.89415954844867
   180   2      2.1631998477906791      6.4324526872061369     0.87404350768292716
   181   1      14.349179419766415      13.703158380054674      4.8365407215505911
   182   1       6.417691459100638      4.5425000906144533      10.806122903933101
   183   2      5.2271418671653009      12.051627419182978      3.5492564199565209
   184   2      13.046369464015925      5.7953748128201141      6.1209385404648629
   185   1      3.9309473560525703      10.653027569505412      7.6910542861991189
   186   2      15.894678912144855      11.801293126469773      9.1777383178648506
   187   1      11.912400284825935      5.2376723625662862      16.254069669535966
   188   2      7.7508153060075529      14.552311085252313      14.536501218233525
   189   2      13.277037316920541      9.0408939131368697      3.6192213505516406
   190   1      3.4071115816287829      13.715119603500398      5.1078839695809393
   191   2      7.5369276580197493      3.5255760619635339      8.6597840399547295
   192   1      3.8053862267394152      2.4166240571505568      15.980758489027039
   193   1      6.1323417452828153      2.4306302751500084      13.021913777299005
   194   2      7.5969691738702068      6.1168639142148322     0.78945462354704432
   195   2      10.171340537792048      14.757550931237802     0.49281742191800504
   196   2      12.924617332192156      6.4995824272422169     0.63400096661055727
   197   1      14.917496117772998      2.3045029502043235      5.5165979241000969
   198   2      4.7258790860597628      6.2272143279487864      14.453965010080083
   199   2      15.801230119458978      1.0683140256787169      9.2498783317257676
   200   1      3.4221830403390641      5.3510889052967059      13.454160160361425
   201   2      7.2970832234717591     0.81386601815485449      6.5450282373865321
   202   2      10.635237380606895      12.099267144482837      3.6872002601425038
   203   1     0.18686221363147126      16.151101852158945      4.9679169401872514
   204   1      1.0777504130641944      13.019339755316196      13.033200026170107
   205   2      16.207989026476753     0.93871574805400826      15.129650240751971
   206   2      16.474918178665575      11.636712321600498      3.3891702420362435
   207   1      8.9368447488275251      7.5443642721656943      5.1105471952520247
   208   2      16.131863590054081      6.6222077640589987      14.946914503014341
   209   1      5.9707680958605351      15.870330269853866      10.295503151503453
   210   2      1.9501349799332104       14.62264720230587      8.7766210485544889
   211   1     0.72723895363587587      7.2381062049680622      2.1982767203249978
   212   1      1.0626832906443155      2.1069760020104127      7.8251571642407498
   213   2      10.456140162198835      3.7425194318508375      12.081213309127861
   214   2      4.7503719409801306      1.0943092193824668       9.236814947153789
   215   1     0.45579237799994132      9.9540066539805139      10.013537230927568
   216   1      3.4205362411382794      7.7973330471393183      16.153691732575226

Velocities

     1                       0                       0                       0
     2                       0                       0                       0
     3                       0                       0                       0
     4                       0                       0                       0
     5                       0                       0                       0
     6                       0                       0                       0
     7                       0                       0                       0
     8                       0                       0                       0
     9                       0                       0                       0
    10                       0                       0                       0
    11                       0                       0                       0
    12                       0                       0                       0
    13                       0                       0                       0
    14                       0                       0                       0
    15                       0                       0                       0
    16                       0                       0                       0
    17                       0                       0                       0
    18                       0                       0                       0
    19                       0                       0                       0
    20                       0                       0                       0
    21                       0                       0                       0
    22                       0                       0                       0
    23                       0                       0                       0
    24                       0                       0                       0
    25                       0                       0                       0
    26                       0                       0                       0
    27                       0                       0                       0
    28                       0                       0                       0
    29                       0                       0                       0
    30                       0                       0                       0
    31                       0                       0                       0
    32                       0                       0                       0
    33                       0                       0                       0
    34                       0                       0                       0
    35                       0                       0                       0
    36                       0                       0                       0
    37                       0                       0                       0
    38                       0                       0                       0
    39                       0                       0                       0
    40                       0                       0                       0
    41                       0                       0                       0
    42                       0                       0                       0
    43                       0                       0                       0
    44                       0                       0                       0
    45                       0                       0                       0
    46                       0                       0                       0
    47                       0                       0                       0
    48                       0                       0                       0
    49                       0                       0                       0
    50                       0                       0                       0
    51                       0                       0                       0
    52                       0                       0                       0
    53                       0                       0                       0
    54                       0                       0                       0
    55                       0                       0                       0
    56                       0                       0                       0
    57                       0                       0                       0
    58                       0                       0                       0
    59                       0                       0                       0
    60                       0                       0                       0
    61                       0                       0                       0
    62                       0                       0                       0
    63                       0                       0                       0
    64                       0                       0                       0
    65                       0                       0                       0
    66                       0                       0                       0
    67                       0                       0                       0
    68                       0                       0                       0
    69                       0                       0                       0
    70                       0                       0                       0
    71                       0                       0                       0
    72                       0                       0                       0
    73                       0                       0                       0
    74                       0                       0                       0
    75                       0                       0                       0
    76                       0                       0                       0
    77                       0                       0                       0
    78                       0                       0                       0
    79                       0                       0                       0
    80                       0                       0                       0
    81                       0                       0                       0
    82                       0                       0                       0
    83                       0                       0                       0
    84                       0                       0                       0
    85                       0                       0                       0
    86                       0                       0                       0
    87                       0                       0                       0
    88                       0                       0                       0
    89                       0                       0                       0
    90                       0                       0                       0
    91                       0                       0                       0
    92                       0                       0                       0
    93                       0                       0                       0
    94                       0                       0                       0
    95                       0                       0                       0
    96                       0                       0                       0
    97                       0                       0                       0
    98                       0                       0                       0
    99                       0                       0                       0
   100                       0                       0                       0
   101                       0                       0                       0
   102                       0                       0                       0
   103                       0                       0                       0
   104                       0                       0                       0
   105                       0                       0                       0
   106                       0                       0                       0
   107                       0                       0                       0
   108                       0                       0                       0
   109                       0                       0                       0
   110                       0                       0                       0
   111                       0                       0                       0
   112                       0                       0                       0
   113                       0                       0                       0
   114                       0                       0                       0
   115                       0                       0                       0
   116                       0                       0                       0
   117                       0                       0                       0
   118                       0                       0                       0
   119                       0                       0                       0
   120                       0                       0                       0
   121                       0                       0                       0
   122                       0                       0                       0
   123                       0                       0                       0
   124                       0                       0                       0
   125                       0                       0                       0
   126                       0                       0                       0
   127                       0                       0                       0
   128                       0                       0                       0
   129                       0                       0                       0
   130                       0                       0                       0
   131                       0                       0                       0
   132                       0                       0                       0
   133                       0                       0                       0
   134                       0                       0                       0
   135                       0                       0                       0
   136                       0                       0                       0
   137                       0                       0                       0
   138                       0                       0                       0
   139                       0                       0                       0
   140                       0                       0                       0
   141                       0                       0                       0
   142                       0                       0                       0
   143                       0                       0                       0
   144                       0                       0                       0
   145                       0                       0                       0
   146                       0                       0                       0
   147                       0                       0                       0
   148                       0                       0                       0
   149                       0                       0                       0
   150                       0                       0                       0
   151                       0                       0                       0
   152                       0                       0                       0
   153                       0                       0                       0
   154                       0                       0                       0
   155                       0                       0                       0
   156                       0                       0                       0
   157                       0                       0                       0
   158                       0                       0                       0
   159                       0                       0                       0
   160                       0                       0                       0
   161                       0                       0                       0
   162                       0                       0                       0
   163                       0                       0                       0
   164                       0                       0                       0
   165                       0                       0                       0
   166                       0                       0                       0
   167                       0                       0                       0
   168                       0                       0                       0
   169                       0                       0                       0
   170                       0                       0                       0
   171                       0                       0                       0
   172                       0                       0                       0
   173                       0                       0                       0
   174                       0                       0                       0
   175                       0                       0                       0
   176                       0                       0                       0
   177                       0                       0                       0
   178                       0                       0                       0
   179                       0                       0                       0
   180                       0                       0                       0
   181                       0                       0                       0
   182                       0                       0                       0
   183                       0                       0                       0
   184                       0                       0                       0
   185                       0                       0                       0
   186                       0                       0                       0
   187                       0                       0                       0
   188                       0                       0                       0
   189                       0                       0                       0
   190                       0                       0                       0
   191                       0                       0                       0
   192                       0                       0                       0
   193                       0                       0                       0
   194                       0                       0                       0
   195                       0                       0                       0
   196                       0                       0                       0
   197                       0                       0                       0
   198                       0                       0                       0
   199                       0                       0                       0
   200                       0                       0                       0
   201                       0                       0                       0
   202                       0                       0                       0
   203                       0                       0                       0
   204                       0                       0                       0
   205                       0                       0                       0
   206                       0                       0                       0
   207                       0                       0                       0
   208                       0                       0                       0
   209                       0                       0                       0
   210                       0                       0                       0
   211                       0                       0                       0
   212                       0                       0                       0
   213                       0                       0                       0
   214                       0                       0                       0
   215                       0                       0                       0
   216                       0                       0                       0
