(written by ASE)

8 atoms
1 atom types

0.0       5.443702220916748  xlo xhi
0.0       5.443702220916748  ylo yhi
0.0       5.443702220916748  zlo zhi

Atoms # atomic

     1   1       2.721851110458374       2.721851110458374       2.721851110458374
     2   1       1.360925555229187       1.360925555229187       4.082776665687561
     3   1       1.360925555229187       4.082776665687561       1.360925555229187
     4   1       4.082776665687561       1.360925555229187       1.360925555229187
     5   1       4.082776665687561       4.082776665687561       4.082776665687561
     6   1       5.392712743704891      2.7871860525310979    0.029005546419454964
     7   1      2.7400963794937354     0.02917015407444068      5.3778565631629647
     8   1      5.4266214744857848      5.4207930210049255      2.7456130173650024

Velocities

     1                       0                       0                       0
     2                       0                       0                       0
     3                       0                       0                       0
     4                       0                       0                       0
     5                       0                       0                       0
     6                       0                       0                       0
     7                       0                       0                       0
     8                       0                       0                       0
