(written by ASE)

216 atoms
1 atom types

0.0      16.331106185913086  xlo xhi
0.0      16.331106185913086  ylo yhi
0.0      16.331106185913086  zlo zhi

Atoms # atomic

     1   1       8.165553092956543       8.165553092956543       8.165553092956543
     2   1      9.5264782839793725      9.5264782839793725      9.5264782839793725
     3   1       6.804627415228822       6.804627415228822      9.5264782839793725
     4   1       6.804627415228822      9.5264782839793725       6.804627415228822
     5   1      9.5264782839793725       6.804627415228822       6.804627415228822
     6   1      15.100106865676253      7.1972191552694653      7.3404564048379939
     7   1      14.950548292976919      7.0619930682150311      2.0372806056310964
     8   1      8.0031932082009689      3.1887923780741119      3.5750455169603015
     9   1       3.980624490325738      9.8331987331930577      10.173337313666934
    10   1      1.5275701473193948      1.6664330149993418      15.412547070774849
    11   1      1.2419010231015477      4.2409965194267443      12.712041618450826
    12   1      6.5816786119401627      9.9762383805756372       2.042310335656083
    13   1      2.6493386537854917       11.38732532453605      5.9147785349352944
    14   1      6.6959204175975628      12.675902806847148      15.631603208341289
    15   1    0.016935383404643289      8.6346937783323483      11.447787699797345
    16   1      3.9785406633327796      15.445464869406578      9.8584110199825545
    17   1      1.5346801757268764      4.3275282687914682      7.4961328580234863
    18   1      5.1706417985835742      2.9907743027952165      6.0092143717379827
    19   1      16.236487834776085      3.0330640908176747      5.9901423538596532
    20   1      16.053482901932853      11.076799816480616      8.7714364378286973
    21   1      7.9238466831494634      8.2106891311844947      3.4054344593787107
    22   1      15.972619804439432      3.4296361034610072     0.11406415837200257
    23   1      3.7947114957557915      4.3058737947588384      4.7815548204666243
    24   1      5.3290569401935386      14.009957994220031      6.0922233510980277
    25   1      5.3921436282298032     0.36081462557931232      3.2517880522956659
    26   1      1.1906076812912261      12.780567720354497      4.7717331157561489
    27   1      9.3989479746693405      15.495065938309153      10.301009740805284
    28   1      12.035479962644786      15.411438357032011      7.5070895585409403
    29   1      13.534098834521956       11.27981513423299       11.66866216683843
    30   1      7.9941331966456914      13.991142956524413      8.7173138804840846
    31   1      13.445051307573067     0.42341664680080981      0.6016961618524661
    32   1      10.773549573143328     0.53965096144590063      8.6545746997403512
    33   1      14.537194695674657      4.3196421894344894      15.405742936391675
    34   1      9.3702119444653817      12.725503875749723      12.736369075747575
    35   1      9.3621170687099493      12.804933140632784       2.032544723684353
    36   1      10.988891178977838      2.8735339083012832     0.56668334201527415
    37   1      8.0432095976752294       11.17624335991195      6.1895687097421046
    38   1      11.961541702347631      1.6552816325252877      4.8523114908880416
    39   1      6.8459510940416521       15.51115250838302      1.9934196125426524
    40   1      3.9484625443905088      12.532906962904804       7.370804888347493
    41   1      5.4582877963944725      5.7585720601229582      8.7710918507655151
    42   1      6.8168203461706867      1.7135131959163914      15.342234761919372
    43   1      12.027037579596822      12.701019699477911      4.7930605241016906
    44   1       3.965691167492281       15.38983839394723       15.43025047449828
    45   1      13.427464713023596     0.39252004232631421      11.418332319763749
    46   1      9.3982286248397031      12.666905580222874      7.4628164480856185
    47   1      14.837048712279056      4.2917802812156651      10.210554663310177
    48   1      10.564764855607109      11.150841258214768      8.8670914703845938
    49   1      10.638715770231443       5.704467510859331      8.7783846368597551
    50   1      2.7682416321887899      2.9445740843219994      14.111018371300929
    51   1    0.018465583583520129       5.733551048355821      3.5128344110238459
    52   1      1.1221909663119192      9.8197072736006703      7.5145390636102434
    53   1      14.675859839492432      1.6378303419356541       7.368071066971936
    54   1      4.1133498876476438      12.740471997982922      2.0607036435632153
    55   1      5.3056074985210557      13.800398442496544     0.61102361774562297
    56   1      1.3113880021372637      9.7838935808645147       2.123914928051704
    57   1      12.219520603497131      7.0093301388400278       4.592429573612776
    58   1      13.610579641172308      5.6993215800414987      5.9539256694733353
    59   1    0.058850408660646281      14.067686061400877     0.64997132495437171
    60   1      13.448704514488668      8.4621578677052867      14.117943208497195
    61   1      8.2100768564309874      13.963612981041592       14.17246875749197
    62   1      1.1517873690878275      15.317401131535462      1.9241169729845922
    63   1      10.632104370985303      14.014169938351074      11.428973635511511
    64   1      4.1084974398793861      4.2950816004947114      15.717813245772732
    65   1      5.5688978101514977     0.37868147088911996      14.237399083657237
    66   1      13.591055961154666      3.0086422127719743      3.5640506101088647
    67   1      9.3719485075182547      1.7594251634176175      12.590357608297495
    68   1      13.271467034609714     0.59706023692281462      6.1615710108585517
    69   1      2.5882688708196042      14.149868129150263      14.465478729912093
    70   1       2.643909704073252      5.5373651736409784      6.0524074840390654
    71   1      6.8069402368732312      12.951058497027475      10.434295822162198
    72   1      3.8050293961031514      15.241534546458183      4.6436353085426276
    73   1      10.445054920493703      13.924413769080161     0.72021525177259349
    74   1      13.018729945141672      11.468941841201513     0.96498066266086369
    75   1      8.2398184189407857       5.627030329097181      6.1844870239699503
    76   1      10.689081939223456      5.4393841784086021      14.090920379511317
    77   1      2.8324443345412647      5.6905200087836079      11.519473489856637
    78   1      2.8096280959326236      2.9016802955291894        3.32580077844122
    79   1      5.4093320981780266      5.8202049606483115      3.3652800890677099
    80   1      7.9620389026903808      3.0091627436534338        14.1660423061046
    81   1      9.3744891070518861      1.8086188603260069      7.5383545073611344
    82   1      12.056648705195698      9.8861356774219757      7.4481218540014424
    83   1      11.979350234327626      1.5391667430929488      15.630216099400513
    84   1      8.0723841489864299      8.3006341419533101      14.243250249862854
    85   1      13.468995241415314      8.3678013637999129      3.4908596851726088
    86   1       14.14666171732506      10.567257758061373      16.318013824331729
    87   1      5.1453608864043758      11.408855202116456      14.196921784650726
    88   1      2.5133752088204346      11.203816165425224     0.59860887104945704
    89   1      0.1273112845040929      2.7249446083933719     0.87168292440883732
    90   1      12.176865786806047      6.8409677226575809      15.263556969388787
    91   1      16.185372140251161      5.7373234979698395      8.6492764302914793
    92   1      1.4736964178505616      4.6057740483279304      2.1914666467625921
    93   1      9.3191254522339477      10.022751793646535       15.54730494772366
    94   1        1.25680283179328      9.8562763323284344      12.836958322493501
    95   1       2.578694412194011      8.5660537874840657       8.652444879135146
    96   1      9.4176335488638188      15.559567964169901      15.620952158495697
    97   1       2.479484000405705      2.8855078220419728      8.9213882680803636
    98   1      14.773786810481852      1.5692245421059994      12.888292060809817
    99   1        6.55130627989098      12.757394727060387      4.7285219953740807
   100   1      9.3384661312123853      7.1409599634511665      12.853783710592666
   101   1    0.063053592103642586      8.3741606499122554     0.71005467878141104
   102   1       9.290541273956137      10.010845045180872      4.7742669014212993
   103   1      16.204515217043649      8.4800063094863845      6.1631347936749421
   104   1      10.788080634383959     0.26229320540303647      14.168710422319805
   105   1       10.65230457080213      11.176201503291281      3.1824635110174881
   106   1      2.5496714694565128     0.37750008602217022      11.405010233473604
   107   1      3.9574865397838153      7.2174427169210844      7.3138292669289058
   108   1      5.3881618955124395      14.074558334468861      11.511783552570932
   109   1      14.920055258114644      15.400835004265787      4.7342514853568218
   110   1      14.895226494779649      4.2972031471167611      4.8578083359326456
   111   1      13.360863042260917      5.5443060720986637      11.360813535686248
   112   1      6.2164708359148904      12.419134827467701        9.65872087004891
   113   1      8.1425533666038064     0.32012028661024772     0.80342706539617126
   114   1      2.7306972168584593      5.7209624263371666     0.75399816834896427
   115   1      16.272779471715694      14.059804362387922      6.1086885775774817
   116   1      12.177968660090187      15.440009880982643      13.113471919321114
   117   1      11.957054283247999      4.4590753535710519      1.8231535718533252
   118   1      12.065070646638219      15.522669892935482      2.2075712249174444
   119   1       9.423449672317247       15.46419716727064      4.7825618128871383
   120   1      16.187965303913074      3.0984884224478151       11.43259374649449
   121   1      9.4885951220445577      4.2317768686670547      10.158285478192397
   122   1      5.2656193379305023       5.592403222886503       14.39161250193888
   123   1       3.978393191750655      6.9772684541124477      12.787895549200925
   124   1      10.838137259064979      8.4272815685901605      11.516290439866225
   125   1      16.158599477579514      13.997191724915979      11.509769567729904
   126   1      13.391636419140696      13.998937048656899      3.3923508584854005
   127   1      16.211208382711561      5.8198277643573988      13.888613704080967
   128   1      3.9123035345338337      7.1820276354910675       1.947715468030097
   129   1      6.6030512838406139      9.8832991613143122      12.873688967245243
   130   1      9.4200018548658591       4.544109998689521       15.59030240465836
   131   1      13.438118683098537      13.976262441171684      8.8410323170838865
   132   1      16.138397330943121     0.32687486835165558      8.8818697777101079
   133   1      6.6683943357538737      4.3029384775582002      1.9771263145661209
   134   1      12.012638902086678      12.801982735580509      10.135203985417888
   135   1      8.0282706777355202      0.4153621675513719      5.9923325258714044
   136   1      6.7196565284511394      7.0906395447189539       15.47237867649676
   137   1      15.017014659779761      9.7177971097792124      15.567327013550198
   138   1      11.800231153338132      9.9318586817490768      2.1807155790617969
   139   1      14.764649412848826      6.9628790239952423      12.643140753780699
   140   1      11.975480930440199      9.9441119640974875      12.955784401523943
   141   1      4.1043200517956393      1.8177165915103757      12.786905591451614
   142   1      16.135067296075476      11.308867522616424      3.3283515987775729
   143   1      5.2033673487831607      3.1150030494737564     0.65144987357663808
   144   1      1.3080596707367391       12.58565214540647       15.55252145075076
   145   1      14.689398022754403      12.519340550759125      7.5546474403089974
   146   1      13.407330705072013      11.269264345595047      5.9537932857428473
   147   1      2.6720716658576862      8.5598239648728622      3.3940309637708594
   148   1      16.208705746159467     0.45419008451870013       14.23055795970231
   149   1      4.0303031886585075      12.484143026415609      12.705908163408139
   150   1      12.130801115645113      7.3293069691835058      10.198429871053122
   151   1      6.9809328552405532      15.800715636761538      12.672535782407749
   152   1      8.1357394981228026      11.161917688135532      11.674170692800431
   153   1      5.4903791701204341       8.247565787403687      11.425235741944789
   154   1      14.867206894175979      12.658661772770643      12.837907397031927
   155   1      7.8907244684633042      11.362486827103226     0.67313543588421254
   156   1      11.726749422229204      4.1947196449331159      12.430817691683274
   157   1      14.928895765763855      12.801122241332337       2.043251136211353
   158   1       8.122780006976825      5.7626302055082874      11.321847942072736
   159   1      1.3080162323251727      1.5665823429262673      10.072933014779778
   160   1      9.3292459937478043      7.2582616827614288       2.043669945770489
   161   1      10.766943040946103      3.2995162807757481      6.1180021623812308
   162   1      5.2053725729361418       11.10387326277521      8.7692394519484651
   163   1      1.2785037861430482      7.1487044116847187      15.533399788973497
   164   1      14.653221248169189       15.33014987946342      10.218180355550203
   165   1       10.87184741326007      14.051887620622779      5.9766348330058463
   166   1      7.7879265549197498      14.205338859044332      3.4085622683639372
   167   1      5.3021071169413858      2.9596943018337925       11.63100094233414
   168   1      2.7573104836781397      0.4443833764026941     0.57528980544978481
   169   1      13.494701046964792      13.984003969175888      14.035107009373633
   170   1      1.1798573436477682      15.484765315985442      12.873305443790741
   171   1      6.8105501270534887      4.4489888813996004      7.4319559510302611
   172   1      9.1622555986544967      1.5998869502705162      2.0353753993333186
   173   1      1.3491487577918662      6.9982137991181617      4.6363512831364346
   174   1       6.667885729142256      15.421120864143518       7.382620622998445
   175   1      3.9686457095361334      4.4190959536685455      10.258749155076316
   176   1      1.3767990710591107      12.580418121003277      10.148335283390566
   177   1       10.99449120545944       11.14233560353091      14.297071050174736
   178   1       13.15410983094182      3.0570946581306089      8.8067410372483437
   179   1       5.214051007856483     0.15374566446185511      8.7947184530185041
   180   1      1.3717824820661946      1.8212585863582689      4.7024832836788164
   181   1      14.909485001281041      15.315234321358503      15.665688125302836
   182   1      10.675774454080056     0.22513505124222277      3.2807063534814915
   183   1      8.0257602539051618      3.0031840607662446      8.9341477235159346
   184   1      8.0755681723866246      5.6266468056426788     0.51299170101397351
   185   1      16.126050601255542     0.22155364850764592      3.3877558776047465
   186   1      4.0090361317195118      10.083045769015371      15.631752140038088
   187   1      10.657708941917349      8.4325564762042404      6.1375998215423806
   188   1      6.5715337351817311       1.864943148923544      4.7626477955465134
   189   1      5.2098210556444542      8.6519328655892878      0.5957537384796936
   190   1      10.606976770846927      5.7747243353571776      3.4826752557171403
   191   1      15.000467666878535      9.7476613219216688      10.064343646854581
   192   1      2.6387963824831502     0.37709593844789069      6.1302408435828966
   193   1      3.9722490292003556       9.908496846957064      4.6723513838460349
   194   1      16.124500932881006      11.343417729454245      14.161567541332147
   195   1      1.1692449868410506      15.413336506108863      7.4257937803989762
   196   1      13.389133782588601      5.6312335125401773     0.70178239909302675
   197   1      14.949622580273285      1.4778054238970526      2.1633667398518241
   198   1      5.3369590808119369       8.225712737775325      5.9649091387598219
   199   1      6.6073391539347313      7.1882852002810864      4.8163113901784413
   200   1      12.110148280279191      12.673059476871003      15.541522893612637
   201   1      10.483281696081917      8.7942580301911448     0.99122908332625315
   202   1      15.065450557172085      9.9096104277488166      4.7655120538329925
   203   1      1.0950895344860641      7.0868140442717618       10.10561816847337
   204   1      6.8052396899823293      1.5459818283361813      10.197041788702563
   205   1       2.410984667271066      13.912035890279526       3.543122543126799
   206   1      13.580901350298404      2.8917318041944782      14.114689099592624
   207   1      2.5767597602502974      8.4451835479093234      14.127874908513149
   208   1      11.346168585501005       7.903906870449589      0.1475354621415903
   209   1      13.508594524797559      8.5614583198985201      8.7973125900902005
   210   1      12.003530706747142      1.9557763961193473      10.161799487509029
   211   1      5.1717943157666468      11.330725439293701      3.2892302595987815
   212   1      3.9246149781167787      1.5022663600102959      7.3932653456804474
   213   1      2.6819155156407248      13.960746289230656      8.7574339381002346
   214   1       11.84362089441538       4.278713228288666      7.4611937739773566
   215   1      2.6550647368339924      11.317967930677696      11.381994932564339
   216   1      6.5776486954385405      4.3692121092240086      12.982112215924758

Velocities

     1                       0                       0                       0
     2                       0                       0                       0
     3                       0                       0                       0
     4                       0                       0                       0
     5                       0                       0                       0
     6                       0                       0                       0
     7                       0                       0                       0
     8                       0                       0                       0
     9                       0                       0                       0
    10                       0                       0                       0
    11                       0                       0                       0
    12                       0                       0                       0
    13                       0                       0                       0
    14                       0                       0                       0
    15                       0                       0                       0
    16                       0                       0                       0
    17                       0                       0                       0
    18                       0                       0                       0
    19                       0                       0                       0
    20                       0                       0                       0
    21                       0                       0                       0
    22                       0                       0                       0
    23                       0                       0                       0
    24                       0                       0                       0
    25                       0                       0                       0
    26                       0                       0                       0
    27                       0                       0                       0
    28                       0                       0                       0
    29                       0                       0                       0
    30                       0                       0                       0
    31                       0                       0                       0
    32                       0                       0                       0
    33                       0                       0                       0
    34                       0                       0                       0
    35                       0                       0                       0
    36                       0                       0                       0
    37                       0                       0                       0
    38                       0                       0                       0
    39                       0                       0                       0
    40                       0                       0                       0
    41                       0                       0                       0
    42                       0                       0                       0
    43                       0                       0                       0
    44                       0                       0                       0
    45                       0                       0                       0
    46                       0                       0                       0
    47                       0                       0                       0
    48                       0                       0                       0
    49                       0                       0                       0
    50                       0                       0                       0
    51                       0                       0                       0
    52                       0                       0                       0
    53                       0                       0                       0
    54                       0                       0                       0
    55                       0                       0                       0
    56                       0                       0                       0
    57                       0                       0                       0
    58                       0                       0                       0
    59                       0                       0                       0
    60                       0                       0                       0
    61                       0                       0                       0
    62                       0                       0                       0
    63                       0                       0                       0
    64                       0                       0                       0
    65                       0                       0                       0
    66                       0                       0                       0
    67                       0                       0                       0
    68                       0                       0                       0
    69                       0                       0                       0
    70                       0                       0                       0
    71                       0                       0                       0
    72                       0                       0                       0
    73                       0                       0                       0
    74                       0                       0                       0
    75                       0                       0                       0
    76                       0                       0                       0
    77                       0                       0                       0
    78                       0                       0                       0
    79                       0                       0                       0
    80                       0                       0                       0
    81                       0                       0                       0
    82                       0                       0                       0
    83                       0                       0                       0
    84                       0                       0                       0
    85                       0                       0                       0
    86                       0                       0                       0
    87                       0                       0                       0
    88                       0                       0                       0
    89                       0                       0                       0
    90                       0                       0                       0
    91                       0                       0                       0
    92                       0                       0                       0
    93                       0                       0                       0
    94                       0                       0                       0
    95                       0                       0                       0
    96                       0                       0                       0
    97                       0                       0                       0
    98                       0                       0                       0
    99                       0                       0                       0
   100                       0                       0                       0
   101                       0                       0                       0
   102                       0                       0                       0
   103                       0                       0                       0
   104                       0                       0                       0
   105                       0                       0                       0
   106                       0                       0                       0
   107                       0                       0                       0
   108                       0                       0                       0
   109                       0                       0                       0
   110                       0                       0                       0
   111                       0                       0                       0
   112                       0                       0                       0
   113                       0                       0                       0
   114                       0                       0                       0
   115                       0                       0                       0
   116                       0                       0                       0
   117                       0                       0                       0
   118                       0                       0                       0
   119                       0                       0                       0
   120                       0                       0                       0
   121                       0                       0                       0
   122                       0                       0                       0
   123                       0                       0                       0
   124                       0                       0                       0
   125                       0                       0                       0
   126                       0                       0                       0
   127                       0                       0                       0
   128                       0                       0                       0
   129                       0                       0                       0
   130                       0                       0                       0
   131                       0                       0                       0
   132                       0                       0                       0
   133                       0                       0                       0
   134                       0                       0                       0
   135                       0                       0                       0
   136                       0                       0                       0
   137                       0                       0                       0
   138                       0                       0                       0
   139                       0                       0                       0
   140                       0                       0                       0
   141                       0                       0                       0
   142                       0                       0                       0
   143                       0                       0                       0
   144                       0                       0                       0
   145                       0                       0                       0
   146                       0                       0                       0
   147                       0                       0                       0
   148                       0                       0                       0
   149                       0                       0                       0
   150                       0                       0                       0
   151                       0                       0                       0
   152                       0                       0                       0
   153                       0                       0                       0
   154                       0                       0                       0
   155                       0                       0                       0
   156                       0                       0                       0
   157                       0                       0                       0
   158                       0                       0                       0
   159                       0                       0                       0
   160                       0                       0                       0
   161                       0                       0                       0
   162                       0                       0                       0
   163                       0                       0                       0
   164                       0                       0                       0
   165                       0                       0                       0
   166                       0                       0                       0
   167                       0                       0                       0
   168                       0                       0                       0
   169                       0                       0                       0
   170                       0                       0                       0
   171                       0                       0                       0
   172                       0                       0                       0
   173                       0                       0                       0
   174                       0                       0                       0
   175                       0                       0                       0
   176                       0                       0                       0
   177                       0                       0                       0
   178                       0                       0                       0
   179                       0                       0                       0
   180                       0                       0                       0
   181                       0                       0                       0
   182                       0                       0                       0
   183                       0                       0                       0
   184                       0                       0                       0
   185                       0                       0                       0
   186                       0                       0                       0
   187                       0                       0                       0
   188                       0                       0                       0
   189                       0                       0                       0
   190                       0                       0                       0
   191                       0                       0                       0
   192                       0                       0                       0
   193                       0                       0                       0
   194                       0                       0                       0
   195                       0                       0                       0
   196                       0                       0                       0
   197                       0                       0                       0
   198                       0                       0                       0
   199                       0                       0                       0
   200                       0                       0                       0
   201                       0                       0                       0
   202                       0                       0                       0
   203                       0                       0                       0
   204                       0                       0                       0
   205                       0                       0                       0
   206                       0                       0                       0
   207                       0                       0                       0
   208                       0                       0                       0
   209                       0                       0                       0
   210                       0                       0                       0
   211                       0                       0                       0
   212                       0                       0                       0
   213                       0                       0                       0
   214                       0                       0                       0
   215                       0                       0                       0
   216                       0                       0                       0
