(written by ASE)

216 atoms
1 atom types

0.0      16.331106185913086  xlo xhi
0.0      16.331106185913086  ylo yhi
0.0      16.331106185913086  zlo zhi

Atoms # atomic

     1   1       8.165553092956543       8.165553092956543       8.165553092956543
     2   1      9.5264782839793725      9.5264782839793725      9.5264782839793725
     3   1       6.804627415228822       6.804627415228822      9.5264782839793725
     4   1       6.804627415228822      9.5264782839793725       6.804627415228822
     5   1      9.5264782839793725       6.804627415228822       6.804627415228822
     6   1      6.8253858655561999      15.506977553823731      5.9203415718451424
     7   1      9.3881986104356656      1.8995983623417061     0.46299189912903671
     8   1      8.2382843251227769      14.103631164457738      12.805534707878678
     9   1      15.087954817945274      15.305062189126147      8.7275278693371092
    10   1      14.993196295799521      4.4629967348818695      14.097025605670296
    11   1      3.9207293696154863      4.4808018599276238      8.4983920734676985
    12   1      5.4789420918750693      14.300664879093574      9.9572763580027868
    13   1      6.6759124662128784      1.7421454363022377      3.3225184406529422
    14   1      16.206403632022671      5.8310302508450604       1.892133282715875
    15   1      6.6893231327932767      9.7693751739510617      11.335722925119626
    16   1      10.754743296135757      3.4378750438643237      15.628516525919395
    17   1      5.4972037461090508     0.43442737156122035      1.9204464880453429
    18   1      4.1812418130776905      7.3066805454825499      11.486950895596806
    19   1      4.1893877928467305       1.711505294886507     0.35263606700159755
    20   1       2.710061902868631      14.148941443036847      12.378470633782854
    21   1      5.4051113933589363      8.5219962872956785      9.8968324775273686
    22   1      16.294639335212537     0.26339860346880073      1.7751218828733926
    23   1      12.330901071097401      10.209467364582565       11.36588500065568
    24   1       5.376327179370719      14.122906624980715      4.6074458796302338
    25   1      16.213902780990907      14.062153200194302      15.522739978439859
    26   1      16.210866715877728       2.991749659397783      15.287044374042807
    27   1      6.6549057963908353      4.4645079535699779      11.326023870041809
    28   1      9.5797315863877657      7.1035537723100219     0.44347652351360622
    29   1      8.0551776709572209      2.9513203008230846      7.2326571118293828
    30   1       13.77562516351918     0.40779503199360434      10.082016874874739
    31   1      8.0546057927097081      5.8771912895745118      10.031961223603503
    32   1       4.046848721445059      15.337986801626357      8.7019466602398552
    33   1      8.2346252777484779      8.5088348136197283      1.5941824039134644
    34   1      5.3873252498039506      8.5824353007221816      15.383447958721831
    35   1       10.95601913060591         8.6960633715114      4.5723778187878565
    36   1       13.51746423474026       11.36423020402458      10.150859334957886
    37   1      11.035213803731267     0.62953829768507319       1.987908531379972
    38   1      8.2188171028725492      13.995277027872817      1.6455387740072354
    39   1      11.047063121019733      13.791257151224386      9.7595719640264633
    40   1      6.6916724573045485      12.400416157340601      14.220338130390587
    41   1       1.219908410845548      7.3249154309474989      8.6180922744832742
    42   1      4.1778168707562031      10.110213636058916      14.029880772248703
    43   1      5.4147135941633451      2.8510384082161409      4.7168274502411123
    44   1      16.232027671150377      8.7949170286142362      4.5621385212804739
    45   1      13.705813187292165     0.39627348003050855       15.21857472990655
    46   1      12.598310366224609      15.079187316029788      11.089008321979009
    47   1      15.193347841970308      12.736689327566182      5.9336490569885427
    48   1      8.0124556889911105      0.2606251764826979      4.4576697498443991
    49   1     0.24128464959953888      3.1151707193088782      9.9148045423509075
    50   1      4.0318061333634603      12.722388964444121     0.50974829961701573
    51   1       1.396270551977139      12.957982360813958      8.8983681001221839
    52   1      12.426310804387981      15.372911771230633      5.9046993633372153
    53   1      2.5197632105213756      11.430894173013371      4.7039682203027837
    54   1       12.23806698009264      7.3932692393195794      8.6254171831003532
    55   1      4.2217828704249882      1.9070740277989273      5.9508453142150302
    56   1       14.89857794466252      15.444401905923542      14.268615361988282
    57   1      6.6323260963594635      12.712897245650083      3.2278499589121168
    58   1       5.537710247409052     0.49281769200412029       7.245797170490107
    59   1      10.809731214777457      5.9383554932893503      12.865410117040824
    60   1      14.498845270453785      4.9630426941630503      8.9905675279484285
    61   1       1.283905358705141      7.3988653721620494      13.986680846079139
    62   1       13.56953581767209      3.2364731528272728      12.567662559206838
    63   1      9.5691126590650128      15.532683359373209      2.9814354093371094
    64   1      10.704526058840543      8.5782165427226573      9.9663670319662288
    65   1      3.0042219589473689        8.73079171233951      1.7526109299079451
    66   1      9.5220920994971721      4.6478487127883454      8.7243720748206215
    67   1       13.72745306017805      14.350805217015932      1.7418500064330971
    68   1      10.739657391318815      13.976473671094595       15.48741201718542
    69   1      6.7405687775242313      15.254184979998058      11.264485876970298
    70   1      13.009010448458412      11.402309021325777      4.0074149177259244
    71   1      13.489088366156011      6.0523417788787128       10.10051847462023
    72   1      16.236201652299883      11.518302477887687      7.5499288363859023
    73   1      2.8965625935950641      8.5493043253479755      7.1631103897682351
    74   1        13.6864053430387      13.814979147636109      12.749451703231102
    75   1      3.4714547611484932      5.2811895141144873      3.6160676820928472
    76   1      2.5605330191676785      6.0926565184514629      4.6024990111130251
    77   1      8.1896430382662402      13.942067528904659      7.2160346796699741
    78   1      16.231238235816363      8.5779858446040862      15.318327817648878
    79   1       3.966100242953587       12.84308593707749      6.0263429769845516
    80   1      11.423149724779819      15.867511989480818      11.899523818253101
    81   1      9.2981397107222392      15.513543202810069       8.539329795301569
    82   1      12.208682658973203      12.709290762404066      14.045241178624451
    83   1       8.020670294149852        11.4528922606994      15.399419666441304
    84   1      9.5235775228260309      12.615951471721928      5.7526595691010129
    85   1      1.4941882755736202       9.892125067816778      6.0464935329024456
    86   1      9.3539034369609908      12.942943179666599     0.46418773304745287
    87   1      8.9876346442722479      15.399369049132588      13.920272883863277
    88   1      11.956977383875142      9.9219795458614044      5.9316253380496846
    89   1      9.6555319795998003      4.5824443360587566      14.139683342590729
    90   1      1.4488883394734557       10.13166856108603     0.26330603828224852
    91   1      8.2625582448814612      5.9895252120572309      15.495063018079804
    92   1      9.3088842079069991      7.4193605151431257      11.375477954067151
    93   1      12.176546508397223      12.886732658337451      3.1312787043979711
    94   1      1.1860513934494463      15.541849959299725     0.43667728659840321
    95   1      4.0789697841694021      1.6678813270802237      11.449075520940255
    96   1      5.3081140287122821      3.3674150200742758      10.004998746024171
    97   1       15.04080674169586      9.9152776195054457      8.5659398985394546
    98   1      13.554416816922526      8.7455437376008831      1.7770073776230646
    99   1      2.6321421532065585     0.49127617593651607      15.190995110524796
   100   1      5.4385402321267406      11.371784837350447      1.7527869954024453
   101   1      13.563503597246836      5.8821410783210695      15.399162686258592
   102   1      5.4786792712336592      8.5094373542754056      4.4369220070246342
   103   1      12.225747505878985      7.1391299530591255       14.03943381585907
   104   1      13.680494798836321      8.5858110858496275      12.474522817530215
   105   1      13.650256797337192      8.6682374794545467      7.2974253652657808
   106   1      15.116849513943862       7.213885390869109     0.31883398642012395
   107   1       10.82787654654237     0.51049101128144514      12.775850576546077
   108   1      10.751454144478998      5.9755864706695547      1.6312672481499959
   109   1      12.050152168303953      1.7416729675288138      8.7674892611586301
   110   1      14.845867804913041      7.4618883018575275      11.417320946999212
   111   1      14.923907040625977      9.8607715387063308      3.1337107687407979
   112   1      14.905356770391336      10.050845373393713      14.041935479001381
   113   1      13.464184650267725      14.066789550990734      7.2761544146876531
   114   1      2.8018977621409249      3.0596430449425043      1.7697422120314172
   115   1      1.2293681287929701      10.077972357226372      11.587804909803708
   116   1      9.6068488361225945      12.704471410568431      11.353205364822315
   117   1      2.7239977240269582     0.53834166444965348      4.6004168875871869
   118   1      5.3099133766961586      2.7596790330326257      15.131357213349702
   119   1      5.3810847196851341      5.9248990764491509      7.2812837975391744
   120   1   0.0042946839625983557      3.0205187855343638      4.7254747360483975
   121   1      1.2730737413448026      4.2887150138089964      6.0804587204606833
   122   1      8.1268508066893332      11.357500048784914      9.9245902308994118
   123   1      10.888280517216685      11.385128338655818      12.609012033378917
   124   1    0.085683422738838999      11.252735847479698      12.763853300970595
   125   1      4.1088717159409498      7.4640740935252552      6.0840778580338792
   126   1      16.241861056778248      8.6683416343013278      9.8915410219469777
   127   1    0.024804428090419606      11.350673525976731      1.7828485663784051
   128   1      3.9465614750843088      15.445491151470719      2.9539745459488813
   129   1       14.71146327571546      4.5409254885844348      3.2627080065938117
   130   1      1.3753102407960114       1.655143043307433      14.068943706840514
   131   1      14.905126072272765      1.6743691032839223      6.0521641315933152
   132   1      14.963202620155926      1.8633662250750831     0.35975017156254552
   133   1      1.2568382395741367      1.8954731733575727      3.2121654070786292
   134   1     0.14310410536164753        0.62019703154062      7.3989354576664255
   135   1      15.005165342491296      12.572475097173992     0.35298752877137218
   136   1      2.9163023705845319      6.1140666666285597      15.355063329449536
   137   1    0.090348002418977558     0.33554183528799086      12.764265053308804
   138   1      10.847560839174207      3.1332082459403239      9.7806881424490939
   139   1      4.1013793808411947      7.3277465933013559     0.46371614642664483
   140   1      9.6506376752108736      9.9839468126472184      2.9915739589319514
   141   1      2.7599201953063641      3.1926156883492922      12.644046998288673
   142   1      6.8833889210007442      4.8009913803086874      0.3887026333479433
   143   1      14.891633639270594      1.8757259741185095       11.32259844101543
   144   1      6.7799616980324799      9.9930666889041504     0.50261189788822591
   145   1      9.6133862562252261      10.054117003674378      14.025514055962162
   146   1      2.8229423949445049      14.018277727635336      1.7659154948219964
   147   1      13.525605834165276      11.312349409410217      15.573074024909033
   148   1      5.3319416400854607      11.320329422811255      7.2436425279354353
   149   1      12.373946225111467      1.9419852479900186       14.02077355031895
   150   1      4.2663674720108702      4.2146915801558293      13.962983184911991
   151   1       16.30300676570721      5.7909048394751039      12.535915772544058
   152   1      12.037578634136935      4.5260780691643276     0.43929031390370099
   153   1      10.894938640132409      11.258773908363651      7.2196358091621846
   154   1     0.10635475289063834      14.060911129311194      4.3976833719669912
   155   1      12.147531109585543      15.471331287570251     0.50525497922057383
   156   1      14.061091210121049      11.775511411898833      5.1378826657464742
   157   1      2.7997903299607287      14.063444914976344      7.1791624037948054
   158   1      1.3894408655871615      12.544906185299851      14.014742303303478
   159   1      2.0930227951783991      4.9432999969442335      16.139809748538255
   160   1      9.2439577753808635      4.4067375430635707      2.9704020527992441
   161   1      14.808779918770938      15.279150994112456      3.0269481571510823
   162   1      4.0479593820074626      4.1407065961890908      2.8168877860942416
   163   1      10.832802000044353      13.924011750839782      4.5393067081153049
   164   1      13.380911390151596      3.1750668134289128      7.1204234505543127
   165   1        4.11294640929259      10.015205921008715      8.5366480513494025
   166   1       7.917625621226307      3.0330348885241847      12.686940300376591
   167   1      1.2727079826188401      12.611731740312621      3.1336212150407619
   168   1       2.516862449368034     0.43576821311824787      9.8310981148813426
   169   1      8.5597519325489202      3.0994825171887044      1.8182022013158701
   170   1      10.866725330981922      2.9746889494835784      4.6081798306066162
   171   1      6.7406933739764554      4.3010286475639532      5.7895698079577187
   172   1      13.552052404559618      3.0959852991908292       2.205856563584689
   173   1      2.7041124222749318      11.531481472939731      9.9612556571956929
   174   1      2.6497455390747859      3.2224567820094023       7.349785564198271
   175   1      15.425362010568051       4.033216604139028       8.738062110008741
   176   1      1.1651870848081671      4.4444970819559444     0.71550449596587384
   177   1      8.2248025996282195       8.794550053126045      12.768163559489722
   178   1      9.4975446515894646      1.7783254961454702      5.8971272086352542
   179   1      3.8355197540885229      12.970788539919113      11.277614254713626
   180   1      1.3086757174531556      7.2973231572385657      3.0593383676804251
   181   1      5.4683815691392965      11.356703799582419      12.736822684706453
   182   1      2.4681849029970806      11.417512708726463      15.410939971223115
   183   1      4.0036811611507801      15.569687532273974      14.066576374248257
   184   1      4.0534900530420259      10.056719901434121      3.1529833090344255
   185   1      12.199564729535837      4.5646090353097293      11.444464478798182
   186   1      8.0832439952304753     0.48723835048040698       15.24057963146106
   187   1      10.936279353616442      8.5499185469210488      15.563776014661812
   188   1      9.5773272642237544      7.2803999414562099      5.9650828924060875
   189   1      8.2010523743327894      11.403012796598887      4.3894911552332587
   190   1      13.799939966488751      6.0557438460702997      4.5714331245934545
   191   1      12.121975209142647      12.824957153278888      8.5749127899191535
   192   1      8.0856259289694776     0.54744426268293722      9.9198137090942282
   193   1     0.10489870676483992       6.192193022517074      7.1755817159080379
   194   1      1.5416979735574188       15.29858122679093      11.255800141476584
   195   1      6.7713158723398692      15.339131531531166     0.31521055976007162
   196   1      5.4231404026547807       6.053473367751451      12.669787846590339
   197   1      10.931079398555653      11.244896005087412      1.8052935708310542
   198   1      9.2792516672928969      1.7379774172876523      11.213422746573656
   199   1      14.878478006053342      7.2596609593244921      5.9185689926302985
   200   1      2.9150432650302207      5.8479812088062317      10.153550813007882
   201   1      6.8888405024904387      7.1832005942795831      3.2627199308636534
   202   1      1.2137879751587093      4.5649847714859675      11.400001066730283
   203   1      2.6735575758914365      8.6871518049480301      12.684509696148439
   204   1      6.7495431290186048      7.4012638538673627      14.019399095705353
   205   1      5.4729580552340735      5.9363351812847327      1.6574547698658364
   206   1      5.3757869369411537     0.56111355207505653      12.595775607149676
   207   1      10.725022175231402     0.29087196908892921      7.4096853086049919
   208   1      8.1113458489608092      5.8994098545763904      4.4250756099655177
   209   1      6.6839771662650378      12.907522744482776      8.5839070963140784
   210   1      12.253761266023957      4.4025041839173014      5.9100526304388268
   211   1       12.24712455812346      7.4832960165101667      2.9679441930971677
   212   1       13.45456736161168     0.55409283401516518      4.5134208217559717
   213   1      6.8733749678581262      1.8738646929371896      8.6736564517165107
   214   1      5.5461740454722417      14.227521894589131      15.458880403035892
   215   1      1.3722433915984453      15.416602295930829      5.8283085970917909
   216   1      15.051691409889372      12.844691089809658      11.150500564790718

Velocities

     1                       0                       0                       0
     2                       0                       0                       0
     3                       0                       0                       0
     4                       0                       0                       0
     5                       0                       0                       0
     6                       0                       0                       0
     7                       0                       0                       0
     8                       0                       0                       0
     9                       0                       0                       0
    10                       0                       0                       0
    11                       0                       0                       0
    12                       0                       0                       0
    13                       0                       0                       0
    14                       0                       0                       0
    15                       0                       0                       0
    16                       0                       0                       0
    17                       0                       0                       0
    18                       0                       0                       0
    19                       0                       0                       0
    20                       0                       0                       0
    21                       0                       0                       0
    22                       0                       0                       0
    23                       0                       0                       0
    24                       0                       0                       0
    25                       0                       0                       0
    26                       0                       0                       0
    27                       0                       0                       0
    28                       0                       0                       0
    29                       0                       0                       0
    30                       0                       0                       0
    31                       0                       0                       0
    32                       0                       0                       0
    33                       0                       0                       0
    34                       0                       0                       0
    35                       0                       0                       0
    36                       0                       0                       0
    37                       0                       0                       0
    38                       0                       0                       0
    39                       0                       0                       0
    40                       0                       0                       0
    41                       0                       0                       0
    42                       0                       0                       0
    43                       0                       0                       0
    44                       0                       0                       0
    45                       0                       0                       0
    46                       0                       0                       0
    47                       0                       0                       0
    48                       0                       0                       0
    49                       0                       0                       0
    50                       0                       0                       0
    51                       0                       0                       0
    52                       0                       0                       0
    53                       0                       0                       0
    54                       0                       0                       0
    55                       0                       0                       0
    56                       0                       0                       0
    57                       0                       0                       0
    58                       0                       0                       0
    59                       0                       0                       0
    60                       0                       0                       0
    61                       0                       0                       0
    62                       0                       0                       0
    63                       0                       0                       0
    64                       0                       0                       0
    65                       0                       0                       0
    66                       0                       0                       0
    67                       0                       0                       0
    68                       0                       0                       0
    69                       0                       0                       0
    70                       0                       0                       0
    71                       0                       0                       0
    72                       0                       0                       0
    73                       0                       0                       0
    74                       0                       0                       0
    75                       0                       0                       0
    76                       0                       0                       0
    77                       0                       0                       0
    78                       0                       0                       0
    79                       0                       0                       0
    80                       0                       0                       0
    81                       0                       0                       0
    82                       0                       0                       0
    83                       0                       0                       0
    84                       0                       0                       0
    85                       0                       0                       0
    86                       0                       0                       0
    87                       0                       0                       0
    88                       0                       0                       0
    89                       0                       0                       0
    90                       0                       0                       0
    91                       0                       0                       0
    92                       0                       0                       0
    93                       0                       0                       0
    94                       0                       0                       0
    95                       0                       0                       0
    96                       0                       0                       0
    97                       0                       0                       0
    98                       0                       0                       0
    99                       0                       0                       0
   100                       0                       0                       0
   101                       0                       0                       0
   102                       0                       0                       0
   103                       0                       0                       0
   104                       0                       0                       0
   105                       0                       0                       0
   106                       0                       0                       0
   107                       0                       0                       0
   108                       0                       0                       0
   109                       0                       0                       0
   110                       0                       0                       0
   111                       0                       0                       0
   112                       0                       0                       0
   113                       0                       0                       0
   114                       0                       0                       0
   115                       0                       0                       0
   116                       0                       0                       0
   117                       0                       0                       0
   118                       0                       0                       0
   119                       0                       0                       0
   120                       0                       0                       0
   121                       0                       0                       0
   122                       0                       0                       0
   123                       0                       0                       0
   124                       0                       0                       0
   125                       0                       0                       0
   126                       0                       0                       0
   127                       0                       0                       0
   128                       0                       0                       0
   129                       0                       0                       0
   130                       0                       0                       0
   131                       0                       0                       0
   132                       0                       0                       0
   133                       0                       0                       0
   134                       0                       0                       0
   135                       0                       0                       0
   136                       0                       0                       0
   137                       0                       0                       0
   138                       0                       0                       0
   139                       0                       0                       0
   140                       0                       0                       0
   141                       0                       0                       0
   142                       0                       0                       0
   143                       0                       0                       0
   144                       0                       0                       0
   145                       0                       0                       0
   146                       0                       0                       0
   147                       0                       0                       0
   148                       0                       0                       0
   149                       0                       0                       0
   150                       0                       0                       0
   151                       0                       0                       0
   152                       0                       0                       0
   153                       0                       0                       0
   154                       0                       0                       0
   155                       0                       0                       0
   156                       0                       0                       0
   157                       0                       0                       0
   158                       0                       0                       0
   159                       0                       0                       0
   160                       0                       0                       0
   161                       0                       0                       0
   162                       0                       0                       0
   163                       0                       0                       0
   164                       0                       0                       0
   165                       0                       0                       0
   166                       0                       0                       0
   167                       0                       0                       0
   168                       0                       0                       0
   169                       0                       0                       0
   170                       0                       0                       0
   171                       0                       0                       0
   172                       0                       0                       0
   173                       0                       0                       0
   174                       0                       0                       0
   175                       0                       0                       0
   176                       0                       0                       0
   177                       0                       0                       0
   178                       0                       0                       0
   179                       0                       0                       0
   180                       0                       0                       0
   181                       0                       0                       0
   182                       0                       0                       0
   183                       0                       0                       0
   184                       0                       0                       0
   185                       0                       0                       0
   186                       0                       0                       0
   187                       0                       0                       0
   188                       0                       0                       0
   189                       0                       0                       0
   190                       0                       0                       0
   191                       0                       0                       0
   192                       0                       0                       0
   193                       0                       0                       0
   194                       0                       0                       0
   195                       0                       0                       0
   196                       0                       0                       0
   197                       0                       0                       0
   198                       0                       0                       0
   199                       0                       0                       0
   200                       0                       0                       0
   201                       0                       0                       0
   202                       0                       0                       0
   203                       0                       0                       0
   204                       0                       0                       0
   205                       0                       0                       0
   206                       0                       0                       0
   207                       0                       0                       0
   208                       0                       0                       0
   209                       0                       0                       0
   210                       0                       0                       0
   211                       0                       0                       0
   212                       0                       0                       0
   213                       0                       0                       0
   214                       0                       0                       0
   215                       0                       0                       0
   216                       0                       0                       0
