(written by ASE)

216 atoms
1 atom types

0.0      16.331106185913086  xlo xhi
0.0      16.331106185913086  ylo yhi
0.0      16.331106185913086  zlo zhi

Atoms # atomic

     1   1       8.165553092956543       8.165553092956543       8.165553092956543
     2   1      9.5264782839793725      9.5264782839793725      9.5264782839793725
     3   1       6.804627415228822       6.804627415228822      9.5264782839793725
     4   1       6.804627415228822      9.5264782839793725       6.804627415228822
     5   1      9.5264782839793725       6.804627415228822       6.804627415228822
     6   1      5.4292509825675666      15.010945449782753      1.8309073891560388
     7   1      1.4845881432650003    0.075668982891329506     0.75340767363935157
     8   1      13.797958104170561      9.3419596989235743      15.771436443898665
     9   1      15.035120081743571      16.063816620189186      3.6254613298512481
    10   1      11.310473648758375      1.2702371035609161      15.665093371925423
    11   1      6.9916126206747435      5.2346410582914018      11.462351856970599
    12   1     0.27277403021282609      12.217224329819032      15.668934446929143
    13   1      5.6116212522322826      1.2553068226330311      10.121898447094054
    14   1      13.656581040697347       12.45753194976794      12.806329010261607
    15   1      5.5793731595312579      3.9675540304644983      7.5411516003725865
    16   1      5.1340425641525371      14.323174980325462      12.296709079059724
    17   1      13.491055627327455      1.2469117716357658      1.9778282646958871
    18   1       2.952466247490122      9.3407098407622016      10.200741719287748
    19   1      12.422527160561458      5.2927959656620942      11.549430175928478
    20   1      11.153811131462703      12.265182283007903      10.178693014293003
    21   1      1.7020682087165397      2.7069732736271703      3.4445745366958249
    22   1      8.4789890962631489       1.635303126786539      2.0364792460272412
    23   1      4.3552178834787014      16.306915005985957       8.721740948177171
    24   1      15.198186662001604      8.1264259133190535      6.0234592505024125
    25   1      5.7337788262450431      6.6428014457392237      15.801122522050832
    26   1      12.340141650167425      11.094929573689001       11.60429544493752
    27   1      12.224520036142621      16.300487581188804      6.1447339418419915
    28   1      7.2445273574281828      8.1220329149683721      3.4497608640196518
    29   1      12.516874903778785       13.66151622829716      14.371159215578473
    30   1      1.4459901335207945      16.289474422903936      11.501317450584111
    31   1      12.302330520556552      8.0304944323847849      8.8608314720701173
    32   1      12.377399883021553    0.037338052456334481      11.417484479842756
    33   1      2.8443751748990564      12.442896733680527      2.1858622399369665
    34   1      4.3803858801230717      13.470122449944029      6.0453648642590565
    35   1      15.204989822974994      16.258608572094772      14.330927215837278
    36   1      13.787480321266344      15.016035409538063      10.189259377487474
    37   1      7.7581450826088485      7.4082816516979051      13.537454178043959
    38   1      4.3163861337103526       2.771136066178542      5.9719566255887457
    39   1      8.4229693632514682      14.935643442379614      10.127772975134462
    40   1      15.064454758964075      13.586389434654961      11.397453653328171
    41   1     0.23108500333128568      15.083552085496763      2.1845072535190297
    42   1      2.8879245551807173      1.3996586264030952      12.932382656930827
    43   1      1.6114891431503224       5.276074732409711     0.74304968097655433
    44   1      15.225162767317897      10.766939147306971      8.6674100811389962
    45   1      2.9235766618928949      3.9415437910053868      10.199255322549106
    46   1      12.281112134106706       8.080883476506699      3.4057345129443206
    47   1      15.063521258982178      5.4372071474289214      3.3784517835463816
    48   1      5.7514452403967198       4.065995205171788      13.148330697060146
    49   1      1.4002096980164964     0.22710234283272257      6.1323847786299552
    50   1      7.0221226902082208      2.7388741023881096      14.465999504145998
    51   1      1.5085790441292772      5.1588027020978302      11.515054209441814
    52   1       4.323430213605036      10.786896968087831      3.4213592000761537
    53   1      11.026434620898385      6.9032810366212516      10.176833801607472
    54   1      1.5081175262159121       5.397165449300303      6.0707319232040504
    55   1      4.0580387969579874      2.6468839576652101      11.564355468131225
    56   1      11.271785476933019      14.891289052207412      13.175124774747019
    57   1       7.078055303044323       10.94699075486858      6.1776770491280786
    58   1      12.409035700969071      8.0551367877463349      14.424145803706324
    59   1     0.12693678029961131      6.6452636857853236      4.7324978876327464
    60   1       4.247739328993589      2.7689415138227673     0.74066823394244352
    61   1      9.6862742073665231    0.092688079537310841      8.8458828180325781
    62   1      8.4837977405911715      9.4352503191165624      15.688520425172896
    63   1      14.881908302128636      2.8443656841536722     0.52606495942833931
    64   1      13.900207014596504      3.8849779751054427      15.494017575972862
    65   1      13.873431431695508      3.8737684313968543      10.119396783951743
    66   1      13.526420578153648      4.1219129735086995      4.6941358080846953
    67   1      9.7659195692214098      13.634906125059274     0.56114263269232367
    68   1      9.7367727600890248      5.2418953946992133       14.27791239882572
    69   1      9.7497434454475069    0.036578701568426908      14.200857280403397
    70   1       12.34816936064783      13.712136457242536      8.7257582103516143
    71   1      6.9433757855830436      13.637820513949578      8.7718394294788595
    72   1      4.4037881114210791      10.999397190765762       8.654237899955433
    73   1      13.655012877536933      6.5829956353765624      12.848902060530918
    74   1        6.95513457576169      13.548895636633347      3.5161644458914907
    75   1     0.20497871570374215      12.272584090997839      9.9706510084212141
    76   1      11.010917495547574      9.5501788653758695      7.4715235985945583
    77   1     0.18824999936365217       4.190289170305789      12.851466995309124
    78   1      5.4780100520078463      4.1388468967986682      2.1066614830004653
    79   1      13.876471390447819      9.5959758488464786      10.151502758824449
    80   1        11.1767329850328      15.179719131598517      2.2379021870508495
    81   1      14.962305136335999      13.535444086842062     0.58701744651537524
    82   1      1.4923467059404061      2.5029134871776364      8.8158219771139557
    83   1      7.2821705738514879      16.258730248317647      6.0464847722143986
    84   1      11.077588278404846      4.0445144847854237      7.4512820288619537
    85   1      11.062054605087724       6.733490628287143      4.8123914689822982
    86   1      7.1643986976160363      13.571444674256554      14.411120607399994
    87   1      2.8683509879116968      6.9175658251867844      2.0279339248947252
    88   1      13.661041204323055      12.238772702185315      7.5317737705231593
    89   1      4.2974615874141477      5.2920235649992833      8.7829226732681036
    90   1      9.7850061882464843      8.1367902939835517      6.1195362561992397
    91   1      8.5224742314991317      15.072169031494354      15.523811702610942
    92   1       8.446448007217441      9.3735604741189036      4.5232668617110221
    93   1      2.8042429496606189      14.995462393774346      4.6674916355044047
    94   1      9.5454500406500529      10.780841385827785       3.553110214205276
    95   1      9.8056979600037266      8.1526335116116684     0.74025769836646305
    96   1      5.5684743768958924      1.3820713017962873      4.7115982928868334
    97   1      9.8575330043582881      10.774822793139492      14.285017316831841
    98   1       2.945585457086537      4.0857342521039186      4.6488206624566715
    99   1      2.8660583645202848      15.151852356330778      15.736634123927047
   100   1      1.3616108365387305      13.614425583224943      8.9452338875345276
   101   1      4.3428993826748297      5.3754997810551686      3.3250461425069489
   102   1       8.435447503259752      14.982914168261686      4.8002111923676125
   103   1      12.680348369326111      10.567632520827829     0.63240425943867251
   104   1      2.9195550193744282      6.7184991442191517      7.4174497117390956
   105   1      12.447097970303957      13.583737866406068      3.2849066166951388
   106   1      5.6367561529440309      9.5244594320894294        12.8466641914398
   107   1      7.0319195729692296      2.7309286450343677      3.2941535229287524
   108   1       12.29568602537779      2.3764395708346058       3.240153371864352
   109   1      15.143668900285093      5.4513639326079897      8.8320107552150375
   110   1       9.879233228650719     0.13371146143208534       3.407358647167257
   111   1      8.5341055049962051      12.202084887464025      12.917891505491298
   112   1      2.9456543258286843      1.2422682419421847      2.0863914410317079
   113   1      5.7762521020115969      6.7110467189204996      4.8331703609151191
   114   1      4.3610340069321296      10.848624776067027      14.399434822955072
   115   1      5.8284988987043675      14.832871810900201      7.4925210210236628
   116   1      7.1346254992882905      8.1679175053194513      8.7997139920248628
   117   1       2.886020808997614      14.921720762253358      10.036849687533731
   118   1      11.067874622180284      9.5423711455064222      2.0369674110334159
   119   1      4.3638758767935997      8.0698805390245525      0.7182487814965981
   120   1      5.9871807545948741      15.149900669715862      13.042668038525221
   121   1      2.7996375046247977      1.2846343209563855      7.5115020250872817
   122   1      15.222076084896003      8.2091005264186379      11.554522082503354
   123   1      1.5105291489532959      2.5711933164062089       14.39203106814557
   124   1      4.1550108529502836       13.33145925294582      11.249753319904585
   125   1      4.1073220475664129      16.239422665271832      3.5219976040161214
   126   1      5.7037530280786086      12.139532601398628      4.7681349064932874
   127   1      15.537356699741395      10.496649532631864      13.765510462464022
   128   1    0.027068784574304949      4.0573425656106963      7.3686195833846568
   129   1     0.16674038087435505      6.6147390151051013      10.235241308816853
   130   1       7.110992569871712      5.3601018984027746      0.6647855876037454
   131   1      4.3775678588012852       7.867620100558895      11.489746528493583
   132   1     0.18559275796086716      4.2509257859182412      1.9548931484174972
   133   1      8.3895317637956168      12.170386771290396      7.2880567828092921
   134   1      1.5660918660718579      8.0979186344140999       8.729027893812713
   135   1      12.421011561529326      2.7095878523043098      8.9704452009142415
   136   1      9.8807751097469918      13.719566494116179      6.0715247654723044
   137   1      13.858445788086215      14.979086720994928      4.7298740615626684
   138   1      12.560071909718999      16.239266919706552     0.65342966739903829
   139   1    0.013107958952176979      12.244340606144078      4.6567213429603953
   140   1      8.1310160271507925      11.977156168676743      1.9928647689663421
   141   1      4.3089955199329211       13.76254156262587     0.69253591872619324
   142   1     0.12846279025356289      6.6696208320804544      15.684029112434132
   143   1       4.438315929833891      8.1707170318553608      6.1458957064180026
   144   1      8.5426656706279118      4.1378905216868702      4.7715695829126048
   145   1      9.8340796690466732      5.4084467819803876      3.4290296691661979
   146   1      1.6204256533393817      10.851028124821255      11.485677675600641
   147   1      5.6924006364843649      12.279135138837432      15.711010084799341
   148   1      15.307552171351062      10.794731943431202      3.4452508131425645
   149   1     0.43816581267094534      9.3084276787187719      12.865132695252669
   150   1      13.963423166133907      12.638548206424502       2.045985930996693
   151   1      2.8831127472708999      4.0000325779316483      15.567388338366527
   152   1      11.072073911984148      12.428961399227092      15.644067720612611
   153   1      2.8555584365435038       9.596823688767472      15.655476083269377
   154   1      8.4674162273530555      1.3464162748547608      12.708552917788552
   155   1      15.168082991052529      11.231129070526435      14.603832382599307
   156   1      1.6716517081984534      13.434129649807801      14.254693655271808
   157   1      13.849649083877239      6.6090241262691052      7.5445341993685133
   158   1      1.3493371125848768      10.821931932997586      6.1548355018650796
   159   1      5.5436066771695778      1.3272953431348355      15.873122723470033
   160   1      5.5692574850663163      12.191706392357673      9.9446473394781378
   161   1      13.924792425485748      9.4929491840039191      4.9630076514108623
   162   1      15.262200036151285      2.6283811411574902       6.428215205896322
   163   1      7.1051409169612043      5.2337941917801913      6.0045760741219851
   164   1      11.068185139901061      6.8862814081709303      15.732796942562459
   165   1    0.041425042711249027      15.009061901852647      7.5043883463931138
   166   1     0.26276622171946329      9.4476681077183002      1.9296736827308507
   167   1      1.5626178882325519      13.571818463613226      3.4537618215802297
   168   1      11.003213930524907      4.0577482341377618      12.646387075407006
   169   1       2.940672901264179      12.120393418245271      7.1461706260195683
   170   1      8.1530486708841181      4.0844289095849149      15.742066723925973
   171   1      7.1607990282385003      16.276003404916992      11.437811222931373
   172   1      11.232962974557609      3.9490336925806844      2.0693105328645061
   173   1       1.309475860294782      10.834291317012344     0.63595258145015521
   174   1      10.869989173984322      12.394767460369849      4.6493005534796907
   175   1      12.359003411532626           5.34537858873      6.1149339747452132
   176   1      11.055020745995762      1.4895226008074758      10.284244704112666
   177   1      10.043380293767882      8.3257870507460439      11.437967941906436
   178   1      6.9774558354956753      2.6679251835345497      8.6425745039355206
   179   1      8.5005043726968097      9.4959025092855427      10.237156979269798
   180   1     0.28551298320484264      1.4394546602377289      15.421418727537116
   181   1      12.307301724318336      5.4069151216868363     0.69349673502012621
   182   1      9.8632663879801612      2.4676444172150696     0.87811783229369667
   183   1      4.2637163904668682     0.10270251938482033      14.383760978629198
   184   1     0.37577407838163168      1.4264573277864372      10.166647068228372
   185   1      12.574529965225906      2.5251091770496146      14.136826384877622
   186   1      7.0314513628636064    0.022332029980900669     0.56583379862716043
   187   1      15.092965931508161      2.6123731739236007      11.536024376396995
   188   1      6.9896998704511475      10.898715470090451      11.498016618009956
   189   1      13.727140595637707      1.3981477727436555       7.505618249653935
   190   1      5.5393202671901349      9.6946747337938177      2.0914979487533287
   191   1      8.7704347991619898       6.177511082760077      12.565720606689752
   192   1     0.31615863046965842      1.2612386601744134      5.1012698035784751
   193   1      2.8137485395440649      12.275948195207889      12.913091621851322
   194   1      8.4617947858562275      1.3345626988984947      7.4249040838573137
   195   1      11.193157328301368      9.5523962928615447      12.929844004216761
   196   1      15.125546930354972      13.766901465043929      6.0573120092307136
   197   1      9.7093498596823338      13.683236894195034      11.578657778072852
   198   1      8.4149134238873557       6.717145131210998      2.0744610873788076
   199   1      12.503830239276795      10.771899643561142      6.1316518010633558
   200   1      8.5810404045031419      4.0647497273544388      10.101725502751151
   201   1      10.987565394853391       15.01440592156132      7.3674592789233202
   202   1      6.9241962059236926      10.989548230581363     0.74337510403463369
   203   1      15.356135053620619      5.4107951330818764      14.250927532821379
   204   1      1.3689481561305428      8.2203979203601421      14.358024997376447
   205   1      9.9155959245044869      2.7252303041646826      6.0443958348200795
   206   1      2.9036244382182872      9.4571510658242914      4.8245478970573004
   207   1      3.0787299073200245      6.8258657565792191      12.837309723425165
   208   1      13.806378098793516      1.3565822015997497      12.903454864999617
   209   1      15.243601095427493      16.287208324929111        8.78904639421296
   210   1     0.29984346119206506      14.992992853154874      12.814628302071469
   211   1     0.35109911379235115      9.4506486884738479       7.505606568736539
   212   1      13.920547385422083      6.5717965558231413      2.0530431519234469
   213   1      1.6129578968366474      8.1463691329531684      3.3010340699798917
   214   1      6.9459353666074435      8.1312428316302316      14.516542833718518
   215   1      4.2986832166918134      5.3615055553098614      14.203244081191315
   216   1      15.140687346119762       8.022539240933213     0.68879960695036857

Velocities

     1                       0                       0                       0
     2                       0                       0                       0
     3                       0                       0                       0
     4                       0                       0                       0
     5                       0                       0                       0
     6                       0                       0                       0
     7                       0                       0                       0
     8                       0                       0                       0
     9                       0                       0                       0
    10                       0                       0                       0
    11                       0                       0                       0
    12                       0                       0                       0
    13                       0                       0                       0
    14                       0                       0                       0
    15                       0                       0                       0
    16                       0                       0                       0
    17                       0                       0                       0
    18                       0                       0                       0
    19                       0                       0                       0
    20                       0                       0                       0
    21                       0                       0                       0
    22                       0                       0                       0
    23                       0                       0                       0
    24                       0                       0                       0
    25                       0                       0                       0
    26                       0                       0                       0
    27                       0                       0                       0
    28                       0                       0                       0
    29                       0                       0                       0
    30                       0                       0                       0
    31                       0                       0                       0
    32                       0                       0                       0
    33                       0                       0                       0
    34                       0                       0                       0
    35                       0                       0                       0
    36                       0                       0                       0
    37                       0                       0                       0
    38                       0                       0                       0
    39                       0                       0                       0
    40                       0                       0                       0
    41                       0                       0                       0
    42                       0                       0                       0
    43                       0                       0                       0
    44                       0                       0                       0
    45                       0                       0                       0
    46                       0                       0                       0
    47                       0                       0                       0
    48                       0                       0                       0
    49                       0                       0                       0
    50                       0                       0                       0
    51                       0                       0                       0
    52                       0                       0                       0
    53                       0                       0                       0
    54                       0                       0                       0
    55                       0                       0                       0
    56                       0                       0                       0
    57                       0                       0                       0
    58                       0                       0                       0
    59                       0                       0                       0
    60                       0                       0                       0
    61                       0                       0                       0
    62                       0                       0                       0
    63                       0                       0                       0
    64                       0                       0                       0
    65                       0                       0                       0
    66                       0                       0                       0
    67                       0                       0                       0
    68                       0                       0                       0
    69                       0                       0                       0
    70                       0                       0                       0
    71                       0                       0                       0
    72                       0                       0                       0
    73                       0                       0                       0
    74                       0                       0                       0
    75                       0                       0                       0
    76                       0                       0                       0
    77                       0                       0                       0
    78                       0                       0                       0
    79                       0                       0                       0
    80                       0                       0                       0
    81                       0                       0                       0
    82                       0                       0                       0
    83                       0                       0                       0
    84                       0                       0                       0
    85                       0                       0                       0
    86                       0                       0                       0
    87                       0                       0                       0
    88                       0                       0                       0
    89                       0                       0                       0
    90                       0                       0                       0
    91                       0                       0                       0
    92                       0                       0                       0
    93                       0                       0                       0
    94                       0                       0                       0
    95                       0                       0                       0
    96                       0                       0                       0
    97                       0                       0                       0
    98                       0                       0                       0
    99                       0                       0                       0
   100                       0                       0                       0
   101                       0                       0                       0
   102                       0                       0                       0
   103                       0                       0                       0
   104                       0                       0                       0
   105                       0                       0                       0
   106                       0                       0                       0
   107                       0                       0                       0
   108                       0                       0                       0
   109                       0                       0                       0
   110                       0                       0                       0
   111                       0                       0                       0
   112                       0                       0                       0
   113                       0                       0                       0
   114                       0                       0                       0
   115                       0                       0                       0
   116                       0                       0                       0
   117                       0                       0                       0
   118                       0                       0                       0
   119                       0                       0                       0
   120                       0                       0                       0
   121                       0                       0                       0
   122                       0                       0                       0
   123                       0                       0                       0
   124                       0                       0                       0
   125                       0                       0                       0
   126                       0                       0                       0
   127                       0                       0                       0
   128                       0                       0                       0
   129                       0                       0                       0
   130                       0                       0                       0
   131                       0                       0                       0
   132                       0                       0                       0
   133                       0                       0                       0
   134                       0                       0                       0
   135                       0                       0                       0
   136                       0                       0                       0
   137                       0                       0                       0
   138                       0                       0                       0
   139                       0                       0                       0
   140                       0                       0                       0
   141                       0                       0                       0
   142                       0                       0                       0
   143                       0                       0                       0
   144                       0                       0                       0
   145                       0                       0                       0
   146                       0                       0                       0
   147                       0                       0                       0
   148                       0                       0                       0
   149                       0                       0                       0
   150                       0                       0                       0
   151                       0                       0                       0
   152                       0                       0                       0
   153                       0                       0                       0
   154                       0                       0                       0
   155                       0                       0                       0
   156                       0                       0                       0
   157                       0                       0                       0
   158                       0                       0                       0
   159                       0                       0                       0
   160                       0                       0                       0
   161                       0                       0                       0
   162                       0                       0                       0
   163                       0                       0                       0
   164                       0                       0                       0
   165                       0                       0                       0
   166                       0                       0                       0
   167                       0                       0                       0
   168                       0                       0                       0
   169                       0                       0                       0
   170                       0                       0                       0
   171                       0                       0                       0
   172                       0                       0                       0
   173                       0                       0                       0
   174                       0                       0                       0
   175                       0                       0                       0
   176                       0                       0                       0
   177                       0                       0                       0
   178                       0                       0                       0
   179                       0                       0                       0
   180                       0                       0                       0
   181                       0                       0                       0
   182                       0                       0                       0
   183                       0                       0                       0
   184                       0                       0                       0
   185                       0                       0                       0
   186                       0                       0                       0
   187                       0                       0                       0
   188                       0                       0                       0
   189                       0                       0                       0
   190                       0                       0                       0
   191                       0                       0                       0
   192                       0                       0                       0
   193                       0                       0                       0
   194                       0                       0                       0
   195                       0                       0                       0
   196                       0                       0                       0
   197                       0                       0                       0
   198                       0                       0                       0
   199                       0                       0                       0
   200                       0                       0                       0
   201                       0                       0                       0
   202                       0                       0                       0
   203                       0                       0                       0
   204                       0                       0                       0
   205                       0                       0                       0
   206                       0                       0                       0
   207                       0                       0                       0
   208                       0                       0                       0
   209                       0                       0                       0
   210                       0                       0                       0
   211                       0                       0                       0
   212                       0                       0                       0
   213                       0                       0                       0
   214                       0                       0                       0
   215                       0                       0                       0
   216                       0                       0                       0
