(written by ASE)

216 atoms
1 atom types

0.0      16.331106185913086  xlo xhi
0.0      16.331106185913086  ylo yhi
0.0      16.331106185913086  zlo zhi

Atoms # atomic

     1   1       2.838048984719336      11.699447224635605      13.456574532584227
     2   1      1.4942402313207879      15.743478168111324      3.9224352702601948
     3   1      1.4563927205192755      13.066538966633743      1.2254468691583753
     4   1       5.571404340342724      11.699561113580216      10.768871365726227
     5   1      1.4528948941402859      13.034066989682628      12.088076213449654
     6   1      9.6476152378346569       2.155409844933132      9.3931045957419883
     7   1      13.717284821584826      3.5199388423250753      5.3064402505904127
     8   1      5.5460265738901171      8.9852585509919436      13.459983413644295
     9   1      0.1172312991962734     0.79295402786464564      5.3341395993754759
    10   1       8.313316698016024     0.79485753069530318       13.47458358697952
    11   1      4.2027468687086298      13.043857545280048      3.9696619493495859
    12   1      6.9553088161128471      7.6262305356361821      1.2322235047151793
    13   1      4.1843158411724062      13.058081009029252      9.4238877067195972
    14   1      4.1698908815981213      2.1844692905374927       3.962960266346073
    15   1      9.6324680082013856      7.5769210029636156      3.9621827552819013
    16   1      5.5307635084926687     0.82981054666895204      5.3164561505525967
    17   1      13.720104789726179      8.9382448052925838      5.2977053579026574
    18   1       10.98315974217553      3.5174598109602186      2.6082281517151387
    19   1      9.6507797930391916      2.1893331758707006      14.844121507762338
    20   1      15.083849948890361       10.31533443917192      12.123660181477021
    21   1      1.4748564789594525      2.1406500323934949      6.6638991293759773
    22   1      0.0953496632602997      6.2373660503167798      10.758557115665553
    23   1      4.2247303552479138        2.16305719554083      9.3989187723758505
    24   1       4.208556178293577      7.6146226239739008      9.3972630023349666
    25   1      1.4608480170960689      10.328754839850149      9.3971335388338275
    26   1      12.361691969353274      10.305724937794139      14.850587868950811
    27   1      5.5556078463841914     0.76949284443665533      10.765233733367154
    28   1      13.703889729560956     0.79277972667537711      2.5972261876427751
    29   1      0.1161175434949504      14.401980289537619      13.492584854096549
    30   1      12.365891259157138      2.1343732427602617      6.6766624784506803
    31   1      9.6598509988069736      10.308055280814642      1.2778365137368013
    32   1      8.2575169556153014        3.51989333541772      10.762897549887953
    33   1      1.4581241731707877      4.8616022005618902      14.823976792303142
    34   1      10.963039361960909     0.78894339704434913      5.2901478043474413
    35   1      10.993000915081666      8.9392347630418953      2.6377562941300141
    36   1       1.445771481348288      7.6057845498491474       12.10482762240531
    37   1      6.9526275588655722      10.322562980220482      9.3711590721842413
    38   1      6.9355695258282708       2.190504431192096      1.2172959006641975
    39   1      11.009581977325297      6.2224465985727306      5.3203677977655843
    40   1      8.2875106312588969       8.942244546090933      5.3037327112789967
    41   1      13.722944226063191      11.712354638358192      8.0203149995790568
    42   1      2.8409884389115518      3.5205815361343014      16.220674792851241
    43   1      12.354854739037478      4.8837097968485068      9.3703511420643508
    44   1      5.5464047435908128      11.684093632128338      16.187864069295642
    45   1      15.072907849519652      2.1380522450351123      9.4009298369875296
    46   1      13.713915850325861      3.4910889231765054      10.731912943085263
    47   1     0.10138545792460096      11.683843465814107       10.72745472627912
    48   1      8.2810549775780373      11.689377300430465      13.473676369061764
    49   1      4.1972529438933748      7.6250692577650625      14.819549724610056
    50   1      5.5335309125057393      14.434029806642911      2.5761525958981508
    51   1      10.991364613236442      14.412971059397478       2.577877234681182
    52   1      15.067894789137199      7.5865777147158724      14.830429525754653
    53   1      1.4828839460874121      4.9076225815776979      9.4168548210374183
    54   1       8.271288757225193      14.420038987831845      16.177009576805403
    55   1      1.4589372136920389      15.767124238559973        9.38524139151491
    56   1      13.741215127690111      6.2446087058071953       13.46247339586921
    57   1      2.8558273409960577       8.975104913545465      5.3035263484050006
    58   1      2.8150609392839954      6.2434260129208496      2.5627008027544207
    59   1      8.2511119192431579      14.401813836464726      5.2811569048867568
    60   1      13.751283105075686      14.361388128176714      5.2936637604836392
    61   1      4.2006929740664987      13.047643135926137      14.834759252469439
    62   1      5.5657055127681474      3.4995264391755541      2.5876054920524894
    63   1     0.11094412145551225      3.4933562379135594      13.478856855926892
    64   1      12.360369105458176      13.050594514388195      12.093128210223426
    65   1      12.328019778139719      15.773295656584196      14.825714328765798
    66   1      15.056127238270506       13.02491596431264      14.840305741412976
    67   1      5.5492685151724004      6.2491326277736903      10.758486056751394
    68   1      4.1779409805035357      4.8866236990339189      6.6786185454096199
    69   1      13.703619121641282     0.77461054637078064       8.012483431169926
    70   1       6.945934879902552      10.359001602037324      3.9385206235718329
    71   1      12.349667438303868      2.1701479991050974      12.124231573019642
    72   1      11.025877830502509      3.5258720183049093      13.475278601564582
    73   1      2.8699824227080057     0.83966589485505239      8.0422644167759358
    74   1       13.69960867333532     0.80208619342008802      13.466827457828572
    75   1      4.1873557999247168      2.1706283768330081      14.853247224477968
    76   1      9.6502706997226824      10.302368620862353      6.6638222300031202
    77   1      5.5419241383596614     0.78848522522711306      16.201409066426095
    78   1      5.5418837418536668       14.41511937478856       13.48310578962969
    79   1      8.2802519145070619      11.713718385464176      8.0287534889878884
    80   1      1.4728106149480311      10.330510871098681      3.9728644675356577
    81   1      4.2121407598194764       4.896853749148363      12.096006582951759
    82   1      6.9307112376013151      4.8789615039270302      9.4172383444919205
    83   1      15.087024238192726      13.010478350411177      3.9738169490083237
    84   1      6.8989177272689517      7.6127468633220587       6.676182587427661
    85   1      13.755352931378411      3.5141112813066968      16.179832465176105
    86   1      4.1805769741959011       15.75847451922823      12.114734987176689
    87   1      10.985260360487246      3.5247912900933329      7.9903062360838248
    88   1      13.689765553609618      11.687099521538244      2.6048027226887598
    89   1     0.12793730106602119      8.9849577673689964      13.470991704880248
    90   1      11.005131547797419      6.2312510900599705      10.771687440228447
    91   1      1.4738763769841938      13.040099210107883       6.668784673076857
    92   1     0.11360475458300989      11.676164236036016      5.3104862283534544
    93   1      4.1817100231833138       15.80353852513224      6.6860607499055504
    94   1     0.14320217639728483     0.77394449072676252        16.1790196680073
    95   1      6.9422008799749619      4.8760772907399996       3.955670400481182
    96   1      15.064262997236824      13.031519576280516      9.3885714263825548
    97   1      8.2741554490361295      3.5020611982504875      5.3270896790220945
    98   1      5.5540065872911555       11.67243802338669      5.2872640778653022
    99   1      9.6417309756964187      4.9066428446311079      12.119380098661168
   100   1      1.4882822333914874      15.778168545957897      14.826468721347624
   101   1      6.8914030037441876      4.8869069612807721      14.832565186818556
   102   1      9.6125150544694407      4.8493498916232625       6.663408530845345
   103   1      15.083442090191284      7.6143247605803026      3.9564352572181747
   104   1      9.6197251007321256      2.1730421897424037      3.9312713975653821
   105   1      2.8235446922477365      14.406522219585099      16.184285814933332
   106   1      8.2796055704111495      6.2748671489117669       13.46751468513537
   107   1      4.1638143710277404      10.325090925426935      1.2570935162897285
   108   1      9.6456771789567028       13.05076486110022       3.910473280789347
   109   1       13.70506852880817      14.420387468534159      10.762781714123776
   110   1      12.349153477938444      10.314290943884544      3.9510710392565045
   111   1      10.963441380201289     0.77906888485314596      10.768787652484889
   112   1      8.2856514185733658      6.2510137421793388      8.0344970934124831
   113   1      5.5402659347943199       6.251343728095776      5.2824242844242235
   114   1      2.8364878787798489      6.2279458771417922      13.461096021026265
   115   1      9.6348577292186519      15.790597042067247      12.152968576633384
   116   1      1.4945860351461988       7.592269728421968      6.6741340465393364
   117   1      13.719226774101912      8.9698387666194321      10.740064276608109
   118   1      8.2901612260980073     0.78547361703473229      8.0495289739864688
   119   1     0.10823111431883081      14.395945148883015      2.6049407035255001
   120   1    0.095799310137170579     0.79362501139569019      10.766089360566411
   121   1      8.2831916120517235      11.677238880436448      2.5703087302659071
   122   1     0.12489547914654775      11.698315149057976      16.203035634173489
   123   1      5.5613801663973845       3.556440005720475      13.481040214070163
   124   1      6.9439135944881514      10.358989921119928      14.805841194636059
   125   1      9.6250535458842705      15.754266468736319       6.657843547115931
   126   1      9.6546909535472878      13.055547223364101      9.3754031388381236
   127   1      9.6408490664330202      13.045515262140498      14.851024929943378
   128   1      2.7911578886526343     0.80876676559893212      2.6017279645367068
   129   1      4.1865863194912549      10.328263267909733      12.134712276153209
   130   1      9.6372659450217952      7.5940827041428065      14.845863911273909
   131   1      8.2944899794030107     0.77259351962418066      2.5599170941274849
   132   1      1.4616591107977541      10.336780603510988      14.830252365174147
   133   1      2.8129133539502504      3.5376690148175385      10.755191064635937
   134   1    0.095759058121690721      3.5428774872139286      2.5904653699949449
   135   1     0.11659285645008399      14.409355815463414      8.0290094957608176
   136   1     0.12227917418799628       6.246815912490149      16.196224685921834
   137   1      15.080952107966368      15.760398950369222      1.2290026134194534
   138   1     0.12264494051872266      8.9488685996642516       8.019757722478289
   139   1      10.986874273907461      14.391934700577053      13.493668259185029
   140   1      11.009019346470723      8.9561127152693416      13.475704955049537
   141   1      10.998530856058892      11.679044555583914      5.3070715068346885
   142   1      4.2150585556440205      7.5441633302411901      3.9171971088654232
   143   1      6.8950990406902406      15.809070412929032      3.9543154140632453
   144   1      5.5500871527999038      8.9592675363760463      8.0545211060585871
   145   1      2.8329466139892929      8.9357392485111404       16.19801089287364
   146   1      13.705076316086434      11.677115257394007      13.476527486316172
   147   1      12.362943774334212      2.1287121348147764      1.2319683496758103
   148   1      4.1667165922957565      15.779592644470426      1.2392689230483143
   149   1      9.6398221191119546      10.322770316504261      12.128533070850722
   150   1     0.08761266009063462      3.5362354255596244      8.0386262977119713
   151   1      2.8328521932403419      3.5338337802725164      5.3352132703661255
   152   1      11.012074879779561      11.657084430879422      10.768764290650097
   153   1      15.062257773083843      10.363149301122689      6.6601008844027092
   154   1      5.5145615893595163      14.419244685448916      8.0439951393701108
   155   1      8.3057017132836108      8.9782753092086978      10.733326334090179
   156   1       11.00354878349026     0.83316236158049151      16.188899777304755
   157   1      4.1643799221116637      10.353399628736156      6.7011593090496717
   158   1      1.4652390686271843      2.1238718546688062      12.111722283898303
   159   1      15.089874382037351      15.784107319043983      6.6487903494291345
   160   1      2.8404445461953003     0.79936599978149303       13.45067761611881
   161   1      12.346689777777669       7.576832909378254      1.2259635064007028
   162   1      1.4683796536158127      7.6057655683583789       1.244174908354637
   163   1      12.347886098400977      7.6157055423574889      12.109990587894345
   164   1      10.995864686663253      14.415179726195106      8.0072503801765151
   165   1      1.4943684780596982      4.9238366683331378      3.9085804854663024
   166   1      15.096322248439947      2.1462709871854315      14.849023599429529
   167   1      15.079422881197274      2.1627571419752201      3.9553562324737186
   168   1       9.627741130295135      4.8756558043039604       1.233306788127436
   169   1      10.993091442191485      11.674003266317754      16.205243327561334
   170   1      12.359523212356748      4.8917467547218507      14.858232055976714
   171   1      6.9093453795693449      15.738908009180136      9.3954738751538116
   172   1      2.8382339325781061      8.9741636262853035      10.727549147028071
   173   1      6.9482253131219522      13.047413411217349       6.687995401849264
   174   1       8.295131456450008      3.5084747519582322      16.181869811851925
   175   1      10.987531325510986      8.9561127152693416      8.0390448639186616
   176   1      15.062140963909883       4.895017898297624       6.658742491050532
   177   1      13.706049725869434      6.2538570721554834      8.0637339429497956
   178   1      12.354606519542813      15.785523630278249      9.4075538905608482
   179   1      5.5565286920389099      3.5288718239036712      8.0539088313050797
   180   1      12.371745345592103      15.762353557213487      3.9482912242687007
   181   1       12.34679393262445       4.861221597336737      3.9390180359709461
   182   1      15.096123672844215      4.9144700326962152      1.2413511682503753
   183   1      2.8310182892091689      11.679865140030984      8.0454917569114741
   184   1      15.079306072023314      7.6243718096555426      9.3801436444813362
   185   1      12.354484843319938       10.30609191328233      9.3674085242903402
   186   1      6.9324916040944231      13.055223077906362      1.2335977159763303
   187   1      6.9253273080915392       15.77168466339333      14.817174604739535
   188   1      5.5653911014082382      6.2131875247168296      16.193812576479559
   189   1      4.1660653811509292      4.9093338359762129      1.2475764888413323
   190   1      9.6719942858499053      15.792773586342037      1.1870565607266172
   191   1      8.3068980339069185       6.246879184126044       2.600608786638702
   192   1      6.9121312783682924      13.053176970542495      12.147143692491909
   193   1      15.061951149002198      10.318142726395877      1.2514708580306717
   194   1      12.372206741829245      13.022784196887869      6.6455917248821947
   195   1      12.323586869987935      7.6103586024194669      6.6464230168368772
   196   1      8.3093812022633529      14.421826168193434      10.771323384969605
   197   1      2.8516416789291554        14.4039855136906      5.3096632103819275
   198   1      2.8053066432009928      14.435467532892403      10.758792680833039
   199   1     0.10942330555532465      6.2330518981585215      5.3118640899012917
   200   1      15.081625707536205      15.750446808747824      12.139026428311467
   201   1       1.456608452462433      2.1683072812054434      1.2274539184546995
   202   1      2.8450920912042363      6.2589304839444821      8.0394814382063373
   203   1       5.532984829617476      8.9688429684114226      2.5740570879877964
   204   1      13.732226661753884      6.2519024653112183      2.6031683676631019
   205   1      12.346033699583927      13.064620375951449      1.2364077066674071
   206   1      13.692199078067119       14.39107712655823      16.204475307242546
   207   1      10.973096631838871      6.2272012186577967      16.233304784785673
   208   1      8.2956025867849803      8.9582873127245648      16.206356908353087
   209   1      9.6125208949281387      7.5819038876427953      9.4082138623937226
   210   1     0.11590797141057596      8.9451199985899166      2.5819558216719543
   211   1      13.721927012839956      8.9405284246435031      16.187167107891014
   212   1      6.9263995189675143       2.153457184908433      12.140927497617668
   213   1      6.9125123682983372      7.6226094512434202      12.112985769796637
   214   1      6.9191573501819903      2.1708220853798252      6.6810403889497252
   215   1      2.8318741597608721      11.718715871290101      2.5618624535788115
   216   1      15.115784603641259       4.866812863130292      12.102190655303161


Velocities

     1                       0                       0                       0
     2                       0                       0                       0
     3                       0                       0                       0
     4                       0                       0                       0
     5                       0                       0                       0
     6                       0                       0                       0
     7                       0                       0                       0
     8                       0                       0                       0
     9                       0                       0                       0
    10                       0                       0                       0
    11                       0                       0                       0
    12                       0                       0                       0
    13                       0                       0                       0
    14                       0                       0                       0
    15                       0                       0                       0
    16                       0                       0                       0
    17                       0                       0                       0
    18                       0                       0                       0
    19                       0                       0                       0
    20                       0                       0                       0
    21                       0                       0                       0
    22                       0                       0                       0
    23                       0                       0                       0
    24                       0                       0                       0
    25                       0                       0                       0
    26                       0                       0                       0
    27                       0                       0                       0
    28                       0                       0                       0
    29                       0                       0                       0
    30                       0                       0                       0
    31                       0                       0                       0
    32                       0                       0                       0
    33                       0                       0                       0
    34                       0                       0                       0
    35                       0                       0                       0
    36                       0                       0                       0
    37                       0                       0                       0
    38                       0                       0                       0
    39                       0                       0                       0
    40                       0                       0                       0
    41                       0                       0                       0
    42                       0                       0                       0
    43                       0                       0                       0
    44                       0                       0                       0
    45                       0                       0                       0
    46                       0                       0                       0
    47                       0                       0                       0
    48                       0                       0                       0
    49                       0                       0                       0
    50                       0                       0                       0
    51                       0                       0                       0
    52                       0                       0                       0
    53                       0                       0                       0
    54                       0                       0                       0
    55                       0                       0                       0
    56                       0                       0                       0
    57                       0                       0                       0
    58                       0                       0                       0
    59                       0                       0                       0
    60                       0                       0                       0
    61                       0                       0                       0
    62                       0                       0                       0
    63                       0                       0                       0
    64                       0                       0                       0
    65                       0                       0                       0
    66                       0                       0                       0
    67                       0                       0                       0
    68                       0                       0                       0
    69                       0                       0                       0
    70                       0                       0                       0
    71                       0                       0                       0
    72                       0                       0                       0
    73                       0                       0                       0
    74                       0                       0                       0
    75                       0                       0                       0
    76                       0                       0                       0
    77                       0                       0                       0
    78                       0                       0                       0
    79                       0                       0                       0
    80                       0                       0                       0
    81                       0                       0                       0
    82                       0                       0                       0
    83                       0                       0                       0
    84                       0                       0                       0
    85                       0                       0                       0
    86                       0                       0                       0
    87                       0                       0                       0
    88                       0                       0                       0
    89                       0                       0                       0
    90                       0                       0                       0
    91                       0                       0                       0
    92                       0                       0                       0
    93                       0                       0                       0
    94                       0                       0                       0
    95                       0                       0                       0
    96                       0                       0                       0
    97                       0                       0                       0
    98                       0                       0                       0
    99                       0                       0                       0
   100                       0                       0                       0
   101                       0                       0                       0
   102                       0                       0                       0
   103                       0                       0                       0
   104                       0                       0                       0
   105                       0                       0                       0
   106                       0                       0                       0
   107                       0                       0                       0
   108                       0                       0                       0
   109                       0                       0                       0
   110                       0                       0                       0
   111                       0                       0                       0
   112                       0                       0                       0
   113                       0                       0                       0
   114                       0                       0                       0
   115                       0                       0                       0
   116                       0                       0                       0
   117                       0                       0                       0
   118                       0                       0                       0
   119                       0                       0                       0
   120                       0                       0                       0
   121                       0                       0                       0
   122                       0                       0                       0
   123                       0                       0                       0
   124                       0                       0                       0
   125                       0                       0                       0
   126                       0                       0                       0
   127                       0                       0                       0
   128                       0                       0                       0
   129                       0                       0                       0
   130                       0                       0                       0
   131                       0                       0                       0
   132                       0                       0                       0
   133                       0                       0                       0
   134                       0                       0                       0
   135                       0                       0                       0
   136                       0                       0                       0
   137                       0                       0                       0
   138                       0                       0                       0
   139                       0                       0                       0
   140                       0                       0                       0
   141                       0                       0                       0
   142                       0                       0                       0
   143                       0                       0                       0
   144                       0                       0                       0
   145                       0                       0                       0
   146                       0                       0                       0
   147                       0                       0                       0
   148                       0                       0                       0
   149                       0                       0                       0
   150                       0                       0                       0
   151                       0                       0                       0
   152                       0                       0                       0
   153                       0                       0                       0
   154                       0                       0                       0
   155                       0                       0                       0
   156                       0                       0                       0
   157                       0                       0                       0
   158                       0                       0                       0
   159                       0                       0                       0
   160                       0                       0                       0
   161                       0                       0                       0
   162                       0                       0                       0
   163                       0                       0                       0
   164                       0                       0                       0
   165                       0                       0                       0
   166                       0                       0                       0
   167                       0                       0                       0
   168                       0                       0                       0
   169                       0                       0                       0
   170                       0                       0                       0
   171                       0                       0                       0
   172                       0                       0                       0
   173                       0                       0                       0
   174                       0                       0                       0
   175                       0                       0                       0
   176                       0                       0                       0
   177                       0                       0                       0
   178                       0                       0                       0
   179                       0                       0                       0
   180                       0                       0                       0
   181                       0                       0                       0
   182                       0                       0                       0
   183                       0                       0                       0
   184                       0                       0                       0
   185                       0                       0                       0
   186                       0                       0                       0
   187                       0                       0                       0
   188                       0                       0                       0
   189                       0                       0                       0
   190                       0                       0                       0
   191                       0                       0                       0
   192                       0                       0                       0
   193                       0                       0                       0
   194                       0                       0                       0
   195                       0                       0                       0
   196                       0                       0                       0
   197                       0                       0                       0
   198                       0                       0                       0
   199                       0                       0                       0
   200                       0                       0                       0
   201                       0                       0                       0
   202                       0                       0                       0
   203                       0                       0                       0
   204                       0                       0                       0
   205                       0                       0                       0
   206                       0                       0                       0
   207                       0                       0                       0
   208                       0                       0                       0
   209                       0                       0                       0
   210                       0                       0                       0
   211                       0                       0                       0
   212                       0                       0                       0
   213                       0                       0                       0
   214                       0                       0                       0
   215                       0                       0                       0
   216                       0                       0                       0
