(written by ASE)

8 atoms
2 atom types

0.0      5.5429244041442871  xlo xhi
0.0      5.5429244041442871  ylo yhi
0.0      5.5429244041442871  zlo zhi

Atoms # atomic

     1   1      2.7714622020721436      2.7714622020721436      2.7714622020721436
     2   2      4.1571933031082153      1.3857311010360718      4.1571933031082153
     3   2      4.1571933031082153      4.1571933031082153      1.3857311010360718
     4   2      1.3857311010360718      4.1571933031082153      4.1571933031082153
     5   2      1.3857311010360718      1.3857311010360718      1.3857311010360718
     6   1       5.447812455520733    0.034489001601014646      2.7987423426493763
     7   1      5.4534785418088916      2.7324914222350571      5.5324508996882571
     8   1      2.6412094505966621      5.5104532695285968      5.4740426356184457

Velocities

     1                       0                       0                       0
     2                       0                       0                       0
     3                       0                       0                       0
     4                       0                       0                       0
     5                       0                       0                       0
     6                       0                       0                       0
     7                       0                       0                       0
     8                       0                       0                       0
