(written by ASE)

8 atoms
2 atom types

0.0      5.5429244041442871  xlo xhi
0.0      5.5429244041442871  ylo yhi
0.0      5.5429244041442871  zlo zhi

Atoms # atomic

     1   1      2.7714622020721436      2.7714622020721436      2.7714622020721436
     2   2      4.1571933031082153      1.3857311010360718      4.1571933031082153
     3   2      4.1571933031082153      4.1571933031082153      1.3857311010360718
     4   2      1.3857311010360718      4.1571933031082153      4.1571933031082153
     5   2      1.3857311010360718      1.3857311010360718      1.3857311010360718
     6   2      1.8977528527822329      3.4079665480329879      5.4390896560933299
     7   1      5.4189296219648497       1.793845089858408     0.25330379164429928
     8   2     0.21748128262357724      3.4201326099265827      3.6745332765840999

Velocities

     1                       0                       0                       0
     2                       0                       0                       0
     3                       0                       0                       0
     4                       0                       0                       0
     5                       0                       0                       0
     6                       0                       0                       0
     7                       0                       0                       0
     8                       0                       0                       0
