(written by ASE)

216 atoms
1 atom types

0.0      16.331106185913086  xlo xhi
0.0      16.331106185913086  ylo yhi
0.0      16.331106185913086  zlo zhi

Atoms # atomic

     1   1      4.8497830589766977      12.433602617072438      12.783888994534095
     2   1       2.014758823481813      9.7727675070448186      12.832606207353706
     3   1       15.64406090674413        12.4954297128495      1.8460218878853567
     4   1      3.4088854404118933      8.3767966436046208      14.135911379681602
     5   1      11.679089332433932      5.6472767658787006      3.2367814803760382
     6   1      7.5379612498088022      9.7555362070661431       1.865745603613405
     7   1      8.9137226660392344      11.107279223605929      11.434433490984361
     8   1      8.9759566471055905     0.22675258453006819      5.9237231974312863
     9   1      14.338860505568732      11.155595391594943     0.49770274900010847
    10   1      12.998209493506238      7.0464652353566066      15.480945655996948
    11   1      8.8832529930117516       5.636928446475622      11.446508639342483
    12   1      6.2174213705679904      13.839567478754702      5.9610159863327112
    13   1      13.027333914213614       15.13234619768923      1.8545661139318668
    14   1      3.4842271142636889     0.22620272967889576      5.9688305200706395
    15   1      6.1963966926649618      11.122209382857591      3.2303158492449029
    16   1       7.546697602611232      12.469920536076188      10.033785393536846
    17   1      14.313229652572545      2.9248442847828073       14.13607296570558
    18   1      3.4485922855751596      13.833605343833824      14.048297685343073
    19   1      15.759298997314431      9.8023757124143458      4.6054182670522437
    20   1      11.613629471346712      13.759529832757266      6.0268296818760518
    21   1      7.5488381307240502       7.007974179012308      10.070366133182006
    22   1      6.2097513881828377      8.3468594257284394      5.9712504167911788
    23   1      6.2465345970628618      2.9228271363599845       5.927830500010657
    24   1      14.360488697537221      11.081226884173702      6.0238875508069327
    25   1      8.9389797296787492      2.9568239597361696      8.6859116808844874
    26   1      11.640173382719354      8.3500901727982182      5.9385579625242144
    27   1      11.627820812573077      11.104246078722099      8.6743845622341951
    28   1      13.001071318268259      15.184788649748384      7.3437436096751867
    29   1      7.5848630533831169      15.227535940368853      7.3352773780875395
    30   1      7.5502705032197355      9.7091503106768187      7.3553675825988876
    31   1      2.0703515946274251       7.030742720541582      15.500693220264679
    32   1      15.721304866664354      4.2251017110801286      15.488586922793502
    33   1      15.721522910455747      4.3009298464709786      4.5924728903481196
    34   1      6.2605828470511256      11.054639169360826      14.115485348795119
    35   1      11.609509027735271      2.9013500662603064     0.54540454332077104
    36   1     0.76097952415075554      2.9161646331002373     0.51538306466024864
    37   1      10.275424638068898      9.6880828027433381      15.494947182315627
    38   1      14.336834839810308      13.834874670190857      3.2676332167433486
    39   1      3.4492573678093947      13.845861546411584      8.7134718320705815
    40   1      6.1720974642519195      13.790916457800336     0.51851166454092379
    41   1     0.77467235789200117      11.105746103197703      8.6664308308972977
    42   1      6.1641388658661072     0.26935289027330356      8.6571162726837656
    43   1      2.1208000167461023      15.254858579567895      12.784730020586608
    44   1       11.58581039315834      5.6073509035142592      8.7175601531591838
    45   1      3.4906956656241732      13.827142876284483      3.2938945959264743
    46   1      10.290285685225967      4.3255176908846806      4.5965500172242173
    47   1      14.366517997733126      8.4021276863876437      14.144923207452621
    48   1      3.4842879523751265       11.09457233229864      5.9325787929321336
    49   1      2.0852325966850458      4.2772097968788216      1.9243648274505887
    50   1     0.75472950328655486      5.6174724184378988      8.7272436336804731
    51   1      11.591791022865095      13.828649714628568     0.54483412518793273
    52   1      3.5237300300774166      5.6825380485630035      5.9117706987058227
    53   1      11.663714324911439     0.15443448876907873      3.2654861181144952
    54   1      4.7983918894831845      7.0404680576835403      12.775075742358808
    55   1      3.4951239500794884      11.131624202278772     0.51316423789801036
    56   1       15.74171532299431      15.148048270898812      4.6535937773276146
    57   1      6.2099689452693383      8.3796555481372934      11.421863850456475
    58   1      10.300844261142174      7.0052048281796715      12.754113362681892
    59   1      8.8485937642782346      8.3261413719070561      14.115769584451755
    60   1      11.596696034761635     0.21045041939879461      8.6557359776114708
    61   1      15.696063377581368      6.9961774258521245      12.799670887345883
    62   1      10.216567415539771      12.475532243475186      7.3946933378321091
    63   1      15.763436962301967      1.5705909660888864      1.9398584692903853
    64   1      2.0668125200088809      9.7131675728512619      7.3366635136185323
    65   1      14.304642231466914      2.9357428240657271      8.6690064731831171
    66   1      8.9093004653950629      11.083112378923374     0.52418676525203978
    67   1      8.8900512869362274      5.6904864261460943     0.56141488324100663
    68   1      6.1871381055139523      5.6418071763080206      14.106547500167608
    69   1       14.35862948485169     0.22559161084950574     0.56378398013849562
    70   1     0.70998520165814938      2.9448809517560903       11.37841375797268
    71   1      7.4545312707176095      7.0135440297906371      4.5573804942611673
    72   1      12.982158939594342      12.465569394346176      10.064502312649211
    73   1      13.005245299417766      7.0448172525939867       4.539497496432773
    74   1      7.5069299193365282      4.3375358947704967      1.8791650308818504
    75   1      2.0844611694320179      4.3365897404614202      7.2970471955650851
    76   1      7.5809971564299303      15.167785127658931      1.9316562751063771
    77   1      15.714123049285377      9.7598503592244015      15.487531746588729
    78   1     0.71245985267898249       11.11464696225346      3.2649066959411641
    79   1      15.754060105862322      12.445137523000994      7.3283369663347457
    80   1      15.745671260352424       6.965031719730348       7.305185388055861
    81   1       10.17838054975266      4.2777412786203399      10.063498727162937
    82   1      0.7261610820796065      2.9501025651845509      5.9628192279557197
    83   1      4.8493703332287055      12.462169273974155      1.8828804143473405
    84   1      12.958028111073759      6.9590812657268657      10.061508104156701
    85   1      4.8242300787631507       15.12576692096593      15.456584129357793
    86   1       6.147403031466979      8.3786354146847088     0.51380772260268515
    87   1      4.8254852906783299      4.3191267689543906      4.6053335804011226
    88   1      10.275293227748193       9.748127585207726      10.057655348235585
    89   1     0.76020438577292992      8.4458542272498107     0.47449878910727605
    90   1      12.942932472158986      15.149894829257164      12.755821696851058
    91   1      10.361223896571914      9.7523823593692214      4.6102410258221198
    92   1     0.74951074924933181      8.3617555156376966      11.455542855538511
    93   1      11.573326412691358      2.9933806074892004       11.38799989751567
    94   1      2.0576254784769219      12.491096092495582        15.4967810863468
    95   1      2.0571691926411404      9.7655525937332186      1.8841418317498864
    96   1      12.946488338096287      12.448090848282618      15.443398320437268
    97   1      10.303839443044467       15.13387737127789      4.6437530911263707
    98   1      8.8904756936016156     0.23115294429223354       11.37383289153388
    99   1      11.641431028158991      8.3951590457511429      11.393123926613384
   100   1      3.4467615451257814      2.9206415880447025      14.086208102751812
   101   1      7.5279278284705242      15.220293771583329      12.807588602520809
   102   1       3.420972269687411      2.9563776513506639      8.6214846075770311
   103   1      12.977943101824167      1.5285071759117557      4.5787142297702985
   104   1      8.9115801911068502     0.17244275226892292     0.53688471335694743
   105   1      4.7884397478617871      4.2807043379997936       15.45809486134101
   106   1      11.578765826558765     0.24861926189539219      14.138250483390152
   107   1      8.9008298534633923      13.838133646144342       3.276557924338789
   108   1      6.1835257818092373      5.6193963628739994      8.6984005284003842
   109   1      3.4180629911984681      5.6410693316925062      11.382127316294827
   110   1      11.588448333670271      11.097472120042198      14.158551917824411
   111   1      6.1209107108128364     0.21636059857250522      3.2209462933786313
   112   1     0.78301673074243894      5.6987141723369064      3.2249285128008864
   113   1      8.9462228718740562      2.9336193306241114      14.145788568749708
   114   1      3.4512392301275838     0.24456029519555855        11.4139432150522
   115   1      3.4336241633419604     0.14005693729313151       0.538945482705671
   116   1     0.74268793756594675      8.3665339842624462        5.95229861502105
   117   1      15.719896342708353      1.5812657427979389      7.3654998050301401
   118   1       2.087523029904446      7.0311364647988057       10.04554029007636
   119   1      4.8874540175788184      12.505369200143718       7.259494506251599
   120   1      6.2092773376185164      2.9431898956105726      11.330383772459868
   121   1      10.267343390050428      1.5343379005119289      1.9330209956221438
   122   1      4.8351755850681002      7.0435659343179395      7.3408506358001091
   123   1      15.699086788367367      9.7650717293004163       10.03535355669726
   124   1      7.5292283039406129      4.2747689718479478      12.792882327519237
   125   1      10.269390470824078      7.0504318802223338      1.9265094925549846
   126   1      8.9260528477605021      11.054476609927065      5.9710946712258988
   127   1      2.1493111892901879      1.5792269360074442      4.6092744299076003
   128   1       7.580327450499226      12.446913022445187       4.657952706335891
   129   1      4.8392677997958344      15.183498881785908      4.6419615304207582
   130   1      7.5432780140435511      4.3387317286889129      7.2948166270473394
   131   1      7.5763651859775223      12.481633575995033      15.469182972179169
   132   1      4.8274175090975859      1.6286009570781346      12.750274234497738
   133   1      11.623955402324782       2.930595676485666      5.9493117071019128
   134   1      14.311286726645676     0.23313114111420852      11.425793505750448
   135   1      6.1337597199484435      13.868487483407648       11.39184097251939
   136   1      14.386618909752087      13.838224173254162      8.6808840193552896
   137   1      7.5695751660362021      1.5244236001958456      15.504006707166013
   138   1       2.073794545029898      12.453010461325903       10.09894836464025
   139   1      2.1656802915535707      1.5817099826876557      15.505590444882955
   140   1      7.5655063131432598      1.6071431118216708      10.014265607158336
   141   1      10.216686171533297      4.2358598360018505      15.544588161019306
   142   1      11.646286396156597      11.124468666963935      3.2331492017707717
   143   1       13.01086868773416      4.2725651720992346      7.2789203585860491
   144   1      10.318627484467811      12.447709271647682        12.7677868499037
   145   1     0.73445891377479455       13.84900079296176      0.5178657463117915
   146   1      3.3840861227228345       5.687048829497428     0.47801377183369098
   147   1        8.93312759006335      13.826448835109204       14.10199680943208
   148   1      14.275600550591093      8.4151723508896339      8.7050129010563069
   149   1      15.702441158479587      1.5755686186904825      12.774961853414197
   150   1     0.77399060601523217     0.14922650307758012      3.3059147466318564
   151   1      15.653853409161115      15.178609444445897      15.518966068711165
   152   1      13.009530249282534      9.7560608749391804      12.808670060789723
   153   1      4.8391957674718924      7.0395155762108743        1.91540337363584
   154   1      2.1032192626553297      12.456651013914325      4.6047169253035918
   155   1      14.371108598269757      2.9129769594133563      3.2901739803834005
   156   1     0.72547342890602806      13.817189761253303      5.9944058887091956
   157   1      14.366974526921354      5.6736829397670476      5.9947373347403072
   158   1      11.596620108798561      13.836876000704706      11.414523367282868
   159   1      6.1701574585543995      2.8814253414120685     0.49851460317818663
   160   1      10.307875200004787      7.0602993351926102       7.355292143340705
   161   1      12.990408587505271      1.5738606495499852      15.523752324614179
   162   1      4.8718346842007918      9.7721270034076042      10.059847467066902
   163   1      8.9225573332297472       8.358922893169165      8.6911369445996343
   164   1      13.024917911132206      9.7907269175411784       1.829862190401542
   165   1      7.5363789722065349      1.5300786243301872      4.6058791765844944
   166   1      3.4358335601969259      11.016314079384529      11.413886757284786
   167   1        3.48205227345602      8.3626666271945851      8.7158790744639418
   168   1     0.77560962983680781     0.23397656272027234      14.158977297899582
   169   1       14.29658239846367       11.11528941271024      11.394818633045588
   170   1      4.8161760862186043      9.7777854344761863      15.472603534156633
   171   1      4.8251007938140447      9.7611936647249422      4.6070789041420426
   172   1      7.5530452078061785      9.6801251777673087       12.75283138199768
   173   1      15.693512070540123       12.49212401322643        12.7565751160231
   174   1      12.963770255383679      9.7290049500206806      7.2917878625075332
   175   1       8.954953384217788      8.3735571358467951      3.2836971550397607
   176   1      2.1572907159863348      15.196634073397718      7.3393987951087638
   177   1      6.2103806976075475      5.6426793514735891      3.2341888034190163
   178   1      10.287408285907418      15.192294612585101       10.06318820944216
   179   1      4.8291633195433974      15.218570836267418       9.988714573764355
   180   1        7.52758908186604      6.9528855124580673      15.468225136952697
   181   1      15.776866123668242       7.037119041325127      1.9006066932006718
   182   1      12.983811789405877       4.307927202696078      1.8629491189830674
   183   1      14.358830007266988      5.6555429617559412      11.392766685223023
   184   1      12.931584460908766      1.6259102090854753       10.06742838245691
   185   1      3.4371595876738184      8.4188567069182909      3.2559888022142047
   186   1      15.680379799157663      4.3004042051881584      10.064788495125413
   187   1      14.412131980164531     0.18960621775334552      6.0002998849452638
   188   1        8.91498323170822      2.9737060489551936      3.1882694136681948
   189   1      12.927919573075769      4.2579362831754111      12.763314031950813
   190   1      10.272847048963513      1.6529584684019341      7.3236952617845077
   191   1      11.638921577738415       8.357002355667305     0.52102141915205635
   192   1      14.314681979968782      13.807860601893026      14.157685583117541
   193   1      3.4435994234457041      2.9160205684523532      3.2362105755383084
   194   1     0.76333596672106552      5.6010943121340233      14.164831384334548
   195   1      2.1166829800689015      4.2634151201390296      12.772105869110874
   196   1      14.359952348746788      8.4709088216544615      3.2493294625362523
   197   1      2.1247766390621052      15.139354748126834      1.8722418971527048
   198   1       2.144336335241718      1.6495346211664526      10.038125827759245
   199   1      11.598957265687545      5.6295261517807944       14.22453060632597
   200   1      4.7568029565044867      4.2793430244182673      10.051755511540819
   201   1      15.734813847632836      15.220683135496529       10.07059780471036
   202   1      8.8845894846438114      13.812759773330868       8.705279615336849
   203   1     0.75219717773607897      13.824409541613818      11.406758477443873
   204   1     0.76846230766701495     0.25080157058124009      8.6806834969399915
   205   1      6.1990842770758263      11.092346144124917      8.6986399872070024
   206   1      14.373638490295775      5.6784584881624482     0.49405675140071281
   207   1       4.798365120714152      1.5692470522072313      7.3399998756497666
   208   1     0.70873534349677669      11.133103785148933      14.162736606481531
   209   1      2.1205863532987337       7.018029015365812      4.6147464530027378
   210   1      6.1646192435940179     0.22921272566132345      14.103315779688046
   211   1      4.7851564366637263      1.5574181765242088      1.9275899774141152
   212   1       10.19035446349335      12.451378053119811      1.8771772064287404
   213   1      13.005259900564511       12.43727237195435      4.6399748010536541
   214   1      10.239038580380338      1.5989682947878094      12.715421297217404
   215   1      8.9275382710893609      5.6628153062447382      5.9326435246827032
   216   1      10.266947212268747      15.186878560552486      15.501402835996487

Velocities

     1                       0                       0                       0
     2                       0                       0                       0
     3                       0                       0                       0
     4                       0                       0                       0
     5                       0                       0                       0
     6                       0                       0                       0
     7                       0                       0                       0
     8                       0                       0                       0
     9                       0                       0                       0
    10                       0                       0                       0
    11                       0                       0                       0
    12                       0                       0                       0
    13                       0                       0                       0
    14                       0                       0                       0
    15                       0                       0                       0
    16                       0                       0                       0
    17                       0                       0                       0
    18                       0                       0                       0
    19                       0                       0                       0
    20                       0                       0                       0
    21                       0                       0                       0
    22                       0                       0                       0
    23                       0                       0                       0
    24                       0                       0                       0
    25                       0                       0                       0
    26                       0                       0                       0
    27                       0                       0                       0
    28                       0                       0                       0
    29                       0                       0                       0
    30                       0                       0                       0
    31                       0                       0                       0
    32                       0                       0                       0
    33                       0                       0                       0
    34                       0                       0                       0
    35                       0                       0                       0
    36                       0                       0                       0
    37                       0                       0                       0
    38                       0                       0                       0
    39                       0                       0                       0
    40                       0                       0                       0
    41                       0                       0                       0
    42                       0                       0                       0
    43                       0                       0                       0
    44                       0                       0                       0
    45                       0                       0                       0
    46                       0                       0                       0
    47                       0                       0                       0
    48                       0                       0                       0
    49                       0                       0                       0
    50                       0                       0                       0
    51                       0                       0                       0
    52                       0                       0                       0
    53                       0                       0                       0
    54                       0                       0                       0
    55                       0                       0                       0
    56                       0                       0                       0
    57                       0                       0                       0
    58                       0                       0                       0
    59                       0                       0                       0
    60                       0                       0                       0
    61                       0                       0                       0
    62                       0                       0                       0
    63                       0                       0                       0
    64                       0                       0                       0
    65                       0                       0                       0
    66                       0                       0                       0
    67                       0                       0                       0
    68                       0                       0                       0
    69                       0                       0                       0
    70                       0                       0                       0
    71                       0                       0                       0
    72                       0                       0                       0
    73                       0                       0                       0
    74                       0                       0                       0
    75                       0                       0                       0
    76                       0                       0                       0
    77                       0                       0                       0
    78                       0                       0                       0
    79                       0                       0                       0
    80                       0                       0                       0
    81                       0                       0                       0
    82                       0                       0                       0
    83                       0                       0                       0
    84                       0                       0                       0
    85                       0                       0                       0
    86                       0                       0                       0
    87                       0                       0                       0
    88                       0                       0                       0
    89                       0                       0                       0
    90                       0                       0                       0
    91                       0                       0                       0
    92                       0                       0                       0
    93                       0                       0                       0
    94                       0                       0                       0
    95                       0                       0                       0
    96                       0                       0                       0
    97                       0                       0                       0
    98                       0                       0                       0
    99                       0                       0                       0
   100                       0                       0                       0
   101                       0                       0                       0
   102                       0                       0                       0
   103                       0                       0                       0
   104                       0                       0                       0
   105                       0                       0                       0
   106                       0                       0                       0
   107                       0                       0                       0
   108                       0                       0                       0
   109                       0                       0                       0
   110                       0                       0                       0
   111                       0                       0                       0
   112                       0                       0                       0
   113                       0                       0                       0
   114                       0                       0                       0
   115                       0                       0                       0
   116                       0                       0                       0
   117                       0                       0                       0
   118                       0                       0                       0
   119                       0                       0                       0
   120                       0                       0                       0
   121                       0                       0                       0
   122                       0                       0                       0
   123                       0                       0                       0
   124                       0                       0                       0
   125                       0                       0                       0
   126                       0                       0                       0
   127                       0                       0                       0
   128                       0                       0                       0
   129                       0                       0                       0
   130                       0                       0                       0
   131                       0                       0                       0
   132                       0                       0                       0
   133                       0                       0                       0
   134                       0                       0                       0
   135                       0                       0                       0
   136                       0                       0                       0
   137                       0                       0                       0
   138                       0                       0                       0
   139                       0                       0                       0
   140                       0                       0                       0
   141                       0                       0                       0
   142                       0                       0                       0
   143                       0                       0                       0
   144                       0                       0                       0
   145                       0                       0                       0
   146                       0                       0                       0
   147                       0                       0                       0
   148                       0                       0                       0
   149                       0                       0                       0
   150                       0                       0                       0
   151                       0                       0                       0
   152                       0                       0                       0
   153                       0                       0                       0
   154                       0                       0                       0
   155                       0                       0                       0
   156                       0                       0                       0
   157                       0                       0                       0
   158                       0                       0                       0
   159                       0                       0                       0
   160                       0                       0                       0
   161                       0                       0                       0
   162                       0                       0                       0
   163                       0                       0                       0
   164                       0                       0                       0
   165                       0                       0                       0
   166                       0                       0                       0
   167                       0                       0                       0
   168                       0                       0                       0
   169                       0                       0                       0
   170                       0                       0                       0
   171                       0                       0                       0
   172                       0                       0                       0
   173                       0                       0                       0
   174                       0                       0                       0
   175                       0                       0                       0
   176                       0                       0                       0
   177                       0                       0                       0
   178                       0                       0                       0
   179                       0                       0                       0
   180                       0                       0                       0
   181                       0                       0                       0
   182                       0                       0                       0
   183                       0                       0                       0
   184                       0                       0                       0
   185                       0                       0                       0
   186                       0                       0                       0
   187                       0                       0                       0
   188                       0                       0                       0
   189                       0                       0                       0
   190                       0                       0                       0
   191                       0                       0                       0
   192                       0                       0                       0
   193                       0                       0                       0
   194                       0                       0                       0
   195                       0                       0                       0
   196                       0                       0                       0
   197                       0                       0                       0
   198                       0                       0                       0
   199                       0                       0                       0
   200                       0                       0                       0
   201                       0                       0                       0
   202                       0                       0                       0
   203                       0                       0                       0
   204                       0                       0                       0
   205                       0                       0                       0
   206                       0                       0                       0
   207                       0                       0                       0
   208                       0                       0                       0
   209                       0                       0                       0
   210                       0                       0                       0
   211                       0                       0                       0
   212                       0                       0                       0
   213                       0                       0                       0
   214                       0                       0                       0
   215                       0                       0                       0
   216                       0                       0                       0
