(written by ASE)

8 atoms
1 atom types

0.0       5.443702220916748  xlo xhi
0.0       5.443702220916748  ylo yhi
0.0       5.443702220916748  zlo zhi

Atoms # atomic

     1   1       2.721851110458374       2.721851110458374       2.721851110458374
     2   1       1.360925555229187       1.360925555229187       1.360925555229187
     3   1       4.082776665687561       4.082776665687561       1.360925555229187
     4   1       4.082776665687561       1.360925555229187       4.082776665687561
     5   1       1.360925555229187       4.082776665687561       4.082776665687561
     6   1      5.4353283007790196   0.0028375684997239137      2.7137207050084697
     7   1   0.0091583629671262434      2.7408491497479019      5.4323710817719189
     8   1      2.7106492725834954   0.0042821596751673741   0.0065750486665345775

Velocities

     1                       0                       0                       0
     2                       0                       0                       0
     3                       0                       0                       0
     4                       0                       0                       0
     5                       0                       0                       0
     6                       0                       0                       0
     7                       0                       0                       0
     8                       0                       0                       0
